<?xml version="1.0"?>
<VTKFile type="UnstructuredGrid" version="0.1" byte_order="LittleEndian">
<UnstructuredGrid>
<Piece NumberOfPoints="29649" NumberOfCells="10383">
<Points>
<DataArray type="Float64" NumberOfComponents="3" format="ascii">
-0.5 -0.5 0 -0.46846304837030139 -0.47681974484589279 0 -0.48095733451828748 -0.45151771881915381 0 -0.5 -0.5 0 -0.48095733451828748 -0.45151771881915381 0 -0.5 -0.41004107980355592 0 -0.5 -0.5 0 -0.46846304837030139 -0.47681974484589279 0 -0.43694249661973472 -0.5 0 -0.46846304837030139 -0.47681974484589279 0 -0.43812936226539828 -0.46068668964276449 0 -0.43694249661973472 -0.5 0 -0.46846304837030139 -0.47681974484589279 0 -0.43812936226539828 -0.46068668964276449 0 -0.45845195183622178 -0.4438048196963616 0 -0.43812936226539828 -0.46068668964276449 0 -0.45845195183622178 -0.4438048196963616 0 -0.43918444256534639 -0.44118424196448941 0 -0.43812936226539828 -0.46068668964276449 0 -0.45845195183622178 -0.4438048196963616 0 -0.45845195183622178 -0.4438048196963616 0 -0.48095733451828748 -0.45151771881915381 0 -0.47877454140704528 -0.42692294974995881 0 -0.46846304837030139 -0.47681974484589279 0 -0.45845195183622178 -0.4438048196963616 0 -0.48095733451828748 -0.45151771881915381 0 -0.48095733451828748 -0.45151771881915381 0 -0.5 -0.41004107980355592 0 -0.47877454140704528 -0.42692294974995881 0 -0.5 -0.41004107980355592 0 -0.47877454140704528 -0.42692294974995881 0 -0.5 -0.41004107980355592 0 -0.47877454140704528 -0.42692294974995881 0 -0.47243234888893598 -0.40049214461995541 0 -0.47243234888893598 -0.40049214461995541 0 -0.45265074823147139 -0.37657536171875539 0 -0.48149581473229153 -0.36560973465004282 0 -0.5 -0.40151284668718701 0 -0.47243234888893598 -0.40049214461995541 0 -0.48149581473229153 -0.36560973465004282 0 -0.5 -0.41004107980355592 0 -0.5 -0.40151284668718701 0 -0.47243234888893598 -0.40049214461995541 0 -0.47243234888893598 -0.40049214461995541 0 -0.4435264055902457 -0.40174756327198358 0 -0.45265074823147139 -0.37657536171875539 0 -0.4435264055902457 -0.40174756327198358 0 -0.45265074823147139 -0.37657536171875539 0 -0.42852276756970431 -0.38604195239277661 0 -0.4435264055902457 -0.40174756327198358 0 -0.45265074823147139 -0.37657536171875539 0 -0.45845195183622178 -0.4438048196963616 0 -0.47877454140704528 -0.42692294974995881 0 -0.45148180128362969 -0.42103547645820472 0 -0.45845195183622178 -0.4438048196963616 0 -0.47877454140704528 -0.42692294974995881 0 -0.47243234888893598 -0.40049214461995541 0 -0.4435264055902457 -0.40174756327198358 0 -0.45148180128362969 -0.42103547645820472 0 -0.47877454140704528 -0.42692294974995881 0 -0.47243234888893598 -0.40049214461995541 0 -0.45148180128362969 -0.42103547645820472 0 -0.4435264055902457 -0.40174756327198358 0 -0.45148180128362969 -0.42103547645820472 0 -0.42684152784681861 -0.40914846015563022 0 -0.43918444256534639 -0.44118424196448941 0 -0.45845195183622178 -0.4438048196963616 0 -0.45148180128362969 -0.42103547645820472 0 -0.43918444256534639 -0.44118424196448941 0 -0.45148180128362969 -0.42103547645820472 0 -0.42894023828224448 -0.42776986004131412 0 -0.45148180128362969 -0.42103547645820472 0 -0.42894023828224448 -0.42776986004131412 0 -0.42684152784681861 -0.40914846015563022 0 -0.42894023828224448 -0.42776986004131412 0 -0.42684152784681861 -0.40914846015563022 0 -0.40946564482035419 -0.42250913069730489 0 -0.42684152784681861 -0.40914846015563022 0 -0.40946564482035419 -0.42250913069730489 0 -0.41140369542360961 -0.39941030067509248 0 -0.40946564482035419 -0.42250913069730489 0 -0.39951177656723941 -0.44536924043939857 0 -0.42057564098021222 -0.44427974735154963 0 -0.42894023828224448 -0.42776986004131412 0 -0.40946564482035419 -0.42250913069730489 0 -0.42057564098021222 -0.44427974735154963 0 -0.42684152784681861 -0.40914846015563022 0 -0.42852276756970431 -0.38604195239277661 0 -0.41140369542360961 -0.39941030067509248 0 -0.4435264055902457 -0.40174756327198358 0 -0.42684152784681861 -0.40914846015563022 0 -0.42852276756970431 -0.38604195239277661 0 -0.42852276756970431 -0.38604195239277661 0 -0.40201560677793108 -0.3774769889713252 0 -0.41990857931974251 -0.36610276665878261 0 -0.42852276756970431 -0.38604195239277661 0 -0.41140369542360961 -0.39941030067509248 0 -0.40201560677793108 -0.3774769889713252 0 -0.41140369542360961 -0.39941030067509248 0 -0.40201560677793108 -0.3774769889713252 0 -0.39668402828850341 -0.39425826581320877 0 -0.40201560677793108 -0.3774769889713252 0 -0.39668402828850341 -0.39425826581320877 0 -0.37665814286574312 -0.37990398172601098 0 -0.41140369542360961 -0.39941030067509248 0 -0.39273342017679058 -0.40934484128062598 0 -0.41140369542360961 -0.39941030067509248 0 -0.39668402828850341 -0.39425826581320877 0 -0.39273342017679058 -0.40934484128062598 0 -0.39668402828850341 -0.39425826581320877 0 -0.38125146789249648 -0.3965050731948016 0 -0.39273342017679058 -0.40934484128062598 0 -0.39668402828850341 -0.39425826581320877 0 -0.38125146789249648 -0.3965050731948016 0 -0.37665814286574312 -0.37990398172601098 0 -0.40946564482035419 -0.42250913069730489 0 -0.39040617458807442 -0.42806511775088329 0 -0.39951177656723941 -0.44536924043939857 0 -0.40946564482035419 -0.42250913069730489 0 -0.41140369542360961 -0.39941030067509248 0 -0.39273342017679058 -0.40934484128062598 0 -0.40946564482035419 -0.42250913069730489 0 -0.39273342017679058 -0.40934484128062598 0 -0.39040617458807442 -0.42806511775088329 0 -0.39273342017679058 -0.40934484128062598 0 -0.39040617458807442 -0.42806511775088329 0 -0.37406314492997172 -0.41927938188615971 0 -0.38125146789249648 -0.3965050731948016 0 -0.39273342017679058 -0.40934484128062598 0 -0.37406314492997172 -0.41927938188615971 0 -0.39273342017679058 -0.40934484128062598 0 -0.37406314492997172 -0.41927938188615971 0 -0.39040617458807442 -0.42806511775088329 0 -0.37523890169680202 -0.44400008610684222 0 -0.37406314492997172 -0.41927938188615971 0 -0.39040617458807442 -0.42806511775088329 0 -0.37523890169680202 -0.44400008610684222 0 -0.39951177656723941 -0.44536924043939857 0 -0.37523890169680202 -0.44400008610684222 0 -0.39325528242618829 -0.47016722636390162 0 -0.36043766218581369 -0.47389687249373852 0 -0.39951177656723941 -0.44536924043939857 0 -0.39325528242618829 -0.47016722636390162 0 -0.41236904621998838 -0.46002388974635849 0 -0.37523890169680202 -0.44400008610684222 0 -0.39951177656723941 -0.44536924043939857 0 -0.39325528242618829 -0.47016722636390162 0 -0.3890072089015234 -0.5 0 -0.39325528242618829 -0.47016722636390162 0 -0.36043766218581369 -0.47389687249373852 0 -0.3890072089015234 -0.5 0 -0.39325528242618829 -0.47016722636390162 0 -0.41780677269457472 -0.47756855958916739 0 -0.43812936226539828 -0.46068668964276449 0 -0.43694249661973472 -0.5 0 -0.41780677269457472 -0.47756855958916739 0 -0.3890072089015234 -0.5 0 -0.43694249661973472 -0.5 0 -0.41780677269457472 -0.47756855958916739 0 -0.39325528242618829 -0.47016722636390162 0 -0.41780677269457472 -0.47756855958916739 0 -0.41236904621998838 -0.46002388974635849 0 -0.43812936226539828 -0.46068668964276449 0 -0.41780677269457472 -0.47756855958916739 0 -0.43812936226539828 -0.46068668964276449 0 -0.42057564098021222 -0.44427974735154963 0 -0.41236904621998838 -0.46002388974635849 0 -0.43812936226539828 -0.46068668964276449 0 -0.41780677269457472 -0.47756855958916739 0 -0.41236904621998838 -0.46002388974635849 0 -0.43918444256534639 -0.44118424196448941 0 -0.43812936226539828 -0.46068668964276449 0 -0.42057564098021222 -0.44427974735154963 0 -0.43918444256534639 -0.44118424196448941 0 -0.42894023828224448 -0.42776986004131412 0 -0.42057564098021222 -0.44427974735154963 0 -0.39951177656723941 -0.44536924043939857 0 -0.42057564098021222 -0.44427974735154963 0 -0.41236904621998838 -0.46002388974635849 0 -0.49182563042982802 -0.26849984666022259 0 -0.4836512608596566 -0.2910512661412526 0 -0.5 -0.33139711299081198 0 -0.49182563042982802 -0.26849984666022259 0 -0.5 -0.33139711299081198 0 -0.49999999999999972 -0.24594842717919291 0 -0.44435088170999809 -0.26430770419017108 0 -0.46147138058704462 -0.26200666123987998 0 -0.45079035186059652 -0.24728701821004481 0 -0.44435088170999809 -0.26430770419017108 0 -0.43981298953622111 -0.25362310229907731 0 -0.45079035186059652 -0.24728701821004481 0 -0.44435088170999809 -0.26430770419017108 0 -0.45439163254145171 -0.28256448647516108 0 -0.43355407276668539 -0.27886185885587278 0 -0.44435088170999809 -0.26430770419017108 0 -0.46147138058704462 -0.26200666123987998 0 -0.45439163254145171 -0.28256448647516108 0 -0.46147138058704462 -0.26200666123987998 0 -0.47276745845585388 -0.27576362153877759 0 -0.45439163254145171 -0.28256448647516108 0 -0.46147138058704462 -0.26200666123987998 0 -0.46969437889539828 -0.24095406338282691 0 -0.45079035186059652 -0.24728701821004481 0 -0.46147138058704462 -0.26200666123987998 0 -0.47861902030246323 -0.25831528033366469 0 -0.47276745845585388 -0.27576362153877759 0 -0.46147138058704462 -0.26200666123987998 0 -0.47861902030246323 -0.25831528033366469 0 -0.46969437889539828 -0.24095406338282691 0 -0.47861902030246323 -0.25831528033366469 0 -0.49182563042982802 -0.26849984666022259 0 -0.49999999999999972 -0.24594842717919291 0 -0.49182563042982802 -0.26849984666022259 0 -0.49999999999999972 -0.24594842717919291 0 -0.49182563042982802 -0.26849984666022259 0 -0.4836512608596566 -0.2910512661412526 0 -0.47861902030246323 -0.25831528033366469 0 -0.49182563042982802 -0.26849984666022259 0 -0.47276745845585388 -0.27576362153877759 0 -0.49182563042982802 -0.26849984666022259 0 -0.47276745845585388 -0.27576362153877759 0 -0.4836512608596566 -0.2910512661412526 0 -0.47276745845585388 -0.27576362153877759 0 -0.4836512608596566 -0.2910512661412526 0 -0.46797769944258383 -0.29294229754877332 0 -0.4836512608596566 -0.2910512661412526 0 -0.47547689128948489 -0.31360268562228238 0 -0.49146109512584052 -0.32177921152073852 0 -0.4836512608596566 -0.2910512661412526 0 -0.46797769944258383 -0.29294229754877332 0 -0.47547689128948489 -0.31360268562228238 0 -0.4836512608596566 -0.2910512661412526 0 -0.47547689128948489 -0.31360268562228238 0 -0.45671510459409431 -0.30400532084974041 0 -0.46797769944258383 -0.29294229754877332 0 -0.47547689128948489 -0.31360268562228238 0 -0.45671510459409431 -0.30400532084974041 0 -0.47547689128948489 -0.31360268562228238 0 -0.47276745845585388 -0.27576362153877759 0 -0.46797769944258383 -0.29294229754877332 0 -0.45439163254145171 -0.28256448647516108 0 -0.45671510459409431 -0.30400532084974041 0 -0.46797769944258383 -0.29294229754877332 0 -0.45439163254145171 -0.28256448647516108 0 -0.45439163254145171 -0.28256448647516108 0 -0.43795331789870368 -0.29440795607719839 0 -0.43355407276668539 -0.27886185885587278 0 -0.45671510459409431 -0.30400532084974041 0 -0.45439163254145171 -0.28256448647516108 0 -0.43795331789870368 -0.29440795607719839 0 -0.45671510459409431 -0.30400532084974041 0 -0.43795331789870368 -0.29440795607719839 0 -0.43482690234758342 -0.31303995009979418 0 -0.45671510459409431 -0.30400532084974041 0 -0.43795331789870368 -0.29440795607719839 0 -0.5 -0.40151284668718701 0 -0.5 -0.33139711299081198 0 -0.48149581473229153 -0.36560973465004282 0 -0.45671510459409431 -0.30400532084974041 0 -0.45278579599352009 -0.32238556272022872 0 -0.43482690234758342 -0.31303995009979418 0 -0.45278579599352009 -0.32238556272022872 0 -0.43771178228519292 -0.33406823938742902 0 -0.43482690234758342 -0.31303995009979418 0 -0.43771178228519292 -0.33406823938742902 0 -0.46177509087269958 -0.35140316016552808 0 -0.45278579599352009 -0.32238556272022872 0 -0.43771178228519292 -0.33406823938742902 0 -0.46177509087269958 -0.35140316016552808 0 -0.45278579599352009 -0.32238556272022872 0 -0.46862599108109121 -0.33250292289390487 0 -0.46177509087269958 -0.35140316016552808 0 -0.46862599108109121 -0.33250292289390487 0 -0.46177509087269958 -0.35140316016552808 0 -0.45278579599352009 -0.32238556272022872 0 -0.46862599108109121 -0.33250292289390487 0 -0.47547689128948489 -0.31360268562228238 0 -0.45671510459409431 -0.30400532084974041 0 -0.45278579599352009 -0.32238556272022872 0 -0.47547689128948489 -0.31360268562228238 0 -0.47547689128948489 -0.31360268562228238 0 -0.49146109512584052 -0.32177921152073852 0 -0.48341195844574147 -0.33297833353555623 0 -0.47547689128948489 -0.31360268562228238 0 -0.49146109512584052 -0.32177921152073852 0 -0.46862599108109121 -0.33250292289390487 0 -0.47547689128948489 -0.31360268562228238 0 -0.48341195844574147 -0.33297833353555623 0 -0.46862599108109121 -0.33250292289390487 0 -0.47547689128948489 -0.31360268562228238 0 -0.4836512608596566 -0.2910512661412526 0 -0.49146109512584052 -0.32177921152073852 0 -0.5 -0.33139711299081198 0 -0.5 -0.33139711299081198 0 -0.48341195844574147 -0.33297833353555623 0 -0.48149581473229153 -0.36560973465004282 0 -0.46862599108109121 -0.33250292289390487 0 -0.48341195844574147 -0.33297833353555623 0 -0.48149581473229153 -0.36560973465004282 0 -0.49146109512584052 -0.32177921152073852 0 -0.5 -0.33139711299081198 0 -0.48341195844574147 -0.33297833353555623 0 -0.48149581473229153 -0.36560973465004282 0 -0.46177509087269958 -0.35140316016552808 0 -0.46862599108109121 -0.33250292289390487 0 -0.48149581473229153 -0.36560973465004282 0 -0.46177509087269958 -0.35140316016552808 0 -0.45265074823147139 -0.37657536171875539 0 -0.48149581473229153 -0.36560973465004282 0 -0.46177509087269958 -0.35140316016552808 0 -0.45265074823147139 -0.37657536171875539 0 -0.46177509087269958 -0.35140316016552808 0 -0.43771178228519292 -0.33406823938742902 0 -0.46177509087269958 -0.35140316016552808 0 -0.44056108763597429 -0.3579533558312808 0 -0.45265074823147139 -0.37657536171875539 0 -0.42852276756970431 -0.38604195239277661 0 -0.44056108763597429 -0.3579533558312808 0 -0.45265074823147139 -0.37657536171875539 0 -0.46177509087269958 -0.35140316016552808 0 -0.44056108763597429 -0.3579533558312808 0 -0.42852276756970431 -0.38604195239277661 0 -0.44056108763597429 -0.3579533558312808 0 -0.41990857931974251 -0.36610276665878261 0 -0.43771178228519292 -0.33406823938742902 0 -0.44056108763597429 -0.3579533558312808 0 -0.41879455704491281 -0.34124539303842621 0 -0.44056108763597429 -0.3579533558312808 0 -0.41990857931974251 -0.36610276665878261 0 -0.41879455704491281 -0.34124539303842621 0 -0.41990857931974251 -0.36610276665878261 0 -0.40601662662431443 -0.35295086452667018 0 -0.41879455704491281 -0.34124539303842621 0 -0.40201560677793108 -0.3774769889713252 0 -0.41990857931974251 -0.36610276665878261 0 -0.40601662662431443 -0.35295086452667018 0 -0.40201560677793108 -0.3774769889713252 0 -0.38729077945704149 -0.35524901134317322 0 -0.40601662662431443 -0.35295086452667018 0 -0.40201560677793108 -0.3774769889713252 0 -0.37665814286574312 -0.37990398172601098 0 -0.38729077945704149 -0.35524901134317322 0 -0.37665814286574312 -0.37990398172601098 0 -0.38729077945704149 -0.35524901134317322 0 -0.37665814286574312 -0.37990398172601098 0 -0.38729077945704149 -0.35524901134317322 0 -0.36275640467306652 -0.3581498070478073 0 -0.38729077945704149 -0.35524901134317322 0 -0.40601662662431443 -0.35295086452667018 0 -0.39792341604833997 -0.33059404096033551 0 -0.38729077945704149 -0.35524901134317322 0 -0.39792341604833997 -0.33059404096033551 0 -0.38729077945704149 -0.35524901134317322 0 -0.39792341604833997 -0.33059404096033551 0 -0.36732932039706162 -0.33041786332679302 0 -0.39792341604833997 -0.33059404096033551 0 -0.38134659354123812 -0.307898523957155 0 -0.36732932039706162 -0.33041786332679302 0 -0.39792341604833997 -0.33059404096033551 0 -0.40855605263963729 -0.3059390705774972 0 -0.38134659354123812 -0.307898523957155 0 -0.39792341604833997 -0.33059404096033551 0 -0.40855605263963729 -0.3059390705774972 0 -0.40911200216033439 -0.31228840826640791 0 -0.39792341604833997 -0.33059404096033551 0 -0.40855605263963729 -0.3059390705774972 0 -0.39792341604833997 -0.33059404096033551 0 -0.4136484736976806 -0.31673331860933779 0 -0.40911200216033439 -0.31228840826640791 0 -0.40601662662431443 -0.35295086452667018 0 -0.39792341604833997 -0.33059404096033551 0 -0.41879455704491281 -0.34124539303842621 0 -0.39792341604833997 -0.33059404096033551 0 -0.4136484736976806 -0.31673331860933779 0 -0.41879455704491281 -0.34124539303842621 0 -0.43771178228519292 -0.33406823938742902 0 -0.4136484736976806 -0.31673331860933779 0 -0.41879455704491281 -0.34124539303842621 0 -0.43771178228519292 -0.33406823938742902 0 -0.4136484736976806 -0.31673331860933779 0 -0.4136484736976806 -0.31673331860933779 0 -0.43482690234758342 -0.31303995009979418 0 -0.41740364273042052 -0.30836338186200962 0 -0.43771178228519292 -0.33406823938742902 0 -0.4136484736976806 -0.31673331860933779 0 -0.43482690234758342 -0.31303995009979418 0 -0.43482690234758342 -0.31303995009979418 0 -0.42276699757822972 -0.29876201060709601 0 -0.41740364273042052 -0.30836338186200962 0 -0.43795331789870368 -0.29440795607719839 0 -0.43482690234758342 -0.31303995009979418 0 -0.42276699757822972 -0.29876201060709601 0 -0.43795331789870368 -0.29440795607719839 0 -0.41919153120331321 -0.28481059130465641 0 -0.43795331789870368 -0.29440795607719839 0 -0.42276699757822972 -0.29876201060709601 0 -0.41919153120331321 -0.28481059130465641 0 -0.43795331789870368 -0.29440795607719839 0 -0.41919153120331321 -0.28481059130465641 0 -0.43355407276668539 -0.27886185885587278 0 -0.41919153120331321 -0.28481059130465641 0 -0.40855605263963729 -0.3059390705774972 0 -0.41919153120331321 -0.28481059130465641 0 -0.40644872436040308 -0.28187188755443038 0 -0.40855605263963729 -0.3059390705774972 0 -0.42276699757822972 -0.29876201060709601 0 -0.41919153120331321 -0.28481059130465641 0 -0.40855605263963729 -0.3059390705774972 0 -0.40644872436040308 -0.28187188755443038 0 -0.40855605263963729 -0.3059390705774972 0 -0.42276699757822972 -0.29876201060709601 0 -0.41740364273042052 -0.30836338186200962 0 -0.40855605263963729 -0.3059390705774972 0 -0.41740364273042052 -0.30836338186200962 0 -0.40855605263963729 -0.3059390705774972 0 -0.40911200216033439 -0.31228840826640791 0 -0.4136484736976806 -0.31673331860933779 0 -0.41740364273042052 -0.30836338186200962 0 -0.40911200216033439 -0.31228840826640791 0 -0.40855605263963729 -0.3059390705774972 0 -0.40911200216033439 -0.31228840826640791 0 -0.40855605263963729 -0.3059390705774972 0 -0.38134659354123812 -0.307898523957155 0 -0.38868190512856893 -0.29076793821664709 0 -0.38868190512856893 -0.29076793821664709 0 -0.38411619823287307 -0.27170147826800589 0 -0.36000148617615768 -0.29042567095277672 0 -0.38134659354123812 -0.307898523957155 0 -0.38868190512856893 -0.29076793821664709 0 -0.36000148617615768 -0.29042567095277672 0 -0.40644872436040308 -0.28187188755443038 0 -0.40855605263963729 -0.3059390705774972 0 -0.38868190512856893 -0.29076793821664709 0 -0.40644872436040308 -0.28187188755443038 0 -0.38868190512856893 -0.29076793821664709 0 -0.38411619823287307 -0.27170147826800589 0 -0.40644872436040308 -0.28187188755443038 0 -0.38411619823287307 -0.27170147826800589 0 -0.40434139608116931 -0.25780470453136362 0 -0.40644872436040308 -0.28187188755443038 0 -0.40434139608116931 -0.25780470453136362 0 -0.38411619823287307 -0.27170147826800589 0 -0.37575197361103307 -0.25468824818671759 0 -0.40434139608116931 -0.25780470453136362 0 -0.40434139608116931 -0.25780470453136362 0 -0.41554902590341519 -0.25738463926562283 0 -0.41757346997536232 -0.2484262293889628 0 -0.41554902590341519 -0.25738463926562283 0 -0.42735550035764353 -0.26234688883393692 0 -0.41757346997536232 -0.2484262293889628 0 -0.41554902590341519 -0.25738463926562283 0 -0.4164322394753433 -0.26426894640189252 0 -0.42735550035764353 -0.26234688883393692 0 -0.40434139608116931 -0.25780470453136362 0 -0.41554902590341519 -0.25738463926562283 0 -0.40942106570892561 -0.26266998369203809 0 -0.41554902590341519 -0.25738463926562283 0 -0.4164322394753433 -0.26426894640189252 0 -0.40942106570892561 -0.26266998369203809 0 -0.40434139608116931 -0.25780470453136362 0 -0.40942106570892561 -0.26266998369203809 0 -0.41919153120331321 -0.28481059130465641 0 -0.41664065386107579 -0.27214842495183611 0 -0.42735550035764353 -0.26234688883393692 0 -0.40644872436040308 -0.28187188755443038 0 -0.40434139608116931 -0.25780470453136362 0 -0.40942106570892561 -0.26266998369203809 0 -0.40644872436040308 -0.28187188755443038 0 -0.40942106570892561 -0.26266998369203809 0 -0.41223567085143692 -0.27023981065004932 0 -0.4164322394753433 -0.26426894640189252 0 -0.40942106570892561 -0.26266998369203809 0 -0.41223567085143692 -0.27023981065004932 0 -0.40644872436040308 -0.28187188755443038 0 -0.41223567085143692 -0.27023981065004932 0 -0.41664065386107579 -0.27214842495183611 0 -0.41919153120331321 -0.28481059130465641 0 -0.40644872436040308 -0.28187188755443038 0 -0.41664065386107579 -0.27214842495183611 0 -0.4164322394753433 -0.26426894640189252 0 -0.41664065386107579 -0.27214842495183611 0 -0.42735550035764353 -0.26234688883393692 0 -0.4164322394753433 -0.26426894640189252 0 -0.41223567085143692 -0.27023981065004932 0 -0.41664065386107579 -0.27214842495183611 0 -0.41919153120331321 -0.28481059130465641 0 -0.43355407276668539 -0.27886185885587278 0 -0.42735550035764353 -0.26234688883393692 0 -0.41919153120331321 -0.28481059130465641 0 -0.42735550035764353 -0.26234688883393692 0 -0.44435088170999809 -0.26430770419017108 0 -0.43355407276668539 -0.27886185885587278 0 -0.42735550035764353 -0.26234688883393692 0 -0.42735550035764353 -0.26234688883393692 0 -0.43675522421664609 -0.24055079796215631 0 -0.44435088170999809 -0.26430770419017108 0 -0.43981298953622111 -0.25362310229907731 0 -0.42735550035764353 -0.26234688883393692 0 -0.43981298953622111 -0.25362310229907731 0 -0.42735550035764353 -0.26234688883393692 0 -0.43675522421664609 -0.24055079796215631 0 -0.42735550035764353 -0.26234688883393692 0 -0.42594714949772061 -0.24341161695235489 0 -0.41757346997536232 -0.2484262293889628 0 -0.321605543042841 -0.2520468709649149 0 -0.31815674239267339 -0.26673279995548732 0 -0.33180276229614292 -0.27021540228734309 0 -0.321605543042841 -0.2520468709649149 0 -0.31815674239267339 -0.26673279995548732 0 -0.3041448722191199 -0.24594418604843371 0 -0.31815674239267339 -0.26673279995548732 0 -0.33180276229614292 -0.27021540228734309 0 -0.33216861256622698 -0.28752141386254082 0 -0.31815674239267339 -0.26673279995548732 0 -0.31366010549822909 -0.29185156469990758 0 -0.30714843163826189 -0.27769882403321328 0 -0.31815674239267339 -0.26673279995548732 0 -0.33216861256622698 -0.28752141386254082 0 -0.33180276229614292 -0.27021540228734309 0 -0.33906621386656211 -0.25814955588139621 0 -0.34467210906185941 -0.27440287299811139 0 -0.33180276229614292 -0.27021540228734309 0 -0.34467210906185941 -0.27440287299811139 0 -0.33216861256622698 -0.28752141386254082 0 -0.321605543042841 -0.2520468709649149 0 -0.33906621386656211 -0.25814955588139621 0 -0.33303711247551931 -0.24736958926824401 0 -0.321605543042841 -0.2520468709649149 0 -0.33180276229614292 -0.27021540228734309 0 -0.33906621386656211 -0.25814955588139621 0 -0.321605543042841 -0.2520468709649149 0 -0.33906621386656211 -0.25814955588139621 0 -0.36032147040420759 -0.26570232200650051 0 -0.36064145463225761 -0.24097897306022439 0 -0.3449618835911385 -0.24367695190694061 0 -0.33906621386656211 -0.25814955588139621 0 -0.36032147040420759 -0.26570232200650051 0 -0.3449618835911385 -0.24367695190694061 0 -0.38411619823287307 -0.27170147826800589 0 -0.37575197361103307 -0.25468824818671759 0 -0.36032147040420759 -0.26570232200650051 0 -0.37575197361103307 -0.25468824818671759 0 -0.36032147040420759 -0.26570232200650051 0 -0.36064145463225761 -0.24097897306022439 0 -0.36032147040420759 -0.26570232200650051 0 -0.36064145463225761 -0.24097897306022439 0 -0.36032147040420759 -0.26570232200650051 0 -0.36000148617615768 -0.29042567095277672 0 -0.38411619823287307 -0.27170147826800589 0 -0.36032147040420759 -0.26570232200650051 0 -0.36000148617615768 -0.29042567095277672 0 -0.36032147040420759 -0.26570232200650051 0 -0.34467210906185941 -0.27440287299811139 0 -0.36000148617615768 -0.29042567095277672 0 -0.33906621386656211 -0.25814955588139621 0 -0.36032147040420759 -0.26570232200650051 0 -0.34467210906185941 -0.27440287299811139 0 -0.36000148617615768 -0.29042567095277672 0 -0.34618048273978069 -0.30831002776959437 0 -0.33216861256622698 -0.28752141386254082 0 -0.34467210906185941 -0.27440287299811139 0 -0.36000148617615768 -0.29042567095277672 0 -0.33216861256622698 -0.28752141386254082 0 -0.38134659354123812 -0.307898523957155 0 -0.36000148617615768 -0.29042567095277672 0 -0.3625724593571677 -0.31225903398480592 0 -0.36000148617615768 -0.29042567095277672 0 -0.3625724593571677 -0.31225903398480592 0 -0.34618048273978069 -0.30831002776959437 0 -0.33216861256622698 -0.28752141386254082 0 -0.32139997377979451 -0.30684173069112092 0 -0.33341162183061562 -0.31396563519183751 0 -0.34618048273978069 -0.30831002776959437 0 -0.33216861256622698 -0.28752141386254082 0 -0.34618048273978069 -0.30831002776959437 0 -0.33216861256622698 -0.28752141386254082 0 -0.33341162183061562 -0.31396563519183751 0 -0.33216861256622698 -0.28752141386254082 0 -0.31366010549822909 -0.29185156469990758 0 -0.32139997377979451 -0.30684173069112092 0 -0.31815674239267339 -0.26673279995548732 0 -0.33216861256622698 -0.28752141386254082 0 -0.31366010549822909 -0.29185156469990758 0 -0.31366010549822909 -0.29185156469990758 0 -0.32139997377979451 -0.30684173069112092 0 -0.31243575109678401 -0.30867748499449388 0 -0.32139997377979451 -0.30684173069112092 0 -0.31243575109678401 -0.30867748499449388 0 -0.32139997377979451 -0.30684173069112092 0 -0.32589166801161701 -0.32573338768720628 0 -0.33341162183061562 -0.31396563519183751 0 -0.32589166801161701 -0.32573338768720628 0 -0.31243575109678401 -0.30867748499449388 0 -0.32589166801161701 -0.32573338768720628 0 -0.31195147502101839 -0.32643308253027919 0 -0.31243575109678401 -0.30867748499449388 0 -0.32139997377979451 -0.30684173069112092 0 -0.32589166801161701 -0.32573338768720628 0 -0.31243575109678401 -0.30867748499449388 0 -0.32589166801161701 -0.32573338768720628 0 -0.32010600269358191 -0.34022575557550477 0 -0.31195147502101839 -0.32643308253027919 0 -0.32589166801161701 -0.32573338768720628 0 -0.32010600269358191 -0.34022575557550477 0 -0.33934758492644929 -0.34278929037991929 0 -0.32589166801161701 -0.32573338768720628 0 -0.33934758492644929 -0.34278929037991929 0 -0.3460179551924657 -0.32228333012460381 0 -0.32589166801161701 -0.32573338768720628 0 -0.33934758492644929 -0.34278929037991929 0 -0.32589166801161701 -0.32573338768720628 0 -0.33341162183061562 -0.31396563519183751 0 -0.3460179551924657 -0.32228333012460381 0 -0.34618048273978069 -0.30831002776959437 0 -0.33341162183061562 -0.31396563519183751 0 -0.3460179551924657 -0.32228333012460381 0 -0.3625724593571677 -0.31225903398480592 0 -0.3460179551924657 -0.32228333012460381 0 -0.36732932039706162 -0.33041786332679302 0 -0.3625724593571677 -0.31225903398480592 0 -0.34618048273978069 -0.30831002776959437 0 -0.3460179551924657 -0.32228333012460381 0 -0.38134659354123812 -0.307898523957155 0 -0.3625724593571677 -0.31225903398480592 0 -0.36732932039706162 -0.33041786332679302 0 -0.33934758492644929 -0.34278929037991929 0 -0.3460179551924657 -0.32228333012460381 0 -0.36732932039706162 -0.33041786332679302 0 -0.33934758492644929 -0.34278929037991929 0 -0.36275640467306652 -0.3581498070478073 0 -0.34504572998745892 -0.36518038032524719 0 -0.33934758492644929 -0.34278929037991929 0 -0.36732932039706162 -0.33041786332679302 0 -0.36275640467306652 -0.3581498070478073 0 -0.38729077945704149 -0.35524901134317322 0 -0.36732932039706162 -0.33041786332679302 0 -0.36275640467306652 -0.3581498070478073 0 -0.37665814286574312 -0.37990398172601098 0 -0.36275640467306652 -0.3581498070478073 0 -0.36086687040464438 -0.37535831518570001 0 -0.36275640467306652 -0.3581498070478073 0 -0.34504572998745892 -0.36518038032524719 0 -0.36086687040464438 -0.37535831518570001 0 -0.34504572998745892 -0.36518038032524719 0 -0.3329685134668649 -0.36648581275033121 0 -0.33681404828889822 -0.37534394343959387 0 -0.3329685134668649 -0.36648581275033121 0 -0.32868526678646259 -0.37514077752497749 0 -0.33681404828889822 -0.37534394343959387 0 -0.34504572998745892 -0.36518038032524719 0 -0.3329685134668649 -0.36648581275033121 0 -0.32960816033618467 -0.35534837798220642 0 -0.32010600269358191 -0.34022575557550477 0 -0.33934758492644929 -0.34278929037991929 0 -0.32960816033618467 -0.35534837798220642 0 -0.33934758492644929 -0.34278929037991929 0 -0.34504572998745892 -0.36518038032524719 0 -0.32960816033618467 -0.35534837798220642 0 -0.32010600269358191 -0.34022575557550477 0 -0.32960816033618467 -0.35534837798220642 0 -0.31194738769413749 -0.35966463252088449 0 -0.31194738769413749 -0.35966463252088449 0 -0.31324252656163881 -0.37795215509735802 0 -0.32432857135265869 -0.38257269835878199 0 -0.3329685134668649 -0.36648581275033121 0 -0.31194738769413749 -0.35966463252088449 0 -0.32868526678646259 -0.37514077752497749 0 -0.31194738769413749 -0.35966463252088449 0 -0.32868526678646259 -0.37514077752497749 0 -0.32432857135265869 -0.38257269835878199 0 -0.31194738769413749 -0.35966463252088449 0 -0.32432857135265869 -0.38257269835878199 0 -0.3329685134668649 -0.36648581275033121 0 -0.32960816033618467 -0.35534837798220642 0 -0.31194738769413749 -0.35966463252088449 0 -0.31194738769413749 -0.35966463252088449 0 -0.30493427589272681 -0.37012100960406757 0 -0.31324252656163881 -0.37795215509735802 0 -0.31194738769413749 -0.35966463252088449 0 -0.30493427589272681 -0.37012100960406757 0 -0.29385111059052582 -0.36343434683835008 0 -0.30493427589272681 -0.37012100960406757 0 -0.29385111059052582 -0.36343434683835008 0 -0.30069607872460508 -0.3794329039596781 0 -0.31194738769413749 -0.35966463252088449 0 -0.29385111059052582 -0.36343434683835008 0 -0.29956620403561768 -0.3367565666829862 0 -0.31194738769413749 -0.35966463252088449 0 -0.29956620403561768 -0.3367565666829862 0 -0.32010600269358191 -0.34022575557550477 0 -0.31194738769413749 -0.35966463252088449 0 -0.29956620403561768 -0.3367565666829862 0 -0.29385111059052582 -0.36343434683835008 0 -0.2794018865849463 -0.36556943133763609 0 -0.27792004820776678 -0.34864289301255408 0 -0.29385111059052582 -0.36343434683835008 0 -0.27792004820776678 -0.34864289301255408 0 -0.29956620403561768 -0.3367565666829862 0 -0.29385111059052582 -0.36343434683835008 0 -0.30069607872460508 -0.3794329039596781 0 -0.2816987453305011 -0.38165435064659681 0 -0.29385111059052582 -0.36343434683835008 0 -0.2794018865849463 -0.36556943133763609 0 -0.2816987453305011 -0.38165435064659681 0 -0.2794018865849463 -0.36556943133763609 0 -0.26413764221099151 -0.36854613485304349 0 -0.27792004820776678 -0.34864289301255408 0 -0.2794018865849463 -0.36556943133763609 0 -0.26413764221099151 -0.36854613485304349 0 -0.2816987453305011 -0.38165435064659681 0 -0.26413764221099151 -0.36854613485304349 0 -0.25224988298000039 -0.37125021481022441 0 -0.25639014809874938 -0.34604299316079429 0 -0.26413764221099151 -0.36854613485304349 0 -0.25639014809874938 -0.34604299316079429 0 -0.27792004820776678 -0.34864289301255408 0 -0.25639014809874938 -0.34604299316079429 0 -0.27792004820776678 -0.34864289301255408 0 -0.27268523648427628 -0.32474702501503699 0 -0.27792004820776678 -0.34864289301255408 0 -0.27268523648427628 -0.32474702501503699 0 -0.28322484929900571 -0.33328996536476968 0 -0.25639014809874938 -0.34604299316079429 0 -0.25663214697082237 -0.32971286606005717 0 -0.24419962744989621 -0.33687177456890932 0 -0.25639014809874938 -0.34604299316079429 0 -0.25663214697082237 -0.32971286606005717 0 -0.27268523648427628 -0.32474702501503699 0 -0.25639014809874938 -0.34604299316079429 0 -0.27268523648427628 -0.32474702501503699 0 -0.25663214697082237 -0.32971286606005717 0 -0.26569024773276279 -0.31825034613354258 0 -0.24419547508842729 -0.32265219142200241 0 -0.25663214697082237 -0.32971286606005717 0 -0.26569024773276279 -0.31825034613354258 0 -0.27268523648427628 -0.32474702501503699 0 -0.26569024773276279 -0.31825034613354258 0 -0.25425073342367832 -0.31005663012565732 0 -0.24419547508842729 -0.32265219142200241 0 -0.26569024773276279 -0.31825034613354258 0 -0.24419547508842729 -0.32265219142200241 0 -0.26569024773276279 -0.31825034613354258 0 -0.28718502037709898 -0.31384850084508731 0 -0.28245260732232658 -0.32362903274074017 0 -0.26569024773276279 -0.31825034613354258 0 -0.28718502037709898 -0.31384850084508731 0 -0.26569024773276279 -0.31825034613354258 0 -0.28718502037709898 -0.31384850084508731 0 -0.26882154890772958 -0.30708937690896848 0 -0.26569024773276279 -0.31825034613354258 0 -0.27268523648427628 -0.32474702501503699 0 -0.28245260732232658 -0.32362903274074017 0 -0.27268523648427628 -0.32474702501503699 0 -0.28245260732232658 -0.32362903274074017 0 -0.28322484929900571 -0.33328996536476968 0 -0.28718502037709898 -0.31384850084508731 0 -0.29956620403561768 -0.3367565666829862 0 -0.28718502037709898 -0.31384850084508731 0 -0.28245260732232658 -0.32362903274074017 0 -0.29956620403561768 -0.3367565666829862 0 -0.28718502037709898 -0.31384850084508731 0 -0.29956620403561768 -0.3367565666829862 0 -0.3017577492674916 -0.32077221771120468 0 -0.27792004820776678 -0.34864289301255408 0 -0.28322484929900571 -0.33328996536476968 0 -0.29956620403561768 -0.3367565666829862 0 -0.28245260732232658 -0.32362903274074017 0 -0.28322484929900571 -0.33328996536476968 0 -0.29956620403561768 -0.3367565666829862 0 -0.32010600269358191 -0.34022575557550477 0 -0.29956620403561768 -0.3367565666829862 0 -0.31195147502101839 -0.32643308253027919 0 -0.3017577492674916 -0.32077221771120468 0 -0.31195147502101839 -0.32643308253027919 0 -0.31243575109678401 -0.30867748499449388 0 -0.29956620403561768 -0.3367565666829862 0 -0.3017577492674916 -0.32077221771120468 0 -0.31195147502101839 -0.32643308253027919 0 -0.28718502037709898 -0.31384850084508731 0 -0.3017577492674916 -0.32077221771120468 0 -0.31243575109678401 -0.30867748499449388 0 -0.28718502037709898 -0.31384850084508731 0 -0.31243575109678401 -0.30867748499449388 0 -0.31243575109678401 -0.30867748499449388 0 -0.29701126704993841 -0.28912634621640471 0 -0.31243575109678401 -0.30867748499449388 0 -0.29701126704993841 -0.28912634621640471 0 -0.29488911447344252 -0.30259674298754918 0 -0.28718502037709898 -0.31384850084508731 0 -0.31243575109678401 -0.30867748499449388 0 -0.29488911447344252 -0.30259674298754918 0 -0.31366010549822909 -0.29185156469990758 0 -0.31243575109678401 -0.30867748499449388 0 -0.29701126704993841 -0.28912634621640471 0 -0.31366010549822909 -0.29185156469990758 0 -0.29701126704993841 -0.28912634621640471 0 -0.30714843163826189 -0.27769882403321328 0 -0.29701126704993841 -0.28912634621640471 0 -0.28364686668008732 -0.28811290807531642 0 -0.28158678300309209 -0.26957520743831598 0 -0.29701126704993841 -0.28912634621640471 0 -0.28364686668008732 -0.28811290807531642 0 -0.28755843451506208 -0.29826003351066771 0 -0.29701126704993841 -0.28912634621640471 0 -0.28755843451506208 -0.29826003351066771 0 -0.29488911447344252 -0.30259674298754918 0 -0.28364686668008732 -0.28811290807531642 0 -0.28755843451506208 -0.29826003351066771 0 -0.28064677915226038 -0.301751235787594 0 -0.28755843451506208 -0.29826003351066771 0 -0.28780446587748992 -0.30508982001686419 0 -0.28064677915226038 -0.301751235787594 0 -0.28755843451506208 -0.29826003351066771 0 -0.29488911447344252 -0.30259674298754918 0 -0.28780446587748992 -0.30508982001686419 0 -0.28718502037709898 -0.31384850084508731 0 -0.29488911447344252 -0.30259674298754918 0 -0.28780446587748992 -0.30508982001686419 0 -0.28718502037709898 -0.31384850084508731 0 -0.28780446587748992 -0.30508982001686419 0 -0.28064677915226038 -0.301751235787594 0 -0.28718502037709898 -0.31384850084508731 0 -0.28064677915226038 -0.301751235787594 0 -0.28718502037709898 -0.31384850084508731 0 -0.28064677915226038 -0.301751235787594 0 -0.26882154890772958 -0.30708937690896848 0 -0.28064677915226038 -0.301751235787594 0 -0.25743040090093589 -0.29593030821957078 0 -0.28064677915226038 -0.301751235787594 0 -0.26882154890772958 -0.30708937690896848 0 -0.25743040090093589 -0.29593030821957078 0 -0.26569024773276279 -0.31825034613354258 0 -0.26882154890772958 -0.30708937690896848 0 -0.25425073342367832 -0.31005663012565732 0 -0.26882154890772958 -0.30708937690896848 0 -0.25425073342367832 -0.31005663012565732 0 -0.25743040090093589 -0.29593030821957078 0 -0.25425073342367832 -0.31005663012565732 0 -0.25743040090093589 -0.29593030821957078 0 -0.2442806522803305 -0.30294829820572322 0 -0.25743040090093589 -0.29593030821957078 0 -0.27063801769135898 -0.28323270211376511 0 -0.25853725671281141 -0.27993274999468498 0 -0.25743040090093589 -0.29593030821957078 0 -0.25853725671281141 -0.27993274999468498 0 -0.2454513520284935 -0.27585382120546792 0 -0.28364686668008732 -0.28811290807531642 0 -0.28064677915226038 -0.301751235787594 0 -0.27063801769135898 -0.28323270211376511 0 -0.28064677915226038 -0.301751235787594 0 -0.25743040090093589 -0.29593030821957078 0 -0.27063801769135898 -0.28323270211376511 0 -0.28064677915226038 -0.301751235787594 0 -0.27063801769135898 -0.28323270211376511 0 -0.28364686668008732 -0.28811290807531642 0 -0.27063801769135898 -0.28323270211376511 0 -0.28158678300309209 -0.26957520743831598 0 -0.27063801769135898 -0.28323270211376511 0 -0.26062925623045718 -0.26471416843993628 0 -0.28158678300309209 -0.26957520743831598 0 -0.27063801769135898 -0.28323270211376511 0 -0.26062925623045718 -0.26471416843993628 0 -0.27063801769135898 -0.28323270211376511 0 -0.25853725671281141 -0.27993274999468498 0 -0.26062925623045718 -0.26471416843993628 0 -0.26062925623045718 -0.26471416843993628 0 -0.24521023478444801 -0.2602106557147722 0 -0.2454513520284935 -0.27585382120546792 0 -0.25853725671281141 -0.27993274999468498 0 -0.26062925623045718 -0.26471416843993628 0 -0.2454513520284935 -0.27585382120546792 0 -0.26062925623045718 -0.26471416843993628 0 -0.26616229895624582 -0.25002406866022742 0 -0.25062049476955539 -0.24619563476610751 0 -0.26062925623045718 -0.26471416843993628 0 -0.25062049476955539 -0.24619563476610751 0 -0.26062925623045718 -0.26471416843993628 0 -0.24521023478444801 -0.2602106557147722 0 -0.25062049476955539 -0.24619563476610751 0 -0.26616229895624582 -0.25002406866022742 0 -0.27910059834195711 -0.25082361772595813 0 -0.28158678300309209 -0.26957520743831598 0 -0.26062925623045718 -0.26471416843993628 0 -0.26616229895624582 -0.25002406866022742 0 -0.28158678300309209 -0.26957520743831598 0 -0.26616229895624582 -0.25002406866022742 0 -0.28158678300309209 -0.26957520743831598 0 -0.27910059834195711 -0.25082361772595813 0 -0.29105531347898761 -0.25232858781173639 0 -0.28158678300309209 -0.26957520743831598 0 -0.29105531347898761 -0.25232858781173639 0 -0.28158678300309209 -0.26957520743831598 0 -0.29956058895644189 -0.26415049218198272 0 -0.29701126704993841 -0.28912634621640471 0 -0.28158678300309209 -0.26957520743831598 0 -0.29956058895644189 -0.26415049218198272 0 -0.29701126704993841 -0.28912634621640471 0 -0.28158678300309209 -0.26957520743831598 0 -0.29701126704993841 -0.28912634621640471 0 -0.30714843163826189 -0.27769882403321328 0 -0.29956058895644189 -0.26415049218198272 0 -0.31815674239267339 -0.26673279995548732 0 -0.30714843163826189 -0.27769882403321328 0 -0.29956058895644189 -0.26415049218198272 0 -0.31815674239267339 -0.26673279995548732 0 -0.3041448722191199 -0.24594418604843371 0 -0.31815674239267339 -0.26673279995548732 0 -0.29956058895644189 -0.26415049218198272 0 -0.3041448722191199 -0.24594418604843371 0 -0.29105531347898761 -0.25232858781173639 0 -0.29956058895644189 -0.26415049218198272 0 -0.3041448722191199 -0.24594418604843371 0 -0.3890072089015234 -0.5 0 -0.32486585520361128 -0.50000000000000011 0 -0.36043766218581369 -0.47389687249373852 0 -0.32903144193023581 -0.45558040767868702 0 -0.33504152669678949 -0.47640464083056228 0 -0.34521719818996782 -0.45280928166112439 0 -0.33504152669678949 -0.47640464083056228 0 -0.34521719818996782 -0.45280928166112439 0 -0.32903144193023581 -0.45558040767868702 0 -0.33476222865247179 -0.44019158288116222 0 -0.34521719818996782 -0.45280928166112439 0 -0.32903144193023581 -0.45558040767868702 0 -0.33476222865247179 -0.44019158288116222 0 -0.31643111160513948 -0.44048456892867799 0 -0.32903144193023581 -0.45558040767868702 0 -0.31643111160513948 -0.44048456892867799 0 -0.31334318368175701 -0.46150465148192932 0 -0.32903144193023581 -0.45558040767868702 0 -0.31334318368175701 -0.46150465148192932 0 -0.33504152669678949 -0.47640464083056228 0 -0.32486585520361128 -0.50000000000000011 0 -0.33504152669678949 -0.47640464083056228 0 -0.36043766218581369 -0.47389687249373852 0 -0.31334318368175701 -0.46150465148192932 0 -0.31537027636403397 -0.48226582180571909 0 -0.33504152669678949 -0.47640464083056228 0 -0.31537027636403397 -0.48226582180571909 0 -0.32486585520361128 -0.50000000000000011 0 -0.33504152669678949 -0.47640464083056228 0 -0.31537027636403397 -0.48226582180571909 0 -0.32486585520361128 -0.50000000000000011 0 -0.30190305498450132 -0.5 0 -0.32486585520361128 -0.50000000000000011 0 -0.33504152669678949 -0.47640464083056228 0 -0.37523890169680202 -0.44400008610684222 0 -0.36043766218581369 -0.47389687249373852 0 -0.34521719818996782 -0.45280928166112439 0 -0.33504152669678949 -0.47640464083056228 0 -0.36043766218581369 -0.47389687249373852 0 -0.34521719818996782 -0.45280928166112439 0 -0.33476222865247179 -0.44019158288116222 0 -0.34521719818996782 -0.45280928166112439 0 -0.35539286968315009 -0.42921392249168833 0 -0.34521719818996782 -0.45280928166112439 0 -0.35539286968315009 -0.42921392249168833 0 -0.37523890169680202 -0.44400008610684222 0 -0.34521719818996782 -0.45280928166112439 0 -0.35539286968315009 -0.42921392249168833 0 -0.37406314492997172 -0.41927938188615971 0 -0.35539286968315009 -0.42921392249168833 0 -0.37523890169680202 -0.44400008610684222 0 -0.37406314492997172 -0.41927938188615971 0 -0.35539286968315009 -0.42921392249168833 0 -0.38125146789249648 -0.3965050731948016 0 -0.37406314492997172 -0.41927938188615971 0 -0.36602550627444452 -0.40455895210884868 0 -0.35539286968315009 -0.42921392249168833 0 -0.36602550627444452 -0.40455895210884868 0 -0.37406314492997172 -0.41927938188615971 0 -0.35539286968315009 -0.42921392249168833 0 -0.36602550627444452 -0.40455895210884868 0 -0.35000147166255002 -0.41097269869109959 0 -0.35539286968315009 -0.42921392249168833 0 -0.33903031532185662 -0.42333800771544761 0 -0.35000147166255002 -0.41097269869109959 0 -0.35539286968315009 -0.42921392249168833 0 -0.36602550627444452 -0.40455895210884868 0 -0.33476222865247179 -0.44019158288116222 0 -0.35539286968315009 -0.42921392249168833 0 -0.37665814286574312 -0.37990398172601098 0 -0.36086687040464438 -0.37535831518570001 0 -0.36602550627444452 -0.40455895210884868 0 -0.38125146789249648 -0.3965050731948016 0 -0.37665814286574312 -0.37990398172601098 0 -0.36602550627444452 -0.40455895210884868 0 -0.37665814286574312 -0.37990398172601098 0 -0.36602550627444452 -0.40455895210884868 0 -0.35000147166255002 -0.41097269869109959 0 -0.36602550627444452 -0.40455895210884868 0 -0.34945632812370869 -0.38718315747180782 0 -0.35000147166255002 -0.41097269869109959 0 -0.34945632812370869 -0.38718315747180782 0 -0.33462687414079367 -0.40584725897071811 0 -0.34504572998745892 -0.36518038032524719 0 -0.36086687040464438 -0.37535831518570001 0 -0.34945632812370869 -0.38718315747180782 0 -0.36086687040464438 -0.37535831518570001 0 -0.36602550627444452 -0.40455895210884868 0 -0.34945632812370869 -0.38718315747180782 0 -0.34504572998745892 -0.36518038032524719 0 -0.34945632812370869 -0.38718315747180782 0 -0.33681404828889822 -0.37534394343959387 0 -0.33059514926722933 -0.38177268178430201 0 -0.33681404828889822 -0.37534394343959387 0 -0.3367729709694508 -0.38473849125024678 0 -0.32868526678646259 -0.37514077752497749 0 -0.33059514926722933 -0.38177268178430201 0 -0.33681404828889822 -0.37534394343959387 0 -0.34945632812370869 -0.38718315747180782 0 -0.33681404828889822 -0.37534394343959387 0 -0.3367729709694508 -0.38473849125024678 0 -0.34945632812370869 -0.38718315747180782 0 -0.3367729709694508 -0.38473849125024678 0 -0.33472287165705039 -0.39250160933099099 0 -0.3367729709694508 -0.38473849125024678 0 -0.33053994317154839 -0.38733860377463852 0 -0.33472287165705039 -0.39250160933099099 0 -0.33059514926722933 -0.38177268178430201 0 -0.3367729709694508 -0.38473849125024678 0 -0.33053994317154839 -0.38733860377463852 0 -0.33059514926722933 -0.38177268178430201 0 -0.33053994317154839 -0.38733860377463852 0 -0.32556030056490171 -0.38485168352423921 0 -0.34945632812370869 -0.38718315747180782 0 -0.33472287165705039 -0.39250160933099099 0 -0.33462687414079367 -0.40584725897071811 0 -0.33053994317154839 -0.38733860377463852 0 -0.33472287165705039 -0.39250160933099099 0 -0.32504842339910961 -0.39282855298341329 0 -0.33472287165705039 -0.39250160933099099 0 -0.33462687414079367 -0.40584725897071811 0 -0.32504842339910961 -0.39282855298341329 0 -0.33462687414079367 -0.40584725897071811 0 -0.32504842339910961 -0.39282855298341329 0 -0.31210116471775629 -0.40343096570709019 0 -0.32432857135265869 -0.38257269835878199 0 -0.30973638611688709 -0.38754970810637668 0 -0.31210116471775629 -0.40343096570709019 0 -0.32432857135265869 -0.38257269835878199 0 -0.31210116471775629 -0.40343096570709019 0 -0.32504842339910961 -0.39282855298341329 0 -0.32432857135265869 -0.38257269835878199 0 -0.31210116471775629 -0.40343096570709019 0 -0.32504842339910961 -0.39282855298341329 0 -0.32556030056490171 -0.38485168352423921 0 -0.32432857135265869 -0.38257269835878199 0 -0.33053994317154839 -0.38733860377463852 0 -0.32504842339910961 -0.39282855298341329 0 -0.32556030056490171 -0.38485168352423921 0 -0.33059514926722933 -0.38177268178430201 0 -0.32556030056490171 -0.38485168352423921 0 -0.32432857135265869 -0.38257269835878199 0 -0.32556030056490171 -0.38485168352423921 0 -0.32432857135265869 -0.38257269835878199 0 -0.31324252656163881 -0.37795215509735802 0 -0.32432857135265869 -0.38257269835878199 0 -0.30973638611688709 -0.38754970810637668 0 -0.32868526678646259 -0.37514077752497749 0 -0.33059514926722933 -0.38177268178430201 0 -0.32432857135265869 -0.38257269835878199 0 -0.32868526678646259 -0.37514077752497749 0 -0.32432857135265869 -0.38257269835878199 0 -0.33476222865247179 -0.44019158288116222 0 -0.33903031532185662 -0.42333800771544761 0 -0.32164998054191618 -0.42290961231286323 0 -0.33476222865247179 -0.44019158288116222 0 -0.35539286968315009 -0.42921392249168833 0 -0.33903031532185662 -0.42333800771544761 0 -0.33462687414079367 -0.40584725897071811 0 -0.33903031532185662 -0.42333800771544761 0 -0.32164998054191618 -0.42290961231286323 0 -0.35000147166255002 -0.41097269869109959 0 -0.33462687414079367 -0.40584725897071811 0 -0.33903031532185662 -0.42333800771544761 0 -0.33462687414079367 -0.40584725897071811 0 -0.32164998054191618 -0.42290961231286323 0 -0.31210116471775629 -0.40343096570709019 0 -0.31643111160513948 -0.44048456892867799 0 -0.32164998054191618 -0.42290961231286323 0 -0.29987375808285133 -0.42428923305539679 0 -0.33476222865247179 -0.44019158288116222 0 -0.31643111160513948 -0.44048456892867799 0 -0.32164998054191618 -0.42290961231286323 0 -0.31643111160513948 -0.44048456892867799 0 -0.29987375808285133 -0.42428923305539679 0 -0.28764635144794631 -0.4451475004037031 0 -0.32164998054191618 -0.42290961231286323 0 -0.29987375808285133 -0.42428923305539679 0 -0.31210116471775629 -0.40343096570709019 0 -0.29987375808285133 -0.42428923305539679 0 -0.31210116471775629 -0.40343096570709019 0 -0.29987375808285133 -0.42428923305539679 0 -0.31210116471775629 -0.40343096570709019 0 -0.28643865211288833 -0.4049457255293934 0 -0.29987375808285133 -0.42428923305539679 0 -0.28643865211288833 -0.4049457255293934 0 -0.2743636922497168 -0.42737080149350393 0 -0.29987375808285133 -0.42428923305539679 0 -0.2743636922497168 -0.42737080149350393 0 -0.28764635144794631 -0.4451475004037031 0 -0.29987375808285133 -0.42428923305539679 0 -0.28764635144794631 -0.4451475004037031 0 -0.30493427589272681 -0.37012100960406757 0 -0.31324252656163881 -0.37795215509735802 0 -0.30069607872460508 -0.3794329039596781 0 -0.31324252656163881 -0.37795215509735802 0 -0.30069607872460508 -0.3794329039596781 0 -0.30973638611688709 -0.38754970810637668 0 -0.30069607872460508 -0.3794329039596781 0 -0.30973638611688709 -0.38754970810637668 0 -0.29782889034054771 -0.39247835548779098 0 -0.30973638611688709 -0.38754970810637668 0 -0.31210116471775629 -0.40343096570709019 0 -0.29782889034054771 -0.39247835548779098 0 -0.31210116471775629 -0.40343096570709019 0 -0.29782889034054771 -0.39247835548779098 0 -0.28643865211288833 -0.4049457255293934 0 -0.29782889034054771 -0.39247835548779098 0 -0.28643865211288833 -0.4049457255293934 0 -0.2816987453305011 -0.38165435064659681 0 -0.30069607872460508 -0.3794329039596781 0 -0.29782889034054771 -0.39247835548779098 0 -0.2816987453305011 -0.38165435064659681 0 -0.26413764221099151 -0.36854613485304349 0 -0.2816987453305011 -0.38165435064659681 0 -0.26169636854979272 -0.38694459250155128 0 -0.2816987453305011 -0.38165435064659681 0 -0.27353305667371403 -0.39532464527168337 0 -0.26169636854979272 -0.38694459250155128 0 -0.28643865211288833 -0.4049457255293934 0 -0.2816987453305011 -0.38165435064659681 0 -0.27353305667371403 -0.39532464527168337 0 -0.28643865211288833 -0.4049457255293934 0 -0.27353305667371403 -0.39532464527168337 0 -0.2642984607016739 -0.40775391240919201 0 -0.27353305667371403 -0.39532464527168337 0 -0.26169636854979272 -0.38694459250155128 0 -0.2642984607016739 -0.40775391240919201 0 -0.26169636854979272 -0.38694459250155128 0 -0.2642984607016739 -0.40775391240919201 0 -0.24966947659482561 -0.39734555498588747 0 -0.2642984607016739 -0.40775391240919201 0 -0.2438629629398914 -0.41333881958139068 0 -0.24966947659482561 -0.39734555498588747 0 -0.26169636854979272 -0.38694459250155128 0 -0.24966947659482561 -0.39734555498588747 0 -0.24430747118197521 -0.38230295348442611 0 -0.26413764221099151 -0.36854613485304349 0 -0.25224988298000039 -0.37125021481022441 0 -0.26169636854979272 -0.38694459250155128 0 -0.25224988298000039 -0.37125021481022441 0 -0.26169636854979272 -0.38694459250155128 0 -0.24430747118197521 -0.38230295348442611 0 -0.28643865211288833 -0.4049457255293934 0 -0.2743636922497168 -0.42737080149350393 0 -0.2642984607016739 -0.40775391240919201 0 -0.2642984607016739 -0.40775391240919201 0 -0.25716885613217533 -0.42246281826982612 0 -0.2438629629398914 -0.41333881958139068 0 -0.2743636922497168 -0.42737080149350393 0 -0.2642984607016739 -0.40775391240919201 0 -0.25716885613217533 -0.42246281826982612 0 -0.2743636922497168 -0.42737080149350393 0 -0.25716885613217533 -0.42246281826982612 0 -0.25492027885926971 -0.4393078526827362 0 -0.25716885613217533 -0.42246281826982612 0 -0.25492027885926971 -0.4393078526827362 0 -0.24511942690234689 -0.42724708831265179 0 -0.25492027885926971 -0.4393078526827362 0 -0.25905473235802962 -0.45849094464496148 0 -0.24368141576335359 -0.45123202490662578 0 -0.25492027885926971 -0.4393078526827362 0 -0.25905473235802962 -0.45849094464496148 0 -0.27019948841121272 -0.44768856810427993 0 -0.25905473235802962 -0.45849094464496148 0 -0.26092390007487148 -0.48457594695833278 0 -0.24918436622642889 -0.46213550746578491 0 -0.25905473235802962 -0.45849094464496148 0 -0.24368141576335359 -0.45123202490662578 0 -0.24918436622642889 -0.46213550746578491 0 -0.25905473235802962 -0.45849094464496148 0 -0.27541894481304119 -0.46600576775200958 0 -0.27019948841121272 -0.44768856810427993 0 -0.2743636922497168 -0.42737080149350393 0 -0.25492027885926971 -0.4393078526827362 0 -0.27019948841121272 -0.44768856810427993 0 -0.27541894481304119 -0.46600576775200958 0 -0.27019948841121272 -0.44768856810427993 0 -0.28764635144794631 -0.4451475004037031 0 -0.2743636922497168 -0.42737080149350393 0 -0.27019948841121272 -0.44768856810427993 0 -0.28764635144794631 -0.4451475004037031 0 -0.27541894481304119 -0.46600576775200958 0 -0.28764635144794631 -0.4451475004037031 0 -0.29584911624823579 -0.47397313997211371 0 -0.27541894481304119 -0.46600576775200958 0 -0.28764635144794631 -0.4451475004037031 0 -0.31334318368175701 -0.46150465148192932 0 -0.28764635144794631 -0.4451475004037031 0 -0.29584911624823579 -0.47397313997211371 0 -0.31643111160513948 -0.44048456892867799 0 -0.31334318368175701 -0.46150465148192932 0 -0.28764635144794631 -0.4451475004037031 0 -0.31537027636403397 -0.48226582180571909 0 -0.30190305498450132 -0.5 0 -0.29584911624823579 -0.47397313997211371 0 -0.31334318368175701 -0.46150465148192932 0 -0.31537027636403397 -0.48226582180571909 0 -0.29584911624823579 -0.47397313997211371 0 -0.27541894481304119 -0.46600576775200958 0 -0.29584911624823579 -0.47397313997211371 0 -0.28260705417720827 -0.48491097093649121 0 -0.30190305498450132 -0.5 0 -0.29584911624823579 -0.47397313997211371 0 -0.28260705417720827 -0.48491097093649121 0 -0.30190305498450132 -0.5 0 -0.28260705417720827 -0.48491097093649121 0 -0.27894025476539142 -0.49999999999999961 0 -0.27894025476539142 -0.49999999999999961 0 -0.26092390007487148 -0.48457594695833278 0 -0.28260705417720827 -0.48491097093649121 0 -0.27894025476539142 -0.49999999999999961 0 -0.26092390007487148 -0.48457594695833278 0 -0.27541894481304119 -0.46600576775200958 0 -0.28260705417720827 -0.48491097093649121 0 -0.26092390007487148 -0.48457594695833278 0 -0.26092390007487148 -0.48457594695833278 0 -0.24913616691952581 -0.47736902591786851 0 -0.2429075453843515 -0.46915189391666651 0 -0.25905473235802962 -0.45849094464496148 0 -0.27541894481304119 -0.46600576775200958 0 -0.26092390007487148 -0.48457594695833278 0 -0.26092390007487148 -0.48457594695833278 0 -0.2429075453843515 -0.46915189391666651 0 -0.26092390007487148 -0.48457594695833278 0 -0.2429075453843515 -0.46915189391666651 0 -0.24918436622642889 -0.46213550746578491 0 -0.26092390007487148 -0.48457594695833278 0 -0.25027180383143938 -0.48752573070490041 0 -0.24913616691952581 -0.47736902591786851 0 -0.27894025476539142 -0.49999999999999961 0 -0.26092390007487148 -0.48457594695833278 0 -0.25011848757635607 -0.5 0 -0.26092390007487148 -0.48457594695833278 0 -0.25027180383143938 -0.48752573070490041 0 -0.25011848757635607 -0.5 0 -0.25011848757635607 -0.5 0 -0.24090866075500431 -0.48815794994340023 0 -0.22129672038732071 -0.5 0 -0.25027180383143938 -0.48752573070490041 0 -0.25011848757635607 -0.5 0 -0.24090866075500431 -0.48815794994340023 0 -0.24090866075500431 -0.48815794994340023 0 -0.24913616691952581 -0.47736902591786851 0 -0.238282576465801 -0.48071240378587149 0 -0.24913616691952581 -0.47736902591786851 0 -0.2313836433255535 -0.46354066798050908 0 -0.24913616691952581 -0.47736902591786851 0 -0.238282576465801 -0.48071240378587149 0 -0.23350201102140869 -0.4740670760819069 0 -0.25027180383143938 -0.48752573070490041 0 -0.24090866075500431 -0.48815794994340023 0 -0.24913616691952581 -0.47736902591786851 0 -0.24913616691952581 -0.47736902591786851 0 -0.23350201102140869 -0.4740670760819069 0 -0.2313836433255535 -0.46354066798050908 0 -0.24913616691952581 -0.47736902591786851 0 -0.2429075453843515 -0.46915189391666651 0 -0.2313836433255535 -0.46354066798050908 0 -0.24090866075500431 -0.48815794994340023 0 -0.238282576465801 -0.48071240378587149 0 -0.22958346716726541 -0.48325556320031082 0 -0.22958346716726541 -0.48325556320031082 0 -0.23350201102140869 -0.4740670760819069 0 -0.22299105558035059 -0.47288995614595419 0 -0.238282576465801 -0.48071240378587149 0 -0.22958346716726541 -0.48325556320031082 0 -0.23350201102140869 -0.4740670760819069 0 -0.23350201102140869 -0.4740670760819069 0 -0.22299105558035059 -0.47288995614595419 0 -0.2313836433255535 -0.46354066798050908 0 -0.22958346716726541 -0.48325556320031082 0 -0.22299105558035059 -0.47288995614595419 0 -0.21795933004148249 -0.48453144872056753 0 -0.24090866075500431 -0.48815794994340023 0 -0.22958346716726541 -0.48325556320031082 0 -0.22129672038732071 -0.5 0 -0.22958346716726541 -0.48325556320031082 0 -0.22129672038732071 -0.5 0 -0.21795933004148249 -0.48453144872056753 0 -0.25492027885926971 -0.4393078526827362 0 -0.2380774696897632 -0.43756994180133751 0 -0.24368141576335359 -0.45123202490662578 0 -0.2380774696897632 -0.43756994180133751 0 -0.24368141576335359 -0.45123202490662578 0 -0.23228702890826641 -0.4461079392185211 0 -0.24368141576335359 -0.45123202490662578 0 -0.23531816863565189 -0.4527230530044884 0 -0.23228702890826641 -0.4461079392185211 0 -0.24368141576335359 -0.45123202490662578 0 -0.23531816863565189 -0.4527230530044884 0 -0.24037436034496459 -0.45807905611974359 0 -0.23531816863565189 -0.4527230530044884 0 -0.2347748937503211 -0.45721190149026553 0 -0.24037436034496459 -0.45807905611974359 0 -0.24368141576335359 -0.45123202490662578 0 -0.24037436034496459 -0.45807905611974359 0 -0.24918436622642889 -0.46213550746578491 0 -0.2429075453843515 -0.46915189391666651 0 -0.24037436034496459 -0.45807905611974359 0 -0.24918436622642889 -0.46213550746578491 0 -0.2429075453843515 -0.46915189391666651 0 -0.2347748937503211 -0.45721190149026553 0 -0.24037436034496459 -0.45807905611974359 0 -0.2429075453843515 -0.46915189391666651 0 -0.2347748937503211 -0.45721190149026553 0 -0.22489119069383151 -0.45372784087499979 0 -0.2429075453843515 -0.46915189391666651 0 -0.22489119069383151 -0.45372784087499979 0 -0.2313836433255535 -0.46354066798050908 0 -0.21945506492700501 -0.46384303814387351 0 -0.21363111973158011 -0.44971231004315132 0 -0.2313836433255535 -0.46354066798050908 0 -0.21363111973158011 -0.44971231004315132 0 -0.2313836433255535 -0.46354066798050908 0 -0.22489119069383151 -0.45372784087499979 0 -0.21363111973158011 -0.44971231004315132 0 -0.2429075453843515 -0.46915189391666651 0 -0.2313836433255535 -0.46354066798050908 0 -0.22489119069383151 -0.45372784087499979 0 -0.22299105558035059 -0.47288995614595419 0 -0.2313836433255535 -0.46354066798050908 0 -0.21945506492700501 -0.46384303814387351 0 -0.2347748937503211 -0.45721190149026553 0 -0.22489119069383151 -0.45372784087499979 0 -0.22901429322721259 -0.45161725682020748 0 -0.23531816863565189 -0.4527230530044884 0 -0.2347748937503211 -0.45721190149026553 0 -0.22901429322721259 -0.45161725682020748 0 -0.23531816863565189 -0.4527230530044884 0 -0.23228702890826641 -0.4461079392185211 0 -0.22901429322721259 -0.45161725682020748 0 -0.23228702890826641 -0.4461079392185211 0 -0.22901429322721259 -0.45161725682020748 0 -0.22546234604025081 -0.44679857302050491 0 -0.22489119069383151 -0.45372784087499979 0 -0.22901429322721259 -0.45161725682020748 0 -0.22546234604025081 -0.44679857302050491 0 -0.22489119069383151 -0.45372784087499979 0 -0.21457327341448659 -0.44489452769206478 0 -0.22489119069383151 -0.45372784087499979 0 -0.22546234604025081 -0.44679857302050491 0 -0.21457327341448659 -0.44489452769206478 0 -0.22489119069383151 -0.45372784087499979 0 -0.21402611396768359 -0.44769247368947301 0 -0.22546234604025081 -0.44679857302050491 0 -0.22654594395745881 -0.43764530049672951 0 -0.21457327341448659 -0.44489452769206478 0 -0.2380774696897632 -0.43756994180133751 0 -0.23228702890826641 -0.4461079392185211 0 -0.22654594395745881 -0.43764530049672951 0 -0.23228702890826641 -0.4461079392185211 0 -0.22546234604025081 -0.44679857302050491 0 -0.22654594395745881 -0.43764530049672951 0 -0.20361069667558729 -0.44190688474862411 0 -0.21457327341448659 -0.44489452769206478 0 -0.21402611396768359 -0.44769247368947301 0 -0.21457327341448659 -0.44489452769206478 0 -0.20006420893797519 -0.43247311481943979 0 -0.20361069667558729 -0.44190688474862411 0 -0.21457327341448659 -0.44489452769206478 0 -0.20006420893797519 -0.43247311481943979 0 -0.20361069667558729 -0.44190688474862411 0 -0.21402611396768359 -0.44769247368947301 0 -0.22489119069383151 -0.45372784087499979 0 -0.21402611396768359 -0.44769247368947301 0 -0.21363111973158011 -0.44971231004315132 0 -0.22489119069383151 -0.45372784087499979 0 -0.21457327341448659 -0.44489452769206478 0 -0.21402611396768359 -0.44769247368947301 0 -0.21402611396768359 -0.44769247368947301 0 -0.21363111973158011 -0.44971231004315132 0 -0.21457327341448659 -0.44489452769206478 0 -0.21402611396768359 -0.44769247368947301 0 -0.20361069667558729 -0.44190688474862411 0 -0.21363111973158011 -0.44971231004315132 0 -0.1987201423523213 -0.45468909231781818 0 -0.20361069667558729 -0.44190688474862411 0 -0.21402611396768359 -0.44769247368947301 0 -0.21363111973158011 -0.44971231004315132 0 -0.20361069667558729 -0.44190688474862411 0 -0.21363111973158011 -0.44971231004315132 0 -0.21363111973158011 -0.44971231004315132 0 -0.20981444107053679 -0.46922921840587939 0 -0.21363111973158011 -0.44971231004315132 0 -0.1987201423523213 -0.45468909231781818 0 -0.20981444107053679 -0.46922921840587939 0 -0.21945506492700501 -0.46384303814387351 0 -0.21363111973158011 -0.44971231004315132 0 -0.20981444107053679 -0.46922921840587939 0 -0.22299105558035059 -0.47288995614595419 0 -0.21945506492700501 -0.46384303814387351 0 -0.20981444107053679 -0.46922921840587939 0 -0.1957533887458752 -0.46676122251067981 0 -0.1987201423523213 -0.45468909231781818 0 -0.18023692430016239 -0.45598111725166518 0 -0.1957533887458752 -0.46676122251067981 0 -0.1987201423523213 -0.45468909231781818 0 -0.20981444107053679 -0.46922921840587939 0 -0.1987201423523213 -0.45468909231781818 0 -0.19095434586070509 -0.44550465234521258 0 -0.18023692430016239 -0.45598111725166518 0 -0.20361069667558729 -0.44190688474862411 0 -0.19095434586070509 -0.44550465234521258 0 -0.183937719747578 -0.43097887730002737 0 -0.20361069667558729 -0.44190688474862411 0 -0.1987201423523213 -0.45468909231781818 0 -0.19095434586070509 -0.44550465234521258 0 -0.22129672038732071 -0.5 0 -0.2059977624094943 -0.48874612676860779 0 -0.19247495319828539 -0.5 0 -0.22129672038732071 -0.5 0 -0.2059977624094943 -0.48874612676860779 0 -0.21795933004148249 -0.48453144872056753 0 -0.2059977624094943 -0.48874612676860779 0 -0.20981444107053679 -0.46922921840587939 0 -0.2059977624094943 -0.48874612676860779 0 -0.21795933004148249 -0.48453144872056753 0 -0.20981444107053679 -0.46922921840587939 0 -0.2059977624094943 -0.48874612676860779 0 -0.20981444107053679 -0.46922921840587939 0 -0.1954393984618536 -0.48076204243458159 0 -0.22299105558035059 -0.47288995614595419 0 -0.21795933004148249 -0.48453144872056753 0 -0.20981444107053679 -0.46922921840587939 0 -0.1957533887458752 -0.46676122251067981 0 -0.20981444107053679 -0.46922921840587939 0 -0.1954393984618536 -0.48076204243458159 0 -0.1957533887458752 -0.46676122251067981 0 -0.1954393984618536 -0.48076204243458159 0 -0.18114889659705999 -0.48210180921729928 0 -0.1954393984618536 -0.48076204243458159 0 -0.19247495319828539 -0.5 0 -0.18114889659705999 -0.48210180921729928 0 -0.2059977624094943 -0.48874612676860779 0 -0.1954393984618536 -0.48076204243458159 0 -0.19247495319828539 -0.5 0 -0.19247495319828539 -0.5 0 -0.16365318600925011 -0.5 0 -0.18114889659705999 -0.48210180921729928 0 -0.16365318600925011 -0.5 0 -0.16545843938516519 -0.48310810202731208 0 -0.18114889659705999 -0.48210180921729928 0 -0.16365318600925011 -0.5 0 -0.16545843938516519 -0.48310810202731208 0 -0.1512137793845707 -0.48284334400642498 0 -0.16545843938516519 -0.48310810202731208 0 -0.18114889659705999 -0.48210180921729928 0 -0.16581789554978019 -0.46748725488552412 0 -0.16545843938516519 -0.48310810202731208 0 -0.16581789554978019 -0.46748725488552412 0 -0.1512137793845707 -0.48284334400642498 0 -0.1957533887458752 -0.46676122251067981 0 -0.18114889659705999 -0.48210180921729928 0 -0.16581789554978019 -0.46748725488552412 0 -0.1957533887458752 -0.46676122251067981 0 -0.16581789554978019 -0.46748725488552412 0 -0.1957533887458752 -0.46676122251067981 0 -0.18023692430016239 -0.45598111725166518 0 -0.16581789554978019 -0.46748725488552412 0 -0.18023692430016239 -0.45598111725166518 0 -0.183937719747578 -0.43097887730002737 0 -0.19095434586070509 -0.44550465234521258 0 -0.18023692430016239 -0.45598111725166518 0 -0.183937719747578 -0.43097887730002737 0 -0.18023692430016239 -0.45598111725166518 0 -0.16775777081318119 -0.45017361599264022 0 -0.1750360751994843 -0.43696307014575969 0 -0.18023692430016239 -0.45598111725166518 0 -0.1750360751994843 -0.43696307014575969 0 -0.183937719747578 -0.43097887730002737 0 -0.16775777081318119 -0.45017361599264022 0 -0.160568439161904 -0.44167873141547548 0 -0.1750360751994843 -0.43696307014575969 0 -0.16775777081318119 -0.45017361599264022 0 -0.160568439161904 -0.44167873141547548 0 -0.15283372132220191 -0.45115614936358678 0 -0.16775777081318119 -0.45017361599264022 0 -0.16581789554978019 -0.46748725488552412 0 -0.15283372132220191 -0.45115614936358678 0 -0.18023692430016239 -0.45598111725166518 0 -0.16775777081318119 -0.45017361599264022 0 -0.16581789554978019 -0.46748725488552412 0 -0.16581789554978019 -0.46748725488552412 0 -0.13588240235368521 -0.46821328726036848 0 -0.15283372132220191 -0.45115614936358678 0 -0.13487134328735489 -0.44273590319632261 0 -0.13588240235368521 -0.46821328726036848 0 -0.16581789554978019 -0.46748725488552412 0 -0.15283372132220191 -0.45115614936358678 0 -0.13588240235368521 -0.46821328726036848 0 -0.15077741346983109 -0.43880040901475109 0 -0.15283372132220191 -0.45115614936358678 0 -0.13487134328735489 -0.44273590319632261 0 -0.160568439161904 -0.44167873141547548 0 -0.15077741346983109 -0.43880040901475109 0 -0.15283372132220191 -0.45115614936358678 0 -0.13487134328735489 -0.44273590319632261 0 -0.13588240235368521 -0.46821328726036848 0 -0.11532737834136959 -0.44527629091745602 0 -0.13487134328735489 -0.44273590319632261 0 -0.1294305586347588 -0.42997154963942907 0 -0.11532737834136959 -0.44527629091745602 0 -0.13588240235368521 -0.46821328726036848 0 -0.1512137793845707 -0.48284334400642498 0 -0.12128002841142629 -0.4836412110612282 0 -0.13483141882021499 -0.5 0 -0.1512137793845707 -0.48284334400642498 0 -0.12128002841142629 -0.4836412110612282 0 -0.16365318600925011 -0.5 0 -0.13483141882021499 -0.5 0 -0.1512137793845707 -0.48284334400642498 0 -0.16581789554978019 -0.46748725488552412 0 -0.13588240235368521 -0.46821328726036848 0 -0.1512137793845707 -0.48284334400642498 0 -0.14272693356441921 -0.39448137566998831 0 -0.1473986382508729 -0.3873853837161591 0 -0.16409204772596961 -0.40167684486982058 0 -0.14272693356441921 -0.39448137566998831 0 -0.15976670716178071 -0.40775453580570459 0 -0.16409204772596961 -0.40167684486982058 0 -0.14272693356441921 -0.39448137566998831 0 -0.15976670716178071 -0.40775453580570459 0 -0.14272693356441921 -0.39448137566998831 0 -0.14903316462186281 -0.40573914593124211 0 -0.15976670716178071 -0.40775453580570459 0 -0.1473986382508729 -0.3873853837161591 0 -0.16409204772596961 -0.40167684486982058 0 -0.14272693356441921 -0.39448137566998831 0 -0.14903316462186281 -0.40573914593124211 0 -0.13886958497303531 -0.40594428724724352 0 -0.15574238308673979 -0.37827296045787229 0 -0.1473986382508729 -0.3873853837161591 0 -0.14066158518766059 -0.36753639998789428 0 -0.15574238308673979 -0.37827296045787229 0 -0.1473986382508729 -0.3873853837161591 0 -0.16076868245376641 -0.38786146773231972 0 -0.14272693356441921 -0.39448137566998831 0 -0.1256871599670577 -0.38120821553427192 0 -0.1279426818698331 -0.3958868412390425 0 -0.14272693356441921 -0.39448137566998831 0 -0.1256871599670577 -0.38120821553427192 0 -0.1473986382508729 -0.3873853837161591 0 -0.1256871599670577 -0.38120821553427192 0 -0.13070522877577609 -0.3730939225624979 0 -0.1473986382508729 -0.3873853837161591 0 -0.14066158518766059 -0.36753639998789428 0 -0.13070522877577609 -0.3730939225624979 0 -0.1473986382508729 -0.3873853837161591 0 -0.13070522877577609 -0.3730939225624979 0 -0.14272693356441921 -0.39448137566998831 0 -0.1473986382508729 -0.3873853837161591 0 -0.1256871599670577 -0.38120821553427192 0 -0.14272693356441921 -0.39448137566998831 0 -0.1279426818698331 -0.3958868412390425 0 -0.13442513231342529 -0.40073157039449181 0 -0.13886958497303531 -0.40594428724724352 0 -0.13442513231342529 -0.40073157039449181 0 -0.1281613288464136 -0.40661377742169269 0 -0.14272693356441921 -0.39448137566998831 0 -0.13886958497303531 -0.40594428724724352 0 -0.13442513231342529 -0.40073157039449181 0 -0.1279426818698331 -0.3958868412390425 0 -0.13442513231342529 -0.40073157039449181 0 -0.1281613288464136 -0.40661377742169269 0 -0.13886958497303531 -0.40594428724724352 0 -0.1281613288464136 -0.40661377742169269 0 -0.12504180997478631 -0.41687942734639749 0 -0.12504180997478631 -0.41687942734639749 0 -0.1294305586347588 -0.42997154963942907 0 -0.14158066027111429 -0.41779669101183048 0 -0.13886958497303531 -0.40594428724724352 0 -0.12504180997478631 -0.41687942734639749 0 -0.14158066027111429 -0.41779669101183048 0 -0.1294305586347588 -0.42997154963942907 0 -0.14482038803778249 -0.4287561440991749 0 -0.14158066027111429 -0.41779669101183048 0 -0.13487134328735489 -0.44273590319632261 0 -0.1294305586347588 -0.42997154963942907 0 -0.14482038803778249 -0.4287561440991749 0 -0.13487134328735489 -0.44273590319632261 0 -0.14482038803778249 -0.4287561440991749 0 -0.15077741346983109 -0.43880040901475109 0 -0.13487134328735489 -0.44273590319632261 0 -0.14482038803778249 -0.4287561440991749 0 -0.15077741346983109 -0.43880040901475109 0 -0.14482038803778249 -0.4287561440991749 0 -0.1607931755399121 -0.42967511699919603 0 -0.14482038803778249 -0.4287561440991749 0 -0.1547694327882114 -0.41477638500202813 0 -0.1607931755399121 -0.42967511699919603 0 -0.14903316462186281 -0.40573914593124211 0 -0.13886958497303531 -0.40594428724724352 0 -0.1547694327882114 -0.41477638500202813 0 -0.13886958497303531 -0.40594428724724352 0 -0.14158066027111429 -0.41779669101183048 0 -0.1547694327882114 -0.41477638500202813 0 -0.13886958497303531 -0.40594428724724352 0 -0.1547694327882114 -0.41477638500202813 0 -0.14482038803778249 -0.4287561440991749 0 -0.14158066027111429 -0.41779669101183048 0 -0.1547694327882114 -0.41477638500202813 0 -0.14482038803778249 -0.4287561440991749 0 -0.1547694327882114 -0.41477638500202813 0 -0.14903316462186281 -0.40573914593124211 0 -0.1547694327882114 -0.41477638500202813 0 -0.15976670716178071 -0.40775453580570459 0 -0.15976670716178071 -0.40775453580570459 0 -0.17847166469690701 -0.41398743592380599 0 -0.16409204772596961 -0.40167684486982058 0 -0.1547694327882114 -0.41477638500202813 0 -0.17654496309993181 -0.42687232545448001 0 -0.15976670716178071 -0.40775453580570459 0 -0.17735502775610229 -0.42145498754192529 0 -0.1547694327882114 -0.41477638500202813 0 -0.15976670716178071 -0.40775453580570459 0 -0.17735502775610229 -0.42145498754192529 0 -0.15976670716178071 -0.40775453580570459 0 -0.17847166469690701 -0.41398743592380599 0 -0.17735502775610229 -0.42145498754192529 0 -0.1547694327882114 -0.41477638500202813 0 -0.17654496309993181 -0.42687232545448001 0 -0.17735502775610229 -0.42145498754192529 0 -0.1547694327882114 -0.41477638500202813 0 -0.15976670716178071 -0.40775453580570459 0 -0.17847166469690701 -0.41398743592380599 0 -0.16409204772596961 -0.40167684486982058 0 -0.1607931755399121 -0.42967511699919603 0 -0.1750360751994843 -0.43696307014575969 0 -0.17654496309993181 -0.42687232545448001 0 -0.1547694327882114 -0.41477638500202813 0 -0.1607931755399121 -0.42967511699919603 0 -0.17654496309993181 -0.42687232545448001 0 -0.160568439161904 -0.44167873141547548 0 -0.15077741346983109 -0.43880040901475109 0 -0.1607931755399121 -0.42967511699919603 0 -0.160568439161904 -0.44167873141547548 0 -0.1607931755399121 -0.42967511699919603 0 -0.1750360751994843 -0.43696307014575969 0 -0.1750360751994843 -0.43696307014575969 0 -0.17654496309993181 -0.42687232545448001 0 -0.1750360751994843 -0.43696307014575969 0 -0.17654496309993181 -0.42687232545448001 0 -0.183937719747578 -0.43097887730002737 0 -0.17654496309993181 -0.42687232545448001 0 -0.1845211798264115 -0.42703707367954868 0 -0.17735502775610229 -0.42145498754192529 0 -0.17654496309993181 -0.42687232545448001 0 -0.17735502775610229 -0.42145498754192529 0 -0.17654496309993181 -0.42687232545448001 0 -0.1845211798264115 -0.42703707367954868 0 -0.183937719747578 -0.43097887730002737 0 -0.1845211798264115 -0.42703707367954868 0 -0.17735502775610229 -0.42145498754192529 0 -0.1855551444614647 -0.42005170194681368 0 -0.1845211798264115 -0.42703707367954868 0 -0.17735502775610229 -0.42145498754192529 0 -0.1845211798264115 -0.42703707367954868 0 -0.1855551444614647 -0.42005170194681368 0 -0.1845211798264115 -0.42703707367954868 0 -0.183937719747578 -0.43097887730002737 0 -0.17654496309993181 -0.42687232545448001 0 -0.183937719747578 -0.43097887730002737 0 -0.1855551444614647 -0.42005170194681368 0 -0.18932499888558721 -0.39458290578285521 0 -0.17847166469690701 -0.41398743592380599 0 -0.1855551444614647 -0.42005170194681368 0 -0.18932499888558721 -0.39458290578285521 0 -0.17847166469690701 -0.41398743592380599 0 -0.17735502775610229 -0.42145498754192529 0 -0.17847166469690701 -0.41398743592380599 0 -0.17735502775610229 -0.42145498754192529 0 -0.1855551444614647 -0.42005170194681368 0 -0.17847166469690701 -0.41398743592380599 0 -0.1855551444614647 -0.42005170194681368 0 -0.17847166469690701 -0.41398743592380599 0 -0.18231728771020411 -0.38826968711380128 0 -0.18932499888558721 -0.39458290578285521 0 -0.16409204772596961 -0.40167684486982058 0 -0.17702604245516679 -0.38350282565353061 0 -0.18231728771020411 -0.38826968711380128 0 -0.17847166469690701 -0.41398743592380599 0 -0.18231728771020411 -0.38826968711380128 0 -0.17847166469690701 -0.41398743592380599 0 -0.16409204772596961 -0.40167684486982058 0 -0.18231728771020411 -0.38826968711380128 0 -0.18231728771020411 -0.38826968711380128 0 -0.18932499888558721 -0.39458290578285521 0 -0.16409204772596961 -0.40167684486982058 0 -0.16076868245376641 -0.38786146773231972 0 -0.17702604245516679 -0.38350282565353061 0 -0.1473986382508729 -0.3873853837161591 0 -0.16409204772596961 -0.40167684486982058 0 -0.16076868245376641 -0.38786146773231972 0 -0.16409204772596961 -0.40167684486982058 0 -0.17702604245516679 -0.38350282565353061 0 -0.15976670716178071 -0.40775453580570459 0 -0.16409204772596961 -0.40167684486982058 0 -0.15574238308673979 -0.37827296045787229 0 -0.17702604245516679 -0.38350282565353061 0 -0.1552257304935987 -0.36386301273566612 0 -0.15574238308673979 -0.37827296045787229 0 -0.16076868245376641 -0.38786146773231972 0 -0.17702604245516679 -0.38350282565353061 0 -0.18231728771020411 -0.38826968711380128 0 -0.18077394110133321 -0.37823651903734679 0 -0.18559087567824609 -0.36637744422403778 0 -0.17702604245516679 -0.38350282565353061 0 -0.18077394110133321 -0.37823651903734679 0 -0.17857874766657811 -0.37149553804793922 0 -0.18231728771020411 -0.38826968711380128 0 -0.18559087567824609 -0.36637744422403778 0 -0.18231728771020411 -0.38826968711380128 0 -0.19284541047492129 -0.37079932289216277 0 -0.18559087567824609 -0.36637744422403778 0 -0.17702604245516679 -0.38350282565353061 0 -0.18077394110133321 -0.37823651903734679 0 -0.17702604245516679 -0.38350282565353061 0 -0.18231728771020411 -0.38826968711380128 0 -0.17702604245516679 -0.38350282565353061 0 -0.18231728771020411 -0.38826968711380128 0 -0.18077394110133321 -0.37823651903734679 0 -0.19859250258965891 -0.37991303993787029 0 -0.18932499888558721 -0.39458290578285521 0 -0.19284541047492129 -0.37079932289216277 0 -0.18231728771020411 -0.38826968711380128 0 -0.18932499888558721 -0.39458290578285521 0 -0.19284541047492129 -0.37079932289216277 0 -0.18932499888558721 -0.39458290578285521 0 -0.19284541047492129 -0.37079932289216277 0 -0.1975845553156497 -0.38916531815535899 0 -0.20023870502100111 -0.39597900365680028 0 -0.206061729152652 -0.38607745436565089 0 -0.19859250258965891 -0.37991303993787029 0 -0.1975845553156497 -0.38916531815535899 0 -0.206061729152652 -0.38607745436565089 0 -0.19859250258965891 -0.37991303993787029 0 -0.1975845553156497 -0.38916531815535899 0 -0.18932499888558721 -0.39458290578285521 0 -0.1855551444614647 -0.42005170194681368 0 -0.18932499888558721 -0.39458290578285521 0 -0.192642458832438 -0.39757159203805692 0 -0.1975845553156497 -0.38916531815535899 0 -0.18932499888558721 -0.39458290578285521 0 -0.192642458832438 -0.39757159203805692 0 -0.18932499888558721 -0.39458290578285521 0 -0.192642458832438 -0.39757159203805692 0 -0.19841093841887381 -0.40574375978390198 0 -0.20023870502100111 -0.39597900365680028 0 -0.2082147184759284 -0.40011166420317679 0 -0.192642458832438 -0.39757159203805692 0 -0.19841093841887381 -0.40574375978390198 0 -0.20023870502100111 -0.39597900365680028 0 -0.1975845553156497 -0.38916531815535899 0 -0.192642458832438 -0.39757159203805692 0 -0.20023870502100111 -0.39597900365680028 0 -0.2082147184759284 -0.40011166420317679 0 -0.21635816543216199 -0.39142068726087459 0 -0.206061729152652 -0.38607745436565089 0 -0.20023870502100111 -0.39597900365680028 0 -0.2082147184759284 -0.40011166420317679 0 -0.206061729152652 -0.38607745436565089 0 -0.2082147184759284 -0.40011166420317679 0 -0.21635816543216199 -0.39142068726087459 0 -0.22186944776659129 -0.4075849245331768 0 -0.21635816543216199 -0.39142068726087459 0 -0.21683969750729051 -0.37683338469579242 0 -0.206061729152652 -0.38607745436565089 0 -0.19859250258965891 -0.37991303993787029 0 -0.206061729152652 -0.38607745436565089 0 -0.2062955052881244 -0.37168717648572008 0 -0.21683969750729051 -0.37683338469579242 0 -0.206061729152652 -0.38607745436565089 0 -0.2062955052881244 -0.37168717648572008 0 -0.20361069667558729 -0.44190688474862411 0 -0.1845211798264115 -0.42703707367954868 0 -0.183937719747578 -0.43097887730002737 0 -0.20361069667558729 -0.44190688474862411 0 -0.1845211798264115 -0.42703707367954868 0 -0.20006420893797519 -0.43247311481943979 0 -0.20361069667558729 -0.44190688474862411 0 -0.1845211798264115 -0.42703707367954868 0 -0.1855551444614647 -0.42005170194681368 0 -0.20006420893797519 -0.43247311481943979 0 -0.20540366530353599 -0.41500483707466279 0 -0.20361069667558729 -0.44190688474862411 0 -0.183937719747578 -0.43097887730002737 0 -0.1845211798264115 -0.42703707367954868 0 -0.1855551444614647 -0.42005170194681368 0 -0.20006420893797519 -0.43247311481943979 0 -0.1855551444614647 -0.42005170194681368 0 -0.20006420893797519 -0.43247311481943979 0 -0.1855551444614647 -0.42005170194681368 0 -0.19841093841887381 -0.40574375978390198 0 -0.20540366530353599 -0.41500483707466279 0 -0.1855551444614647 -0.42005170194681368 0 -0.192642458832438 -0.39757159203805692 0 -0.19841093841887381 -0.40574375978390198 0 -0.2082147184759284 -0.40011166420317679 0 -0.20540366530353599 -0.41500483707466279 0 -0.22186944776659129 -0.4075849245331768 0 -0.20540366530353599 -0.41500483707466279 0 -0.21822136059053959 -0.42623972611262101 0 -0.22186944776659129 -0.4075849245331768 0 -0.19841093841887381 -0.40574375978390198 0 -0.2082147184759284 -0.40011166420317679 0 -0.20540366530353599 -0.41500483707466279 0 -0.21457327341448659 -0.44489452769206478 0 -0.21822136059053959 -0.42623972611262101 0 -0.20006420893797519 -0.43247311481943979 0 -0.20540366530353599 -0.41500483707466279 0 -0.21822136059053959 -0.42623972611262101 0 -0.21457327341448659 -0.44489452769206478 0 -0.20006420893797519 -0.43247311481943979 0 -0.21822136059053959 -0.42623972611262101 0 -0.22654594395745881 -0.43764530049672951 0 -0.21457327341448659 -0.44489452769206478 0 -0.21822136059053959 -0.42623972611262101 0 -0.2380774696897632 -0.43756994180133751 0 -0.22654594395745881 -0.43764530049672951 0 -0.23156756689063471 -0.42355600922796832 0 -0.22654594395745881 -0.43764530049672951 0 -0.21822136059053959 -0.42623972611262101 0 -0.23156756689063471 -0.42355600922796832 0 -0.21822136059053959 -0.42623972611262101 0 -0.23156756689063471 -0.42355600922796832 0 -0.22186944776659129 -0.4075849245331768 0 -0.21822136059053959 -0.42623972611262101 0 -0.22186944776659129 -0.4075849245331768 0 -0.23156756689063471 -0.42355600922796832 0 -0.22186944776659129 -0.4075849245331768 0 -0.2438629629398914 -0.41333881958139068 0 -0.25716885613217533 -0.42246281826982612 0 -0.2438629629398914 -0.41333881958139068 0 -0.24511942690234689 -0.42724708831265179 0 -0.23156756689063471 -0.42355600922796832 0 -0.2438629629398914 -0.41333881958139068 0 -0.24511942690234689 -0.42724708831265179 0 -0.25492027885926971 -0.4393078526827362 0 -0.2380774696897632 -0.43756994180133751 0 -0.24511942690234689 -0.42724708831265179 0 -0.2380774696897632 -0.43756994180133751 0 -0.23156756689063471 -0.42355600922796832 0 -0.24511942690234689 -0.42724708831265179 0 -0.22641617684339441 -0.38521582376801189 0 -0.2400950597132217 -0.36733896130655103 0 -0.21683969750729051 -0.37683338469579242 0 -0.22641617684339441 -0.38521582376801189 0 -0.22476735659134001 -0.36958500124480798 0 -0.21635816543216199 -0.39142068726087459 0 -0.21683969750729051 -0.37683338469579242 0 -0.22641617684339441 -0.38521582376801189 0 -0.22186944776659129 -0.4075849245331768 0 -0.2438629629398914 -0.41333881958139068 0 -0.23418211960079471 -0.39638749695287762 0 -0.21635816543216199 -0.39142068726087459 0 -0.22186944776659129 -0.4075849245331768 0 -0.23418211960079471 -0.39638749695287762 0 -0.21635816543216199 -0.39142068726087459 0 -0.22641617684339441 -0.38521582376801189 0 -0.23418211960079471 -0.39638749695287762 0 -0.2438629629398914 -0.41333881958139068 0 -0.23418211960079471 -0.39638749695287762 0 -0.24966947659482561 -0.39734555498588747 0 -0.23418211960079471 -0.39638749695287762 0 -0.24966947659482561 -0.39734555498588747 0 -0.24430747118197521 -0.38230295348442611 0 -0.22641617684339441 -0.38521582376801189 0 -0.24430747118197521 -0.38230295348442611 0 -0.2400950597132217 -0.36733896130655103 0 -0.22641617684339441 -0.38521582376801189 0 -0.23418211960079471 -0.39638749695287762 0 -0.24430747118197521 -0.38230295348442611 0 -0.25224988298000039 -0.37125021481022441 0 -0.24430747118197521 -0.38230295348442611 0 -0.2400950597132217 -0.36733896130655103 0 -0.25224988298000039 -0.37125021481022441 0 -0.25639014809874938 -0.34604299316079429 0 -0.2400950597132217 -0.36733896130655103 0 -0.24430747118197521 -0.38230295348442611 0 -0.2400950597132217 -0.36733896130655103 0 -0.22641617684339441 -0.38521582376801189 0 -0.2400950597132217 -0.36733896130655103 0 -0.22476735659134001 -0.36958500124480798 0 -0.2400950597132217 -0.36733896130655103 0 -0.22476735659134001 -0.36958500124480798 0 -0.22590708945400931 -0.35743977964939672 0 -0.22476735659134001 -0.36958500124480798 0 -0.22590708945400931 -0.35743977964939672 0 -0.2152270516707743 -0.36140884024431003 0 -0.21683969750729051 -0.37683338469579242 0 -0.22476735659134001 -0.36958500124480798 0 -0.2152270516707743 -0.36140884024431003 0 -0.2400950597132217 -0.36733896130655103 0 -0.22590708945400931 -0.35743977964939672 0 -0.2344258434381789 -0.34719987740564517 0 -0.22067324411948641 -0.34438496964266069 0 -0.22590708945400931 -0.35743977964939672 0 -0.2152270516707743 -0.36140884024431003 0 -0.22067324411948641 -0.34438496964266069 0 -0.22590708945400931 -0.35743977964939672 0 -0.2344258434381789 -0.34719987740564517 0 -0.2400950597132217 -0.36733896130655103 0 -0.2344258434381789 -0.34719987740564517 0 -0.25639014809874938 -0.34604299316079429 0 -0.2400950597132217 -0.36733896130655103 0 -0.25639014809874938 -0.34604299316079429 0 -0.2400950597132217 -0.36733896130655103 0 -0.2344258434381789 -0.34719987740564517 0 -0.2344258434381789 -0.34719987740564517 0 -0.24419962744989621 -0.33687177456890932 0 -0.23778715658391009 -0.33090853983232171 0 -0.25639014809874938 -0.34604299316079429 0 -0.2344258434381789 -0.34719987740564517 0 -0.24419962744989621 -0.33687177456890932 0 -0.25663214697082237 -0.32971286606005717 0 -0.24419962744989621 -0.33687177456890932 0 -0.24419547508842729 -0.32265219142200241 0 -0.24419962744989621 -0.33687177456890932 0 -0.23778715658391009 -0.33090853983232171 0 -0.24419547508842729 -0.32265219142200241 0 -0.25425073342367832 -0.31005663012565732 0 -0.2437488599192579 -0.31471559698466228 0 -0.24419547508842729 -0.32265219142200241 0 -0.23778715658391009 -0.33090853983232171 0 -0.2373582097799101 -0.3207580622603125 0 -0.2287566271631376 -0.32706079350473888 0 -0.23778715658391009 -0.33090853983232171 0 -0.24419547508842729 -0.32265219142200241 0 -0.2373582097799101 -0.3207580622603125 0 -0.2437488599192579 -0.31471559698466228 0 -0.2373582097799101 -0.3207580622603125 0 -0.2317036575437281 -0.31536370189291268 0 -0.2437488599192579 -0.31471559698466228 0 -0.24419547508842729 -0.32265219142200241 0 -0.2373582097799101 -0.3207580622603125 0 -0.2287566271631376 -0.32706079350473888 0 -0.21916724963714229 -0.31821924673930441 0 -0.2230874108880963 -0.30692170960383269 0 -0.2317036575437281 -0.31536370189291268 0 -0.2287566271631376 -0.32706079350473888 0 -0.2230874108880963 -0.30692170960383269 0 -0.2287566271631376 -0.32706079350473888 0 -0.2230874108880963 -0.30692170960383269 0 -0.2373582097799101 -0.3207580622603125 0 -0.2317036575437281 -0.31536370189291268 0 -0.2287566271631376 -0.32706079350473888 0 -0.2287566271631376 -0.32706079350473888 0 -0.21916724963714229 -0.31821924673930441 0 -0.21856666559767521 -0.33042007436114113 0 -0.22067324411948641 -0.34438496964266069 0 -0.2344258434381789 -0.34719987740564517 0 -0.2287566271631376 -0.32706079350473888 0 -0.2344258434381789 -0.34719987740564517 0 -0.2287566271631376 -0.32706079350473888 0 -0.22067324411948641 -0.34438496964266069 0 -0.2287566271631376 -0.32706079350473888 0 -0.21856666559767521 -0.33042007436114113 0 -0.2344258434381789 -0.34719987740564517 0 -0.23778715658391009 -0.33090853983232171 0 -0.2287566271631376 -0.32706079350473888 0 -0.22067324411948641 -0.34438496964266069 0 -0.2118957578329097 -0.3373488695566203 0 -0.21856666559767521 -0.33042007436114113 0 -0.2118957578329097 -0.3373488695566203 0 -0.21856666559767521 -0.33042007436114113 0 -0.21234044923570031 -0.32508649236238107 0 -0.2118957578329097 -0.3373488695566203 0 -0.20510703195788549 -0.33157904948332062 0 -0.21234044923570031 -0.32508649236238107 0 -0.2118957578329097 -0.3373488695566203 0 -0.2049013712408522 -0.3436075492363303 0 -0.20930378702216079 -0.34977262257378822 0 -0.2118957578329097 -0.3373488695566203 0 -0.20510703195788549 -0.33157904948332062 0 -0.2049013712408522 -0.3436075492363303 0 -0.20951335918653061 -0.31322471290248532 0 -0.19988623365359101 -0.32323215711077807 0 -0.20850656465525261 -0.30512862569465687 0 -0.2128584977107916 -0.31788234704428098 0 -0.20951335918653061 -0.31322471290248532 0 -0.2152384995697002 -0.31043564849226979 0 -0.21916724963714229 -0.31821924673930441 0 -0.2128584977107916 -0.31788234704428098 0 -0.2152384995697002 -0.31043564849226979 0 -0.21916724963714229 -0.31821924673930441 0 -0.21856666559767521 -0.33042007436114113 0 -0.21234044923570031 -0.32508649236238107 0 -0.21916724963714229 -0.31821924673930441 0 -0.2128584977107916 -0.31788234704428098 0 -0.21234044923570031 -0.32508649236238107 0 -0.20510703195788549 -0.33157904948332062 0 -0.2075985173524881 -0.32153064783997481 0 -0.19988623365359101 -0.32323215711077807 0 -0.20510703195788549 -0.33157904948332062 0 -0.21234044923570031 -0.32508649236238107 0 -0.2075985173524881 -0.32153064783997481 0 -0.2128584977107916 -0.31788234704428098 0 -0.21234044923570031 -0.32508649236238107 0 -0.2075985173524881 -0.32153064783997481 0 -0.2128584977107916 -0.31788234704428098 0 -0.2075985173524881 -0.32153064783997481 0 -0.20951335918653061 -0.31322471290248532 0 -0.2075985173524881 -0.32153064783997481 0 -0.20951335918653061 -0.31322471290248532 0 -0.19988623365359101 -0.32323215711077807 0 -0.19988623365359101 -0.32323215711077807 0 -0.1943187352665115 -0.3179075946785227 0 -0.19702326286169131 -0.31065604974424821 0 -0.19988623365359101 -0.32323215711077807 0 -0.1921380516143297 -0.32259295844451069 0 -0.19431364274461621 -0.33433151422275842 0 -0.19988623365359101 -0.32323215711077807 0 -0.1921380516143297 -0.32259295844451069 0 -0.1943187352665115 -0.3179075946785227 0 -0.1943187352665115 -0.3179075946785227 0 -0.18822739293643401 -0.31514921341455371 0 -0.19702326286169131 -0.31065604974424821 0 -0.1921380516143297 -0.32259295844451069 0 -0.1943187352665115 -0.3179075946785227 0 -0.18822739293643401 -0.31514921341455371 0 -0.20510703195788549 -0.33157904948332062 0 -0.19988623365359101 -0.32323215711077807 0 -0.19636582206425621 -0.34701574000147051 0 -0.19988623365359101 -0.32323215711077807 0 -0.19431364274461621 -0.33433151422275842 0 -0.19636582206425621 -0.34701574000147051 0 -0.1921380516143297 -0.32259295844451069 0 -0.18886446364628789 -0.34448520133427418 0 -0.19988623365359101 -0.32323215711077807 0 -0.19636582206425621 -0.34701574000147051 0 -0.1921380516143297 -0.32259295844451069 0 -0.19431364274461621 -0.33433151422275842 0 -0.18886446364628789 -0.34448520133427418 0 -0.1921380516143297 -0.32259295844451069 0 -0.18886446364628789 -0.34448520133427418 0 -0.18215020516022951 -0.33239437603419819 0 -0.20510703195788549 -0.33157904948332062 0 -0.2049013712408522 -0.3436075492363303 0 -0.19636582206425621 -0.34701574000147051 0 -0.19431364274461621 -0.33433151422275842 0 -0.18886446364628789 -0.34448520133427418 0 -0.19636582206425621 -0.34701574000147051 0 -0.19636582206425621 -0.34701574000147051 0 -0.19284541047492129 -0.37079932289216277 0 -0.2015519636881026 -0.35993571975923672 0 -0.18886446364628789 -0.34448520133427418 0 -0.19636582206425621 -0.34701574000147051 0 -0.18559087567824609 -0.36637744422403778 0 -0.19636582206425621 -0.34701574000147051 0 -0.19284541047492129 -0.37079932289216277 0 -0.2049013712408522 -0.3436075492363303 0 -0.19636582206425621 -0.34701574000147051 0 -0.2026889420961874 -0.35072249551377649 0 -0.19636582206425621 -0.34701574000147051 0 -0.2026889420961874 -0.35072249551377649 0 -0.2015519636881026 -0.35993571975923672 0 -0.19636582206425621 -0.34701574000147051 0 -0.19284541047492129 -0.37079932289216277 0 -0.18559087567824609 -0.36637744422403778 0 -0.19859250258965891 -0.37991303993787029 0 -0.19982134551020181 -0.37058381476874752 0 -0.2062955052881244 -0.37168717648572008 0 -0.19982134551020181 -0.37058381476874752 0 -0.2015519636881026 -0.35993571975923672 0 -0.2062955052881244 -0.37168717648572008 0 -0.19859250258965891 -0.37991303993787029 0 -0.19284541047492129 -0.37079932289216277 0 -0.19982134551020181 -0.37058381476874752 0 -0.19284541047492129 -0.37079932289216277 0 -0.19982134551020181 -0.37058381476874752 0 -0.2015519636881026 -0.35993571975923672 0 -0.2015519636881026 -0.35993571975923672 0 -0.2062955052881244 -0.37168717648572008 0 -0.2152270516707743 -0.36140884024431003 0 -0.21683969750729051 -0.37683338469579242 0 -0.2062955052881244 -0.37168717648572008 0 -0.2152270516707743 -0.36140884024431003 0 -0.22067324411948641 -0.34438496964266069 0 -0.2152270516707743 -0.36140884024431003 0 -0.20930378702216079 -0.34977262257378822 0 -0.22067324411948641 -0.34438496964266069 0 -0.2118957578329097 -0.3373488695566203 0 -0.20930378702216079 -0.34977262257378822 0 -0.2049013712408522 -0.3436075492363303 0 -0.2026889420961874 -0.35072249551377649 0 -0.20930378702216079 -0.34977262257378822 0 -0.2026889420961874 -0.35072249551377649 0 -0.2015519636881026 -0.35993571975923672 0 -0.20930378702216079 -0.34977262257378822 0 -0.2015519636881026 -0.35993571975923672 0 -0.2152270516707743 -0.36140884024431003 0 -0.20930378702216079 -0.34977262257378822 0 -0.22034534866352459 -0.25156882083834969 0 -0.2324338056110142 -0.26443309419542133 0 -0.236435548659505 -0.2495192776565486 0 -0.22034534866352459 -0.25156882083834969 0 -0.2324338056110142 -0.26443309419542133 0 -0.21661232801058611 -0.26777782431125602 0 -0.24521023478444801 -0.2602106557147722 0 -0.236435548659505 -0.2495192776565486 0 -0.25062049476955539 -0.24619563476610751 0 -0.2324338056110142 -0.26443309419542133 0 -0.24521023478444801 -0.2602106557147722 0 -0.236435548659505 -0.2495192776565486 0 -0.2454513520284935 -0.27585382120546792 0 -0.22794183053959849 -0.2764925146894433 0 -0.23421402264961161 -0.29010938065154729 0 -0.2324338056110142 -0.26443309419542133 0 -0.2454513520284935 -0.27585382120546792 0 -0.22794183053959849 -0.2764925146894433 0 -0.2324338056110142 -0.26443309419542133 0 -0.24521023478444801 -0.2602106557147722 0 -0.2454513520284935 -0.27585382120546792 0 -0.2324338056110142 -0.26443309419542133 0 -0.22794183053959849 -0.2764925146894433 0 -0.21661232801058611 -0.26777782431125602 0 -0.22794183053959849 -0.2764925146894433 0 -0.23421402264961161 -0.29010938065154729 0 -0.21099764439828719 -0.28428845308352391 0 -0.22641723598897259 -0.29585260471107527 0 -0.23421402264961161 -0.29010938065154729 0 -0.21099764439828719 -0.28428845308352391 0 -0.23421402264961161 -0.29010938065154729 0 -0.21099764439828719 -0.28428845308352391 0 -0.22641723598897259 -0.29585260471107527 0 -0.23421402264961161 -0.29010938065154729 0 -0.2333482958784725 -0.30088112721591448 0 -0.25743040090093589 -0.29593030821957078 0 -0.23421402264961161 -0.29010938065154729 0 -0.25743040090093589 -0.29593030821957078 0 -0.2454513520284935 -0.27585382120546792 0 -0.23421402264961161 -0.29010938065154729 0 -0.25743040090093589 -0.29593030821957078 0 -0.23421402264961161 -0.29010938065154729 0 -0.2442806522803305 -0.30294829820572322 0 -0.23421402264961161 -0.29010938065154729 0 -0.2442806522803305 -0.30294829820572322 0 -0.2333482958784725 -0.30088112721591448 0 -0.25425073342367832 -0.31005663012565732 0 -0.2437488599192579 -0.31471559698466228 0 -0.2442806522803305 -0.30294829820572322 0 -0.2437488599192579 -0.31471559698466228 0 -0.2442806522803305 -0.30294829820572322 0 -0.2333482958784725 -0.30088112721591448 0 -0.2437488599192579 -0.31471559698466228 0 -0.2317036575437281 -0.31536370189291268 0 -0.2230874108880963 -0.30692170960383269 0 -0.2437488599192579 -0.31471559698466228 0 -0.21808070855418979 -0.30077975552656422 0 -0.2437488599192579 -0.31471559698466228 0 -0.2230874108880963 -0.30692170960383269 0 -0.21808070855418979 -0.30077975552656422 0 -0.2437488599192579 -0.31471559698466228 0 -0.2333482958784725 -0.30088112721591448 0 -0.21808070855418979 -0.30077975552656422 0 -0.22641723598897259 -0.29585260471107527 0 -0.2333482958784725 -0.30088112721591448 0 -0.21808070855418979 -0.30077975552656422 0 -0.2230874108880963 -0.30692170960383269 0 -0.2152384995697002 -0.31043564849226979 0 -0.21808070855418979 -0.30077975552656422 0 -0.21916724963714229 -0.31821924673930441 0 -0.2230874108880963 -0.30692170960383269 0 -0.2152384995697002 -0.31043564849226979 0 -0.19988623365359101 -0.32323215711077807 0 -0.20340664524292579 -0.29944857422008558 0 -0.20850656465525261 -0.30512862569465687 0 -0.20951335918653061 -0.31322471290248532 0 -0.2152384995697002 -0.31043564849226979 0 -0.20850656465525261 -0.30512862569465687 0 -0.2152384995697002 -0.31043564849226979 0 -0.21808070855418979 -0.30077975552656422 0 -0.20850656465525261 -0.30512862569465687 0 -0.21808070855418979 -0.30077975552656422 0 -0.20340664524292579 -0.29944857422008558 0 -0.20850656465525261 -0.30512862569465687 0 -0.19988623365359101 -0.32323215711077807 0 -0.20340664524292579 -0.29944857422008558 0 -0.19702326286169131 -0.31065604974424821 0 -0.19988623365359101 -0.32323215711077807 0 -0.20340664524292579 -0.29944857422008558 0 -0.19702326286169131 -0.31065604974424821 0 -0.1921769562784654 -0.29954564452172261 0 -0.18470876058474381 -0.30466033516607 0 -0.18822739293643401 -0.31514921341455371 0 -0.19702326286169131 -0.31065604974424821 0 -0.18470876058474381 -0.30466033516607 0 -0.20340664524292579 -0.29944857422008558 0 -0.19702326286169131 -0.31065604974424821 0 -0.1921769562784654 -0.29954564452172261 0 -0.20340664524292579 -0.29944857422008558 0 -0.1921769562784654 -0.29954564452172261 0 -0.1924125571891217 -0.28684391406846621 0 -0.1924125571891217 -0.28684391406846621 0 -0.21099764439828719 -0.28428845308352391 0 -0.187781266146963 -0.27846752551550041 0 -0.21099764439828719 -0.28428845308352391 0 -0.187781266146963 -0.27846752551550041 0 -0.1921769562784654 -0.29954564452172261 0 -0.1924125571891217 -0.28684391406846621 0 -0.18333355551384439 -0.2961193494097431 0 -0.21808070855418979 -0.30077975552656422 0 -0.1924125571891217 -0.28684391406846621 0 -0.21099764439828719 -0.28428845308352391 0 -0.21808070855418979 -0.30077975552656422 0 -0.1924125571891217 -0.28684391406846621 0 -0.21808070855418979 -0.30077975552656422 0 -0.20340664524292579 -0.29944857422008558 0 -0.1924125571891217 -0.28684391406846621 0 -0.22641723598897259 -0.29585260471107527 0 -0.21808070855418979 -0.30077975552656422 0 -0.21099764439828719 -0.28428845308352391 0 -0.22794183053959849 -0.2764925146894433 0 -0.21099764439828719 -0.28428845308352391 0 -0.21661232801058611 -0.26777782431125602 0 -0.21099764439828719 -0.28428845308352391 0 -0.21661232801058611 -0.26777782431125602 0 -0.20222985791043099 -0.27060265654851667 0 -0.21099764439828719 -0.28428845308352391 0 -0.187781266146963 -0.27846752551550041 0 -0.20222985791043099 -0.27060265654851667 0 -0.187781266146963 -0.27846752551550041 0 -0.20222985791043099 -0.27060265654851667 0 -0.190366896422418 -0.26352559485549448 0 -0.20222985791043099 -0.27060265654851667 0 -0.190366896422418 -0.26352559485549448 0 -0.20506423292446829 -0.25662135480691911 0 -0.190366896422418 -0.26352559485549448 0 -0.20506423292446829 -0.25662135480691911 0 -0.19333962017553821 -0.248131514910678 0 -0.22034534866352459 -0.25156882083834969 0 -0.21661232801058611 -0.26777782431125602 0 -0.20506423292446829 -0.25662135480691911 0 -0.21661232801058611 -0.26777782431125602 0 -0.20222985791043099 -0.27060265654851667 0 -0.20506423292446829 -0.25662135480691911 0 -0.15965491377499469 -0.25543064726611159 0 -0.16674440582405281 -0.27290807261036931 0 -0.15322853599344149 -0.26556998984590241 0 -0.17465013784910891 -0.25651207552981542 0 -0.16674440582405281 -0.27290807261036931 0 -0.15965491377499469 -0.25543064726611159 0 -0.17465013784910891 -0.25651207552981542 0 -0.16674440582405281 -0.27290807261036931 0 -0.15965491377499469 -0.25543064726611159 0 -0.17465013784910891 -0.25651207552981542 0 -0.1689828706444442 -0.24451314150763201 0 -0.190366896422418 -0.26352559485549448 0 -0.17465013784910891 -0.25651207552981542 0 -0.1798856765606357 -0.26785331712779492 0 -0.190366896422418 -0.26352559485549448 0 -0.17465013784910891 -0.25651207552981542 0 -0.19333962017553821 -0.248131514910678 0 -0.17465013784910891 -0.25651207552981542 0 -0.1798856765606357 -0.26785331712779492 0 -0.16674440582405281 -0.27290807261036931 0 -0.1924125571891217 -0.28684391406846621 0 -0.16674440582405281 -0.27290807261036931 0 -0.1924125571891217 -0.28684391406846621 0 -0.187781266146963 -0.27846752551550041 0 -0.16674440582405281 -0.27290807261036931 0 -0.187781266146963 -0.27846752551550041 0 -0.1798856765606357 -0.26785331712779492 0 -0.16674440582405281 -0.27290807261036931 0 -0.187781266146963 -0.27846752551550041 0 -0.190366896422418 -0.26352559485549448 0 -0.1798856765606357 -0.26785331712779492 0 -0.16674440582405281 -0.27290807261036931 0 -0.15322853599344149 -0.26556998984590241 0 -0.16674440582405281 -0.27290807261036931 0 -0.1550378788705517 -0.27846618606257728 0 -0.15322853599344149 -0.26556998984590241 0 -0.16674440582405281 -0.27290807261036931 0 -0.15554810047515569 -0.29612851433944493 0 -0.1550378788705517 -0.27846618606257728 0 -0.1743054916004135 -0.28958820938787949 0 -0.17145255035924889 -0.30276344891616619 0 -0.15554810047515569 -0.29612851433944493 0 -0.16674440582405281 -0.27290807261036931 0 -0.15554810047515569 -0.29612851433944493 0 -0.16674440582405281 -0.27290807261036931 0 -0.1743054916004135 -0.28958820938787949 0 -0.15554810047515569 -0.29612851433944493 0 -0.1924125571891217 -0.28684391406846621 0 -0.16674440582405281 -0.27290807261036931 0 -0.1743054916004135 -0.28958820938787949 0 -0.1924125571891217 -0.28684391406846621 0 -0.18333355551384439 -0.2961193494097431 0 -0.1743054916004135 -0.28958820938787949 0 -0.18333355551384439 -0.2961193494097431 0 -0.1743054916004135 -0.28958820938787949 0 -0.17145255035924889 -0.30276344891616619 0 -0.1921769562784654 -0.29954564452172261 0 -0.18333355551384439 -0.2961193494097431 0 -0.18470876058474381 -0.30466033516607 0 -0.18333355551384439 -0.2961193494097431 0 -0.18470876058474381 -0.30466033516607 0 -0.17145255035924889 -0.30276344891616619 0 -0.18822739293643401 -0.31514921341455371 0 -0.18470876058474381 -0.30466033516607 0 -0.176101252740165 -0.31458491436099778 0 -0.18470876058474381 -0.30466033516607 0 -0.17145255035924889 -0.30276344891616619 0 -0.176101252740165 -0.31458491436099778 0 -0.17145255035924889 -0.30276344891616619 0 -0.1630337360442371 -0.3122293153336928 0 -0.176101252740165 -0.31458491436099778 0 -0.17145255035924889 -0.30276344891616619 0 -0.1630337360442371 -0.3122293153336928 0 -0.15554810047515569 -0.29612851433944493 0 -0.15554810047515569 -0.29612851433944493 0 -0.14435179512625879 -0.31934895606852032 0 -0.12680453395498631 -0.30366356005726919 0 -0.15554810047515569 -0.29612851433944493 0 -0.14435179512625879 -0.31934895606852032 0 -0.1630337360442371 -0.3122293153336928 0 -0.15554810047515569 -0.29612851433944493 0 -0.14435179512625879 -0.31934895606852032 0 -0.12680453395498631 -0.30366356005726919 0 -0.13423108745499809 -0.28713044031283302 0 -0.1167354820443192 -0.28396695224190333 0 -0.12680453395498631 -0.30366356005726919 0 -0.13423108745499809 -0.28713044031283302 0 -0.15554810047515569 -0.29612851433944493 0 -0.13423108745499809 -0.28713044031283302 0 -0.1271297338935537 -0.2787256926290172 0 -0.1167354820443192 -0.28396695224190333 0 -0.15554810047515569 -0.29612851433944493 0 -0.1550378788705517 -0.27846618606257728 0 -0.14463047318955691 -0.27925816745459281 0 -0.13423108745499809 -0.28713044031283302 0 -0.15554810047515569 -0.29612851433944493 0 -0.14463047318955691 -0.27925816745459281 0 -0.1550378788705517 -0.27846618606257728 0 -0.14463047318955691 -0.27925816745459281 0 -0.15322853599344149 -0.26556998984590241 0 -0.14067677043801999 -0.2709693507795754 0 -0.14463047318955691 -0.27925816745459281 0 -0.15322853599344149 -0.26556998984590241 0 -0.14067677043801999 -0.2709693507795754 0 -0.1432056448299911 -0.26366823317634469 0 -0.15322853599344149 -0.26556998984590241 0 -0.13423108745499809 -0.28713044031283302 0 -0.14463047318955691 -0.27925816745459281 0 -0.1334631572726511 -0.27378290125342419 0 -0.14067677043801999 -0.2709693507795754 0 -0.14463047318955691 -0.27925816745459281 0 -0.1334631572726511 -0.27378290125342419 0 -0.13423108745499809 -0.28713044031283302 0 -0.1334631572726511 -0.27378290125342419 0 -0.1271297338935537 -0.2787256926290172 0 -0.1271297338935537 -0.2787256926290172 0 -0.1283879477026251 -0.26471526458834832 0 -0.12176934331358789 -0.27354623725191929 0 -0.1334631572726511 -0.27378290125342419 0 -0.13407346769685671 -0.26585672118356568 0 -0.1283879477026251 -0.26471526458834832 0 -0.1334631572726511 -0.27378290125342419 0 -0.1271297338935537 -0.2787256926290172 0 -0.1283879477026251 -0.26471526458834832 0 -0.1271297338935537 -0.2787256926290172 0 -0.1283879477026251 -0.26471526458834832 0 -0.14067677043801999 -0.2709693507795754 0 -0.13407346769685671 -0.26585672118356568 0 -0.1432056448299911 -0.26366823317634469 0 -0.14067677043801999 -0.2709693507795754 0 -0.1334631572726511 -0.27378290125342419 0 -0.13407346769685671 -0.26585672118356568 0 -0.13766644639883471 -0.26101967496510498 0 -0.13899529729981211 -0.25510841070366391 0 -0.1432056448299911 -0.26366823317634469 0 -0.1283879477026251 -0.26471526458834832 0 -0.12986059017222401 -0.24831713638367231 0 -0.13407346769685671 -0.26585672118356568 0 -0.13766644639883471 -0.26101967496510498 0 -0.1432056448299911 -0.26366823317634469 0 -0.13386281940013811 -0.25905254081286833 0 -0.1283879477026251 -0.26471526458834832 0 -0.12986059017222401 -0.24831713638367231 0 -0.1283879477026251 -0.26471526458834832 0 -0.1242741827618466 -0.2541397074383015 0 -0.12986059017222401 -0.24831713638367231 0 -0.13766644639883471 -0.26101967496510498 0 -0.13386281940013811 -0.25905254081286833 0 -0.13899529729981211 -0.25510841070366391 0 -0.13407346769685671 -0.26585672118356568 0 -0.13766644639883471 -0.26101967496510498 0 -0.13386281940013811 -0.25905254081286833 0 -0.13407346769685671 -0.26585672118356568 0 -0.1283879477026251 -0.26471526458834832 0 -0.13407346769685671 -0.26585672118356568 0 -0.13386281940013811 -0.25905254081286833 0 -0.1283879477026251 -0.26471526458834832 0 -0.1242741827618466 -0.2541397074383015 0 -0.12248716586679501 -0.24844290833317059 0 -0.12986059017222401 -0.24831713638367231 0 -0.13386281940013811 -0.25905254081286833 0 -0.13899529729981211 -0.25510841070366391 0 -0.12986059017222401 -0.24831713638367231 0 -0.13899529729981211 -0.25510841070366391 0 -0.14749630003590489 -0.25643897743172289 0 -0.14247629992536839 -0.24909730877613839 0 -0.14749630003590489 -0.25643897743172289 0 -0.14907944547841331 -0.24819222630045659 0 -0.14247629992536839 -0.24909730877613839 0 -0.13899529729981211 -0.25510841070366391 0 -0.14749630003590489 -0.25643897743172289 0 -0.1432056448299911 -0.26366823317634469 0 -0.14749630003590489 -0.25643897743172289 0 -0.1432056448299911 -0.26366823317634469 0 -0.15322853599344149 -0.26556998984590241 0 -0.15965491377499469 -0.25543064726611159 0 -0.14749630003590489 -0.25643897743172289 0 -0.15322853599344149 -0.26556998984590241 0 -0.15965491377499469 -0.25543064726611159 0 -0.14749630003590489 -0.25643897743172289 0 -0.14907944547841331 -0.24819222630045659 0 -0.16982092744099719 -0.35587359561008369 0 -0.1559981289950638 -0.34325027875330438 0 -0.1552257304935987 -0.36386301273566612 0 -0.16982092744099719 -0.35587359561008369 0 -0.17423280912449629 -0.34302150016927141 0 -0.1559981289950638 -0.34325027875330438 0 -0.17702604245516679 -0.38350282565353061 0 -0.1552257304935987 -0.36386301273566612 0 -0.17702604245516679 -0.38350282565353061 0 -0.17123982128825771 -0.36745612592290988 0 -0.1552257304935987 -0.36386301273566612 0 -0.16982092744099719 -0.35587359561008369 0 -0.17123982128825771 -0.36745612592290988 0 -0.1552257304935987 -0.36386301273566612 0 -0.17702604245516679 -0.38350282565353061 0 -0.17123982128825771 -0.36745612592290988 0 -0.17857874766657811 -0.37149553804793922 0 -0.16982092744099719 -0.35587359561008369 0 -0.17123982128825771 -0.36745612592290988 0 -0.17738936727162191 -0.36276345315216219 0 -0.17123982128825771 -0.36745612592290988 0 -0.17738936727162191 -0.36276345315216219 0 -0.17857874766657811 -0.37149553804793922 0 -0.18077394110133321 -0.37823651903734679 0 -0.17857874766657811 -0.37149553804793922 0 -0.18559087567824609 -0.36637744422403778 0 -0.17738936727162191 -0.36276345315216219 0 -0.18559087567824609 -0.36637744422403778 0 -0.1799690832075008 -0.35433191745642389 0 -0.17738936727162191 -0.36276345315216219 0 -0.17857874766657811 -0.37149553804793922 0 -0.18559087567824609 -0.36637744422403778 0 -0.18886446364628789 -0.34448520133427418 0 -0.18559087567824609 -0.36637744422403778 0 -0.18886446364628789 -0.34448520133427418 0 -0.18559087567824609 -0.36637744422403778 0 -0.1799690832075008 -0.35433191745642389 0 -0.16982092744099719 -0.35587359561008369 0 -0.17738936727162191 -0.36276345315216219 0 -0.1799690832075008 -0.35433191745642389 0 -0.16982092744099719 -0.35587359561008369 0 -0.1799690832075008 -0.35433191745642389 0 -0.17423280912449629 -0.34302150016927141 0 -0.18886446364628789 -0.34448520133427418 0 -0.1799690832075008 -0.35433191745642389 0 -0.17423280912449629 -0.34302150016927141 0 -0.18886446364628789 -0.34448520133427418 0 -0.18215020516022951 -0.33239437603419819 0 -0.17423280912449629 -0.34302150016927141 0 -0.18215020516022951 -0.33239437603419819 0 -0.17423280912449629 -0.34302150016927141 0 -0.16859404629689859 -0.32779363182734411 0 -0.1921380516143297 -0.32259295844451069 0 -0.18822739293643401 -0.31514921341455371 0 -0.18212967061587809 -0.32295401854108879 0 -0.18822739293643401 -0.31514921341455371 0 -0.18212967061587809 -0.32295401854108879 0 -0.176101252740165 -0.31458491436099778 0 -0.1921380516143297 -0.32259295844451069 0 -0.18215020516022951 -0.33239437603419819 0 -0.18212967061587809 -0.32295401854108879 0 -0.18212967061587809 -0.32295401854108879 0 -0.176101252740165 -0.31458491436099778 0 -0.16859404629689859 -0.32779363182734411 0 -0.18215020516022951 -0.33239437603419819 0 -0.18212967061587809 -0.32295401854108879 0 -0.16859404629689859 -0.32779363182734411 0 -0.1630337360442371 -0.3122293153336928 0 -0.16859404629689859 -0.32779363182734411 0 -0.14435179512625879 -0.31934895606852032 0 -0.1630337360442371 -0.3122293153336928 0 -0.176101252740165 -0.31458491436099778 0 -0.16859404629689859 -0.32779363182734411 0 -0.16859404629689859 -0.32779363182734411 0 -0.1559981289950638 -0.34325027875330438 0 -0.14435179512625879 -0.31934895606852032 0 -0.17423280912449629 -0.34302150016927141 0 -0.16859404629689859 -0.32779363182734411 0 -0.1559981289950638 -0.34325027875330438 0 -0.1559981289950638 -0.34325027875330438 0 -0.14435179512625879 -0.31934895606852032 0 -0.13342541853203069 -0.34422319981780142 0 -0.12680453395498631 -0.30366356005726919 0 -0.14435179512625879 -0.31934895606852032 0 -0.12526830131356001 -0.32353748967070423 0 -0.14435179512625879 -0.31934895606852032 0 -0.12526830131356001 -0.32353748967070423 0 -0.13342541853203069 -0.34422319981780142 0 -0.13342541853203069 -0.34422319981780142 0 -0.14066158518766059 -0.36753639998789428 0 -0.1247490458052158 -0.3595283050628999 0 -0.13342541853203069 -0.34422319981780142 0 -0.1552257304935987 -0.36386301273566612 0 -0.1559981289950638 -0.34325027875330438 0 -0.13342541853203069 -0.34422319981780142 0 -0.1552257304935987 -0.36386301273566612 0 -0.13342541853203069 -0.34422319981780142 0 -0.1552257304935987 -0.36386301273566612 0 -0.14066158518766059 -0.36753639998789428 0 -0.15574238308673979 -0.37827296045787229 0 -0.1552257304935987 -0.36386301273566612 0 -0.14066158518766059 -0.36753639998789428 0 -0.14066158518766059 -0.36753639998789428 0 -0.13070522877577609 -0.3730939225624979 0 -0.1247490458052158 -0.3595283050628999 0 -0.13070522877577609 -0.3730939225624979 0 -0.1247490458052158 -0.3595283050628999 0 -0.1086473863696964 -0.36793505539855542 0 -0.1256871599670577 -0.38120821553427192 0 -0.13070522877577609 -0.3730939225624979 0 -0.1086473863696964 -0.36793505539855542 0 -0.1256871599670577 -0.38120821553427192 0 -0.1086473863696964 -0.36793505539855542 0 -0.1086473863696964 -0.36793505539855542 0 -0.096039599718944935 -0.35669018364751132 0 -0.092960481587342741 -0.37195244092254359 0 -0.1086473863696964 -0.36793505539855542 0 -0.092960481587342741 -0.37195244092254359 0 -0.10742662694923021 -0.3805708452442752 0 -0.096039599718944935 -0.35669018364751132 0 -0.110305610160915 -0.3448529475477507 0 -0.08786084290248114 -0.3423117088824969 0 -0.1086473863696964 -0.36793505539855542 0 -0.096039599718944935 -0.35669018364751132 0 -0.110305610160915 -0.3448529475477507 0 -0.13342541853203069 -0.34422319981780142 0 -0.1247490458052158 -0.3595283050628999 0 -0.110305610160915 -0.3448529475477507 0 -0.1247490458052158 -0.3595283050628999 0 -0.1086473863696964 -0.36793505539855542 0 -0.110305610160915 -0.3448529475477507 0 -0.12526830131356001 -0.32353748967070423 0 -0.110305610160915 -0.3448529475477507 0 -0.1061903224375856 -0.3210365855462004 0 -0.12526830131356001 -0.32353748967070423 0 -0.13342541853203069 -0.34422319981780142 0 -0.110305610160915 -0.3448529475477507 0 -0.12680453395498631 -0.30366356005726919 0 -0.12526830131356001 -0.32353748967070423 0 -0.1061903224375856 -0.3210365855462004 0 -0.110305610160915 -0.3448529475477507 0 -0.1061903224375856 -0.3210365855462004 0 -0.08786084290248114 -0.3423117088824969 0 -0.08786084290248114 -0.3423117088824969 0 -0.083109668785099955 -0.32415619277724639 0 -0.069733923189144995 -0.34567741938607233 0 -0.1061903224375856 -0.3210365855462004 0 -0.08786084290248114 -0.3423117088824969 0 -0.083109668785099955 -0.32415619277724639 0 -0.083109668785099955 -0.32415619277724639 0 -0.067303126047953715 -0.31469374986816229 0 -0.086451588842880539 -0.30454906474275911 0 -0.1061903224375856 -0.3210365855462004 0 -0.083109668785099955 -0.32415619277724639 0 -0.086451588842880539 -0.30454906474275911 0 -0.083109668785099955 -0.32415619277724639 0 -0.067303126047953715 -0.31469374986816229 0 -0.062865111161506906 -0.32946088823301328 0 -0.083109668785099955 -0.32415619277724639 0 -0.062865111161506906 -0.32946088823301328 0 -0.069733923189144995 -0.34567741938607233 0 -0.069733923189144995 -0.34567741938607233 0 -0.064839997823263898 -0.36647688369251319 0 -0.056137281099546132 -0.35625218546888943 0 -0.069733923189144995 -0.34567741938607233 0 -0.064839997823263898 -0.36647688369251319 0 -0.080108000319274869 -0.36128906319799509 0 -0.064839997823263898 -0.36647688369251319 0 -0.080108000319274869 -0.36128906319799509 0 -0.075604103743425521 -0.38263538939236358 0 -0.096039599718944935 -0.35669018364751132 0 -0.080108000319274869 -0.36128906319799509 0 -0.092960481587342741 -0.37195244092254359 0 -0.080108000319274869 -0.36128906319799509 0 -0.092960481587342741 -0.37195244092254359 0 -0.075604103743425521 -0.38263538939236358 0 -0.096039599718944935 -0.35669018364751132 0 -0.08786084290248114 -0.3423117088824969 0 -0.080108000319274869 -0.36128906319799509 0 -0.08786084290248114 -0.3423117088824969 0 -0.069733923189144995 -0.34567741938607233 0 -0.080108000319274869 -0.36128906319799509 0 -0.1023624779368162 -0.25949024662377063 0 -0.1091800257290213 -0.25067722211056848 0 -0.098558753875313654 -0.24789525972139931 0 -0.1023624779368162 -0.25949024662377063 0 -0.1091800257290213 -0.25067722211056848 0 -0.116194964507214 -0.25440902568286139 0 -0.1283879477026251 -0.26471526458834832 0 -0.1023624779368162 -0.25949024662377063 0 -0.1283879477026251 -0.26471526458834832 0 -0.1023624779368162 -0.25949024662377063 0 -0.116194964507214 -0.25440902568286139 0 -0.1283879477026251 -0.26471526458834832 0 -0.1023624779368162 -0.25949024662377063 0 -0.1136978234089778 -0.27045772159674702 0 -0.1091800257290213 -0.25067722211056848 0 -0.116194964507214 -0.25440902568286139 0 -0.1162377943832648 -0.24758616958613591 0 -0.116194964507214 -0.25440902568286139 0 -0.1242741827618466 -0.2541397074383015 0 -0.12248716586679501 -0.24844290833317059 0 -0.1283879477026251 -0.26471526458834832 0 -0.116194964507214 -0.25440902568286139 0 -0.1242741827618466 -0.2541397074383015 0 -0.116194964507214 -0.25440902568286139 0 -0.12248716586679501 -0.24844290833317059 0 -0.1162377943832648 -0.24758616958613591 0 -0.1283879477026251 -0.26471526458834832 0 -0.1136978234089778 -0.27045772159674702 0 -0.12176934331358789 -0.27354623725191929 0 -0.1136978234089778 -0.27045772159674702 0 -0.12176934331358789 -0.27354623725191929 0 -0.1167354820443192 -0.28396695224190333 0 -0.1271297338935537 -0.2787256926290172 0 -0.12176934331358789 -0.27354623725191929 0 -0.1167354820443192 -0.28396695224190333 0 -0.1136978234089778 -0.27045772159674702 0 -0.10302154434285531 -0.27778044456234402 0 -0.1167354820443192 -0.28396695224190333 0 -0.1023624779368162 -0.25949024662377063 0 -0.10302154434285531 -0.27778044456234402 0 -0.086333789414968901 -0.27900288966785303 0 -0.1023624779368162 -0.25949024662377063 0 -0.1136978234089778 -0.27045772159674702 0 -0.10302154434285531 -0.27778044456234402 0 -0.10302154434285531 -0.27778044456234402 0 -0.1056000516378074 -0.29440437961735588 0 -0.1167354820443192 -0.28396695224190333 0 -0.10302154434285531 -0.27778044456234402 0 -0.1056000516378074 -0.29440437961735588 0 -0.086333789414968901 -0.27900288966785303 0 -0.12680453395498631 -0.30366356005726919 0 -0.1056000516378074 -0.29440437961735588 0 -0.1167354820443192 -0.28396695224190333 0 -0.12680453395498631 -0.30366356005726919 0 -0.1061903224375856 -0.3210365855462004 0 -0.1056000516378074 -0.29440437961735588 0 -0.1061903224375856 -0.3210365855462004 0 -0.1056000516378074 -0.29440437961735588 0 -0.086451588842880539 -0.30454906474275911 0 -0.1056000516378074 -0.29440437961735588 0 -0.086451588842880539 -0.30454906474275911 0 -0.067303126047953715 -0.31469374986816229 0 -0.086451588842880539 -0.30454906474275911 0 -0.065457436024144 -0.29186381258495547 0 -0.067303126047953715 -0.31469374986816229 0 -0.086451588842880539 -0.30454906474275911 0 -0.065457436024144 -0.29186381258495547 0 -0.086333789414968901 -0.27900288966785303 0 -0.065584614230081106 -0.27488449450000219 0 -0.086451588842880539 -0.30454906474275911 0 -0.065457436024144 -0.29186381258495547 0 -0.086333789414968901 -0.27900288966785303 0 -0.1056000516378074 -0.29440437961735588 0 -0.086451588842880539 -0.30454906474275911 0 -0.086333789414968901 -0.27900288966785303 0 -0.086333789414968901 -0.27900288966785303 0 -0.065584614230081106 -0.27488449450000219 0 -0.076337008171007248 -0.25426522865919321 0 -0.065584614230081106 -0.27488449450000219 0 -0.076337008171007248 -0.25426522865919321 0 -0.050146611966178041 -0.26557433686690751 0 -0.076337008171007248 -0.25426522865919321 0 -0.050311538405198232 -0.24904021069461579 0 -0.1023624779368162 -0.25949024662377063 0 -0.076337008171007248 -0.25426522865919321 0 -0.1023624779368162 -0.25949024662377063 0 -0.076337008171007248 -0.25426522865919321 0 -0.098558753875313654 -0.24789525972139931 0 -0.1023624779368162 -0.25949024662377063 0 -0.086333789414968901 -0.27900288966785303 0 -0.076337008171007248 -0.25426522865919321 0 -0.040507584818940269 -0.25689785710473412 0 -0.050146611966178041 -0.26557433686690751 0 -0.034259808212359383 -0.27015843934167838 0 -0.040507584818940269 -0.25689785710473412 0 -0.034259808212359383 -0.27015843934167838 0 -0.027312380692025431 -0.24281844151573459 0 -0.076337008171007248 -0.25426522865919321 0 -0.050146611966178041 -0.26557433686690751 0 -0.050311538405198232 -0.24904021069461579 0 -0.040507584818940269 -0.25689785710473412 0 -0.050146611966178041 -0.26557433686690751 0 -0.050311538405198232 -0.24904021069461579 0 -0.065584614230081106 -0.27488449450000219 0 -0.050146611966178041 -0.26557433686690751 0 -0.051331141233091182 -0.27999590409223318 0 -0.050146611966178041 -0.26557433686690751 0 -0.051331141233091182 -0.27999590409223318 0 -0.034259808212359383 -0.27015843934167838 0 -0.034259808212359383 -0.27015843934167838 0 -0.041207235732693311 -0.29749843716762209 0 -0.034259808212359383 -0.27015843934167838 0 -0.041207235732693311 -0.29749843716762209 0 -0.02798771820716929 -0.29217411032037521 0 -0.051331141233091182 -0.27999590409223318 0 -0.034259808212359383 -0.27015843934167838 0 -0.041207235732693311 -0.29749843716762209 0 -0.065457436024144 -0.29186381258495547 0 -0.051331141233091182 -0.27999590409223318 0 -0.041207235732693311 -0.29749843716762209 0 -0.065457436024144 -0.29186381258495547 0 -0.065584614230081106 -0.27488449450000219 0 -0.051331141233091182 -0.27999590409223318 0 -0.067303126047953715 -0.31469374986816229 0 -0.065457436024144 -0.29186381258495547 0 -0.041207235732693311 -0.29749843716762209 0 -0.067303126047953715 -0.31469374986816229 0 -0.041207235732693311 -0.29749843716762209 0 -0.048154663253027148 -0.32483843499356602 0 -0.041207235732693311 -0.29749843716762209 0 -0.048154663253027148 -0.32483843499356602 0 -0.041207235732693311 -0.29749843716762209 0 -0.025301071510479091 -0.30986238576575842 0 -0.032440625145272108 -0.32317634371443088 0 -0.041207235732693311 -0.29749843716762209 0 -0.025301071510479091 -0.30986238576575842 0 -0.02798771820716929 -0.29217411032037521 0 -0.025301071510479091 -0.30986238576575842 0 -0.016749543092184391 -0.30093810028322232 0 -0.02798771820716929 -0.29217411032037521 0 -0.025301071510479091 -0.30986238576575842 0 -0.016749543092184391 -0.30093810028322232 0 -0.01739778231088757 -0.3103085395497398 0 -0.016749543092184391 -0.30093810028322232 0 -0.01739778231088757 -0.3103085395497398 0 -0.009768742513827075 -0.31077246722382701 0 -0.016749543092184391 -0.30093810028322232 0 -0.009768742513827075 -0.31077246722382701 0 -0.0076772132487415486 -0.30240502708010691 0 -0.009768742513827075 -0.31077246722382701 0 -0.001218064301224819 -0.30894404495570632 0 -0.0041407617024551502 -0.31424586768833013 0 -0.009768742513827075 -0.31077246722382701 0 -0.001218064301224819 -0.30894404495570632 0 -0.0076772132487415486 -0.30240502708010691 0 -0.0076772132487415486 -0.30240502708010691 0 -0.01161540796570755 -0.29180811576070448 0 0.00096569162923609538 -0.29956240717707422 0 -0.001218064301224819 -0.30894404495570632 0 -0.0076772132487415486 -0.30240502708010691 0 0.00096569162923609538 -0.29956240717707422 0 -0.016749543092184391 -0.30093810028322232 0 -0.0076772132487415486 -0.30240502708010691 0 -0.01161540796570755 -0.29180811576070448 0 -0.01161540796570755 -0.29180811576070448 0 -0.026044981645571941 -0.27805568708560208 0 0.0009930660910825867 -0.28153755441145178 0 -0.01161540796570755 -0.29180811576070448 0 0.00096569162923609538 -0.29956240717707422 0 0.0009930660910825867 -0.28153755441145178 0 -0.01161540796570755 -0.29180811576070448 0 -0.02798771820716929 -0.29217411032037521 0 -0.026044981645571941 -0.27805568708560208 0 -0.016749543092184391 -0.30093810028322232 0 -0.01161540796570755 -0.29180811576070448 0 -0.02798771820716929 -0.29217411032037521 0 -0.034259808212359383 -0.27015843934167838 0 -0.026044981645571941 -0.27805568708560208 0 -0.0175811746425669 -0.26859083412647472 0 -0.034259808212359383 -0.27015843934167838 0 -0.02798771820716929 -0.29217411032037521 0 -0.026044981645571941 -0.27805568708560208 0 -0.0175811746425669 -0.26859083412647472 0 -0.0075244569760477102 -0.25975947445953218 0 0.0009930660910825867 -0.28153755441145178 0 -0.026044981645571941 -0.27805568708560208 0 -0.0175811746425669 -0.26859083412647472 0 0.0009930660910825867 -0.28153755441145178 0 -0.0075244569760477102 -0.25975947445953218 0 0.0009930660910825867 -0.28153755441145178 0 0.0055715618356646087 -0.26366604158818169 0 -0.026044981645571941 -0.27805568708560208 0 0.0009930660910825867 -0.28153755441145178 0 -0.0075244569760477102 -0.25975947445953218 0 -0.0066164347875948808 -0.24271512594326239 0 0.001132853500818054 -0.25333800061779432 0 -0.0075244569760477102 -0.25975947445953218 0 -0.018658851062118859 -0.25680846307733651 0 -0.0066164347875948808 -0.24271512594326239 0 -0.0175811746425669 -0.26859083412647472 0 -0.0075244569760477102 -0.25975947445953218 0 -0.018658851062118859 -0.25680846307733651 0 -0.0075244569760477102 -0.25975947445953218 0 0.0055715618356646087 -0.26366604158818169 0 0.001132853500818054 -0.25333800061779432 0 -0.034259808212359383 -0.27015843934167838 0 -0.0175811746425669 -0.26859083412647472 0 -0.018658851062118859 -0.25680846307733651 0 -0.034259808212359383 -0.27015843934167838 0 -0.018658851062118859 -0.25680846307733651 0 -0.027312380692025431 -0.24281844151573459 0 -0.034259808212359383 -0.27015843934167838 0 -0.027312380692025431 -0.24281844151573459 0 -0.046100809086864009 -0.35178982734772851 0 -0.037655401915703407 -0.36152728290559483 0 -0.035550271703279693 -0.3343112575357679 0 -0.037655401915703407 -0.36152728290559483 0 -0.035550271703279693 -0.3343112575357679 0 -0.022008288242621792 -0.35415087130560541 0 -0.037655401915703407 -0.36152728290559483 0 -0.035550271703279693 -0.3343112575357679 0 -0.037655401915703407 -0.36152728290559483 0 -0.02716549404575451 -0.37465583382112078 0 -0.039760532128127121 -0.38874330827542158 0 -0.037655401915703407 -0.36152728290559483 0 -0.050311500753514267 -0.36745743978744272 0 -0.039760532128127121 -0.38874330827542158 0 -0.046100809086864009 -0.35178982734772851 0 -0.037655401915703407 -0.36152728290559483 0 -0.050311500753514267 -0.36745743978744272 0 -0.064839997823263898 -0.36647688369251319 0 -0.050311500753514267 -0.36745743978744272 0 -0.057374982467581097 -0.37995515103450911 0 -0.064839997823263898 -0.36647688369251319 0 -0.050311500753514267 -0.36745743978744272 0 -0.056137281099546132 -0.35625218546888943 0 -0.069733923189144995 -0.34567741938607233 0 -0.056137281099546132 -0.35625218546888943 0 -0.052145972176286692 -0.34054531023122769 0 -0.046100809086864009 -0.35178982734772851 0 -0.056137281099546132 -0.35625218546888943 0 -0.052145972176286692 -0.34054531023122769 0 -0.046100809086864009 -0.35178982734772851 0 -0.050311500753514267 -0.36745743978744272 0 -0.056137281099546132 -0.35625218546888943 0 -0.056137281099546132 -0.35625218546888943 0 -0.052145972176286692 -0.34054531023122769 0 -0.062865111161506906 -0.32946088823301328 0 -0.052145972176286692 -0.34054531023122769 0 -0.048154663253027148 -0.32483843499356602 0 -0.052145972176286692 -0.34054531023122769 0 -0.048154663253027148 -0.32483843499356602 0 -0.062865111161506906 -0.32946088823301328 0 -0.069733923189144995 -0.34567741938607233 0 -0.052145972176286692 -0.34054531023122769 0 -0.067303126047953715 -0.31469374986816229 0 -0.062865111161506906 -0.32946088823301328 0 -0.048154663253027148 -0.32483843499356602 0 -0.067303126047953715 -0.31469374986816229 0 -0.048154663253027148 -0.32483843499356602 0 -0.041207235732693311 -0.29749843716762209 0 -0.048154663253027148 -0.32483843499356602 0 -0.032440625145272108 -0.32317634371443088 0 -0.052145972176286692 -0.34054531023122769 0 -0.048154663253027148 -0.32483843499356602 0 -0.035550271703279693 -0.3343112575357679 0 -0.048154663253027148 -0.32483843499356602 0 -0.035550271703279693 -0.3343112575357679 0 -0.024989636743453551 -0.33711105981875522 0 -0.048154663253027148 -0.32483843499356602 0 -0.024989636743453551 -0.33711105981875522 0 -0.046100809086864009 -0.35178982734772851 0 -0.052145972176286692 -0.34054531023122769 0 -0.035550271703279693 -0.3343112575357679 0 -0.048154663253027148 -0.32483843499356602 0 -0.032440625145272108 -0.32317634371443088 0 -0.024989636743453551 -0.33711105981875522 0 -0.035550271703279693 -0.3343112575357679 0 -0.024989636743453551 -0.33711105981875522 0 -0.022008288242621792 -0.35415087130560541 0 -0.032440625145272108 -0.32317634371443088 0 -0.024989636743453551 -0.33711105981875522 0 -0.023375309815108269 -0.3243094793304746 0 -0.024989636743453551 -0.33711105981875522 0 -0.016224607972181251 -0.32998156930873279 0 -0.023375309815108269 -0.3243094793304746 0 -0.024989636743453551 -0.33711105981875522 0 -0.016224607972181251 -0.32998156930873279 0 -0.01527391476763015 -0.34097166712999238 0 -0.025301071510479091 -0.30986238576575842 0 -0.032440625145272108 -0.32317634371443088 0 -0.023375309815108269 -0.3243094793304746 0 -0.016224607972181251 -0.32998156930873279 0 -0.023375309815108269 -0.3243094793304746 0 -0.016947001291610472 -0.31891665685398979 0 -0.025301071510479091 -0.30986238576575842 0 -0.023375309815108269 -0.3243094793304746 0 -0.016947001291610472 -0.31891665685398979 0 -0.025301071510479091 -0.30986238576575842 0 -0.01739778231088757 -0.3103085395497398 0 -0.016947001291610472 -0.31891665685398979 0 -0.009768742513827075 -0.31077246722382701 0 -0.016947001291610472 -0.31891665685398979 0 -0.0073811343642794921 -0.32002723683359158 0 -0.01739778231088757 -0.3103085395497398 0 -0.009768742513827075 -0.31077246722382701 0 -0.016947001291610472 -0.31891665685398979 0 -0.016224607972181251 -0.32998156930873279 0 -0.016947001291610472 -0.31891665685398979 0 -0.0073811343642794921 -0.32002723683359158 0 -0.016224607972181251 -0.32998156930873279 0 -0.0073811343642794921 -0.32002723683359158 0 -0.0058317805359695014 -0.33092424562459982 0 -0.00090219304442910116 -0.32233256723130188 0 -0.0073811343642794921 -0.32002723683359158 0 -0.0058317805359695014 -0.33092424562459982 0 -0.00090219304442910116 -0.32233256723130188 0 -0.0073811343642794921 -0.32002723683359158 0 0.001804894369510784 -0.31723972174019571 0 -0.009768742513827075 -0.31077246722382701 0 -0.0041407617024551502 -0.31424586768833013 0 -0.0073811343642794921 -0.32002723683359158 0 -0.001218064301224819 -0.30894404495570632 0 -0.0041407617024551502 -0.31424586768833013 0 0.001804894369510784 -0.31723972174019571 0 -0.0041407617024551502 -0.31424586768833013 0 -0.0073811343642794921 -0.32002723683359158 0 0.001804894369510784 -0.31723972174019571 0 -0.01527391476763015 -0.34097166712999238 0 -0.0058317805359695014 -0.33092424562459982 0 -0.0064528311403182041 -0.34658308637676433 0 -0.0058317805359695014 -0.33092424562459982 0 -0.0064528311403182041 -0.34658308637676433 0 0.0077992483530218036 -0.3211390647268203 0 -0.016224607972181251 -0.32998156930873279 0 -0.01527391476763015 -0.34097166712999238 0 -0.0058317805359695014 -0.33092424562459982 0 -0.0064528311403182041 -0.34658308637676433 0 -0.022008288242621792 -0.35415087130560541 0 0.00064886371917051487 -0.36216327411849342 0 -0.01527391476763015 -0.34097166712999238 0 -0.0064528311403182041 -0.34658308637676433 0 -0.022008288242621792 -0.35415087130560541 0 -0.024989636743453551 -0.33711105981875522 0 -0.01527391476763015 -0.34097166712999238 0 -0.022008288242621792 -0.35415087130560541 0 -0.037655401915703407 -0.36152728290559483 0 -0.022008288242621792 -0.35415087130560541 0 -0.02716549404575451 -0.37465583382112078 0 -0.022008288242621792 -0.35415087130560541 0 -0.02716549404575451 -0.37465583382112078 0 -0.01387345433946211 -0.3712125180067411 0 -0.01387345433946211 -0.3712125180067411 0 0.0081625739511966347 -0.37959504827830032 0 0.00064886371917051487 -0.36216327411849342 0 -0.022008288242621792 -0.35415087130560541 0 -0.01387345433946211 -0.3712125180067411 0 0.00064886371917051487 -0.36216327411849342 0 -0.01387345433946211 -0.3712125180067411 0 -0.01115922559210737 -0.38707622746540138 0 -0.02027795451967947 -0.38093531416619208 0 -0.01387345433946211 -0.3712125180067411 0 -0.01115922559210737 -0.38707622746540138 0 0.0081625739511966347 -0.37959504827830032 0 -0.01115922559210737 -0.38707622746540138 0 -0.0029277384365188671 -0.4052699318625318 0 0.0081625739511966347 -0.37959504827830032 0 -0.01115922559210737 -0.38707622746540138 0 -0.0029277384365188671 -0.4052699318625318 0 -0.028913644101393889 -0.39079667737150542 0 -0.0029277384365188671 -0.4052699318625318 0 -0.028913644101393889 -0.39079667737150542 0 -0.023214404207291869 -0.41016444033399119 0 -0.0029277384365188671 -0.4052699318625318 0 -0.028913644101393889 -0.39079667737150542 0 -0.02716549404575451 -0.37465583382112078 0 -0.028913644101393889 -0.39079667737150542 0 -0.02027795451967947 -0.38093531416619208 0 -0.01115922559210737 -0.38707622746540138 0 -0.028913644101393889 -0.39079667737150542 0 -0.02027795451967947 -0.38093531416619208 0 -0.02716549404575451 -0.37465583382112078 0 -0.01387345433946211 -0.3712125180067411 0 -0.02027795451967947 -0.38093531416619208 0 -0.037655401915703407 -0.36152728290559483 0 -0.039760532128127121 -0.38874330827542158 0 -0.02716549404575451 -0.37465583382112078 0 -0.028913644101393889 -0.39079667737150542 0 -0.039760532128127121 -0.38874330827542158 0 -0.028913644101393889 -0.39079667737150542 0 -0.039760532128127121 -0.38874330827542158 0 -0.041865662340550842 -0.4159593336452484 0 -0.039760532128127121 -0.38874330827542158 0 -0.057655160103584832 -0.39560707321508448 0 -0.041865662340550842 -0.4159593336452484 0 -0.028913644101393889 -0.39079667737150542 0 -0.041865662340550842 -0.4159593336452484 0 -0.023214404207291869 -0.41016444033399119 0 -0.039760532128127121 -0.38874330827542158 0 -0.041865662340550842 -0.4159593336452484 0 -0.039760532128127121 -0.38874330827542158 0 -0.057655160103584832 -0.39560707321508448 0 -0.057374982467581097 -0.37995515103450911 0 -0.050311500753514267 -0.36745743978744272 0 -0.039760532128127121 -0.38874330827542158 0 -0.057374982467581097 -0.37995515103450911 0 -0.041865662340550842 -0.4159593336452484 0 -0.043970792552974543 -0.4431753590150751 0 -0.067819266198780231 -0.42783895221688739 0 -0.0597564897685793 -0.4116565792765573 0 -0.041865662340550842 -0.4159593336452484 0 -0.067819266198780231 -0.42783895221688739 0 -0.057655160103584832 -0.39560707321508448 0 -0.0597564897685793 -0.4116565792765573 0 -0.041865662340550842 -0.4159593336452484 0 -0.041865662340550842 -0.4159593336452484 0 -0.019582647672874771 -0.43040409386159462 0 -0.043970792552974543 -0.4431753590150751 0 -0.041865662340550842 -0.4159593336452484 0 -0.043970792552974543 -0.4431753590150751 0 -0.0029277384365188671 -0.4052699318625318 0 -0.019582647672874771 -0.43040409386159462 0 0.007271525743211698 -0.43680195030579488 0 -0.041865662340550842 -0.4159593336452484 0 -0.019582647672874771 -0.43040409386159462 0 -0.023214404207291869 -0.41016444033399119 0 -0.0029277384365188671 -0.4052699318625318 0 -0.019582647672874771 -0.43040409386159462 0 -0.023214404207291869 -0.41016444033399119 0 -0.019582647672874771 -0.43040409386159462 0 -0.008515115741932441 -0.45386071425803037 0 0.007271525743211698 -0.43680195030579488 0 -0.008515115741932441 -0.45386071425803037 0 0.007271525743211698 -0.43680195030579488 0 -0.008515115741932441 -0.45386071425803037 0 -0.0016783646119623609 -0.47146816853448209 0 -0.02430175722707752 -0.47091947821026497 0 -0.008515115741932441 -0.45386071425803037 0 -0.0016783646119623609 -0.47146816853448209 0 0.01009617260750212 -0.45664112822671599 0 -0.008515115741932441 -0.45386071425803037 0 -0.026275132025953499 -0.45228987198137932 0 -0.02430175722707752 -0.47091947821026497 0 -0.026275132025953499 -0.45228987198137932 0 -0.02430175722707752 -0.47091947821026497 0 -0.035155901142851387 -0.45919402339790533 0 -0.008515115741932441 -0.45386071425803037 0 -0.02430175722707752 -0.47091947821026497 0 -0.019582647672874771 -0.43040409386159462 0 -0.008515115741932441 -0.45386071425803037 0 -0.026275132025953499 -0.45228987198137932 0 -0.019582647672874771 -0.43040409386159462 0 -0.026275132025953499 -0.45228987198137932 0 -0.043970792552974543 -0.4431753590150751 0 -0.005511665807985431 -0.48742496297742588 0 -0.019868654601823851 -0.5 0 0.00049954036642466809 -0.5 0 -0.005511665807985431 -0.48742496297742588 0 -0.017632318765940611 -0.48343645158796872 0 -0.019868654601823851 -0.5 0 -0.0016783646119623609 -0.47146816853448209 0 -0.02430175722707752 -0.47091947821026497 0 -0.005511665807985431 -0.48742496297742588 0 -0.0016783646119623609 -0.47146816853448209 0 -0.017632318765940611 -0.48343645158796872 0 -0.0016783646119623609 -0.47146816853448209 0 -0.02430175722707752 -0.47091947821026497 0 -0.017632318765940611 -0.48343645158796872 0 -0.02430175722707752 -0.47091947821026497 0 -0.030762325635132759 -0.47790065350166733 0 -0.030762325635132759 -0.47790065350166733 0 -0.017632318765940611 -0.48343645158796872 0 -0.02818738061239133 -0.49023327762177787 0 -0.02430175722707752 -0.47091947821026497 0 -0.030762325635132759 -0.47790065350166733 0 -0.017632318765940611 -0.48343645158796872 0 -0.017632318765940611 -0.48343645158796872 0 -0.019868654601823851 -0.5 0 -0.02818738061239133 -0.49023327762177787 0 -0.030762325635132759 -0.47790065350166733 0 -0.02818738061239133 -0.49023327762177787 0 -0.048366117253109672 -0.50000000000000189 0 -0.019868654601823851 -0.5 0 -0.02818738061239133 -0.49023327762177787 0 -0.048366117253109672 -0.50000000000000189 0 -0.02430175722707752 -0.47091947821026497 0 -0.030762325635132759 -0.47790065350166733 0 -0.046075922765399992 -0.47039138438490169 0 -0.02430175722707752 -0.47091947821026497 0 -0.046075922765399992 -0.47039138438490169 0 -0.030762325635132759 -0.47790065350166733 0 -0.046075922765399992 -0.47039138438490169 0 -0.048366117253109672 -0.50000000000000189 0 -0.046075922765399992 -0.47039138438490169 0 -0.076011415961495077 -0.46966535201005721 0 -0.046075922765399992 -0.47039138438490169 0 -0.061384954955985893 -0.48410012709879802 0 -0.076011415961495077 -0.46966535201005721 0 -0.046075922765399992 -0.47039138438490169 0 -0.061384954955985893 -0.48410012709879802 0 -0.048366117253109672 -0.50000000000000189 0 -0.046075922765399992 -0.47039138438490169 0 -0.048366117253109672 -0.50000000000000189 0 -0.061384954955985893 -0.48410012709879802 0 -0.048366117253109672 -0.50000000000000189 0 -0.077187884442144805 -0.5 0 -0.026275132025953499 -0.45228987198137932 0 -0.043970792552974543 -0.4431753590150751 0 -0.035155901142851387 -0.45919402339790533 0 -0.046075922765399992 -0.47039138438490169 0 -0.043970792552974543 -0.4431753590150751 0 -0.035155901142851387 -0.45919402339790533 0 -0.046075922765399992 -0.47039138438490169 0 -0.043970792552974543 -0.4431753590150751 0 -0.02430175722707752 -0.47091947821026497 0 -0.046075922765399992 -0.47039138438490169 0 -0.035155901142851387 -0.45919402339790533 0 -0.046075922765399992 -0.47039138438490169 0 -0.061600278024326667 -0.45470724554984859 0 -0.076011415961495077 -0.46966535201005721 0 -0.046075922765399992 -0.47039138438490169 0 -0.043970792552974543 -0.4431753590150751 0 -0.061600278024326667 -0.45470724554984859 0 -0.043970792552974543 -0.4431753590150751 0 -0.061600278024326667 -0.45470724554984859 0 -0.067819266198780231 -0.42783895221688739 0 -0.061600278024326667 -0.45470724554984859 0 -0.087014034546708835 -0.45018814476886643 0 -0.067819266198780231 -0.42783895221688739 0 -0.061600278024326667 -0.45470724554984859 0 -0.087014034546708835 -0.45018814476886643 0 -0.076011415961495077 -0.46966535201005721 0 -0.087014034546708835 -0.45018814476886643 0 -0.076011415961495077 -0.46966535201005721 0 -0.1059469091575902 -0.46893931963521279 0 -0.061384954955985893 -0.48410012709879802 0 -0.077187884442144805 -0.5 0 -0.091303474093303694 -0.484391001634216 0 -0.061384954955985893 -0.48410012709879802 0 -0.076011415961495077 -0.46966535201005721 0 -0.091303474093303694 -0.484391001634216 0 -0.076011415961495077 -0.46966535201005721 0 -0.1059469091575902 -0.46893931963521279 0 -0.076011415961495077 -0.46966535201005721 0 -0.091303474093303694 -0.484391001634216 0 -0.1059469091575902 -0.46893931963521279 0 -0.077187884442144805 -0.5 0 -0.091303474093303694 -0.484391001634216 0 -0.1060096516311799 -0.5 0 -0.091303474093303694 -0.484391001634216 0 -0.1060096516311799 -0.5 0 -0.12128002841142629 -0.4836412110612282 0 -0.091303474093303694 -0.484391001634216 0 -0.1059469091575902 -0.46893931963521279 0 -0.12128002841142629 -0.4836412110612282 0 -0.13588240235368521 -0.46821328726036848 0 -0.1059469091575902 -0.46893931963521279 0 -0.12128002841142629 -0.4836412110612282 0 -0.13483141882021499 -0.5 0 -0.1060096516311799 -0.5 0 -0.12128002841142629 -0.4836412110612282 0 -0.087014034546708835 -0.45018814476886643 0 -0.11532737834136959 -0.44527629091745602 0 -0.096638511823738033 -0.43000720190504349 0 -0.087014034546708835 -0.45018814476886643 0 -0.1059469091575902 -0.46893931963521279 0 -0.11532737834136959 -0.44527629091745602 0 -0.13588240235368521 -0.46821328726036848 0 -0.1059469091575902 -0.46893931963521279 0 -0.13588240235368521 -0.46821328726036848 0 -0.1059469091575902 -0.46893931963521279 0 -0.11532737834136959 -0.44527629091745602 0 -0.1294305586347588 -0.42997154963942907 0 -0.11532737834136959 -0.44527629091745602 0 -0.11494177189614541 -0.42838484126539328 0 -0.12504180997478631 -0.41687942734639749 0 -0.1294305586347588 -0.42997154963942907 0 -0.11494177189614541 -0.42838484126539328 0 -0.11494177189614541 -0.42838484126539328 0 -0.096638511823738033 -0.43000720190504349 0 -0.1068044647748536 -0.41572727372061319 0 -0.11532737834136959 -0.44527629091745602 0 -0.11494177189614541 -0.42838484126539328 0 -0.096638511823738033 -0.43000720190504349 0 -0.1068044647748536 -0.41572727372061319 0 -0.11681159449945561 -0.40477164295947748 0 -0.1010768150865469 -0.40117295568086858 0 -0.096638511823738033 -0.43000720190504349 0 -0.1068044647748536 -0.41572727372061319 0 -0.087924155184570724 -0.41262770854104508 0 -0.1068044647748536 -0.41572727372061319 0 -0.1010768150865469 -0.40117295568086858 0 -0.087924155184570724 -0.41262770854104508 0 -0.12504180997478631 -0.41687942734639749 0 -0.11494177189614541 -0.42838484126539328 0 -0.1068044647748536 -0.41572727372061319 0 -0.12504180997478631 -0.41687942734639749 0 -0.1068044647748536 -0.41572727372061319 0 -0.11681159449945561 -0.40477164295947748 0 -0.1281613288464136 -0.40661377742169269 0 -0.12504180997478631 -0.41687942734639749 0 -0.11681159449945561 -0.40477164295947748 0 -0.11471423949689739 -0.39074482380819747 0 -0.11681159449945561 -0.40477164295947748 0 -0.1010768150865469 -0.40117295568086858 0 -0.1279426818698331 -0.3958868412390425 0 -0.1281613288464136 -0.40661377742169269 0 -0.11681159449945561 -0.40477164295947748 0 -0.1279426818698331 -0.3958868412390425 0 -0.11471423949689739 -0.39074482380819747 0 -0.11681159449945561 -0.40477164295947748 0 -0.1256871599670577 -0.38120821553427192 0 -0.11471423949689739 -0.39074482380819747 0 -0.10742662694923021 -0.3805708452442752 0 -0.1256871599670577 -0.38120821553427192 0 -0.1086473863696964 -0.36793505539855542 0 -0.10742662694923021 -0.3805708452442752 0 -0.1256871599670577 -0.38120821553427192 0 -0.1279426818698331 -0.3958868412390425 0 -0.11471423949689739 -0.39074482380819747 0 -0.11471423949689739 -0.39074482380819747 0 -0.10742662694923021 -0.3805708452442752 0 -0.096584164484869797 -0.387525597453452 0 -0.092960481587342741 -0.37195244092254359 0 -0.10742662694923021 -0.3805708452442752 0 -0.096584164484869797 -0.387525597453452 0 -0.096584164484869797 -0.387525597453452 0 -0.1010768150865469 -0.40117295568086858 0 -0.084722627589494531 -0.39502430048833831 0 -0.11471423949689739 -0.39074482380819747 0 -0.096584164484869797 -0.387525597453452 0 -0.1010768150865469 -0.40117295568086858 0 -0.084722627589494531 -0.39502430048833831 0 -0.072885746397507209 -0.40454436778453962 0 -0.087924155184570724 -0.41262770854104508 0 -0.1010768150865469 -0.40117295568086858 0 -0.084722627589494531 -0.39502430048833831 0 -0.087924155184570724 -0.41262770854104508 0 -0.096584164484869797 -0.387525597453452 0 -0.084722627589494531 -0.39502430048833831 0 -0.075604103743425521 -0.38263538939236358 0 -0.092960481587342741 -0.37195244092254359 0 -0.096584164484869797 -0.387525597453452 0 -0.075604103743425521 -0.38263538939236358 0 -0.057655160103584832 -0.39560707321508448 0 -0.057374982467581097 -0.37995515103450911 0 -0.075604103743425521 -0.38263538939236358 0 -0.064839997823263898 -0.36647688369251319 0 -0.057374982467581097 -0.37995515103450911 0 -0.075604103743425521 -0.38263538939236358 0 -0.057655160103584832 -0.39560707321508448 0 -0.075604103743425521 -0.38263538939236358 0 -0.072885746397507209 -0.40454436778453962 0 -0.084722627589494531 -0.39502430048833831 0 -0.075604103743425521 -0.38263538939236358 0 -0.072885746397507209 -0.40454436778453962 0 -0.057655160103584832 -0.39560707321508448 0 -0.0597564897685793 -0.4116565792765573 0 -0.072885746397507209 -0.40454436778453962 0 -0.072885746397507209 -0.40454436778453962 0 -0.067819266198780231 -0.42783895221688739 0 -0.087924155184570724 -0.41262770854104508 0 -0.0597564897685793 -0.4116565792765573 0 -0.072885746397507209 -0.40454436778453962 0 -0.067819266198780231 -0.42783895221688739 0 -0.087014034546708835 -0.45018814476886643 0 -0.096638511823738033 -0.43000720190504349 0 -0.067819266198780231 -0.42783895221688739 0 -0.096638511823738033 -0.43000720190504349 0 -0.067819266198780231 -0.42783895221688739 0 -0.087924155184570724 -0.41262770854104508 0 -0.078324349012464572 -0.08059104663241691 0 -0.090323957156708698 -0.1059108988191988 0 -0.078324349012464572 -0.08059104663241691 0 -0.092337310220316479 -0.079232262503998063 0 -0.094456894775858974 -0.093248866077003362 0 -0.078324349012464572 -0.08059104663241691 0 -0.090323957156708698 -0.1059108988191988 0 -0.094456894775858974 -0.093248866077003362 0 -0.092337310220316479 -0.079232262503998063 0 -0.1035844974037087 -0.066635517788513218 0 -0.08460089365977129 -0.062113101816462422 0 -0.078324349012464572 -0.08059104663241691 0 -0.092337310220316479 -0.079232262503998063 0 -0.08460089365977129 -0.062113101816462422 0 -0.078324349012464572 -0.08059104663241691 0 -0.066324740868220447 -0.055271194445635032 0 -0.078324349012464572 -0.08059104663241691 0 -0.066324740868220447 -0.055271194445635032 0 -0.060469628972920637 -0.066418717851295134 0 -0.078324349012464572 -0.08059104663241691 0 -0.08460089365977129 -0.062113101816462422 0 -0.066324740868220447 -0.055271194445635032 0 -0.078324349012464572 -0.08059104663241691 0 -0.060469628972920637 -0.066418717851295134 0 -0.060438156694567632 -0.095421163073878948 0 -0.078324349012464572 -0.08059104663241691 0 -0.073736928178677524 -0.11253570652061751 0 -0.090323957156708698 -0.1059108988191988 0 -0.078324349012464572 -0.08059104663241691 0 -0.073736928178677524 -0.11253570652061751 0 -0.060438156694567632 -0.095421163073878948 0 -0.073736928178677524 -0.11253570652061751 0 -0.060406684416214627 -0.1244236082964626 0 -0.080975825249002487 -0.13682224990224129 0 -0.073736928178677524 -0.11253570652061751 0 -0.060406684416214627 -0.1244236082964626 0 -0.060438156694567632 -0.095421163073878948 0 -0.073736928178677524 -0.11253570652061751 0 -0.086840068971335366 -0.1216249015620096 0 -0.080975825249002487 -0.13682224990224129 0 -0.073736928178677524 -0.11253570652061751 0 -0.086840068971335366 -0.1216249015620096 0 -0.090323957156708698 -0.1059108988191988 0 -0.086840068971335366 -0.1216249015620096 0 -0.090323957156708698 -0.1059108988191988 0 -0.1023235653009528 -0.13123075100598069 0 -0.090323957156708698 -0.1059108988191988 0 -0.10050586714993801 -0.10376008953555139 0 -0.094456894775858974 -0.093248866077003362 0 -0.10050586714993801 -0.10376008953555139 0 -0.1041797110560579 -0.09704194889567444 0 -0.094456894775858974 -0.093248866077003362 0 -0.090323957156708698 -0.1059108988191988 0 -0.10050586714993801 -0.10376008953555139 0 -0.105092468543621 -0.1137256644229936 0 -0.10050586714993801 -0.10376008953555139 0 -0.1078430855207321 -0.1043426494574677 0 -0.1041797110560579 -0.09704194889567444 0 -0.10050586714993801 -0.10376008953555139 0 -0.1078430855207321 -0.1043426494574677 0 -0.105092468543621 -0.1137256644229936 0 -0.1078430855207321 -0.1043426494574677 0 -0.107698178574548 -0.094897150323784152 0 -0.1041797110560579 -0.09704194889567444 0 -0.107698178574548 -0.094897150323784152 0 -0.1041797110560579 -0.09704194889567444 0 -0.090323957156708698 -0.1059108988191988 0 -0.105092468543621 -0.1137256644229936 0 -0.1023235653009528 -0.13123075100598069 0 -0.105092468543621 -0.1137256644229936 0 -0.1120375534338989 -0.1225765663547608 0 -0.1023235653009528 -0.13123075100598069 0 -0.090323957156708698 -0.1059108988191988 0 -0.1023235653009528 -0.13123075100598069 0 -0.1217392022794949 -0.1122883941093334 0 -0.1189949776115268 -0.13306145588073551 0 -0.1217392022794949 -0.1122883941093334 0 -0.1189949776115268 -0.13306145588073551 0 -0.12947548143064089 -0.12187056700056211 0 -0.105092468543621 -0.1137256644229936 0 -0.1120375534338989 -0.1225765663547608 0 -0.1217392022794949 -0.1122883941093334 0 -0.1120375534338989 -0.1225765663547608 0 -0.1217392022794949 -0.1122883941093334 0 -0.1189949776115268 -0.13306145588073551 0 -0.1078430855207321 -0.1043426494574677 0 -0.105092468543621 -0.1137256644229936 0 -0.1217392022794949 -0.1122883941093334 0 -0.1217392022794949 -0.1122883941093334 0 -0.1224525997933185 -0.10688816183417391 0 -0.12947548143064089 -0.12187056700056211 0 -0.1217392022794949 -0.1122883941093334 0 -0.1224525997933185 -0.10688816183417391 0 -0.107698178574548 -0.094897150323784152 0 -0.1217392022794949 -0.1122883941093334 0 -0.1224525997933185 -0.10688816183417391 0 -0.107698178574548 -0.094897150323784152 0 -0.1224525997933185 -0.10688816183417391 0 -0.1148020651827299 -0.090566740629221473 0 -0.1224525997933185 -0.10688816183417391 0 -0.1148020651827299 -0.090566740629221473 0 -0.12546762730328931 -0.084065193497023988 0 -0.107698178574548 -0.094897150323784152 0 -0.1217392022794949 -0.1122883941093334 0 -0.1224525997933185 -0.10688816183417391 0 -0.12546762730328931 -0.084065193497023988 0 -0.1224525997933185 -0.10688816183417391 0 -0.1148020651827299 -0.090566740629221473 0 -0.1078430855207321 -0.1043426494574677 0 -0.107698178574548 -0.094897150323784152 0 -0.1217392022794949 -0.1122883941093334 0 -0.1148020651827299 -0.090566740629221473 0 -0.12546762730328931 -0.084065193497023988 0 -0.1148020651827299 -0.090566740629221473 0 -0.1172858587563728 -0.06993400729535626 0 -0.12546762730328931 -0.084065193497023988 0 -0.107698178574548 -0.094897150323784152 0 -0.1148020651827299 -0.090566740629221473 0 -0.1148020651827299 -0.090566740629221473 0 -0.1035844974037087 -0.066635517788513218 0 -0.107698178574548 -0.094897150323784152 0 -0.1041797110560579 -0.09704194889567444 0 -0.10259589629967281 -0.088577451933574483 0 -0.107698178574548 -0.094897150323784152 0 -0.1148020651827299 -0.090566740629221473 0 -0.10259589629967281 -0.088577451933574483 0 -0.1148020651827299 -0.090566740629221473 0 -0.10259589629967281 -0.088577451933574483 0 -0.1035844974037087 -0.066635517788513218 0 -0.092337310220316479 -0.079232262503998063 0 -0.10259589629967281 -0.088577451933574483 0 -0.1035844974037087 -0.066635517788513218 0 -0.107698178574548 -0.094897150323784152 0 -0.10259589629967281 -0.088577451933574483 0 -0.1041797110560579 -0.09704194889567444 0 -0.10259589629967281 -0.088577451933574483 0 -0.094456894775858974 -0.093248866077003362 0 -0.092337310220316479 -0.079232262503998063 0 -0.10259589629967281 -0.088577451933574483 0 -0.094456894775858974 -0.093248866077003362 0 -0.1172858587563728 -0.06993400729535626 0 -0.12546762730328931 -0.084065193497023988 0 -0.12934471968921851 -0.05471661990301524 0 -0.1035844974037087 -0.066635517788513218 0 -0.1172858587563728 -0.06993400729535626 0 -0.1132303842029177 -0.05368596465900722 0 -0.1148020651827299 -0.090566740629221473 0 -0.1035844974037087 -0.066635517788513218 0 -0.1172858587563728 -0.06993400729535626 0 -0.1132303842029177 -0.05368596465900722 0 -0.1173768081565245 -0.038026315917921882 0 -0.12934471968921851 -0.05471661990301524 0 -0.1172858587563728 -0.06993400729535626 0 -0.1132303842029177 -0.05368596465900722 0 -0.12934471968921851 -0.05471661990301524 0 -0.1173768081565245 -0.038026315917921882 0 -0.1027712514957857 -0.027458266459648412 0 -0.092366929624687399 -0.04270429494780504 0 -0.1132303842029177 -0.05368596465900722 0 -0.1173768081565245 -0.038026315917921882 0 -0.092366929624687399 -0.04270429494780504 0 -0.1035844974037087 -0.066635517788513218 0 -0.1132303842029177 -0.05368596465900722 0 -0.092366929624687399 -0.04270429494780504 0 -0.1035844974037087 -0.066635517788513218 0 -0.092366929624687399 -0.04270429494780504 0 -0.1180746810535893 -0.01844753626820873 0 -0.1092492793166108 -0.0014402969385394621 0 -0.1328376889806758 -0.0045356249474490153 0 -0.1173768081565245 -0.038026315917921882 0 -0.1180746810535893 -0.01844753626820873 0 -0.1332218120751483 -0.025368046309006621 0 -0.1173768081565245 -0.038026315917921882 0 -0.1180746810535893 -0.01844753626820873 0 -0.1027712514957857 -0.027458266459648412 0 -0.1180746810535893 -0.01844753626820873 0 -0.1027712514957857 -0.027458266459648412 0 -0.095385432765258266 -0.01466631917639548 0 -0.1180746810535893 -0.01844753626820873 0 -0.095385432765258266 -0.01466631917639548 0 -0.1092492793166108 -0.0014402969385394621 0 -0.095385432765258266 -0.01466631917639548 0 -0.087018808590096697 0.0050938216017826022 0 -0.1180746810535893 -0.01844753626820873 0 -0.1092492793166108 -0.0014402969385394621 0 -0.095385432765258266 -0.01466631917639548 0 -0.095385432765258266 -0.01466631917639548 0 -0.072696184476927217 -0.010885102084582239 0 -0.095385432765258266 -0.01466631917639548 0 -0.081149361845666151 -0.018773072107096899 0 -0.072696184476927217 -0.010885102084582239 0 -0.095385432765258266 -0.01466631917639548 0 -0.072696184476927217 -0.010885102084582239 0 -0.087018808590096697 0.0050938216017826022 0 -0.1027712514957857 -0.027458266459648412 0 -0.081149361845666151 -0.018773072107096899 0 -0.092366929624687399 -0.04270429494780504 0 -0.1027712514957857 -0.027458266459648412 0 -0.095385432765258266 -0.01466631917639548 0 -0.081149361845666151 -0.018773072107096899 0 -0.081149361845666151 -0.018773072107096899 0 -0.092366929624687399 -0.04270429494780504 0 -0.081149361845666151 -0.018773072107096899 0 -0.07107442954957495 -0.028370671398245239 0 -0.092366929624687399 -0.04270429494780504 0 -0.081149361845666151 -0.018773072107096899 0 -0.07107442954957495 -0.028370671398245239 0 -0.072696184476927217 -0.010885102084582239 0 -0.07107442954957495 -0.028370671398245239 0 -0.072696184476927217 -0.010885102084582239 0 -0.055166833705015662 -0.023232649582786449 0 -0.072696184476927217 -0.010885102084582239 0 -0.087018808590096697 0.0050938216017826022 0 -0.071623562416749581 0.0045980549106218772 0 -0.08460089365977129 -0.062113101816462422 0 -0.092366929624687399 -0.04270429494780504 0 -0.078091964398040462 -0.052544338554258073 0 -0.1035844974037087 -0.066635517788513218 0 -0.08460089365977129 -0.062113101816462422 0 -0.092366929624687399 -0.04270429494780504 0 -0.07107442954957495 -0.028370671398245239 0 -0.092366929624687399 -0.04270429494780504 0 -0.073998132458009735 -0.043044146826783938 0 -0.092366929624687399 -0.04270429494780504 0 -0.073998132458009735 -0.043044146826783938 0 -0.078091964398040462 -0.052544338554258073 0 -0.073998132458009735 -0.043044146826783938 0 -0.066324740868220447 -0.055271194445635032 0 -0.060501101251273649 -0.037416272628711583 0 -0.07107442954957495 -0.028370671398245239 0 -0.073998132458009735 -0.043044146826783938 0 -0.060501101251273649 -0.037416272628711583 0 -0.08460089365977129 -0.062113101816462422 0 -0.078091964398040462 -0.052544338554258073 0 -0.066324740868220447 -0.055271194445635032 0 -0.073998132458009735 -0.043044146826783938 0 -0.078091964398040462 -0.052544338554258073 0 -0.066324740868220447 -0.055271194445635032 0 -0.060501101251273649 -0.037416272628711583 0 -0.060469628972920637 -0.066418717851295134 0 -0.046922209646695967 -0.051626220036632163 0 -0.043257631604117143 -0.069270896644052601 0 -0.060469628972920637 -0.066418717851295134 0 -0.046922209646695967 -0.051626220036632163 0 -0.060501101251273649 -0.037416272628711583 0 -0.060469628972920637 -0.066418717851295134 0 -0.066324740868220447 -0.055271194445635032 0 -0.060501101251273649 -0.037416272628711583 0 -0.060469628972920637 -0.066418717851295134 0 -0.046922209646695967 -0.051626220036632163 0 -0.060501101251273649 -0.037416272628711583 0 -0.048292301956745533 -0.035901867632508709 0 -0.060501101251273649 -0.037416272628711583 0 -0.048292301956745533 -0.035901867632508709 0 -0.055166833705015662 -0.023232649582786449 0 -0.046922209646695967 -0.051626220036632163 0 -0.048292301956745533 -0.035901867632508709 0 -0.036553490115645959 -0.040736307107436982 0 -0.048292301956745533 -0.035901867632508709 0 -0.036553490115645959 -0.040736307107436982 0 -0.042317875065096433 -0.026497888806976389 0 -0.036553490115645959 -0.040736307107436982 0 -0.042317875065096433 -0.026497888806976389 0 -0.028135644298819599 -0.029488124832443331 0 -0.046922209646695967 -0.051626220036632163 0 -0.036553490115645959 -0.040736307107436982 0 -0.031834558351637857 -0.058763572522242173 0 -0.046922209646695967 -0.051626220036632163 0 -0.031834558351637857 -0.058763572522242173 0 -0.043257631604117143 -0.069270896644052601 0 -0.072696184476927217 -0.010885102084582239 0 -0.050006936188596147 -0.0071038849927689794 0 -0.057435565951508283 0.007572134026259187 0 -0.072696184476927217 -0.010885102084582239 0 -0.050006936188596147 -0.0071038849927689794 0 -0.055166833705015662 -0.023232649582786449 0 -0.072696184476927217 -0.010885102084582239 0 -0.050006936188596147 -0.0071038849927689794 0 -0.07107442954957495 -0.028370671398245239 0 -0.060501101251273649 -0.037416272628711583 0 -0.055166833705015662 -0.023232649582786449 0 -0.050006936188596147 -0.0071038849927689794 0 -0.055166833705015662 -0.023232649582786449 0 -0.042152224208721722 -0.017445036051433969 0 -0.048292301956745533 -0.035901867632508709 0 -0.055166833705015662 -0.023232649582786449 0 -0.042317875065096433 -0.026497888806976389 0 -0.042317875065096433 -0.026497888806976389 0 -0.032883828284425258 -0.01991182557922366 0 -0.028135644298819599 -0.029488124832443331 0 -0.032883828284425258 -0.01991182557922366 0 -0.042152224208721722 -0.017445036051433969 0 -0.030385647800475129 -0.0104789312954144 0 -0.055166833705015662 -0.023232649582786449 0 -0.042317875065096433 -0.026497888806976389 0 -0.042152224208721722 -0.017445036051433969 0 -0.042317875065096433 -0.026497888806976389 0 -0.032883828284425258 -0.01991182557922366 0 -0.042152224208721722 -0.017445036051433969 0 -0.050006936188596147 -0.0071038849927689794 0 -0.042152224208721722 -0.017445036051433969 0 -0.030385647800475129 -0.0104789312954144 0 -0.050006936188596147 -0.0071038849927689794 0 -0.027317687900264689 -0.0033226679009582898 0 -0.039400224383949717 0.002898592655123104 0 -0.050006936188596147 -0.0071038849927689794 0 -0.027317687900264689 -0.0033226679009582898 0 -0.050006936188596147 -0.0071038849927689794 0 -0.027317687900264689 -0.0033226679009582898 0 -0.030385647800475129 -0.0104789312954144 0 -0.027317687900264689 -0.0033226679009582898 0 -0.0066317386901698708 0.00012469464361213051 0 -0.027317687900264689 -0.0033226679009582898 0 -0.01550507491235297 -0.01215250645500429 0 -0.0066317386901698708 0.00012469464361213051 0 -0.027317687900264689 -0.0033226679009582898 0 -0.030385647800475129 -0.0104789312954144 0 -0.027317687900264689 -0.0033226679009582898 0 -0.030385647800475129 -0.0104789312954144 0 -0.01550507491235297 -0.01215250645500429 0 -0.030385647800475129 -0.0104789312954144 0 -0.023687745795998069 -0.019166115775067171 0 -0.01550507491235297 -0.01215250645500429 0 -0.023687745795998069 -0.019166115775067171 0 -0.028135644298819599 -0.029488124832443331 0 -0.01131780637347571 -0.027587156843098159 0 -0.023687745795998069 -0.019166115775067171 0 -0.01131780637347571 -0.027587156843098159 0 -0.01550507491235297 -0.01215250645500429 0 -0.032883828284425258 -0.01991182557922366 0 -0.030385647800475129 -0.0104789312954144 0 -0.023687745795998069 -0.019166115775067171 0 -0.032883828284425258 -0.01991182557922366 0 -0.023687745795998069 -0.019166115775067171 0 -0.028135644298819599 -0.029488124832443331 0 -0.01131780637347571 -0.027587156843098159 0 -0.01550507491235297 -0.01215250645500429 0 0.0046877820616839788 -0.014824031110414009 0 -0.01131780637347571 -0.027587156843098159 0 0.0046877820616839788 -0.014824031110414009 0 0.0053656951540007759 -0.033063162948168578 0 -0.01550507491235297 -0.01215250645500429 0 -0.0066317386901698708 0.00012469464361213051 0 0.0046877820616839788 -0.014824031110414009 0 -0.031834558351637857 -0.058763572522242173 0 -0.022148275321143052 -0.045996032354033781 0 -0.011885421224751801 -0.064064825071286663 0 -0.036553490115645959 -0.040736307107436982 0 -0.031834558351637857 -0.058763572522242173 0 -0.022148275321143052 -0.045996032354033781 0 -0.028135644298819599 -0.029488124832443331 0 -0.01131780637347571 -0.027587156843098159 0 -0.022148275321143052 -0.045996032354033781 0 -0.036553490115645959 -0.040736307107436982 0 -0.028135644298819599 -0.029488124832443331 0 -0.022148275321143052 -0.045996032354033781 0 -0.01131780637347571 -0.027587156843098159 0 -0.0047045664312333523 -0.044839655199411681 0 0.0053656951540007759 -0.033063162948168578 0 -0.01131780637347571 -0.027587156843098159 0 -0.022148275321143052 -0.045996032354033781 0 -0.0047045664312333523 -0.044839655199411681 0 -0.022148275321143052 -0.045996032354033781 0 -0.0047045664312333523 -0.044839655199411681 0 -0.011885421224751801 -0.064064825071286663 0 -0.0047045664312333523 -0.044839655199411681 0 -0.011885421224751801 -0.064064825071286663 0 0.01365424766193501 -0.053629682147677271 0 -0.011885421224751801 -0.064064825071286663 0 -0.013645544907761009 -0.085531998212969834 0 0.0048234998987816248 -0.077730636789505952 0 -0.013645544907761009 -0.085531998212969834 0 -0.0040072478643717636 -0.10183159143133461 0 0.0048234998987816248 -0.077730636789505952 0 -0.013645544907761009 -0.085531998212969834 0 -0.030240322197473239 -0.080887153920010876 0 -0.033218262519371197 -0.1039765354773643 0 -0.011885421224751801 -0.064064825071286663 0 -0.013645544907761009 -0.085531998212969834 0 -0.030240322197473239 -0.080887153920010876 0 -0.031834558351637857 -0.058763572522242173 0 -0.011885421224751801 -0.064064825071286663 0 -0.030240322197473239 -0.080887153920010876 0 -0.031834558351637857 -0.058763572522242173 0 -0.030240322197473239 -0.080887153920010876 0 -0.043257631604117143 -0.069270896644052601 0 -0.030240322197473239 -0.080887153920010876 0 -0.043257631604117143 -0.069270896644052601 0 -0.045779869573573558 -0.083971703669948203 0 -0.030240322197473239 -0.080887153920010876 0 -0.045779869573573558 -0.083971703669948203 0 -0.033218262519371197 -0.1039765354773643 0 -0.060469628972920637 -0.066418717851295134 0 -0.060438156694567632 -0.095421163073878948 0 -0.045779869573573558 -0.083971703669948203 0 -0.060469628972920637 -0.066418717851295134 0 -0.060438156694567632 -0.095421163073878948 0 -0.043257631604117143 -0.069270896644052601 0 -0.045779869573573558 -0.083971703669948203 0 -0.060469628972920637 -0.066418717851295134 0 -0.060406684416214627 -0.1244236082964626 0 -0.033218262519371197 -0.1039765354773643 0 -0.036979346329154499 -0.13628255801283559 0 -0.060406684416214627 -0.1244236082964626 0 -0.060438156694567632 -0.095421163073878948 0 -0.060406684416214627 -0.1244236082964626 0 -0.060438156694567632 -0.095421163073878948 0 -0.033218262519371197 -0.1039765354773643 0 -0.045779869573573558 -0.083971703669948203 0 -0.060438156694567632 -0.095421163073878948 0 -0.033218262519371197 -0.1039765354773643 0 -0.033218262519371197 -0.1039765354773643 0 -0.017309506782489201 -0.123850078728917 0 -0.036979346329154499 -0.13628255801283559 0 -0.033218262519371197 -0.1039765354773643 0 -0.017309506782489201 -0.123850078728917 0 -0.0040072478643717636 -0.10183159143133461 0 -0.013645544907761009 -0.085531998212969834 0 -0.033218262519371197 -0.1039765354773643 0 -0.0040072478643717636 -0.10183159143133461 0 -0.017309506782489201 -0.123850078728917 0 -0.0040072478643717636 -0.10183159143133461 0 0.0031716933938910549 -0.1279946343258361 0 -0.017309506782489201 -0.123850078728917 0 -0.01717921683405731 -0.14823796783465029 0 0.0031716933938910549 -0.1279946343258361 0 -0.01717921683405731 -0.14823796783465029 0 -0.037530127062005668 -0.1684813013434644 0 -0.036979346329154499 -0.13628255801283559 0 -0.01717921683405731 -0.14823796783465029 0 0.0031716933938910549 -0.1279946343258361 0 -0.017309506782489201 -0.123850078728917 0 -0.01717921683405731 -0.14823796783465029 0 -0.036979346329154499 -0.13628255801283559 0 -0.01717921683405731 -0.14823796783465029 0 0.0027139176769928391 -0.15513218753068189 0 0.0031716933938910549 -0.1279946343258361 0 -0.01717921683405731 -0.14823796783465029 0 -0.01722054895174626 -0.1770963215750942 0 0.0027139176769928391 -0.15513218753068189 0 -0.01722054895174626 -0.1770963215750942 0 0.002497602333390581 -0.17513408624846249 0 0.0027139176769928391 -0.15513218753068189 0 -0.01722054895174626 -0.1770963215750942 0 -0.001832913880063871 -0.18948146249523201 0 0.002497602333390581 -0.17513408624846249 0 -0.01722054895174626 -0.1770963215750942 0 -0.037530127062005668 -0.1684813013434644 0 -0.033302853336481072 -0.18754690218963591 0 -0.01717921683405731 -0.14823796783465029 0 -0.01722054895174626 -0.1770963215750942 0 -0.037530127062005668 -0.1684813013434644 0 -0.01717921683405731 -0.14823796783465029 0 -0.037530127062005668 -0.1684813013434644 0 -0.037530127062005668 -0.1684813013434644 0 -0.033302853336481072 -0.18754690218963591 0 -0.057881037289954029 -0.1887246348522785 0 -0.037530127062005668 -0.1684813013434644 0 -0.057881037289954029 -0.1887246348522785 0 -0.037530127062005668 -0.1684813013434644 0 -0.060810190144488782 -0.16805426099021489 0 -0.057881037289954029 -0.1887246348522785 0 -0.037530127062005668 -0.1684813013434644 0 -0.060810190144488782 -0.16805426099021489 0 -0.056579123327584392 -0.14853270919562089 0 -0.037530127062005668 -0.1684813013434644 0 -0.056579123327584392 -0.14853270919562089 0 -0.036979346329154499 -0.13628255801283559 0 -0.060406684416214627 -0.1244236082964626 0 -0.056579123327584392 -0.14853270919562089 0 -0.036979346329154499 -0.13628255801283559 0 -0.018658851062118859 -0.25680846307733651 0 -0.027312380692025431 -0.24281844151573459 0 -0.0066164347875948808 -0.24271512594326239 0 -0.027312380692025431 -0.24281844151573459 0 -0.0066164347875948808 -0.24271512594326239 0 -0.013587756073212821 -0.23145694041215881 0 -0.0066164347875948808 -0.24271512594326239 0 -0.013587756073212821 -0.23145694041215881 0 -5.7255641541217699e-05 -0.22481575049984709 0 -0.013587756073212821 -0.23145694041215881 0 -5.7255641541217699e-05 -0.22481575049984709 0 -0.020364953171689779 -0.2154784436897911 0 -0.027312380692025431 -0.24281844151573459 0 -0.020364953171689779 -0.2154784436897911 0 -0.045716601280293701 -0.22611037357766581 0 -0.027312380692025431 -0.24281844151573459 0 -0.020364953171689779 -0.2154784436897911 0 -0.027312380692025431 -0.24281844151573459 0 -0.013587756073212821 -0.23145694041215881 0 -0.020364953171689779 -0.2154784436897911 0 -0.020364953171689779 -0.2154784436897911 0 -0.016089434840982408 -0.19865312791294479 0 -0.037793118537716948 -0.20477912526439751 0 -0.020364953171689779 -0.2154784436897911 0 -0.016089434840982408 -0.19865312791294479 0 -0.020364953171689779 -0.2154784436897911 0 0.0062936657237188491 -0.204298398676966 0 -5.7255641541217699e-05 -0.22481575049984709 0 -0.020364953171689779 -0.2154784436897911 0 0.0062936657237188491 -0.204298398676966 0 -0.020364953171689779 -0.2154784436897911 0 -0.016089434840982408 -0.19865312791294479 0 0.0062936657237188491 -0.204298398676966 0 -0.001832913880063871 -0.18948146249523201 0 -0.016089434840982408 -0.19865312791294479 0 0.0062936657237188491 -0.204298398676966 0 -0.01722054895174626 -0.1770963215750942 0 -0.001832913880063871 -0.18948146249523201 0 -0.016089434840982408 -0.19865312791294479 0 -0.016089434840982408 -0.19865312791294479 0 -0.033302853336481072 -0.18754690218963591 0 -0.037793118537716948 -0.20477912526439751 0 -0.01722054895174626 -0.1770963215750942 0 -0.016089434840982408 -0.19865312791294479 0 -0.033302853336481072 -0.18754690218963591 0 -0.033302853336481072 -0.18754690218963591 0 -0.057881037289954029 -0.1887246348522785 0 -0.037793118537716948 -0.20477912526439751 0 -0.057881037289954029 -0.1887246348522785 0 -0.058392265960447561 -0.2116711257628309 0 -0.037793118537716948 -0.20477912526439751 0 -0.058392265960447561 -0.2116711257628309 0 -0.037793118537716948 -0.20477912526439751 0 -0.045716601280293701 -0.22611037357766581 0 -0.020364953171689779 -0.2154784436897911 0 -0.037793118537716948 -0.20477912526439751 0 -0.045716601280293701 -0.22611037357766581 0 -0.020364953171689779 -0.2154784436897911 0 -0.045716601280293701 -0.22611037357766581 0 -0.058392265960447561 -0.2116711257628309 0 -0.045716601280293701 -0.22611037357766581 0 -0.060993607512492942 -0.23417999460717981 0 -0.045716601280293701 -0.22611037357766581 0 -0.060993607512492942 -0.23417999460717981 0 -0.050311538405198232 -0.24904021069461579 0 -0.027312380692025431 -0.24281844151573459 0 -0.045716601280293701 -0.22611037357766581 0 -0.050311538405198232 -0.24904021069461579 0 -0.040507584818940269 -0.25689785710473412 0 -0.027312380692025431 -0.24281844151573459 0 -0.050311538405198232 -0.24904021069461579 0 -0.076337008171007248 -0.25426522865919321 0 -0.09018656940804276 -0.23970244340782559 0 -0.077621927772497337 -0.22754081379105681 0 -0.076337008171007248 -0.25426522865919321 0 -0.09018656940804276 -0.23970244340782559 0 -0.098558753875313654 -0.24789525972139931 0 -0.076337008171007248 -0.25426522865919321 0 -0.060993607512492942 -0.23417999460717981 0 -0.077621927772497337 -0.22754081379105681 0 -0.076337008171007248 -0.25426522865919321 0 -0.060993607512492942 -0.23417999460717981 0 -0.050311538405198232 -0.24904021069461579 0 -0.058392265960447561 -0.2116711257628309 0 -0.060993607512492942 -0.23417999460717981 0 -0.077621927772497337 -0.22754081379105681 0 -0.077621927772497337 -0.22754081379105681 0 -0.086531593596761991 -0.21834646067388691 0 -0.095287737531006556 -0.22692643726689421 0 -0.09018656940804276 -0.23970244340782559 0 -0.077621927772497337 -0.22754081379105681 0 -0.095287737531006556 -0.22692643726689421 0 -0.078231947517902356 -0.2089679683610926 0 -0.086531593596761991 -0.21834646067388691 0 -0.094984761565641757 -0.2099506232765041 0 -0.086531593596761991 -0.21834646067388691 0 -0.094984761565641757 -0.2099506232765041 0 -0.095287737531006556 -0.22692643726689421 0 -0.078231947517902356 -0.2089679683610926 0 -0.084512984638371202 -0.19259835787734869 0 -0.094984761565641757 -0.2099506232765041 0 -0.077621927772497337 -0.22754081379105681 0 -0.078231947517902356 -0.2089679683610926 0 -0.086531593596761991 -0.21834646067388691 0 -0.058392265960447561 -0.2116711257628309 0 -0.077621927772497337 -0.22754081379105681 0 -0.078231947517902356 -0.2089679683610926 0 -0.057881037289954029 -0.1887246348522785 0 -0.078231947517902356 -0.2089679683610926 0 -0.057881037289954029 -0.1887246348522785 0 -0.058392265960447561 -0.2116711257628309 0 -0.078231947517902356 -0.2089679683610926 0 -0.057881037289954029 -0.1887246348522785 0 -0.078231947517902356 -0.2089679683610926 0 -0.084512984638371202 -0.19259835787734869 0 -0.084512984638371202 -0.19259835787734869 0 -0.10314669495427591 -0.19571450336259141 0 -0.094984761565641757 -0.2099506232765041 0 -0.084512984638371202 -0.19259835787734869 0 -0.10314669495427591 -0.19571450336259141 0 -0.084512984638371202 -0.19259835787734869 0 -0.10314669495427591 -0.19571450336259141 0 -0.097499740239925192 -0.17756222776132391 0 -0.10314669495427591 -0.19571450336259141 0 -0.1217804052701808 -0.19883064884783311 0 -0.1099340451153219 -0.2083697615518178 0 -0.10314669495427591 -0.19571450336259141 0 -0.1217804052701808 -0.19883064884783311 0 -0.10314669495427591 -0.19571450336259141 0 -0.1217804052701808 -0.19883064884783311 0 -0.1111547614368681 -0.1866637091834851 0 -0.1217804052701808 -0.19883064884783311 0 -0.1233319965608866 -0.18518209171568359 0 -0.1217804052701808 -0.19883064884783311 0 -0.1111547614368681 -0.1866637091834851 0 -0.1233319965608866 -0.18518209171568359 0 -0.1217804052701808 -0.19883064884783311 0 -0.1194294974042712 -0.21951038616815799 0 -0.1217804052701808 -0.19883064884783311 0 -0.1194294974042712 -0.21951038616815799 0 -0.1336022333713808 -0.2066532932293349 0 -0.1217804052701808 -0.19883064884783311 0 -0.1099340451153219 -0.2083697615518178 0 -0.1194294974042712 -0.21951038616815799 0 -0.1099340451153219 -0.2083697615518178 0 -0.1055350397646105 -0.21924871097234749 0 -0.1194294974042712 -0.21951038616815799 0 -0.1099340451153219 -0.2083697615518178 0 -0.094984761565641757 -0.2099506232765041 0 -0.1055350397646105 -0.21924871097234749 0 -0.094984761565641757 -0.2099506232765041 0 -0.095287737531006556 -0.22692643726689421 0 -0.1055350397646105 -0.21924871097234749 0 -0.10314669495427591 -0.19571450336259141 0 -0.1099340451153219 -0.2083697615518178 0 -0.094984761565641757 -0.2099506232765041 0 -0.095287737531006556 -0.22692643726689421 0 -0.1080391572068113 -0.23148634659836331 0 -0.10045646802633811 -0.23803719411983229 0 -0.095287737531006556 -0.22692643726689421 0 -0.1080391572068113 -0.23148634659836331 0 -0.1055350397646105 -0.21924871097234749 0 -0.1194294974042712 -0.21951038616815799 0 -0.1170785895383615 -0.2401901234884829 0 -0.1080391572068113 -0.23148634659836331 0 -0.1055350397646105 -0.21924871097234749 0 -0.1194294974042712 -0.21951038616815799 0 -0.1194294974042712 -0.21951038616815799 0 -0.1170785895383615 -0.2401901234884829 0 -0.13133323264182609 -0.23191900817899661 0 -0.1080391572068113 -0.23148634659836331 0 -0.1194294974042712 -0.21951038616815799 0 -0.1170785895383615 -0.2401901234884829 0 -0.1080391572068113 -0.23148634659836331 0 -0.1170785895383615 -0.2401901234884829 0 -0.1102101221105163 -0.24417548360467911 0 -0.1170785895383615 -0.2401901234884829 0 -0.1102101221105163 -0.24417548360467911 0 -0.1170785895383615 -0.2401901234884829 0 -0.13133323264182609 -0.23191900817899661 0 -0.1170785895383615 -0.2401901234884829 0 -0.1263420023613146 -0.23973595795177211 0 -0.13133323264182609 -0.23191900817899661 0 -0.1170785895383615 -0.2401901234884829 0 -0.12248716586679501 -0.24844290833317059 0 -0.1263420023613146 -0.23973595795177211 0 -0.1170785895383615 -0.2401901234884829 0 -0.12248716586679501 -0.24844290833317059 0 -0.1162377943832648 -0.24758616958613591 0 -0.1170785895383615 -0.2401901234884829 0 -0.1162377943832648 -0.24758616958613591 0 -0.1102101221105163 -0.24417548360467911 0 -0.1170785895383615 -0.2401901234884829 0 -0.1162377943832648 -0.24758616958613591 0 -0.1091800257290213 -0.25067722211056848 0 -0.1162377943832648 -0.24758616958613591 0 -0.1102101221105163 -0.24417548360467911 0 -0.1091800257290213 -0.25067722211056848 0 -0.1102101221105163 -0.24417548360467911 0 -0.098558753875313654 -0.24789525972139931 0 -0.1102101221105163 -0.24417548360467911 0 -0.10045646802633811 -0.23803719411983229 0 -0.098558753875313654 -0.24789525972139931 0 -0.1080391572068113 -0.23148634659836331 0 -0.1102101221105163 -0.24417548360467911 0 -0.10045646802633811 -0.23803719411983229 0 -0.09018656940804276 -0.23970244340782559 0 -0.095287737531006556 -0.22692643726689421 0 -0.10045646802633811 -0.23803719411983229 0 -0.09018656940804276 -0.23970244340782559 0 -0.10045646802633811 -0.23803719411983229 0 -0.098558753875313654 -0.24789525972139931 0 -0.088158342659895694 -0.1545252205772327 0 -0.080975825249002487 -0.13682224990224129 0 -0.074887224452879944 -0.158714203955239 0 -0.088158342659895694 -0.1545252205772327 0 -0.080975825249002487 -0.13682224990224129 0 -0.097976009155407245 -0.14674405357600839 0 -0.086840068971335366 -0.1216249015620096 0 -0.080975825249002487 -0.13682224990224129 0 -0.1023235653009528 -0.13123075100598069 0 -0.060406684416214627 -0.1244236082964626 0 -0.056579123327584392 -0.14853270919562089 0 -0.080975825249002487 -0.13682224990224129 0 -0.056579123327584392 -0.14853270919562089 0 -0.080975825249002487 -0.13682224990224129 0 -0.074887224452879944 -0.158714203955239 0 -0.060810190144488782 -0.16805426099021489 0 -0.056579123327584392 -0.14853270919562089 0 -0.074887224452879944 -0.158714203955239 0 -0.060810190144488782 -0.16805426099021489 0 -0.074887224452879944 -0.158714203955239 0 -0.077173438590019849 -0.17581845560447201 0 -0.060810190144488782 -0.16805426099021489 0 -0.057881037289954029 -0.1887246348522785 0 -0.077173438590019849 -0.17581845560447201 0 -0.057881037289954029 -0.1887246348522785 0 -0.084512984638371202 -0.19259835787734869 0 -0.077173438590019849 -0.17581845560447201 0 -0.077173438590019849 -0.17581845560447201 0 -0.087193827187300676 -0.1657661219355783 0 -0.097499740239925192 -0.17756222776132391 0 -0.084512984638371202 -0.19259835787734869 0 -0.077173438590019849 -0.17581845560447201 0 -0.097499740239925192 -0.17756222776132391 0 -0.074887224452879944 -0.158714203955239 0 -0.077173438590019849 -0.17581845560447201 0 -0.087193827187300676 -0.1657661219355783 0 -0.088158342659895694 -0.1545252205772327 0 -0.074887224452879944 -0.158714203955239 0 -0.087193827187300676 -0.1657661219355783 0 -0.088158342659895694 -0.1545252205772327 0 -0.087193827187300676 -0.1657661219355783 0 -0.098250389993782675 -0.16221050177962401 0 -0.098250389993782675 -0.16221050177962401 0 -0.1043997257878647 -0.16923637446500109 0 -0.097499740239925192 -0.17756222776132391 0 -0.087193827187300676 -0.1657661219355783 0 -0.098250389993782675 -0.16221050177962401 0 -0.097499740239925192 -0.17756222776132391 0 -0.098250389993782675 -0.16221050177962401 0 -0.1043997257878647 -0.16923637446500109 0 -0.1118338027586795 -0.16114369408906271 0 -0.1043997257878647 -0.16923637446500109 0 -0.1100149701590715 -0.17602907422999389 0 -0.1118338027586795 -0.16114369408906271 0 -0.098250389993782675 -0.16221050177962401 0 -0.1118338027586795 -0.16114369408906271 0 -0.1065708099154352 -0.15351483559537621 0 -0.10314669495427591 -0.19571450336259141 0 -0.097499740239925192 -0.17756222776132391 0 -0.1111547614368681 -0.1866637091834851 0 -0.1043997257878647 -0.16923637446500109 0 -0.097499740239925192 -0.17756222776132391 0 -0.1100149701590715 -0.17602907422999389 0 -0.097499740239925192 -0.17756222776132391 0 -0.1111547614368681 -0.1866637091834851 0 -0.1100149701590715 -0.17602907422999389 0 -0.1233319965608866 -0.18518209171568359 0 -0.1118338027586795 -0.16114369408906271 0 -0.1100149701590715 -0.17602907422999389 0 -0.1233319965608866 -0.18518209171568359 0 -0.1118338027586795 -0.16114369408906271 0 -0.1233319965608866 -0.18518209171568359 0 -0.12535369976579061 -0.16739819987400659 0 -0.1111547614368681 -0.1866637091834851 0 -0.1100149701590715 -0.17602907422999389 0 -0.1233319965608866 -0.18518209171568359 0 -0.1233319965608866 -0.18518209171568359 0 -0.1118338027586795 -0.16114369408906271 0 -0.12535369976579061 -0.16739819987400659 0 -0.1162507529435588 -0.15383451765213771 0 -0.12737540297069519 -0.1496143080323295 0 -0.12535369976579061 -0.16739819987400659 0 -0.1118338027586795 -0.16114369408906271 0 -0.1162507529435588 -0.15383451765213771 0 -0.12535369976579061 -0.16739819987400659 0 -0.1162507529435588 -0.15383451765213771 0 -0.1189949776115268 -0.13306145588073551 0 -0.1162507529435588 -0.15383451765213771 0 -0.1085430947257477 -0.14364141088004839 0 -0.1189949776115268 -0.13306145588073551 0 -0.1162507529435588 -0.15383451765213771 0 -0.1189949776115268 -0.13306145588073551 0 -0.12737540297069519 -0.1496143080323295 0 -0.1118338027586795 -0.16114369408906271 0 -0.1162507529435588 -0.15383451765213771 0 -0.1065708099154352 -0.15351483559537621 0 -0.1162507529435588 -0.15383451765213771 0 -0.1065708099154352 -0.15351483559537621 0 -0.1085430947257477 -0.14364141088004839 0 -0.1065708099154352 -0.15351483559537621 0 -0.1085430947257477 -0.14364141088004839 0 -0.097976009155407245 -0.14674405357600839 0 -0.098250389993782675 -0.16221050177962401 0 -0.1065708099154352 -0.15351483559537621 0 -0.097976009155407245 -0.14674405357600839 0 -0.088158342659895694 -0.1545252205772327 0 -0.098250389993782675 -0.16221050177962401 0 -0.097976009155407245 -0.14674405357600839 0 -0.080975825249002487 -0.13682224990224129 0 -0.097976009155407245 -0.14674405357600839 0 -0.1023235653009528 -0.13123075100598069 0 -0.1085430947257477 -0.14364141088004839 0 -0.097976009155407245 -0.14674405357600839 0 -0.1023235653009528 -0.13123075100598069 0 -0.1120375534338989 -0.1225765663547608 0 -0.1023235653009528 -0.13123075100598069 0 -0.1189949776115268 -0.13306145588073551 0 -0.1085430947257477 -0.14364141088004839 0 -0.1023235653009528 -0.13123075100598069 0 -0.1189949776115268 -0.13306145588073551 0 -0.1189949776115268 -0.13306145588073551 0 -0.1297898410527995 -0.1388111586287531 0 -0.12737540297069519 -0.1496143080323295 0 -0.14553340740408899 -0.1417599505072758 0 -0.12947548143064089 -0.12187056700056211 0 -0.14024389592194739 -0.14484357968112799 0 -0.12947548143064089 -0.12187056700056211 0 -0.1297898410527995 -0.1388111586287531 0 -0.14024389592194739 -0.14484357968112799 0 -0.12947548143064089 -0.12187056700056211 0 -0.14121807982319731 -0.12515205944179861 0 -0.14553340740408899 -0.1417599505072758 0 -0.12947548143064089 -0.12187056700056211 0 -0.14553340740408899 -0.1417599505072758 0 -0.14024389592194739 -0.14484357968112799 0 -0.12947548143064089 -0.12187056700056211 0 -0.1189949776115268 -0.13306145588073551 0 -0.1297898410527995 -0.1388111586287531 0 -0.12947548143064089 -0.12187056700056211 0 -0.14730783294341351 -0.13132108980390109 0 -0.14121807982319731 -0.12515205944179861 0 -0.14864522162757271 -0.1204300406441904 0 -0.14730783294341351 -0.13132108980390109 0 -0.14121807982319731 -0.12515205944179861 0 -0.14553340740408899 -0.1417599505072758 0 -0.14730783294341351 -0.13132108980390109 0 -0.1502407371861367 -0.1367821699129565 0 -0.14553340740408899 -0.1417599505072758 0 -0.1502407371861367 -0.1367821699129565 0 -0.15498481077981749 -0.13944635696315841 0 -0.14553340740408899 -0.1417599505072758 0 -0.14730783294341351 -0.13132108980390109 0 -0.1502407371861367 -0.1367821699129565 0 -0.15599263878058439 -0.13368779841142731 0 -0.1502407371861367 -0.1367821699129565 0 -0.15498481077981749 -0.13944635696315841 0 -0.15599263878058439 -0.13368779841142731 0 -0.14730783294341351 -0.13132108980390109 0 -0.15599263878058439 -0.13368779841142731 0 -0.15653493526388529 -0.12569814396999929 0 -0.14730783294341351 -0.13132108980390109 0 -0.15653493526388529 -0.12569814396999929 0 -0.14864522162757271 -0.1204300406441904 0 -0.14955136118887491 -0.1541674047508452 0 -0.14024389592194739 -0.14484357968112799 0 -0.1510123104132538 -0.16781659236169411 0 -0.14553340740408899 -0.1417599505072758 0 -0.16159133337753731 -0.16164933401398959 0 -0.14553340740408899 -0.1417599505072758 0 -0.16159133337753731 -0.16164933401398959 0 -0.16005233903330709 -0.146895625454257 0 -0.14955136118887491 -0.1541674047508452 0 -0.14553340740408899 -0.1417599505072758 0 -0.16159133337753731 -0.16164933401398959 0 -0.15498481077981749 -0.13944635696315841 0 -0.14553340740408899 -0.1417599505072758 0 -0.16005233903330709 -0.146895625454257 0 -0.14955136118887491 -0.1541674047508452 0 -0.14553340740408899 -0.1417599505072758 0 -0.14024389592194739 -0.14484357968112799 0 -0.13487508388560751 -0.15011389336773259 0 -0.12737540297069519 -0.1496143080323295 0 -0.13843389400569739 -0.15970231356813 0 -0.13487508388560751 -0.15011389336773259 0 -0.14024389592194739 -0.14484357968112799 0 -0.13843389400569739 -0.15970231356813 0 -0.1297898410527995 -0.1388111586287531 0 -0.14024389592194739 -0.14484357968112799 0 -0.13344714264409011 -0.14629537218934291 0 -0.13487508388560751 -0.15011389336773259 0 -0.14024389592194739 -0.14484357968112799 0 -0.13344714264409011 -0.14629537218934291 0 -0.1297898410527995 -0.1388111586287531 0 -0.13344714264409011 -0.14629537218934291 0 -0.12737540297069519 -0.1496143080323295 0 -0.13487508388560751 -0.15011389336773259 0 -0.13344714264409011 -0.14629537218934291 0 -0.12737540297069519 -0.1496143080323295 0 -0.12737540297069519 -0.1496143080323295 0 -0.12535369976579061 -0.16739819987400659 0 -0.12737540297069519 -0.1496143080323295 0 -0.12535369976579061 -0.16739819987400659 0 -0.13843389400569739 -0.15970231356813 0 -0.12535369976579061 -0.16739819987400659 0 -0.13638152062292799 -0.17570544973761709 0 -0.1418140244712309 -0.16826898388990519 0 -0.12535369976579061 -0.16739819987400659 0 -0.13843389400569739 -0.15970231356813 0 -0.1418140244712309 -0.16826898388990519 0 -0.1233319965608866 -0.18518209171568359 0 -0.12535369976579061 -0.16739819987400659 0 -0.13638152062292799 -0.17570544973761709 0 -0.1233319965608866 -0.18518209171568359 0 -0.13638152062292799 -0.17570544973761709 0 -0.13411943845531679 -0.20089412530530401 0 -0.13638152062292799 -0.17570544973761709 0 -0.14842722486837859 -0.17744704472509251 0 -0.14439054982937269 -0.18863268430775931 0 -0.13638152062292799 -0.17570544973761709 0 -0.14842722486837859 -0.17744704472509251 0 -0.1418140244712309 -0.16826898388990519 0 -0.14842722486837859 -0.17744704472509251 0 -0.1510123104132538 -0.16781659236169411 0 -0.15662805197343499 -0.17403660895442891 0 -0.14842722486837859 -0.17744704472509251 0 -0.15766135805997869 -0.18579874166033039 0 -0.15662805197343499 -0.17403660895442891 0 -0.14842722486837859 -0.17744704472509251 0 -0.15766135805997869 -0.18579874166033039 0 -0.14439054982937269 -0.18863268430775931 0 -0.14024389592194739 -0.14484357968112799 0 -0.1510123104132538 -0.16781659236169411 0 -0.14024389592194739 -0.14484357968112799 0 -0.13843389400569739 -0.15970231356813 0 -0.1510123104132538 -0.16781659236169411 0 -0.13843389400569739 -0.15970231356813 0 -0.1418140244712309 -0.16826898388990519 0 -0.1510123104132538 -0.16781659236169411 0 -0.14842722486837859 -0.17744704472509251 0 -0.1418140244712309 -0.16826898388990519 0 -0.1510123104132538 -0.16781659236169411 0 -0.14955136118887491 -0.1541674047508452 0 -0.1510123104132538 -0.16781659236169411 0 -0.16159133337753731 -0.16164933401398959 0 -0.16159133337753731 -0.16164933401398959 0 -0.17764925935098491 -0.18153871752070391 0 -0.16159133337753731 -0.16164933401398959 0 -0.15662805197343499 -0.17403660895442891 0 -0.16444803314802689 -0.17747133201103779 0 -0.16159133337753731 -0.16164933401398959 0 -0.17764925935098491 -0.18153871752070391 0 -0.1740622006658066 -0.1634997031023129 0 -0.1510123104132538 -0.16781659236169411 0 -0.16159133337753731 -0.16164933401398959 0 -0.15662805197343499 -0.17403660895442891 0 -0.16159133337753731 -0.16164933401398959 0 -0.1740622006658066 -0.1634997031023129 0 -0.16841794613693639 -0.15398432498066969 0 -0.16159133337753731 -0.16164933401398959 0 -0.16444803314802689 -0.17747133201103779 0 -0.17764925935098491 -0.18153871752070391 0 -0.15766135805997869 -0.18579874166033039 0 -0.16444803314802689 -0.17747133201103779 0 -0.16472217877848369 -0.18747137097830241 0 -0.15766135805997869 -0.18579874166033039 0 -0.15662805197343499 -0.17403660895442891 0 -0.16444803314802689 -0.17747133201103779 0 -0.16444803314802689 -0.17747133201103779 0 -0.16472217877848369 -0.18747137097830241 0 -0.17764925935098491 -0.18153871752070391 0 -0.17764925935098491 -0.18153871752070391 0 -0.1869074104786799 -0.17975145451301969 0 -0.18859728359124239 -0.1676237322365576 0 -0.17764925935098491 -0.18153871752070391 0 -0.18859728359124239 -0.1676237322365576 0 -0.17764925935098491 -0.18153871752070391 0 -0.1869074104786799 -0.17975145451301969 0 -0.18320890121531899 -0.18842490253504129 0 -0.1869074104786799 -0.17975145451301969 0 -0.18320890121531899 -0.18842490253504129 0 -0.19027249701494259 -0.1851011725777541 0 -0.17764925935098491 -0.18153871752070391 0 -0.1795411375779708 -0.19068614495890299 0 -0.18320890121531899 -0.18842490253504129 0 -0.17764925935098491 -0.18153871752070391 0 -0.18320890121531899 -0.18842490253504129 0 -0.1764692799665879 -0.15315814638178979 0 -0.18827464426681639 -0.14942721672257439 0 -0.18859728359124239 -0.1676237322365576 0 -0.17764925935098491 -0.18153871752070391 0 -0.1740622006658066 -0.1634997031023129 0 -0.18859728359124239 -0.1676237322365576 0 -0.1740622006658066 -0.1634997031023129 0 -0.1764692799665879 -0.15315814638178979 0 -0.16841794613693639 -0.15398432498066969 0 -0.1740622006658066 -0.1634997031023129 0 -0.1764692799665879 -0.15315814638178979 0 -0.18859728359124239 -0.1676237322365576 0 -0.1764692799665879 -0.15315814638178979 0 -0.180755246074599 -0.14151727266289829 0 -0.16991457764144299 -0.14471881595099939 0 -0.1764692799665879 -0.15315814638178979 0 -0.180755246074599 -0.14151727266289829 0 -0.18827464426681639 -0.14942721672257439 0 -0.180755246074599 -0.14151727266289829 0 -0.1905407067900616 -0.13818508804660909 0 -0.18827464426681639 -0.14942721672257439 0 -0.180755246074599 -0.14151727266289829 0 -0.1822527331883948 -0.12907647366409919 0 -0.1905407067900616 -0.13818508804660909 0 -0.1822527331883948 -0.12907647366409919 0 -0.1726737386495483 -0.13542962138973511 0 -0.16604875234675329 -0.12572787132487651 0 -0.180755246074599 -0.14151727266289829 0 -0.1822527331883948 -0.12907647366409919 0 -0.1726737386495483 -0.13542962138973511 0 -0.180755246074599 -0.14151727266289829 0 -0.1726737386495483 -0.13542962138973511 0 -0.16991457764144299 -0.14471881595099939 0 -0.1726737386495483 -0.13542962138973511 0 -0.16353301508193499 -0.1377836444587929 0 -0.16991457764144299 -0.14471881595099939 0 -0.1726737386495483 -0.13542962138973511 0 -0.16604875234675329 -0.12572787132487651 0 -0.16353301508193499 -0.1377836444587929 0 -0.15599263878058439 -0.13368779841142731 0 -0.16604875234675329 -0.12572787132487651 0 -0.15653493526388529 -0.12569814396999929 0 -0.15599263878058439 -0.13368779841142731 0 -0.16604875234675329 -0.12572787132487651 0 -0.16353301508193499 -0.1377836444587929 0 -0.15498481077981749 -0.13944635696315841 0 -0.15599263878058439 -0.13368779841142731 0 -0.16353301508193499 -0.1377836444587929 0 -0.15498481077981749 -0.13944635696315841 0 -0.16353301508193499 -0.1377836444587929 0 -0.16005233903330709 -0.146895625454257 0 -0.16159133337753731 -0.16164933401398959 0 -0.16005233903330709 -0.146895625454257 0 -0.16841794613693639 -0.15398432498066969 0 -0.1764692799665879 -0.15315814638178979 0 -0.16841794613693639 -0.15398432498066969 0 -0.16991457764144299 -0.14471881595099939 0 -0.16005233903330709 -0.146895625454257 0 -0.16841794613693639 -0.15398432498066969 0 -0.16991457764144299 -0.14471881595099939 0 -0.16353301508193499 -0.1377836444587929 0 -0.16005233903330709 -0.146895625454257 0 -0.16991457764144299 -0.14471881595099939 0 -0.15965491377499469 -0.25543064726611159 0 -0.14907944547841331 -0.24819222630045659 0 -0.15740270059959749 -0.2438800476368832 0 -0.14907944547841331 -0.24819222630045659 0 -0.1502163218576803 -0.24076696117084939 0 -0.15740270059959749 -0.2438800476368832 0 -0.15407184408393129 -0.23608691360889189 0 -0.1502163218576803 -0.24076696117084939 0 -0.15740270059959749 -0.2438800476368832 0 -0.15407184408393129 -0.23608691360889189 0 -0.1502163218576803 -0.24076696117084939 0 -0.14753577832237449 -0.23554547675199231 0 -0.1502163218576803 -0.24076696117084939 0 -0.14753577832237449 -0.23554547675199231 0 -0.14299184080408489 -0.2401301415560233 0 -0.14753577832237449 -0.23554547675199231 0 -0.14395729684197939 -0.23507938262307571 0 -0.14299184080408489 -0.2401301415560233 0 -0.14395729684197939 -0.23507938262307571 0 -0.14299184080408489 -0.2401301415560233 0 -0.14041607180912841 -0.2343995606514854 0 -0.14907944547841331 -0.24819222630045659 0 -0.1502163218576803 -0.24076696117084939 0 -0.14299184080408489 -0.2401301415560233 0 -0.14907944547841331 -0.24819222630045659 0 -0.14299184080408489 -0.2401301415560233 0 -0.14247629992536839 -0.24909730877613839 0 -0.14299184080408489 -0.2401301415560233 0 -0.14247629992536839 -0.24909730877613839 0 -0.13689093969794841 -0.24483947655105001 0 -0.12986059017222401 -0.24831713638367231 0 -0.1263420023613146 -0.23973595795177211 0 -0.13133323264182609 -0.23191900817899661 0 -0.12986059017222401 -0.24831713638367231 0 -0.13133323264182609 -0.23191900817899661 0 -0.13899529729981211 -0.25510841070366391 0 -0.14247629992536839 -0.24909730877613839 0 -0.13689093969794841 -0.24483947655105001 0 -0.13899529729981211 -0.25510841070366391 0 -0.13689093969794841 -0.24483947655105001 0 -0.12986059017222401 -0.24831713638367231 0 -0.13689093969794841 -0.24483947655105001 0 -0.12986059017222401 -0.24831713638367231 0 -0.1333532388381308 -0.2378391476307968 0 -0.12986059017222401 -0.24831713638367231 0 -0.1333532388381308 -0.2378391476307968 0 -0.13133323264182609 -0.23191900817899661 0 -0.12248716586679501 -0.24844290833317059 0 -0.12986059017222401 -0.24831713638367231 0 -0.1263420023613146 -0.23973595795177211 0 -0.13689093969794841 -0.24483947655105001 0 -0.1333532388381308 -0.2378391476307968 0 -0.13824289161345399 -0.2390514727566633 0 -0.14299184080408489 -0.2401301415560233 0 -0.13689093969794841 -0.24483947655105001 0 -0.13824289161345399 -0.2390514727566633 0 -0.1333532388381308 -0.2378391476307968 0 -0.13824289161345399 -0.2390514727566633 0 -0.14041607180912841 -0.2343995606514854 0 -0.14299184080408489 -0.2401301415560233 0 -0.13824289161345399 -0.2390514727566633 0 -0.14041607180912841 -0.2343995606514854 0 -0.13133323264182609 -0.23191900817899661 0 -0.14278509979020329 -0.2258512123221125 0 -0.1333532388381308 -0.2378391476307968 0 -0.14041607180912841 -0.2343995606514854 0 -0.14278509979020329 -0.2258512123221125 0 -0.1194294974042712 -0.21951038616815799 0 -0.13133323264182609 -0.23191900817899661 0 -0.1336022333713808 -0.2066532932293349 0 -0.1333532388381308 -0.2378391476307968 0 -0.13133323264182609 -0.23191900817899661 0 -0.14278509979020329 -0.2258512123221125 0 -0.1333532388381308 -0.2378391476307968 0 -0.14278509979020329 -0.2258512123221125 0 -0.13133323264182609 -0.23191900817899661 0 -0.1336022333713808 -0.2066532932293349 0 -0.13133323264182609 -0.23191900817899661 0 -0.14278509979020329 -0.2258512123221125 0 -0.1336022333713808 -0.2066532932293349 0 -0.14278509979020329 -0.2258512123221125 0 -0.15854174025437631 -0.21613154144068569 0 -0.14278509979020329 -0.2258512123221125 0 -0.1548987751341516 -0.22626949649362771 0 -0.15854174025437631 -0.21613154144068569 0 -0.14041607180912841 -0.2343995606514854 0 -0.14278509979020329 -0.2258512123221125 0 -0.14488549643232981 -0.2302423515328014 0 -0.14278509979020329 -0.2258512123221125 0 -0.14488549643232981 -0.2302423515328014 0 -0.14395729684197939 -0.23507938262307571 0 -0.14041607180912841 -0.2343995606514854 0 -0.14488549643232981 -0.2302423515328014 0 -0.14753577832237449 -0.23554547675199231 0 -0.14395729684197939 -0.23507938262307571 0 -0.14488549643232981 -0.2302423515328014 0 -0.14753577832237449 -0.23554547675199231 0 -0.14488549643232981 -0.2302423515328014 0 -0.15023307197390171 -0.23078182764512381 0 -0.14278509979020329 -0.2258512123221125 0 -0.14488549643232981 -0.2302423515328014 0 -0.15023307197390171 -0.23078182764512381 0 -0.15407184408393129 -0.23608691360889189 0 -0.15023307197390171 -0.23078182764512381 0 -0.1548987751341516 -0.22626949649362771 0 -0.14278509979020329 -0.2258512123221125 0 -0.15023307197390171 -0.23078182764512381 0 -0.1548987751341516 -0.22626949649362771 0 -0.15407184408393129 -0.23608691360889189 0 -0.14753577832237449 -0.23554547675199231 0 -0.15023307197390171 -0.23078182764512381 0 -0.14278509979020329 -0.2258512123221125 0 -0.15913006455494419 -0.20507669272113821 0 -0.15854174025437631 -0.21613154144068569 0 -0.14278509979020329 -0.2258512123221125 0 -0.15913006455494419 -0.20507669272113821 0 -0.1336022333713808 -0.2066532932293349 0 -0.13411943845531679 -0.20089412530530401 0 -0.15913006455494419 -0.20507669272113821 0 -0.14278509979020329 -0.2258512123221125 0 -0.1336022333713808 -0.2066532932293349 0 -0.15913006455494419 -0.20507669272113821 0 -0.14278509979020329 -0.2258512123221125 0 -0.1336022333713808 -0.2066532932293349 0 -0.1336022333713808 -0.2066532932293349 0 -0.13056298791104051 -0.20029937433412401 0 -0.1336022333713808 -0.2066532932293349 0 -0.13411943845531679 -0.20089412530530401 0 -0.13638152062292799 -0.17570544973761709 0 -0.13411943845531679 -0.20089412530530401 0 -0.13638152062292799 -0.17570544973761709 0 -0.13411943845531679 -0.20089412530530401 0 -0.14439054982937269 -0.18863268430775931 0 -0.1233319965608866 -0.18518209171568359 0 -0.13411943845531679 -0.20089412530530401 0 -0.13056298791104051 -0.20029937433412401 0 -0.1336022333713808 -0.2066532932293349 0 -0.13411943845531679 -0.20089412530530401 0 -0.13056298791104051 -0.20029937433412401 0 -0.1217804052701808 -0.19883064884783311 0 -0.1336022333713808 -0.2066532932293349 0 -0.13056298791104051 -0.20029937433412401 0 -0.1217804052701808 -0.19883064884783311 0 -0.13056298791104051 -0.20029937433412401 0 -0.13411943845531679 -0.20089412530530401 0 -0.13056298791104051 -0.20029937433412401 0 -0.1233319965608866 -0.18518209171568359 0 -0.13056298791104051 -0.20029937433412401 0 -0.1217804052701808 -0.19883064884783311 0 -0.1233319965608866 -0.18518209171568359 0 -0.13056298791104051 -0.20029937433412401 0 -0.13411943845531679 -0.20089412530530401 0 -0.15004349060885699 -0.19521654722172449 0 -0.15913006455494419 -0.20507669272113821 0 -0.13411943845531679 -0.20089412530530401 0 -0.14439054982937269 -0.18863268430775931 0 -0.15004349060885699 -0.19521654722172449 0 -0.13411943845531679 -0.20089412530530401 0 -0.15913006455494419 -0.20507669272113821 0 -0.15766135805997869 -0.18579874166033039 0 -0.15004349060885699 -0.19521654722172449 0 -0.15913006455494419 -0.20507669272113821 0 -0.15766135805997869 -0.18579874166033039 0 -0.14439054982937269 -0.18863268430775931 0 -0.15004349060885699 -0.19521654722172449 0 -0.16472217877848369 -0.18747137097830241 0 -0.17764925935098491 -0.18153871752070391 0 -0.15913006455494419 -0.20507669272113821 0 -0.15766135805997869 -0.18579874166033039 0 -0.16472217877848369 -0.18747137097830241 0 -0.15913006455494419 -0.20507669272113821 0 -0.17764925935098491 -0.18153871752070391 0 -0.1738679838070635 -0.1974474163276822 0 -0.15913006455494419 -0.20507669272113821 0 -0.17764925935098491 -0.18153871752070391 0 -0.15913006455494419 -0.20507669272113821 0 -0.1795411375779708 -0.19068614495890299 0 -0.18343840593851601 -0.19533354345218459 0 -0.1738679838070635 -0.1974474163276822 0 -0.17764925935098491 -0.18153871752070391 0 -0.1795411375779708 -0.19068614495890299 0 -0.1738679838070635 -0.1974474163276822 0 -0.1795411375779708 -0.19068614495890299 0 -0.18320890121531899 -0.18842490253504129 0 -0.18343840593851601 -0.19533354345218459 0 -0.18320890121531899 -0.18842490253504129 0 -0.18343840593851601 -0.19533354345218459 0 -0.18911287589902251 -0.19110348270108921 0 -0.18343840593851601 -0.19533354345218459 0 -0.1827735105140767 -0.2020712970335668 0 -0.1738679838070635 -0.1974474163276822 0 -0.18343840593851601 -0.19533354345218459 0 -0.1827735105140767 -0.2020712970335668 0 -0.18999011841755239 -0.2018271366383339 0 -0.1827735105140767 -0.2020712970335668 0 -0.1738679838070635 -0.1974474163276822 0 -0.17346302108374489 -0.2074736162012287 0 -0.1827735105140767 -0.2020712970335668 0 -0.17346302108374489 -0.2074736162012287 0 -0.1762413329197581 -0.20793823777887521 0 -0.1827735105140767 -0.2020712970335668 0 -0.17346302108374489 -0.2074736162012287 0 -0.17346302108374489 -0.2074736162012287 0 -0.1762413329197581 -0.20793823777887521 0 -0.17438718133056391 -0.21490213263297331 0 -0.17346302108374489 -0.2074736162012287 0 -0.1762413329197581 -0.20793823777887521 0 -0.1827735105140767 -0.2020712970335668 0 -0.1762413329197581 -0.20793823777887521 0 -0.1851713582226136 -0.20936244981651489 0 -0.1762413329197581 -0.20793823777887521 0 -0.1851713582226136 -0.20936244981651489 0 -0.17996703395240099 -0.21408256924080771 0 -0.1827735105140767 -0.2020712970335668 0 -0.1851713582226136 -0.20936244981651489 0 -0.18999011841755239 -0.2018271366383339 0 -0.1851713582226136 -0.20936244981651489 0 -0.1855783929472016 -0.2183544444031468 0 -0.17996703395240099 -0.21408256924080771 0 -0.1855783929472016 -0.2183544444031468 0 -0.17996703395240099 -0.21408256924080771 0 -0.17853606439381431 -0.21976328761785349 0 -0.17438718133056391 -0.21490213263297331 0 -0.16881194230571239 -0.2174377771350384 0 -0.17289782947544891 -0.22328579831160181 0 -0.17996703395240099 -0.21408256924080771 0 -0.17438718133056391 -0.21490213263297331 0 -0.17853606439381431 -0.21976328761785349 0 -0.17346302108374489 -0.2074736162012287 0 -0.17438718133056391 -0.21490213263297331 0 -0.16881194230571239 -0.2174377771350384 0 -0.1762413329197581 -0.20793823777887521 0 -0.17996703395240099 -0.21408256924080771 0 -0.17438718133056391 -0.21490213263297331 0 -0.17346302108374489 -0.2074736162012287 0 -0.16881194230571239 -0.2174377771350384 0 -0.15854174025437631 -0.21613154144068569 0 -0.17346302108374489 -0.2074736162012287 0 -0.15854174025437631 -0.21613154144068569 0 -0.1738679838070635 -0.1974474163276822 0 -0.17346302108374489 -0.2074736162012287 0 -0.15913006455494419 -0.20507669272113821 0 -0.17346302108374489 -0.2074736162012287 0 -0.15913006455494419 -0.20507669272113821 0 -0.17346302108374489 -0.2074736162012287 0 -0.15913006455494419 -0.20507669272113821 0 -0.15854174025437631 -0.21613154144068569 0 -0.1548987751341516 -0.22626949649362771 0 -0.15854174025437631 -0.21613154144068569 0 -0.16476993938442791 -0.22539579708870239 0 -0.16881194230571239 -0.2174377771350384 0 -0.15854174025437631 -0.21613154144068569 0 -0.16476993938442791 -0.22539579708870239 0 -0.1548987751341516 -0.22626949649362771 0 -0.16476993938442791 -0.22539579708870239 0 -0.16314010433758061 -0.2357930196038735 0 -0.15407184408393129 -0.23608691360889189 0 -0.1548987751341516 -0.22626949649362771 0 -0.16314010433758061 -0.2357930196038735 0 -0.16476993938442791 -0.22539579708870239 0 -0.17289782947544891 -0.22328579831160181 0 -0.17292584987371629 -0.23308652215822431 0 -0.16476993938442791 -0.22539579708870239 0 -0.17292584987371629 -0.23308652215822431 0 -0.16314010433758061 -0.2357930196038735 0 -0.16881194230571239 -0.2174377771350384 0 -0.16476993938442791 -0.22539579708870239 0 -0.17289782947544891 -0.22328579831160181 0 -0.17289782947544891 -0.22328579831160181 0 -0.17853606439381431 -0.21976328761785349 0 -0.18097459028151011 -0.22688018099271751 0 -0.17438718133056391 -0.21490213263297331 0 -0.17289782947544891 -0.22328579831160181 0 -0.17853606439381431 -0.21976328761785349 0 -0.1855783929472016 -0.2183544444031468 0 -0.18097459028151011 -0.22688018099271751 0 -0.19108480636538611 -0.2303104274648117 0 -0.1855783929472016 -0.2183544444031468 0 -0.17853606439381431 -0.21976328761785349 0 -0.18097459028151011 -0.22688018099271751 0 -0.18097459028151011 -0.22688018099271751 0 -0.18255586987416511 -0.24011607844926161 0 -0.19108480636538611 -0.2303104274648117 0 -0.18097459028151011 -0.22688018099271751 0 -0.17292584987371629 -0.23308652215822431 0 -0.18255586987416511 -0.24011607844926161 0 -0.17289782947544891 -0.22328579831160181 0 -0.18097459028151011 -0.22688018099271751 0 -0.17292584987371629 -0.23308652215822431 0 -0.17292584987371629 -0.23308652215822431 0 -0.18255586987416511 -0.24011607844926161 0 -0.1689828706444442 -0.24451314150763201 0 -0.17465013784910891 -0.25651207552981542 0 -0.18255586987416511 -0.24011607844926161 0 -0.19333962017553821 -0.248131514910678 0 -0.17465013784910891 -0.25651207552981542 0 -0.18255586987416511 -0.24011607844926161 0 -0.17465013784910891 -0.25651207552981542 0 -0.18255586987416511 -0.24011607844926161 0 -0.1689828706444442 -0.24451314150763201 0 -0.17292584987371629 -0.23308652215822431 0 -0.1689828706444442 -0.24451314150763201 0 -0.16314010433758061 -0.2357930196038735 0 -0.1689828706444442 -0.24451314150763201 0 -0.16314010433758061 -0.2357930196038735 0 -0.15740270059959749 -0.2438800476368832 0 -0.15407184408393129 -0.23608691360889189 0 -0.16314010433758061 -0.2357930196038735 0 -0.15740270059959749 -0.2438800476368832 0 -0.15965491377499469 -0.25543064726611159 0 -0.1689828706444442 -0.24451314150763201 0 -0.15740270059959749 -0.2438800476368832 0 -0.22034534866352459 -0.25156882083834969 0 -0.20606287599639411 -0.2350581513089488 0 -0.22546330077918009 -0.23600322275100441 0 -0.22034534866352459 -0.25156882083834969 0 -0.20506423292446829 -0.25662135480691911 0 -0.20606287599639411 -0.2350581513089488 0 -0.18255586987416511 -0.24011607844926161 0 -0.19333962017553821 -0.248131514910678 0 -0.19108480636538611 -0.2303104274648117 0 -0.20506423292446829 -0.25662135480691911 0 -0.20606287599639411 -0.2350581513089488 0 -0.19333962017553821 -0.248131514910678 0 -0.20606287599639411 -0.2350581513089488 0 -0.19333962017553821 -0.248131514910678 0 -0.19108480636538611 -0.2303104274648117 0 -0.20606287599639411 -0.2350581513089488 0 -0.19108480636538611 -0.2303104274648117 0 -0.1973961316058237 -0.21293242563576281 0 -0.1855783929472016 -0.2183544444031468 0 -0.19108480636538611 -0.2303104274648117 0 -0.1973961316058237 -0.21293242563576281 0 -0.20606287599639411 -0.2350581513089488 0 -0.21994960524630641 -0.21625649254609061 0 -0.22546330077918009 -0.23600322275100441 0 -0.20606287599639411 -0.2350581513089488 0 -0.1973961316058237 -0.21293242563576281 0 -0.21994960524630641 -0.21625649254609061 0 -0.21426435954320969 -0.20407550326809679 0 -0.1973961316058237 -0.21293242563576281 0 -0.20292234024371211 -0.19949839682645401 0 -0.21426435954320969 -0.20407550326809679 0 -0.1973961316058237 -0.21293242563576281 0 -0.21994960524630641 -0.21625649254609061 0 -0.1973961316058237 -0.21293242563576281 0 -0.21994960524630641 -0.21625649254609061 0 -0.1851713582226136 -0.20936244981651489 0 -0.1855783929472016 -0.2183544444031468 0 -0.1973961316058237 -0.21293242563576281 0 -0.1851713582226136 -0.20936244981651489 0 -0.1973961316058237 -0.21293242563576281 0 -0.18999011841755239 -0.2018271366383339 0 -0.1973961316058237 -0.21293242563576281 0 -0.20292234024371211 -0.19949839682645401 0 -0.18999011841755239 -0.2018271366383339 0 -0.18911287589902251 -0.19110348270108921 0 -0.21792124551611061 -0.1894437769951878 0 -0.2005157216113411 -0.18597742792514241 0 -0.18343840593851601 -0.19533354345218459 0 -0.18999011841755239 -0.2018271366383339 0 -0.18911287589902251 -0.19110348270108921 0 -0.20292234024371211 -0.19949839682645401 0 -0.18999011841755239 -0.2018271366383339 0 -0.18911287589902251 -0.19110348270108921 0 -0.18320890121531899 -0.18842490253504129 0 -0.18911287589902251 -0.19110348270108921 0 -0.19027249701494259 -0.1851011725777541 0 -0.20292234024371211 -0.19949839682645401 0 -0.18911287589902251 -0.19110348270108921 0 -0.21792124551611061 -0.1894437769951878 0 -0.18911287589902251 -0.19110348270108921 0 -0.21792124551611061 -0.1894437769951878 0 -0.21426435954320969 -0.20407550326809679 0 -0.20292234024371211 -0.19949839682645401 0 -0.21792124551611061 -0.1894437769951878 0 -0.21426435954320969 -0.20407550326809679 0 -0.21792124551611061 -0.1894437769951878 0 -0.2331324751040956 -0.20224642433698881 0 -0.21792124551611061 -0.1894437769951878 0 -0.2331324751040956 -0.20224642433698881 0 -0.24672961513319869 -0.18778407128928681 0 -0.21792124551611061 -0.1894437769951878 0 -0.24672961513319869 -0.18778407128928681 0 -0.2331324751040956 -0.20224642433698881 0 -0.24672961513319869 -0.18778407128928681 0 -0.2558930838302339 -0.2053443488280175 0 -0.2331324751040956 -0.20224642433698881 0 -0.2425030788867891 -0.21958055945641841 0 -0.2558930838302339 -0.2053443488280175 0 -0.21426435954320969 -0.20407550326809679 0 -0.2331324751040956 -0.20224642433698881 0 -0.21994960524630641 -0.21625649254609061 0 -0.2331324751040956 -0.20224642433698881 0 -0.21994960524630641 -0.21625649254609061 0 -0.2425030788867891 -0.21958055945641841 0 -0.21994960524630641 -0.21625649254609061 0 -0.2425030788867891 -0.21958055945641841 0 -0.21994960524630641 -0.21625649254609061 0 -0.23159805210655679 -0.2266484627629872 0 -0.22546330077918009 -0.23600322275100441 0 -0.23159805210655679 -0.2266484627629872 0 -0.24178099063369299 -0.2350961355948428 0 -0.22546330077918009 -0.23600322275100441 0 -0.21994960524630641 -0.21625649254609061 0 -0.23159805210655679 -0.2266484627629872 0 -0.2425030788867891 -0.21958055945641841 0 -0.2425030788867891 -0.21958055945641841 0 -0.24178099063369299 -0.2350961355948428 0 -0.25275962445406269 -0.22816449224536481 0 -0.23159805210655679 -0.2266484627629872 0 -0.2425030788867891 -0.21958055945641841 0 -0.24178099063369299 -0.2350961355948428 0 -0.24178099063369299 -0.2350961355948428 0 -0.236435548659505 -0.2495192776565486 0 -0.22546330077918009 -0.23600322275100441 0 -0.24178099063369299 -0.2350961355948428 0 -0.25635803611058161 -0.23711282013613891 0 -0.25062049476955539 -0.24619563476610751 0 -0.24178099063369299 -0.2350961355948428 0 -0.236435548659505 -0.2495192776565486 0 -0.25062049476955539 -0.24619563476610751 0 -0.22034534866352459 -0.25156882083834969 0 -0.236435548659505 -0.2495192776565486 0 -0.22546330077918009 -0.23600322275100441 0 -0.20935651924267171 -0.13938142583181759 0 -0.20915408519049941 -0.16221022774000071 0 -0.2155148523682778 -0.15080699859717861 0 -0.20935651924267171 -0.13938142583181759 0 -0.20915408519049941 -0.16221022774000071 0 -0.20935651924267171 -0.13938142583181759 0 -0.1995453078315034 -0.1537087469524139 0 -0.20915408519049941 -0.16221022774000071 0 -0.2155148523682778 -0.15080699859717861 0 -0.20935651924267171 -0.13938142583181759 0 -0.221949173907629 -0.14029643971218539 0 -0.20935651924267171 -0.13938142583181759 0 -0.20955895329484439 -0.1165526239236345 0 -0.20935651924267171 -0.13938142583181759 0 -0.19718573380718499 -0.13093639328335929 0 -0.20955895329484439 -0.1165526239236345 0 -0.20935651924267171 -0.13938142583181759 0 -0.221949173907629 -0.14029643971218539 0 -0.20955895329484439 -0.1165526239236345 0 -0.221949173907629 -0.14029643971218539 0 -0.20955895329484439 -0.1165526239236345 0 -0.20935651924267171 -0.13938142583181759 0 -0.19718573380718499 -0.13093639328335929 0 -0.19774325201282811 -0.1425933862487879 0 -0.1822527331883948 -0.12907647366409919 0 -0.19718573380718499 -0.13093639328335929 0 -0.1905407067900616 -0.13818508804660909 0 -0.1822527331883948 -0.12907647366409919 0 -0.19718573380718499 -0.13093639328335929 0 -0.19175556425135781 -0.11916533178162519 0 -0.19718573380718499 -0.13093639328335929 0 -0.1905407067900616 -0.13818508804660909 0 -0.19774325201282811 -0.1425933862487879 0 -0.1905407067900616 -0.13818508804660909 0 -0.19774325201282811 -0.1425933862487879 0 -0.18827464426681639 -0.14942721672257439 0 -0.20935651924267171 -0.13938142583181759 0 -0.19774325201282811 -0.1425933862487879 0 -0.1995453078315034 -0.1537087469524139 0 -0.19774325201282811 -0.1425933862487879 0 -0.1995453078315034 -0.1537087469524139 0 -0.18827464426681639 -0.14942721672257439 0 -0.1995453078315034 -0.1537087469524139 0 -0.18859728359124239 -0.1676237322365576 0 -0.1995453078315034 -0.1537087469524139 0 -0.18827464426681639 -0.14942721672257439 0 -0.18859728359124239 -0.1676237322365576 0 -0.18859728359124239 -0.1676237322365576 0 -0.19981949309142821 -0.16850092237113801 0 -0.19632033848830291 -0.17919967770349729 0 -0.1995453078315034 -0.1537087469524139 0 -0.19981949309142821 -0.16850092237113801 0 -0.20915408519049941 -0.16221022774000071 0 -0.1995453078315034 -0.1537087469524139 0 -0.18859728359124239 -0.1676237322365576 0 -0.19981949309142821 -0.16850092237113801 0 -0.19981949309142821 -0.16850092237113801 0 -0.19632033848830291 -0.17919967770349729 0 -0.20895165113832709 -0.18503902964818381 0 -0.1869074104786799 -0.17975145451301969 0 -0.19027249701494259 -0.1851011725777541 0 -0.19632033848830291 -0.17919967770349729 0 -0.18911287589902251 -0.19110348270108921 0 -0.19027249701494259 -0.1851011725777541 0 -0.2005157216113411 -0.18597742792514241 0 -0.1869074104786799 -0.17975145451301969 0 -0.18859728359124239 -0.1676237322365576 0 -0.19632033848830291 -0.17919967770349729 0 -0.19632033848830291 -0.17919967770349729 0 -0.2005157216113411 -0.18597742792514241 0 -0.20895165113832709 -0.18503902964818381 0 -0.19027249701494259 -0.1851011725777541 0 -0.19632033848830291 -0.17919967770349729 0 -0.2005157216113411 -0.18597742792514241 0 -0.19981949309142821 -0.16850092237113801 0 -0.20895165113832709 -0.18503902964818381 0 -0.20915408519049941 -0.16221022774000071 0 -0.20895165113832709 -0.18503902964818381 0 -0.2150956848423034 -0.17775842574100731 0 -0.20915408519049941 -0.16221022774000071 0 -0.21792124551611061 -0.1894437769951878 0 -0.2005157216113411 -0.18597742792514241 0 -0.20895165113832709 -0.18503902964818381 0 -0.20895165113832709 -0.18503902964818381 0 -0.20915408519049941 -0.16221022774000071 0 -0.21792124551611061 -0.1894437769951878 0 -0.20895165113832709 -0.18503902964818381 0 -0.2150956848423034 -0.17775842574100731 0 -0.20915408519049941 -0.16221022774000071 0 -0.2213256625455296 -0.15980878728911929 0 -0.2243557575242765 -0.174340668580657 0 -0.2150956848423034 -0.17775842574100731 0 -0.20915408519049941 -0.16221022774000071 0 -0.2243557575242765 -0.174340668580657 0 -0.2155148523682778 -0.15080699859717861 0 -0.20915408519049941 -0.16221022774000071 0 -0.2213256625455296 -0.15980878728911929 0 -0.2213256625455296 -0.15980878728911929 0 -0.2343393945204133 -0.16404025550073639 0 -0.2243557575242765 -0.174340668580657 0 -0.21792124551611061 -0.1894437769951878 0 -0.24672961513319869 -0.18778407128928681 0 -0.2243557575242765 -0.174340668580657 0 -0.21792124551611061 -0.1894437769951878 0 -0.2150956848423034 -0.17775842574100731 0 -0.2243557575242765 -0.174340668580657 0 -0.24672961513319869 -0.18778407128928681 0 -0.2343393945204133 -0.16404025550073639 0 -0.25564846528820961 -0.16524042538427319 0 -0.24672961513319869 -0.18778407128928681 0 -0.2343393945204133 -0.16404025550073639 0 -0.2243557575242765 -0.174340668580657 0 -0.24672961513319869 -0.18778407128928681 0 -0.2343393945204133 -0.16404025550073639 0 -0.2343393945204133 -0.16404025550073639 0 -0.24023528997376051 -0.14585890559731859 0 -0.25564846528820961 -0.16524042538427319 0 -0.2155148523682778 -0.15080699859717861 0 -0.2213256625455296 -0.15980878728911929 0 -0.221949173907629 -0.14029643971218539 0 -0.2343393945204133 -0.16404025550073639 0 -0.221949173907629 -0.14029643971218539 0 -0.2343393945204133 -0.16404025550073639 0 -0.24023528997376051 -0.14585890559731859 0 -0.221949173907629 -0.14029643971218539 0 -0.2213256625455296 -0.15980878728911929 0 -0.2343393945204133 -0.16404025550073639 0 -0.221949173907629 -0.14029643971218539 0 -0.23410309284448119 -0.12510076468175541 0 -0.221949173907629 -0.14029643971218539 0 -0.20955895329484439 -0.1165526239236345 0 -0.24023528997376051 -0.14585890559731859 0 -0.23410309284448119 -0.12510076468175541 0 -0.221949173907629 -0.14029643971218539 0 -0.24023528997376051 -0.14585890559731859 0 -0.23410309284448119 -0.12510076468175541 0 -0.25178080866201508 -0.13018226465235741 0 -0.23410309284448119 -0.12510076468175541 0 -0.23073525363363651 -0.10718028510081599 0 -0.25035907759500148 -0.11053406910422039 0 -0.23410309284448119 -0.12510076468175541 0 -0.25035907759500148 -0.11053406910422039 0 -0.25178080866201508 -0.13018226465235741 0 -0.23646821218412289 -0.080415600811007446 0 -0.25035907759500148 -0.11053406910422039 0 -0.26254630575318572 -0.094791966200589994 0 -0.23073525363363651 -0.10718028510081599 0 -0.23646821218412289 -0.080415600811007446 0 -0.25035907759500148 -0.11053406910422039 0 -0.23073525363363651 -0.10718028510081599 0 -0.23646821218412289 -0.080415600811007446 0 -0.23410309284448119 -0.12510076468175541 0 -0.23073525363363651 -0.10718028510081599 0 -0.20955895329484439 -0.1165526239236345 0 -0.2201133340650204 -0.076738749318366384 0 -0.2100307546492495 -0.063346853727588179 0 -0.2422011707346092 -0.053650916521198987 0 -0.23646821218412289 -0.080415600811007446 0 -0.2422011707346092 -0.053650916521198987 0 -0.25681841563442281 -0.068098833519700683 0 -0.23646821218412289 -0.080415600811007446 0 -0.2422011707346092 -0.053650916521198987 0 -0.23073525363363651 -0.10718028510081599 0 -0.23646821218412289 -0.080415600811007446 0 -0.20979485397204681 -0.089949738825611331 0 -0.23646821218412289 -0.080415600811007446 0 -0.2201133340650204 -0.076738749318366384 0 -0.20979485397204681 -0.089949738825611331 0 -0.23646821218412289 -0.080415600811007446 0 -0.2201133340650204 -0.076738749318366384 0 -0.2422011707346092 -0.053650916521198987 0 -0.2201133340650204 -0.076738749318366384 0 -0.2100307546492495 -0.063346853727588179 0 -0.20979485397204681 -0.089949738825611331 0 -0.2100307546492495 -0.063346853727588179 0 -0.20979485397204681 -0.089949738825611331 0 -0.19063032351846751 -0.080279024559612333 0 -0.2100307546492495 -0.063346853727588179 0 -0.20979485397204681 -0.089949738825611331 0 -0.19063032351846751 -0.080279024559612333 0 -0.20009463840665609 -0.098415824241623318 0 -0.18812090293700501 -0.09532846700542584 0 -0.20979485397204681 -0.089949738825611331 0 -0.19063032351846751 -0.080279024559612333 0 -0.20009463840665609 -0.098415824241623318 0 -0.19063032351846751 -0.080279024559612333 0 -0.20009463840665609 -0.098415824241623318 0 -0.19063032351846751 -0.080279024559612333 0 -0.1811660086302789 -0.062142224877601328 0 -0.1950295137205561 -0.056705819227055247 0 -0.2100307546492495 -0.063346853727588179 0 -0.19063032351846751 -0.080279024559612333 0 -0.1950295137205561 -0.056705819227055247 0 -0.20955895329484439 -0.1165526239236345 0 -0.20009463840665609 -0.098415824241623318 0 -0.20979485397204681 -0.089949738825611331 0 -0.20955895329484439 -0.1165526239236345 0 -0.20009463840665609 -0.098415824241623318 0 -0.23073525363363651 -0.10718028510081599 0 -0.20979485397204681 -0.089949738825611331 0 -0.20955895329484439 -0.1165526239236345 0 -0.20979485397204681 -0.089949738825611331 0 -0.20955895329484439 -0.1165526239236345 0 -0.20955895329484439 -0.1165526239236345 0 -0.20009463840665609 -0.098415824241623318 0 -0.1916806886110905 -0.10741739834963809 0 -0.20009463840665609 -0.098415824241623318 0 -0.18812090293700501 -0.09532846700542584 0 -0.1916806886110905 -0.10741739834963809 0 -0.20955895329484439 -0.1165526239236345 0 -0.1916806886110905 -0.10741739834963809 0 -0.19175556425135781 -0.11916533178162519 0 -0.19718573380718499 -0.13093639328335929 0 -0.20955895329484439 -0.1165526239236345 0 -0.19175556425135781 -0.11916533178162519 0 -0.1822527331883948 -0.12907647366409919 0 -0.19175556425135781 -0.11916533178162519 0 -0.17785610450042111 -0.11302077890682249 0 -0.1822527331883948 -0.12907647366409919 0 -0.16604875234675329 -0.12572787132487651 0 -0.17785610450042111 -0.11302077890682249 0 -0.1916806886110905 -0.10741739834963809 0 -0.19175556425135781 -0.11916533178162519 0 -0.17785610450042111 -0.11302077890682249 0 -0.16604875234675329 -0.12572787132487651 0 -0.17785610450042111 -0.11302077890682249 0 -0.1641292241013457 -0.1102656124128861 0 -0.1641292241013457 -0.1102656124128861 0 -0.15768877375356369 -0.11820798640943631 0 -0.15214242559669161 -0.1096206058435869 0 -0.16604875234675329 -0.12572787132487651 0 -0.1641292241013457 -0.1102656124128861 0 -0.15768877375356369 -0.11820798640943631 0 -0.16604875234675329 -0.12572787132487651 0 -0.15653493526388529 -0.12569814396999929 0 -0.15768877375356369 -0.11820798640943631 0 -0.15739520382451011 -0.098804643783871271 0 -0.169520080018112 -0.099626215075730926 0 -0.16398215915944361 -0.086681679303089343 0 -0.1641292241013457 -0.1102656124128861 0 -0.15739520382451011 -0.098804643783871271 0 -0.15214242559669161 -0.1096206058435869 0 -0.1641292241013457 -0.1102656124128861 0 -0.15739520382451011 -0.098804643783871271 0 -0.169520080018112 -0.099626215075730926 0 -0.17785610450042111 -0.11302077890682249 0 -0.1641292241013457 -0.1102656124128861 0 -0.169520080018112 -0.099626215075730926 0 -0.169520080018112 -0.099626215075730926 0 -0.18046868858205459 -0.1009216743131173 0 -0.1777301755667561 -0.089608413563138173 0 -0.17785610450042111 -0.11302077890682249 0 -0.169520080018112 -0.099626215075730926 0 -0.18046868858205459 -0.1009216743131173 0 -0.1916806886110905 -0.10741739834963809 0 -0.17785610450042111 -0.11302077890682249 0 -0.18046868858205459 -0.1009216743131173 0 -0.18812090293700501 -0.09532846700542584 0 -0.1916806886110905 -0.10741739834963809 0 -0.18046868858205459 -0.1009216743131173 0 -0.18812090293700501 -0.09532846700542584 0 -0.18046868858205459 -0.1009216743131173 0 -0.1777301755667561 -0.089608413563138173 0 -0.19063032351846751 -0.080279024559612333 0 -0.18812090293700501 -0.09532846700542584 0 -0.1777301755667561 -0.089608413563138173 0 -0.19063032351846751 -0.080279024559612333 0 -0.1777301755667561 -0.089608413563138173 0 -0.17142961949124991 -0.073713731196273488 0 -0.19063032351846751 -0.080279024559612333 0 -0.17142961949124991 -0.073713731196273488 0 -0.1811660086302789 -0.062142224877601328 0 -0.19063032351846751 -0.080279024559612333 0 -0.1811660086302789 -0.062142224877601328 0 -0.17142961949124991 -0.073713731196273488 0 -0.16266040003168161 -0.061393105318518763 0 -0.1811660086302789 -0.062142224877601328 0 -0.17142961949124991 -0.073713731196273488 0 -0.15862215626743861 -0.076130609232455515 0 -0.16266040003168161 -0.061393105318518763 0 -0.1777301755667561 -0.089608413563138173 0 -0.17142961949124991 -0.073713731196273488 0 -0.16398215915944361 -0.086681679303089343 0 -0.169520080018112 -0.099626215075730926 0 -0.1777301755667561 -0.089608413563138173 0 -0.16398215915944361 -0.086681679303089343 0 -0.17142961949124991 -0.073713731196273488 0 -0.15862215626743861 -0.076130609232455515 0 -0.16398215915944361 -0.086681679303089343 0 -0.15862215626743861 -0.076130609232455515 0 -0.16398215915944361 -0.086681679303089343 0 -0.15097458898733229 -0.08613538093662404 0 -0.15739520382451011 -0.098804643783871271 0 -0.16398215915944361 -0.086681679303089343 0 -0.15097458898733229 -0.08613538093662404 0 -0.15862215626743861 -0.076130609232455515 0 -0.15097458898733229 -0.08613538093662404 0 -0.1440640136674857 -0.072729149407771865 0 -0.15097458898733229 -0.08613538093662404 0 -0.1440640136674857 -0.072729149407771865 0 -0.13982208917186051 -0.087815956166251444 0 -0.15097458898733229 -0.08613538093662404 0 -0.13982208917186051 -0.087815956166251444 0 -0.14475438403868751 -0.098631251618059926 0 -0.1440640136674857 -0.072729149407771865 0 -0.16266040003168161 -0.061393105318518763 0 -0.15862215626743861 -0.076130609232455515 0 -0.1440640136674857 -0.072729149407771865 0 -0.16266040003168161 -0.061393105318518763 0 -0.1440640136674857 -0.072729149407771865 0 -0.1472467018807915 -0.057084483431297919 0 -0.16266040003168161 -0.061393105318518763 0 -0.12546762730328931 -0.084065193497023988 0 -0.12934471968921851 -0.05471661990301524 0 -0.1440640136674857 -0.072729149407771865 0 -0.12546762730328931 -0.084065193497023988 0 -0.12934471968921851 -0.05471661990301524 0 -0.1440640136674857 -0.072729149407771865 0 -0.12546762730328931 -0.084065193497023988 0 -0.1440640136674857 -0.072729149407771865 0 -0.13982208917186051 -0.087815956166251444 0 -0.12546762730328931 -0.084065193497023988 0 -0.13982208917186051 -0.087815956166251444 0 -0.12546762730328931 -0.084065193497023988 0 -0.1338498318625071 -0.097518805371776429 0 -0.1224525997933185 -0.10688816183417391 0 -0.1338498318625071 -0.097518805371776429 0 -0.13890794366311049 -0.1120456288097065 0 -0.1224525997933185 -0.10688816183417391 0 -0.12546762730328931 -0.084065193497023988 0 -0.1338498318625071 -0.097518805371776429 0 -0.13982208917186051 -0.087815956166251444 0 -0.1338498318625071 -0.097518805371776429 0 -0.14475438403868751 -0.098631251618059926 0 -0.1338498318625071 -0.097518805371776429 0 -0.13890794366311049 -0.1120456288097065 0 -0.14475438403868751 -0.098631251618059926 0 -0.1224525997933185 -0.10688816183417391 0 -0.12947548143064089 -0.12187056700056211 0 -0.1224525997933185 -0.10688816183417391 0 -0.12947548143064089 -0.12187056700056211 0 -0.13890794366311049 -0.1120456288097065 0 -0.1217392022794949 -0.1122883941093334 0 -0.12947548143064089 -0.12187056700056211 0 -0.14121807982319731 -0.12515205944179861 0 -0.12947548143064089 -0.12187056700056211 0 -0.13890794366311049 -0.1120456288097065 0 -0.13890794366311049 -0.1120456288097065 0 -0.14864522162757271 -0.1204300406441904 0 -0.15214242559669161 -0.1096206058435869 0 -0.14121807982319731 -0.12515205944179861 0 -0.13890794366311049 -0.1120456288097065 0 -0.14864522162757271 -0.1204300406441904 0 -0.15653493526388529 -0.12569814396999929 0 -0.15768877375356369 -0.11820798640943631 0 -0.14864522162757271 -0.1204300406441904 0 -0.15768877375356369 -0.11820798640943631 0 -0.14864522162757271 -0.1204300406441904 0 -0.15214242559669161 -0.1096206058435869 0 -0.15739520382451011 -0.098804643783871271 0 -0.15214242559669161 -0.1096206058435869 0 -0.14475438403868751 -0.098631251618059926 0 -0.15739520382451011 -0.098804643783871271 0 -0.15097458898733229 -0.08613538093662404 0 -0.14475438403868751 -0.098631251618059926 0 -0.13890794366311049 -0.1120456288097065 0 -0.15214242559669161 -0.1096206058435869 0 -0.14475438403868751 -0.098631251618059926 0 -0.14807590325430159 -0.025679528053137592 0 -0.1332218120751483 -0.025368046309006621 0 -0.1483427444044246 -0.041606249098828853 0 -0.14807590325430159 -0.025679528053137592 0 -0.14677310839608509 -0.015026012531294959 0 -0.1639659481415483 -0.020717804273419949 0 -0.14807590325430159 -0.025679528053137592 0 -0.1483427444044246 -0.041606249098828853 0 -0.1639659481415483 -0.020717804273419949 0 -0.14807590325430159 -0.025679528053137592 0 -0.14677310839608509 -0.015026012531294959 0 -0.1332218120751483 -0.025368046309006621 0 -0.14677310839608509 -0.015026012531294959 0 -0.1328376889806758 -0.0045356249474490153 0 -0.15609440124032559 0.0047749055323952367 0 -0.14677310839608509 -0.015026012531294959 0 -0.1639659481415483 -0.020717804273419949 0 -0.15609440124032559 0.0047749055323952367 0 -0.14677310839608509 -0.015026012531294959 0 -0.1328376889806758 -0.0045356249474490153 0 -0.1332218120751483 -0.025368046309006621 0 -0.1180746810535893 -0.01844753626820873 0 -0.1328376889806758 -0.0045356249474490153 0 -0.1332218120751483 -0.025368046309006621 0 -0.1332218120751483 -0.025368046309006621 0 -0.12934471968921851 -0.05471661990301524 0 -0.1483427444044246 -0.041606249098828853 0 -0.1332218120751483 -0.025368046309006621 0 -0.12934471968921851 -0.05471661990301524 0 -0.1173768081565245 -0.038026315917921882 0 -0.1332218120751483 -0.025368046309006621 0 -0.12934471968921851 -0.05471661990301524 0 -0.1440640136674857 -0.072729149407771865 0 -0.12934471968921851 -0.05471661990301524 0 -0.1472467018807915 -0.057084483431297919 0 -0.12934471968921851 -0.05471661990301524 0 -0.1472467018807915 -0.057084483431297919 0 -0.1483427444044246 -0.041606249098828853 0 -0.1472467018807915 -0.057084483431297919 0 -0.1483427444044246 -0.041606249098828853 0 -0.1592665508843874 -0.047834378770416797 0 -0.1483427444044246 -0.041606249098828853 0 -0.1592665508843874 -0.047834378770416797 0 -0.1639659481415483 -0.020717804273419949 0 -0.17183749504277099 -0.046210514079235217 0 -0.1592665508843874 -0.047834378770416797 0 -0.1639659481415483 -0.020717804273419949 0 -0.17183749504277099 -0.046210514079235217 0 -0.1639659481415483 -0.020717804273419949 0 -0.17183749504277099 -0.046210514079235217 0 -0.17917964964285321 -0.037387356032462953 0 -0.1639659481415483 -0.020717804273419949 0 -0.1472467018807915 -0.057084483431297919 0 -0.16266040003168161 -0.061393105318518763 0 -0.1592665508843874 -0.047834378770416797 0 -0.17183749504277099 -0.046210514079235217 0 -0.16266040003168161 -0.061393105318518763 0 -0.1592665508843874 -0.047834378770416797 0 -0.16266040003168161 -0.061393105318518763 0 -0.18125678639587739 -0.050057061229265648 0 -0.17183749504277099 -0.046210514079235217 0 -0.16266040003168161 -0.061393105318518763 0 -0.18125678639587739 -0.050057061229265648 0 -0.16266040003168161 -0.061393105318518763 0 -0.18125678639587739 -0.050057061229265648 0 -0.1811660086302789 -0.062142224877601328 0 -0.18125678639587739 -0.050057061229265648 0 -0.1811660086302789 -0.062142224877601328 0 -0.1950295137205561 -0.056705819227055247 0 -0.17183749504277099 -0.046210514079235217 0 -0.18125678639587739 -0.050057061229265648 0 -0.17917964964285321 -0.037387356032462953 0 -0.18125678639587739 -0.050057061229265648 0 -0.17917964964285321 -0.037387356032462953 0 -0.19190149542132501 -0.042350857187124877 0 -0.17917964964285321 -0.037387356032462953 0 -0.1869365232127444 -0.027600543393269079 0 -0.19190149542132501 -0.042350857187124877 0 -0.1869365232127444 -0.027600543393269079 0 -0.1639659481415483 -0.020717804273419949 0 -0.1826470072517046 -0.0098753555905821966 0 -0.17917964964285321 -0.037387356032462953 0 -0.1869365232127444 -0.027600543393269079 0 -0.1639659481415483 -0.020717804273419949 0 -0.1639659481415483 -0.020717804273419949 0 -0.15609440124032559 0.0047749055323952367 0 -0.1639659481415483 -0.020717804273419949 0 -0.1826470072517046 -0.0098753555905821966 0 -0.15609440124032559 0.0047749055323952367 0 -0.1826470072517046 -0.0098753555905821966 0 -0.19747980701729501 -0.019726098398009151 0 -0.2043054799363804 -0.0060843420320624807 0 -0.1826470072517046 -0.0098753555905821966 0 -0.2043054799363804 -0.0060843420320624807 0 -0.18261243882222461 0.01005588960001042 0 -0.1869365232127444 -0.027600543393269079 0 -0.19747980701729501 -0.019726098398009151 0 -0.20285639350838061 -0.033168263581153913 0 -0.1869365232127444 -0.027600543393269079 0 -0.1826470072517046 -0.0098753555905821966 0 -0.19747980701729501 -0.019726098398009151 0 -0.21122428464212559 -0.021905556521401959 0 -0.20285639350838061 -0.033168263581153913 0 -0.22234566500339789 -0.037745103495155433 0 -0.19747980701729501 -0.019726098398009151 0 -0.21122428464212559 -0.021905556521401959 0 -0.2043054799363804 -0.0060843420320624807 0 -0.19747980701729501 -0.019726098398009151 0 -0.21122428464212559 -0.021905556521401959 0 -0.20285639350838061 -0.033168263581153913 0 -0.2043054799363804 -0.0060843420320624807 0 -0.22611980461073999 -0.01648528713172652 0 -0.2043054799363804 -0.0060843420320624807 0 -0.22611980461073999 -0.01648528713172652 0 -0.22560710032771991 0.005678747890459441 0 -0.21122428464212559 -0.021905556521401959 0 -0.2043054799363804 -0.0060843420320624807 0 -0.22611980461073999 -0.01648528713172652 0 -0.18125678639587739 -0.050057061229265648 0 -0.1950295137205561 -0.056705819227055247 0 -0.19190149542132501 -0.042350857187124877 0 -0.1950295137205561 -0.056705819227055247 0 -0.19190149542132501 -0.042350857187124877 0 -0.20443276446058181 -0.046663379443615531 0 -0.1869365232127444 -0.027600543393269079 0 -0.19190149542132501 -0.042350857187124877 0 -0.20285639350838061 -0.033168263581153913 0 -0.19190149542132501 -0.042350857187124877 0 -0.20285639350838061 -0.033168263581153913 0 -0.20443276446058181 -0.046663379443615531 0 -0.20285639350838061 -0.033168263581153913 0 -0.20443276446058181 -0.046663379443615531 0 -0.22234566500339789 -0.037745103495155433 0 -0.2100307546492495 -0.063346853727588179 0 -0.20443276446058181 -0.046663379443615531 0 -0.22234566500339789 -0.037745103495155433 0 -0.2100307546492495 -0.063346853727588179 0 -0.1950295137205561 -0.056705819227055247 0 -0.20443276446058181 -0.046663379443615531 0 -0.2100307546492495 -0.063346853727588179 0 -0.22234566500339789 -0.037745103495155433 0 -0.2422011707346092 -0.053650916521198987 0 -0.22234566500339789 -0.037745103495155433 0 -0.2422011707346092 -0.053650916521198987 0 -0.2479341292850992 -0.026886232231391329 0 -0.2422011707346092 -0.053650916521198987 0 -0.2479341292850992 -0.026886232231391329 0 -0.22234566500339789 -0.037745103495155433 0 -0.22611980461073999 -0.01648528713172652 0 -0.2479341292850992 -0.026886232231391329 0 -0.21122428464212559 -0.021905556521401959 0 -0.22234566500339789 -0.037745103495155433 0 -0.22611980461073999 -0.01648528713172652 0 -0.22611980461073999 -0.01648528713172652 0 -0.2479341292850992 -0.026886232231391329 0 -0.2520988178639067 -0.0074431167796321571 0 -0.22611980461073999 -0.01648528713172652 0 -0.2479341292850992 -0.026886232231391329 0 -0.22611980461073999 -0.01648528713172652 0 -0.2520988178639067 -0.0074431167796321571 0 -0.22560710032771991 0.005678747890459441 0 -0.2520988178639067 -0.0074431167796321571 0 -0.26744476073908419 -0.01110442416298311 0 -0.26860117861025579 0.00098416649955779712 0 -0.2520988178639067 -0.0074431167796321571 0 -0.26311887229054209 -0.02266011179098831 0 -0.26744476073908419 -0.01110442416298311 0 -0.2479341292850992 -0.026886232231391329 0 -0.26311887229054209 -0.02266011179098831 0 -0.27004504470236129 -0.037428590099042772 0 -0.2479341292850992 -0.026886232231391329 0 -0.2520988178639067 -0.0074431167796321571 0 -0.2479341292850992 -0.026886232231391329 0 -0.2520988178639067 -0.0074431167796321571 0 -0.26311887229054209 -0.02266011179098831 0 -0.26311887229054209 -0.02266011179098831 0 -0.27812689448094963 -0.019133287700887919 0 -0.27004504470236129 -0.037428590099042772 0 -0.27812689448094963 -0.019133287700887919 0 -0.28714408105252032 -0.032577858456204423 0 -0.27004504470236129 -0.037428590099042772 0 -0.26311887229054209 -0.02266011179098831 0 -0.27812689448094963 -0.019133287700887919 0 -0.26744476073908419 -0.01110442416298311 0 -0.26744476073908419 -0.01110442416298311 0 -0.27871756099426093 -0.0061602514197482616 0 -0.26860117861025579 0.00098416649955779712 0 -0.27812689448094963 -0.019133287700887919 0 -0.26744476073908419 -0.01110442416298311 0 -0.27871756099426093 -0.0061602514197482616 0 -0.27812689448094963 -0.019133287700887919 0 -0.27871756099426093 -0.0061602514197482616 0 -0.29458949306733412 -0.01100266496878353 0 -0.27871756099426093 -0.0061602514197482616 0 -0.29458949306733412 -0.01100266496878353 0 -0.28533747578866669 0.0057230835820348174 0 -0.27812689448094963 -0.019133287700887919 0 -0.30295050935360612 -0.029081723329544212 0 -0.27812689448094963 -0.019133287700887919 0 -0.30295050935360612 -0.029081723329544212 0 -0.28714408105252032 -0.032577858456204423 0 -0.27812689448094963 -0.019133287700887919 0 -0.29458949306733412 -0.01100266496878353 0 -0.30295050935360612 -0.029081723329544212 0 -0.29458949306733412 -0.01100266496878353 0 -0.30401961152946011 -0.02688584229340954 0 -0.30295050935360612 -0.029081723329544212 0 -0.30401961152946011 -0.02688584229340954 0 -0.31240634161385089 -0.0057222447989648366 0 -0.29458949306733412 -0.01100266496878353 0 -0.31240634161385089 -0.0057222447989648366 0 -0.30297757949018539 0.007638752858504072 0 -0.29458949306733412 -0.01100266496878353 0 -0.30401961152946011 -0.02688584229340954 0 -0.31240634161385089 -0.0057222447989648366 0 -0.30145485788886489 -0.040659874347175107 0 -0.31254463314138209 -0.043423673959677993 0 -0.3142668755368847 -0.058513305834347162 0 -0.29215596011962303 -0.047970947966694967 0 -0.3142668755368847 -0.058513305834347162 0 -0.30145485788886489 -0.040659874347175107 0 -0.29215596011962303 -0.047970947966694967 0 -0.3142668755368847 -0.058513305834347162 0 -0.29215596011962303 -0.047970947966694967 0 -0.30175079220615802 -0.072328583115536582 0 -0.3142668755368847 -0.058513305834347162 0 -0.30295050935360612 -0.029081723329544212 0 -0.30145485788886489 -0.040659874347175107 0 -0.28714408105252032 -0.032577858456204423 0 -0.30401961152946011 -0.02688584229340954 0 -0.30295050935360612 -0.029081723329544212 0 -0.32777412422626262 -0.0390301589582005 0 -0.31118103115252888 -0.038048857648649452 0 -0.30145485788886489 -0.040659874347175107 0 -0.31254463314138209 -0.043423673959677993 0 -0.30295050935360612 -0.029081723329544212 0 -0.31118103115252888 -0.038048857648649452 0 -0.30145485788886489 -0.040659874347175107 0 -0.28714408105252032 -0.032577858456204423 0 -0.29215596011962303 -0.047970947966694967 0 -0.27004504470236129 -0.037428590099042772 0 -0.30145485788886489 -0.040659874347175107 0 -0.28714408105252032 -0.032577858456204423 0 -0.29215596011962303 -0.047970947966694967 0 -0.29215596011962303 -0.047970947966694967 0 -0.27789706822258131 -0.04941846168909643 0 -0.27801674594407089 -0.068170108414033689 0 -0.26485964355612568 -0.043465575651673333 0 -0.25681841563442281 -0.068098833519700683 0 -0.27801674594407089 -0.068170108414033689 0 -0.26485964355612568 -0.043465575651673333 0 -0.27801674594407089 -0.068170108414033689 0 -0.27789706822258131 -0.04941846168909643 0 -0.26485964355612568 -0.043465575651673333 0 -0.27801674594407089 -0.068170108414033689 0 -0.29215596011962303 -0.047970947966694967 0 -0.27004504470236129 -0.037428590099042772 0 -0.29215596011962303 -0.047970947966694967 0 -0.27789706822258131 -0.04941846168909643 0 -0.27004504470236129 -0.037428590099042772 0 -0.27789706822258131 -0.04941846168909643 0 -0.27004504470236129 -0.037428590099042772 0 -0.26485964355612568 -0.043465575651673333 0 -0.2479341292850992 -0.026886232231391329 0 -0.27004504470236129 -0.037428590099042772 0 -0.2422011707346092 -0.053650916521198987 0 -0.2479341292850992 -0.026886232231391329 0 -0.26485964355612568 -0.043465575651673333 0 -0.2479341292850992 -0.026886232231391329 0 -0.27004504470236129 -0.037428590099042772 0 -0.26485964355612568 -0.043465575651673333 0 -0.2422011707346092 -0.053650916521198987 0 -0.26485964355612568 -0.043465575651673333 0 -0.25681841563442281 -0.068098833519700683 0 -0.23646821218412289 -0.080415600811007446 0 -0.25681841563442281 -0.068098833519700683 0 -0.26254630575318572 -0.094791966200589994 0 -0.27801674594407089 -0.068170108414033689 0 -0.26254630575318572 -0.094791966200589994 0 -0.29117384833201709 -0.092874641176393546 0 -0.25681841563442281 -0.068098833519700683 0 -0.27801674594407089 -0.068170108414033689 0 -0.26254630575318572 -0.094791966200589994 0 -0.25035907759500148 -0.11053406910422039 0 -0.26254630575318572 -0.094791966200589994 0 -0.27369537867224503 -0.1236054940636331 0 -0.25035907759500148 -0.11053406910422039 0 -0.27369537867224503 -0.1236054940636331 0 -0.25178080866201508 -0.13018226465235741 0 -0.26254630575318572 -0.094791966200589994 0 -0.27369537867224503 -0.1236054940636331 0 -0.29117384833201709 -0.092874641176393546 0 -0.26254630575318572 -0.094791966200589994 0 -0.29117384833201709 -0.092874641176393546 0 -0.27369537867224503 -0.1236054940636331 0 -0.30497834778869343 -0.11879476393898181 0 -0.29117384833201709 -0.092874641176393546 0 -0.30497834778869343 -0.11879476393898181 0 -0.29117384833201709 -0.092874641176393546 0 -0.30497834778869343 -0.11879476393898181 0 -0.29117384833201709 -0.092874641176393546 0 -0.31893998107111909 -0.091015008936587732 0 -0.27801674594407089 -0.068170108414033689 0 -0.29117384833201709 -0.092874641176393546 0 -0.30175079220615802 -0.072328583115536582 0 -0.29215596011962303 -0.047970947966694967 0 -0.27801674594407089 -0.068170108414033689 0 -0.30175079220615802 -0.072328583115536582 0 -0.27801674594407089 -0.068170108414033689 0 -0.29117384833201709 -0.092874641176393546 0 -0.29117384833201709 -0.092874641176393546 0 -0.31893998107111909 -0.091015008936587732 0 -0.29117384833201709 -0.092874641176393546 0 -0.30175079220615802 -0.072328583115536582 0 -0.31893998107111909 -0.091015008936587732 0 -0.30175079220615802 -0.072328583115536582 0 -0.32546576123013438 -0.072794242535447515 0 -0.3142668755368847 -0.058513305834347162 0 -0.30175079220615802 -0.072328583115536582 0 -0.32546576123013438 -0.072794242535447515 0 -0.31893998107111909 -0.091015008936587732 0 -0.31893998107111909 -0.091015008936587732 0 -0.34670611381022132 -0.089155376696784874 0 -0.32546576123013438 -0.072794242535447515 0 -0.31893998107111909 -0.091015008936587732 0 -0.34670611381022132 -0.089155376696784874 0 -0.32546576123013438 -0.072794242535447515 0 -0.34294043252230322 -0.067360517808828457 0 -0.33354078605449028 -0.05595373285123989 0 -0.32546576123013438 -0.072794242535447515 0 -0.34294043252230322 -0.067360517808828457 0 -0.34670611381022132 -0.089155376696784874 0 -0.30497834778869343 -0.11879476393898181 0 -0.31893998107111909 -0.091015008936587732 0 -0.32523960744037689 -0.1206118987466869 0 -0.31893998107111909 -0.091015008936587732 0 -0.32523960744037689 -0.1206118987466869 0 -0.33683020317735352 -0.1059637480566113 0 -0.31893998107111909 -0.091015008936587732 0 -0.33683020317735352 -0.1059637480566113 0 -0.34670611381022132 -0.089155376696784874 0 -0.32523960744037689 -0.1206118987466869 0 -0.33683020317735352 -0.1059637480566113 0 -0.34402086294113682 -0.1222008738331825 0 -0.33683020317735352 -0.1059637480566113 0 -0.34402086294113682 -0.1222008738331825 0 -0.35728216684826802 -0.1045491834428703 0 -0.34402086294113682 -0.1222008738331825 0 -0.35728216684826802 -0.1045491834428703 0 -0.36897713571108831 -0.12237000583843879 0 -0.33683020317735352 -0.1059637480566113 0 -0.35728216684826802 -0.1045491834428703 0 -0.34670611381022132 -0.089155376696784874 0 -0.35728216684826802 -0.1045491834428703 0 -0.37447224654932348 -0.087295744456982016 0 -0.37559741639245869 -0.099820891001506623 0 -0.35728216684826802 -0.1045491834428703 0 -0.36897713571108831 -0.12237000583843879 0 -0.37559741639245869 -0.099820891001506623 0 -0.36897713571108831 -0.12237000583843879 0 -0.37559741639245869 -0.099820891001506623 0 -0.34294043252230322 -0.067360517808828457 0 -0.35773910467776371 -0.076290427236474348 0 -0.36152716330438861 -0.062988128982389244 0 -0.34294043252230322 -0.067360517808828457 0 -0.35773910467776371 -0.076290427236474348 0 -0.34670611381022132 -0.089155376696784874 0 -0.35773910467776371 -0.076290427236474348 0 -0.37447224654932348 -0.087295744456982016 0 -0.36983424897275441 -0.075868126045547782 0 -0.34670611381022132 -0.089155376696784874 0 -0.37447224654932348 -0.087295744456982016 0 -0.35728216684826802 -0.1045491834428703 0 -0.34670611381022132 -0.089155376696784874 0 -0.37447224654932348 -0.087295744456982016 0 -0.35773910467776371 -0.076290427236474348 0 -0.34670611381022132 -0.089155376696784874 0 -0.37447224654932348 -0.087295744456982016 0 -0.36152716330438861 -0.062988128982389244 0 -0.37125930115982392 -0.066336840340026348 0 -0.37742135397157561 -0.058927030215513078 0 -0.35773910467776371 -0.076290427236474348 0 -0.36983424897275441 -0.075868126045547782 0 -0.36152716330438861 -0.062988128982389244 0 -0.36983424897275441 -0.075868126045547782 0 -0.36152716330438861 -0.062988128982389244 0 -0.37125930115982392 -0.066336840340026348 0 -0.36983424897275441 -0.075868126045547782 0 -0.37125930115982392 -0.066336840340026348 0 -0.37756310197991422 -0.067820863111880944 0 -0.35259773909891912 -0.048978594586856793 0 -0.37742135397157561 -0.058927030215513078 0 -0.36152716330438861 -0.062988128982389244 0 -0.35259773909891912 -0.048978594586856793 0 -0.37742135397157561 -0.058927030215513078 0 -0.35259773909891912 -0.048978594586856793 0 -0.36880897750199221 -0.044472365969784503 0 -0.37742135397157561 -0.058927030215513078 0 -0.34294043252230322 -0.067360517808828457 0 -0.36152716330438861 -0.062988128982389244 0 -0.35259773909891912 -0.048978594586856793 0 -0.35259773909891912 -0.048978594586856793 0 -0.35815685679970699 -0.036951470706269321 0 -0.34178614926716461 -0.036127270120801552 0 -0.35815685679970699 -0.036951470706269321 0 -0.35728857169086342 -0.024793009515726591 0 -0.34178614926716461 -0.036127270120801552 0 -0.35259773909891912 -0.048978594586856793 0 -0.35815685679970699 -0.036951470706269321 0 -0.36880897750199221 -0.044472365969784503 0 -0.35815685679970699 -0.036951470706269321 0 -0.36880897750199221 -0.044472365969784503 0 -0.37030284643959538 -0.030386113338177138 0 -0.36880897750199221 -0.044472365969784503 0 -0.37030284643959538 -0.030386113338177138 0 -0.38563118903302868 -0.044120874695869533 0 -0.37030284643959538 -0.030386113338177138 0 -0.37279099411456218 -0.01345874891065147 0 -0.35728857169086342 -0.024793009515726591 0 -0.37279099411456218 -0.01345874891065147 0 -0.35838807856779309 -0.01094225345210836 0 -0.35728857169086342 -0.024793009515726591 0 -0.37279099411456218 -0.01345874891065147 0 -0.35728857169086342 -0.024793009515726591 0 -0.35815685679970699 -0.036951470706269321 0 -0.37030284643959538 -0.030386113338177138 0 -0.35728857169086342 -0.024793009515726591 0 -0.37279099411456218 -0.01345874891065147 0 -0.35918071581129568 0.003338870615967294 0 -0.37180987954083178 -0.0023840389534433991 0 -0.37279099411456218 -0.01345874891065147 0 -0.35918071581129568 0.003338870615967294 0 -0.37279099411456218 -0.01345874891065147 0 -0.35838807856779309 -0.01094225345210836 0 -0.35918071581129568 0.003338870615967294 0 -0.35838807856779309 -0.01094225345210836 0 -0.34048686778571402 -0.01002932277235691 0 -0.35918071581129568 0.003338870615967294 0 -0.35838807856779309 -0.01094225345210836 0 -0.35728857169086342 -0.024793009515726591 0 -0.34048686778571402 -0.01002932277235691 0 -0.35728857169086342 -0.024793009515726591 0 -0.33642102940149898 -0.023906093267090041 0 -0.34178614926716461 -0.036127270120801552 0 -0.35728857169086342 -0.024793009515726591 0 -0.33642102940149898 -0.023906093267090041 0 -0.34048686778571402 -0.01002932277235691 0 -0.35728857169086342 -0.024793009515726591 0 -0.34178614926716461 -0.036127270120801552 0 -0.33642102940149898 -0.023906093267090041 0 -0.34048686778571402 -0.01002932277235691 0 -0.32168226029662911 -0.021641663818973089 0 -0.33642102940149898 -0.023906093267090041 0 -0.32168226029662911 -0.021641663818973089 0 -0.32777412422626262 -0.0390301589582005 0 -0.31240634161385089 -0.0057222447989648366 0 -0.34048686778571402 -0.01002932277235691 0 -0.33519624187438168 0.0073911367791017982 0 -0.31240634161385089 -0.0057222447989648366 0 -0.34048686778571402 -0.01002932277235691 0 -0.32168226029662911 -0.021641663818973089 0 -0.30401961152946011 -0.02688584229340954 0 -0.32168226029662911 -0.021641663818973089 0 -0.32777412422626262 -0.0390301589582005 0 -0.30401961152946011 -0.02688584229340954 0 -0.31240634161385089 -0.0057222447989648366 0 -0.32168226029662911 -0.021641663818973089 0 -0.31118103115252888 -0.038048857648649452 0 -0.32777412422626262 -0.0390301589582005 0 -0.31254463314138209 -0.043423673959677993 0 -0.30295050935360612 -0.029081723329544212 0 -0.32777412422626262 -0.0390301589582005 0 -0.30295050935360612 -0.029081723329544212 0 -0.31118103115252888 -0.038048857648649452 0 -0.32777412422626262 -0.0390301589582005 0 -0.32777412422626262 -0.0390301589582005 0 -0.3142668755368847 -0.058513305834347162 0 -0.33354078605449028 -0.05595373285123989 0 -0.32546576123013438 -0.072794242535447515 0 -0.3142668755368847 -0.058513305834347162 0 -0.33354078605449028 -0.05595373285123989 0 -0.32777412422626262 -0.0390301589582005 0 -0.31254463314138209 -0.043423673959677993 0 -0.3142668755368847 -0.058513305834347162 0 -0.35259773909891912 -0.048978594586856793 0 -0.32777412422626262 -0.0390301589582005 0 -0.33354078605449028 -0.05595373285123989 0 -0.34294043252230322 -0.067360517808828457 0 -0.35259773909891912 -0.048978594586856793 0 -0.33354078605449028 -0.05595373285123989 0 -0.35259773909891912 -0.048978594586856793 0 -0.32777412422626262 -0.0390301589582005 0 -0.34178614926716461 -0.036127270120801552 0 -0.35259773909891912 -0.048978594586856793 0 -0.32777412422626262 -0.0390301589582005 0 -0.33642102940149898 -0.023906093267090041 0 -0.32777412422626262 -0.0390301589582005 0 -0.34178614926716461 -0.036127270120801552 0 -0.3041448722191199 -0.24594418604843371 0 -0.30978712179813522 -0.22949728732725169 0 -0.31799808483916181 -0.2411422576484635 0 -0.29727910994219192 -0.23575784551110429 0 -0.3041448722191199 -0.24594418604843371 0 -0.30978712179813522 -0.22949728732725169 0 -0.29727910994219192 -0.23575784551110429 0 -0.3041448722191199 -0.24594418604843371 0 -0.29727910994219192 -0.23575784551110429 0 -0.30978712179813522 -0.22949728732725169 0 -0.28742183716270342 -0.2262009568469989 0 -0.30978712179813522 -0.22949728732725169 0 -0.29783995011851089 -0.2194150348496792 0 -0.28742183716270342 -0.2262009568469989 0 -0.30978712179813522 -0.22949728732725169 0 -0.28742183716270342 -0.2262009568469989 0 -0.30978712179813522 -0.22949728732725169 0 -0.29783995011851089 -0.2194150348496792 0 -0.30738459695217918 -0.21718876747995969 0 -0.30978712179813522 -0.22949728732725169 0 -0.30738459695217918 -0.21718876747995969 0 -0.31881255300738059 -0.21671924693249919 0 -0.29727910994219192 -0.23575784551110429 0 -0.28742183716270342 -0.2262009568469989 0 -0.28479260734663342 -0.23918036946146551 0 -0.29783995011851089 -0.2194150348496792 0 -0.28742183716270342 -0.2262009568469989 0 -0.28780295875891332 -0.21373041176748861 0 -0.28742183716270342 -0.2262009568469989 0 -0.28479260734663342 -0.23918036946146551 0 -0.27745667118683481 -0.2303742557919819 0 -0.29727910994219192 -0.23575784551110429 0 -0.3041448722191199 -0.24594418604843371 0 -0.28479260734663342 -0.23918036946146551 0 -0.3041448722191199 -0.24594418604843371 0 -0.28479260734663342 -0.23918036946146551 0 -0.29105531347898761 -0.25232858781173639 0 -0.3041448722191199 -0.24594418604843371 0 -0.28479260734663342 -0.23918036946146551 0 -0.27910059834195711 -0.25082361772595813 0 -0.29105531347898761 -0.25232858781173639 0 -0.28479260734663342 -0.23918036946146551 0 -0.27910059834195711 -0.25082361772595813 0 -0.28479260734663342 -0.23918036946146551 0 -0.27190598892482643 -0.24300985525804519 0 -0.28479260734663342 -0.23918036946146551 0 -0.26544034247414688 -0.2324165528744975 0 -0.26965743467848302 -0.23172145874425271 0 -0.28479260734663342 -0.23918036946146551 0 -0.27190598892482643 -0.24300985525804519 0 -0.26544034247414688 -0.2324165528744975 0 -0.28479260734663342 -0.23918036946146551 0 -0.26544034247414688 -0.2324165528744975 0 -0.27190598892482643 -0.24300985525804519 0 -0.26209743224707122 -0.24175178633900329 0 -0.26544034247414688 -0.2324165528744975 0 -0.26616229895624582 -0.25002406866022742 0 -0.27190598892482643 -0.24300985525804519 0 -0.26209743224707122 -0.24175178633900329 0 -0.26616229895624582 -0.25002406866022742 0 -0.27910059834195711 -0.25082361772595813 0 -0.27190598892482643 -0.24300985525804519 0 -0.26616229895624582 -0.25002406866022742 0 -0.26209743224707122 -0.24175178633900329 0 -0.25062049476955539 -0.24619563476610751 0 -0.26209743224707122 -0.24175178633900329 0 -0.25635803611058161 -0.23711282013613891 0 -0.26544034247414688 -0.2324165528744975 0 -0.26209743224707122 -0.24175178633900329 0 -0.25635803611058161 -0.23711282013613891 0 -0.25062049476955539 -0.24619563476610751 0 -0.2425030788867891 -0.21958055945641841 0 -0.26505655252727162 -0.22290462636674691 0 -0.2425030788867891 -0.21958055945641841 0 -0.25275962445406269 -0.22816449224536481 0 -0.26505655252727162 -0.22290462636674691 0 -0.24178099063369299 -0.2350961355948428 0 -0.25635803611058161 -0.23711282013613891 0 -0.25275962445406269 -0.22816449224536481 0 -0.25635803611058161 -0.23711282013613891 0 -0.25275962445406269 -0.22816449224536481 0 -0.25990363889151569 -0.230149622905687 0 -0.25635803611058161 -0.23711282013613891 0 -0.26544034247414688 -0.2324165528744975 0 -0.25990363889151569 -0.230149622905687 0 -0.25275962445406269 -0.22816449224536481 0 -0.25990363889151569 -0.230149622905687 0 -0.26505655252727162 -0.22290462636674691 0 -0.26544034247414688 -0.2324165528744975 0 -0.25990363889151569 -0.230149622905687 0 -0.26505655252727162 -0.22290462636674691 0 -0.28742183716270342 -0.2262009568469989 0 -0.26505655252727162 -0.22290462636674691 0 -0.27731170009132827 -0.21627492452582681 0 -0.28742183716270342 -0.2262009568469989 0 -0.26505655252727162 -0.22290462636674691 0 -0.27745667118683481 -0.2303742557919819 0 -0.28742183716270342 -0.2262009568469989 0 -0.26505655252727162 -0.22290462636674691 0 -0.26505655252727162 -0.22290462636674691 0 -0.26965743467848302 -0.23172145874425271 0 -0.27745667118683481 -0.2303742557919819 0 -0.26505655252727162 -0.22290462636674691 0 -0.26965743467848302 -0.23172145874425271 0 -0.26544034247414688 -0.2324165528744975 0 -0.26505655252727162 -0.22290462636674691 0 -0.26965743467848302 -0.23172145874425271 0 -0.28479260734663342 -0.23918036946146551 0 -0.26965743467848302 -0.23172145874425271 0 -0.27745667118683481 -0.2303742557919819 0 -0.27731170009132827 -0.21627492452582681 0 -0.27889140137048429 -0.20547930169925091 0 -0.2692213235026461 -0.2097498562016967 0 -0.27889140137048429 -0.20547930169925091 0 -0.2692213235026461 -0.2097498562016967 0 -0.26895387969391249 -0.19874607958864121 0 -0.26505655252727162 -0.22290462636674691 0 -0.27731170009132827 -0.21627492452582681 0 -0.2692213235026461 -0.2097498562016967 0 -0.2425030788867891 -0.21958055945641841 0 -0.26505655252727162 -0.22290462636674691 0 -0.2558930838302339 -0.2053443488280175 0 -0.26505655252727162 -0.22290462636674691 0 -0.2692213235026461 -0.2097498562016967 0 -0.2558930838302339 -0.2053443488280175 0 -0.26505655252727162 -0.22290462636674691 0 -0.2558930838302339 -0.2053443488280175 0 -0.2692213235026461 -0.2097498562016967 0 -0.2558930838302339 -0.2053443488280175 0 -0.26895387969391249 -0.19874607958864121 0 -0.24672961513319869 -0.18778407128928681 0 -0.2558930838302339 -0.2053443488280175 0 -0.26488608838063321 -0.18673804186629739 0 -0.2558930838302339 -0.2053443488280175 0 -0.26895387969391249 -0.19874607958864121 0 -0.26488608838063321 -0.18673804186629739 0 -0.24672961513319869 -0.18778407128928681 0 -0.2558930838302339 -0.2053443488280175 0 -0.26895387969391249 -0.19874607958864121 0 -0.28304256162806768 -0.18569201244330849 0 -0.26488608838063321 -0.18673804186629739 0 -0.27889140137048429 -0.20547930169925091 0 -0.26895387969391249 -0.19874607958864121 0 -0.28304256162806768 -0.18569201244330849 0 -0.27889140137048429 -0.20547930169925091 0 -0.28911777557334062 -0.20256576901859091 0 -0.28304256162806768 -0.18569201244330849 0 -0.28911777557334062 -0.20256576901859091 0 -0.29790138856021631 -0.19527404180787339 0 -0.28304256162806768 -0.18569201244330849 0 -0.28911777557334062 -0.20256576901859091 0 -0.29680323592062319 -0.21045775082669721 0 -0.29790138856021631 -0.19527404180787339 0 -0.27889140137048429 -0.20547930169925091 0 -0.28911777557334062 -0.20256576901859091 0 -0.28780295875891332 -0.21373041176748861 0 -0.27731170009132827 -0.21627492452582681 0 -0.27889140137048429 -0.20547930169925091 0 -0.28780295875891332 -0.21373041176748861 0 -0.28742183716270342 -0.2262009568469989 0 -0.27731170009132827 -0.21627492452582681 0 -0.28780295875891332 -0.21373041176748861 0 -0.29783995011851089 -0.2194150348496792 0 -0.28780295875891332 -0.21373041176748861 0 -0.29680323592062319 -0.21045775082669721 0 -0.28911777557334062 -0.20256576901859091 0 -0.28780295875891332 -0.21373041176748861 0 -0.29680323592062319 -0.21045775082669721 0 -0.29680323592062319 -0.21045775082669721 0 -0.30833498950677912 -0.20651753618236421 0 -0.29790138856021631 -0.19527404180787339 0 -0.29783995011851089 -0.2194150348496792 0 -0.29680323592062319 -0.21045775082669721 0 -0.30738459695217918 -0.21718876747995969 0 -0.29680323592062319 -0.21045775082669721 0 -0.30738459695217918 -0.21718876747995969 0 -0.30833498950677912 -0.20651753618236421 0 -0.30738459695217918 -0.21718876747995969 0 -0.30833498950677912 -0.20651753618236421 0 -0.31881255300738059 -0.21671924693249919 0 -0.30833498950677912 -0.20651753618236421 0 -0.31050256092394762 -0.19564790771855189 0 -0.31860560167632801 -0.20381750232860391 0 -0.30833498950677912 -0.20651753618236421 0 -0.31050256092394762 -0.19564790771855189 0 -0.29790138856021631 -0.19527404180787339 0 -0.31050256092394762 -0.19564790771855189 0 -0.30625136290989119 -0.18373979370991739 0 -0.31490619419907862 -0.18734503595755911 0 -0.31050256092394762 -0.19564790771855189 0 -0.29790138856021631 -0.19527404180787339 0 -0.30625136290989119 -0.18373979370991739 0 -0.29790138856021631 -0.19527404180787339 0 -0.30625136290989119 -0.18373979370991739 0 -0.29490002076634642 -0.1794017484400742 0 -0.30625136290989119 -0.18373979370991739 0 -0.30349762954369541 -0.1682442892330703 0 -0.29490002076634642 -0.1794017484400742 0 -0.30625136290989119 -0.18373979370991739 0 -0.30349762954369541 -0.1682442892330703 0 -0.31657483267561809 -0.17672596605131971 0 -0.30349762954369541 -0.1682442892330703 0 -0.31741543256185423 -0.16479217701914381 0 -0.31657483267561809 -0.17672596605131971 0 -0.30349762954369541 -0.1682442892330703 0 -0.30830209044621532 -0.15354430447070211 0 -0.31741543256185423 -0.16479217701914381 0 -0.30349762954369541 -0.1682442892330703 0 -0.29376119264398037 -0.15698484165748061 0 -0.30830209044621532 -0.15354430447070211 0 -0.30349762954369541 -0.1682442892330703 0 -0.28532509986994459 -0.16774940849170969 0 -0.29376119264398037 -0.15698484165748061 0 -0.30349762954369541 -0.1682442892330703 0 -0.28532509986994459 -0.16774940849170969 0 -0.29490002076634642 -0.1794017484400742 0 -0.28532509986994459 -0.16774940849170969 0 -0.29376119264398037 -0.15698484165748061 0 -0.27645626152443259 -0.1539552036150218 0 -0.28532509986994459 -0.16774940849170969 0 -0.28304256162806768 -0.18569201244330849 0 -0.29490002076634642 -0.1794017484400742 0 -0.29790138856021631 -0.19527404180787339 0 -0.28304256162806768 -0.18569201244330849 0 -0.29490002076634642 -0.1794017484400742 0 -0.28532509986994459 -0.16774940849170969 0 -0.28304256162806768 -0.18569201244330849 0 -0.272150956555335 -0.17191828696484451 0 -0.28304256162806768 -0.18569201244330849 0 -0.272150956555335 -0.17191828696484451 0 -0.26488608838063321 -0.18673804186629739 0 -0.28304256162806768 -0.18569201244330849 0 -0.26488608838063321 -0.18673804186629739 0 -0.272150956555335 -0.17191828696484451 0 -0.26488608838063321 -0.18673804186629739 0 -0.25564846528820961 -0.16524042538427319 0 -0.24672961513319869 -0.18778407128928681 0 -0.26488608838063321 -0.18673804186629739 0 -0.24672961513319869 -0.18778407128928681 0 -0.26488608838063321 -0.18673804186629739 0 -0.25564846528820961 -0.16524042538427319 0 -0.272150956555335 -0.17191828696484451 0 -0.25564846528820961 -0.16524042538427319 0 -0.27645626152443259 -0.1539552036150218 0 -0.28532509986994459 -0.16774940849170969 0 -0.272150956555335 -0.17191828696484451 0 -0.27645626152443259 -0.1539552036150218 0 -0.24023528997376051 -0.14585890559731859 0 -0.25564846528820961 -0.16524042538427319 0 -0.25956324082413262 -0.1437684586625208 0 -0.25564846528820961 -0.16524042538427319 0 -0.27645626152443259 -0.1539552036150218 0 -0.25956324082413262 -0.1437684586625208 0 -0.24023528997376051 -0.14585890559731859 0 -0.25956324082413262 -0.1437684586625208 0 -0.25178080866201508 -0.13018226465235741 0 -0.27369537867224503 -0.1236054940636331 0 -0.25956324082413262 -0.1437684586625208 0 -0.25178080866201508 -0.13018226465235741 0 -0.27369537867224503 -0.1236054940636331 0 -0.27645626152443259 -0.1539552036150218 0 -0.25956324082413262 -0.1437684586625208 0 -0.27369537867224503 -0.1236054940636331 0 -0.30497834778869343 -0.11879476393898181 0 -0.29522488183561407 -0.14143100247689919 0 -0.27369537867224503 -0.1236054940636331 0 -0.27645626152443259 -0.1539552036150218 0 -0.29522488183561407 -0.14143100247689919 0 -0.29376119264398037 -0.15698484165748061 0 -0.27645626152443259 -0.1539552036150218 0 -0.29522488183561407 -0.14143100247689919 0 -0.29522488183561407 -0.14143100247689919 0 -0.30830209044621532 -0.15354430447070211 0 -0.30667103642056331 -0.1422419992399663 0 -0.29376119264398037 -0.15698484165748061 0 -0.29522488183561407 -0.14143100247689919 0 -0.30830209044621532 -0.15354430447070211 0 -0.30830209044621532 -0.15354430447070211 0 -0.30667103642056331 -0.1422419992399663 0 -0.31878284724537082 -0.14471488670156951 0 -0.30497834778869343 -0.11879476393898181 0 -0.31878284724537082 -0.14471488670156951 0 -0.30497834778869343 -0.11879476393898181 0 -0.29522488183561407 -0.14143100247689919 0 -0.30667103642056331 -0.1422419992399663 0 -0.30497834778869343 -0.11879476393898181 0 -0.30667103642056331 -0.1422419992399663 0 -0.31878284724537082 -0.14471488670156951 0 -0.32523960744037689 -0.1206118987466869 0 -0.31878284724537082 -0.14471488670156951 0 -0.33320322939556601 -0.13783936602235869 0 -0.30497834778869343 -0.11879476393898181 0 -0.32523960744037689 -0.1206118987466869 0 -0.31878284724537082 -0.14471488670156951 0 -0.30830209044621532 -0.15354430447070211 0 -0.31878284724537082 -0.14471488670156951 0 -0.31847225422548869 -0.15437437033437121 0 -0.31878284724537082 -0.14471488670156951 0 -0.31847225422548869 -0.15437437033437121 0 -0.32784765956392042 -0.1520283381912676 0 -0.31878284724537082 -0.14471488670156951 0 -0.32784765956392042 -0.1520283381912676 0 -0.33320322939556601 -0.13783936602235869 0 -0.33949775091749967 -0.1476995910036954 0 -0.33320322939556601 -0.13783936602235869 0 -0.34989659758625979 -0.13783560896354061 0 -0.32784765956392042 -0.1520283381912676 0 -0.33949775091749967 -0.1476995910036954 0 -0.33320322939556601 -0.13783936602235869 0 -0.32784765956392042 -0.1520283381912676 0 -0.33949775091749967 -0.1476995910036954 0 -0.35169228256389878 -0.1684053924569372 0 -0.34402086294113682 -0.1222008738331825 0 -0.33320322939556601 -0.13783936602235869 0 -0.34989659758625979 -0.13783560896354061 0 -0.32523960744037689 -0.1206118987466869 0 -0.34402086294113682 -0.1222008738331825 0 -0.33320322939556601 -0.13783936602235869 0 -0.34402086294113682 -0.1222008738331825 0 -0.36897713571108831 -0.12237000583843879 0 -0.34989659758625979 -0.13783560896354061 0 -0.36897713571108831 -0.12237000583843879 0 -0.36235685502971771 -0.14491912067537099 0 -0.37923062673594887 -0.14195129383739491 0 -0.36897713571108831 -0.12237000583843879 0 -0.34989659758625979 -0.13783560896354061 0 -0.36235685502971771 -0.14491912067537099 0 -0.36897713571108831 -0.12237000583843879 0 -0.36235685502971771 -0.14491912067537099 0 -0.36235685502971771 -0.14491912067537099 0 -0.37684040880866942 -0.1633129553024005 0 -0.37923062673594887 -0.14195129383739491 0 -0.33949775091749967 -0.1476995910036954 0 -0.34989659758625979 -0.13783560896354061 0 -0.35040537713500031 -0.1536566348225662 0 -0.36235685502971771 -0.14491912067537099 0 -0.35573657434834721 -0.16746823551230319 0 -0.34989659758625979 -0.13783560896354061 0 -0.36235685502971771 -0.14491912067537099 0 -0.35040537713500031 -0.1536566348225662 0 -0.36235685502971771 -0.14491912067537099 0 -0.35040537713500031 -0.1536566348225662 0 -0.35573657434834721 -0.16746823551230319 0 -0.33949775091749967 -0.1476995910036954 0 -0.35040537713500031 -0.1536566348225662 0 -0.35169228256389878 -0.1684053924569372 0 -0.34670424567217151 -0.17017656349798671 0 -0.35169228256389878 -0.1684053924569372 0 -0.34111056873151679 -0.1659605813372495 0 -0.34670424567217151 -0.17017656349798671 0 -0.34821976698055612 -0.17282348558368749 0 -0.34338478819498092 -0.17234507601074639 0 -0.34670424567217151 -0.17017656349798671 0 -0.35169228256389878 -0.1684053924569372 0 -0.34821976698055612 -0.17282348558368749 0 -0.35040537713500031 -0.1536566348225662 0 -0.35573657434834721 -0.16746823551230319 0 -0.35169228256389878 -0.1684053924569372 0 -0.35573657434834721 -0.16746823551230319 0 -0.37553690556387698 -0.18478244672260671 0 -0.37684040880866942 -0.1633129553024005 0 -0.36235685502971771 -0.14491912067537099 0 -0.35573657434834721 -0.16746823551230319 0 -0.37684040880866942 -0.1633129553024005 0 -0.35894028752152091 -0.18339960487853099 0 -0.3660014566284488 -0.192419289638213 0 -0.37553690556387698 -0.18478244672260671 0 -0.35573657434834721 -0.16746823551230319 0 -0.35169228256389878 -0.1684053924569372 0 -0.37553690556387698 -0.18478244672260671 0 -0.35169228256389878 -0.1684053924569372 0 -0.35894028752152091 -0.18339960487853099 0 -0.37553690556387698 -0.18478244672260671 0 -0.35169228256389878 -0.1684053924569372 0 -0.37553690556387698 -0.18478244672260671 0 -0.35894028752152091 -0.18339960487853099 0 -0.35189520504490041 -0.1775562037165454 0 -0.34829695600912841 -0.18412265571200251 0 -0.35894028752152091 -0.18339960487853099 0 -0.34829695600912841 -0.18412265571200251 0 -0.35209263104133492 -0.18864246181282601 0 -0.35169228256389878 -0.1684053924569372 0 -0.35894028752152091 -0.18339960487853099 0 -0.35189520504490041 -0.1775562037165454 0 -0.35169228256389878 -0.1684053924569372 0 -0.35189520504490041 -0.1775562037165454 0 -0.34821976698055612 -0.17282348558368749 0 -0.35189520504490041 -0.1775562037165454 0 -0.34689165199008037 -0.17725208820324809 0 -0.34829695600912841 -0.18412265571200251 0 -0.35189520504490041 -0.1775562037165454 0 -0.34821976698055612 -0.17282348558368749 0 -0.34689165199008037 -0.17725208820324809 0 -0.34689165199008037 -0.17725208820324809 0 -0.34266154372083629 -0.1794130199932587 0 -0.34338478819498092 -0.17234507601074639 0 -0.34821976698055612 -0.17282348558368749 0 -0.34689165199008037 -0.17725208820324809 0 -0.34338478819498092 -0.17234507601074639 0 -0.34689165199008037 -0.17725208820324809 0 -0.34829695600912841 -0.18412265571200251 0 -0.34266154372083629 -0.1794130199932587 0 -0.34829695600912841 -0.18412265571200251 0 -0.34187352999394949 -0.18698191980458681 0 -0.34266154372083629 -0.1794130199932587 0 -0.34187352999394949 -0.18698191980458681 0 -0.33596092855674498 -0.18146886931366821 0 -0.34266154372083629 -0.1794130199932587 0 -0.34187352999394949 -0.18698191980458681 0 -0.33596092855674498 -0.18146886931366821 0 -0.33558143724109002 -0.18823746460332411 0 -0.33596092855674498 -0.18146886931366821 0 -0.33001682493009199 -0.18437411246951649 0 -0.33558143724109002 -0.18823746460332411 0 -0.33596092855674498 -0.18146886931366821 0 -0.33001682493009199 -0.18437411246951649 0 -0.32842064571111829 -0.17631350444565921 0 -0.33596092855674498 -0.18146886931366821 0 -0.32842064571111829 -0.17631350444565921 0 -0.33718608822850349 -0.1742500688005256 0 -0.32842064571111829 -0.17631350444565921 0 -0.33718608822850349 -0.1742500688005256 0 -0.33222539251883831 -0.1707103624389775 0 -0.33596092855674498 -0.18146886931366821 0 -0.33718608822850349 -0.1742500688005256 0 -0.34266154372083629 -0.1794130199932587 0 -0.33718608822850349 -0.1742500688005256 0 -0.34266154372083629 -0.1794130199932587 0 -0.34338478819498092 -0.17234507601074639 0 -0.34670424567217151 -0.17017656349798671 0 -0.34338478819498092 -0.17234507601074639 0 -0.34111056873151679 -0.1659605813372495 0 -0.32784765956392042 -0.1520283381912676 0 -0.35169228256389878 -0.1684053924569372 0 -0.34338478819498092 -0.17234507601074639 0 -0.34111056873151679 -0.1659605813372495 0 -0.33592386766261217 -0.16684753652930959 0 -0.32784765956392042 -0.1520283381912676 0 -0.35169228256389878 -0.1684053924569372 0 -0.34111056873151679 -0.1659605813372495 0 -0.33718608822850349 -0.1742500688005256 0 -0.34338478819498092 -0.17234507601074639 0 -0.33592386766261217 -0.16684753652930959 0 -0.32784765956392042 -0.1520283381912676 0 -0.34111056873151679 -0.1659605813372495 0 -0.33592386766261217 -0.16684753652930959 0 -0.32784765956392042 -0.1520283381912676 0 -0.33592386766261217 -0.16684753652930959 0 -0.32737096847311942 -0.16543033998041559 0 -0.32842064571111829 -0.17631350444565921 0 -0.33222539251883831 -0.1707103624389775 0 -0.32737096847311942 -0.16543033998041559 0 -0.33222539251883831 -0.1707103624389775 0 -0.33592386766261217 -0.16684753652930959 0 -0.32737096847311942 -0.16543033998041559 0 -0.33718608822850349 -0.1742500688005256 0 -0.33222539251883831 -0.1707103624389775 0 -0.33592386766261217 -0.16684753652930959 0 -0.32842064571111829 -0.17631350444565921 0 -0.32737096847311942 -0.16543033998041559 0 -0.32255985715936591 -0.17097494591943499 0 -0.32737096847311942 -0.16543033998041559 0 -0.32255985715936591 -0.17097494591943499 0 -0.31741543256185423 -0.16479217701914381 0 -0.31847225422548869 -0.15437437033437121 0 -0.32737096847311942 -0.16543033998041559 0 -0.31741543256185423 -0.16479217701914381 0 -0.31847225422548869 -0.15437437033437121 0 -0.32784765956392042 -0.1520283381912676 0 -0.32737096847311942 -0.16543033998041559 0 -0.30830209044621532 -0.15354430447070211 0 -0.31847225422548869 -0.15437437033437121 0 -0.31741543256185423 -0.16479217701914381 0 -0.32255985715936591 -0.17097494591943499 0 -0.31741543256185423 -0.16479217701914381 0 -0.31657483267561809 -0.17672596605131971 0 -0.31657483267561809 -0.17672596605131971 0 -0.31490619419907862 -0.18734503595755911 0 -0.32306097875706108 -0.18511260889489789 0 -0.30625136290989119 -0.18373979370991739 0 -0.31657483267561809 -0.17672596605131971 0 -0.31490619419907862 -0.18734503595755911 0 -0.33001682493009199 -0.18437411246951649 0 -0.32842064571111829 -0.17631350444565921 0 -0.32306097875706108 -0.18511260889489789 0 -0.33001682493009199 -0.18437411246951649 0 -0.32306097875706108 -0.18511260889489789 0 -0.32872834525512168 -0.1911549109944958 0 -0.32842064571111829 -0.17631350444565921 0 -0.31657483267561809 -0.17672596605131971 0 -0.32306097875706108 -0.18511260889489789 0 -0.32842064571111829 -0.17631350444565921 0 -0.32255985715936591 -0.17097494591943499 0 -0.31657483267561809 -0.17672596605131971 0 -0.32103572001977232 -0.19378865403462589 0 -0.31860560167632801 -0.20381750232860391 0 -0.32863107302975542 -0.20007308442701779 0 -0.32306097875706108 -0.18511260889489789 0 -0.32103572001977232 -0.19378865403462589 0 -0.32872834525512168 -0.1911549109944958 0 -0.32103572001977232 -0.19378865403462589 0 -0.32863107302975542 -0.20007308442701779 0 -0.32872834525512168 -0.1911549109944958 0 -0.31490619419907862 -0.18734503595755911 0 -0.32306097875706108 -0.18511260889489789 0 -0.32103572001977232 -0.19378865403462589 0 -0.31050256092394762 -0.19564790771855189 0 -0.31490619419907862 -0.18734503595755911 0 -0.32103572001977232 -0.19378865403462589 0 -0.31050256092394762 -0.19564790771855189 0 -0.32103572001977232 -0.19378865403462589 0 -0.31860560167632801 -0.20381750232860391 0 -0.30833498950677912 -0.20651753618236421 0 -0.31860560167632801 -0.20381750232860391 0 -0.31881255300738059 -0.21671924693249919 0 -0.31881255300738059 -0.21671924693249919 0 -0.32664018768389508 -0.2090114453303816 0 -0.33076499134807108 -0.21676950541735321 0 -0.31860560167632801 -0.20381750232860391 0 -0.31881255300738059 -0.21671924693249919 0 -0.32664018768389508 -0.2090114453303816 0 -0.31860560167632801 -0.20381750232860391 0 -0.32664018768389508 -0.2090114453303816 0 -0.32863107302975542 -0.20007308442701779 0 -0.32664018768389508 -0.2090114453303816 0 -0.33558832955162182 -0.20773929069107169 0 -0.32863107302975542 -0.20007308442701779 0 -0.33558832955162182 -0.20773929069107169 0 -0.33076499134807108 -0.21676950541735321 0 -0.34111395319793619 -0.21785694353806051 0 -0.32664018768389508 -0.2090114453303816 0 -0.33558832955162182 -0.20773929069107169 0 -0.33076499134807108 -0.21676950541735321 0 -0.33558832955162182 -0.20773929069107169 0 -0.34111395319793619 -0.21785694353806051 0 -0.3453093568425864 -0.2082068221414414 0 -0.33558832955162182 -0.20773929069107169 0 -0.33970925064725088 -0.20328533953124911 0 -0.3453093568425864 -0.2082068221414414 0 -0.33558832955162182 -0.20773929069107169 0 -0.33970925064725088 -0.20328533953124911 0 -0.33585382007098941 -0.20077236504587551 0 -0.33970925064725088 -0.20328533953124911 0 -0.34129640957335872 -0.19742056904244601 0 -0.3453093568425864 -0.2082068221414414 0 -0.34129640957335872 -0.19742056904244601 0 -0.33585382007098941 -0.20077236504587551 0 -0.33404403755296003 -0.1953435415375929 0 -0.33970925064725088 -0.20328533953124911 0 -0.34129640957335872 -0.19742056904244601 0 -0.33585382007098941 -0.20077236504587551 0 -0.33558832955162182 -0.20773929069107169 0 -0.33585382007098941 -0.20077236504587551 0 -0.32863107302975542 -0.20007308442701779 0 -0.33404403755296003 -0.1953435415375929 0 -0.32863107302975542 -0.20007308442701779 0 -0.32872834525512168 -0.1911549109944958 0 -0.33585382007098941 -0.20077236504587551 0 -0.33404403755296003 -0.1953435415375929 0 -0.32863107302975542 -0.20007308442701779 0 -0.33001682493009199 -0.18437411246951649 0 -0.32872834525512168 -0.1911549109944958 0 -0.33558143724109002 -0.18823746460332411 0 -0.33404403755296003 -0.1953435415375929 0 -0.32872834525512168 -0.1911549109944958 0 -0.33558143724109002 -0.18823746460332411 0 -0.34187352999394949 -0.18698191980458681 0 -0.33558143724109002 -0.18823746460332411 0 -0.33961163682269241 -0.1922954905488003 0 -0.34129640957335872 -0.19742056904244601 0 -0.33404403755296003 -0.1953435415375929 0 -0.33961163682269241 -0.1922954905488003 0 -0.33404403755296003 -0.1953435415375929 0 -0.33558143724109002 -0.18823746460332411 0 -0.33961163682269241 -0.1922954905488003 0 -0.34129640957335872 -0.19742056904244601 0 -0.33961163682269241 -0.1922954905488003 0 -0.34526276975210352 -0.1934939577560516 0 -0.34187352999394949 -0.18698191980458681 0 -0.33961163682269241 -0.1922954905488003 0 -0.34526276975210352 -0.1934939577560516 0 -0.34829695600912841 -0.18412265571200251 0 -0.34187352999394949 -0.18698191980458681 0 -0.34526276975210352 -0.1934939577560516 0 -0.34829695600912841 -0.18412265571200251 0 -0.34526276975210352 -0.1934939577560516 0 -0.35209263104133492 -0.18864246181282601 0 -0.34526276975210352 -0.1934939577560516 0 -0.35209263104133492 -0.18864246181282601 0 -0.35587051088258659 -0.19355362890471861 0 -0.34526276975210352 -0.1934939577560516 0 -0.35587051088258659 -0.19355362890471861 0 -0.36377803555613603 -0.20148173635735769 0 -0.34526276975210352 -0.1934939577560516 0 -0.3487011982511129 -0.19955991321014249 0 -0.36377803555613603 -0.20148173635735769 0 -0.34526276975210352 -0.1934939577560516 0 -0.36377803555613603 -0.20148173635735769 0 -0.34129640957335872 -0.19742056904244601 0 -0.3487011982511129 -0.19955991321014249 0 -0.35327499321814432 -0.2051560438269881 0 -0.34129640957335872 -0.19742056904244601 0 -0.34526276975210352 -0.1934939577560516 0 -0.3487011982511129 -0.19955991321014249 0 -0.3487011982511129 -0.19955991321014249 0 -0.36377803555613603 -0.20148173635735769 0 -0.35327499321814432 -0.2051560438269881 0 -0.35894028752152091 -0.18339960487853099 0 -0.35209263104133492 -0.18864246181282601 0 -0.35587051088258659 -0.19355362890471861 0 -0.35894028752152091 -0.18339960487853099 0 -0.35587051088258659 -0.19355362890471861 0 -0.3660014566284488 -0.192419289638213 0 -0.35587051088258659 -0.19355362890471861 0 -0.3660014566284488 -0.192419289638213 0 -0.36377803555613603 -0.20148173635735769 0 -0.3660014566284488 -0.192419289638213 0 -0.36377803555613603 -0.20148173635735769 0 -0.37588154361812343 -0.19887903132785081 0 -0.3660014566284488 -0.192419289638213 0 -0.37588154361812343 -0.19887903132785081 0 -0.37553690556387698 -0.18478244672260671 0 -0.36377803555613603 -0.20148173635735769 0 -0.37225143279059031 -0.21482428559243491 0 -0.38229330136016848 -0.20946951495866381 0 -0.36377803555613603 -0.20148173635735769 0 -0.38229330136016848 -0.20946951495866381 0 -0.37588154361812343 -0.19887903132785081 0 -0.36377803555613603 -0.20148173635735769 0 -0.38229330136016848 -0.20946951495866381 0 -0.36377803555613603 -0.20148173635735769 0 -0.37225143279059031 -0.21482428559243491 0 -0.36100226487316511 -0.213101231886203 0 -0.37225143279059031 -0.21482428559243491 0 -0.36100226487316511 -0.213101231886203 0 -0.36096143886030768 -0.216255624113948 0 -0.36100226487316511 -0.213101231886203 0 -0.36096143886030768 -0.216255624113948 0 -0.34129640957335872 -0.19742056904244601 0 -0.36096143886030768 -0.216255624113948 0 -0.3453093568425864 -0.2082068221414414 0 -0.34129640957335872 -0.19742056904244601 0 -0.36096143886030768 -0.216255624113948 0 -0.35327499321814432 -0.2051560438269881 0 -0.34129640957335872 -0.19742056904244601 0 -0.36096143886030768 -0.216255624113948 0 -0.36096143886030768 -0.216255624113948 0 -0.3453093568425864 -0.2082068221414414 0 -0.34953699429839002 -0.21764378297314749 0 -0.36100226487316511 -0.213101231886203 0 -0.36096143886030768 -0.216255624113948 0 -0.35327499321814432 -0.2051560438269881 0 -0.36377803555613603 -0.20148173635735769 0 -0.36100226487316511 -0.213101231886203 0 -0.35327499321814432 -0.2051560438269881 0 -0.34111395319793619 -0.21785694353806051 0 -0.3453093568425864 -0.2082068221414414 0 -0.34953699429839002 -0.21764378297314749 0 -0.36096143886030768 -0.216255624113948 0 -0.3507632282927296 -0.2282557420991401 0 -0.36064145463225761 -0.24097897306022439 0 -0.34111395319793619 -0.21785694353806051 0 -0.34953699429839002 -0.21764378297314749 0 -0.3507632282927296 -0.2282557420991401 0 -0.36096143886030768 -0.216255624113948 0 -0.34953699429839002 -0.21764378297314749 0 -0.3507632282927296 -0.2282557420991401 0 -0.36096143886030768 -0.216255624113948 0 -0.36064145463225761 -0.24097897306022439 0 -0.36096143886030768 -0.216255624113948 0 -0.36064145463225761 -0.24097897306022439 0 -0.38265141747073828 -0.237030164322656 0 -0.37225143279059031 -0.21482428559243491 0 -0.36096143886030768 -0.216255624113948 0 -0.38265141747073828 -0.237030164322656 0 -0.36096143886030768 -0.216255624113948 0 -0.38265141747073828 -0.237030164322656 0 -0.37575197361103307 -0.25468824818671759 0 -0.36064145463225761 -0.24097897306022439 0 -0.38265141747073828 -0.237030164322656 0 -0.3507632282927296 -0.2282557420991401 0 -0.36064145463225761 -0.24097897306022439 0 -0.3449618835911385 -0.24367695190694061 0 -0.3507632282927296 -0.2282557420991401 0 -0.3449618835911385 -0.24367695190694061 0 -0.33215240643356703 -0.2327936178075044 0 -0.33906621386656211 -0.25814955588139621 0 -0.3449618835911385 -0.24367695190694061 0 -0.33303711247551931 -0.24736958926824401 0 -0.3449618835911385 -0.24367695190694061 0 -0.33303711247551931 -0.24736958926824401 0 -0.33215240643356703 -0.2327936178075044 0 -0.34111395319793619 -0.21785694353806051 0 -0.3507632282927296 -0.2282557420991401 0 -0.33215240643356703 -0.2327936178075044 0 -0.33076499134807108 -0.21676950541735321 0 -0.34111395319793619 -0.21785694353806051 0 -0.33215240643356703 -0.2327936178075044 0 -0.31881255300738059 -0.21671924693249919 0 -0.33076499134807108 -0.21676950541735321 0 -0.33215240643356703 -0.2327936178075044 0 -0.30978712179813522 -0.22949728732725169 0 -0.31881255300738059 -0.21671924693249919 0 -0.33215240643356703 -0.2327936178075044 0 -0.30978712179813522 -0.22949728732725169 0 -0.33215240643356703 -0.2327936178075044 0 -0.30978712179813522 -0.22949728732725169 0 -0.33215240643356703 -0.2327936178075044 0 -0.31799808483916181 -0.2411422576484635 0 -0.321605543042841 -0.2520468709649149 0 -0.3041448722191199 -0.24594418604843371 0 -0.321605543042841 -0.2520468709649149 0 -0.3041448722191199 -0.24594418604843371 0 -0.31799808483916181 -0.2411422576484635 0 -0.321605543042841 -0.2520468709649149 0 -0.33303711247551931 -0.24736958926824401 0 -0.31799808483916181 -0.2411422576484635 0 -0.33303711247551931 -0.24736958926824401 0 -0.33215240643356703 -0.2327936178075044 0 -0.31799808483916181 -0.2411422576484635 0 -0.42735550035764353 -0.26234688883393692 0 -0.42594714949772061 -0.24341161695235489 0 -0.43675522421664609 -0.24055079796215631 0 -0.42594714949772061 -0.24341161695235489 0 -0.42958450082264371 -0.22987168660959351 0 -0.41846705211630753 -0.23586248196712509 0 -0.42594714949772061 -0.24341161695235489 0 -0.43675522421664609 -0.24055079796215631 0 -0.42958450082264371 -0.22987168660959351 0 -0.42301071828972442 -0.21738859055680121 0 -0.43628499168384449 -0.2156960781545651 0 -0.44663990801559339 -0.2336176801253261 0 -0.42301071828972442 -0.21738859055680121 0 -0.44663990801559339 -0.2336176801253261 0 -0.42958450082264371 -0.22987168660959351 0 -0.42301071828972442 -0.21738859055680121 0 -0.44663990801559339 -0.2336176801253261 0 -0.42958450082264371 -0.22987168660959351 0 -0.41519653399342238 -0.2236644900847817 0 -0.42301071828972442 -0.21738859055680121 0 -0.42958450082264371 -0.22987168660959351 0 -0.41519653399342238 -0.2236644900847817 0 -0.42958450082264371 -0.22987168660959351 0 -0.41519653399342238 -0.2236644900847817 0 -0.41846705211630753 -0.23586248196712509 0 -0.41519653399342238 -0.2236644900847817 0 -0.41846705211630753 -0.23586248196712509 0 -0.4025749816226864 -0.23763099904566601 0 -0.41519653399342238 -0.2236644900847817 0 -0.40080856716420182 -0.21745729355996851 0 -0.42301071828972442 -0.21738859055680121 0 -0.41519653399342238 -0.2236644900847817 0 -0.40080856716420182 -0.21745729355996851 0 -0.41846705211630753 -0.23586248196712509 0 -0.41757346997536232 -0.2484262293889628 0 -0.4025749816226864 -0.23763099904566601 0 -0.40434139608116931 -0.25780470453136362 0 -0.41757346997536232 -0.2484262293889628 0 -0.4025749816226864 -0.23763099904566601 0 -0.42594714949772061 -0.24341161695235489 0 -0.41846705211630753 -0.23586248196712509 0 -0.41757346997536232 -0.2484262293889628 0 -0.40434139608116931 -0.25780470453136362 0 -0.4025749816226864 -0.23763099904566601 0 -0.38265141747073828 -0.237030164322656 0 -0.40434139608116931 -0.25780470453136362 0 -0.4025749816226864 -0.23763099904566601 0 -0.40434139608116931 -0.25780470453136362 0 -0.38265141747073828 -0.237030164322656 0 -0.37575197361103307 -0.25468824818671759 0 -0.40434139608116931 -0.25780470453136362 0 -0.38265141747073828 -0.237030164322656 0 -0.37225143279059031 -0.21482428559243491 0 -0.38265141747073828 -0.237030164322656 0 -0.38811594008167721 -0.2232824514958778 0 -0.4025749816226864 -0.23763099904566601 0 -0.38811594008167721 -0.2232824514958778 0 -0.40080856716420182 -0.21745729355996851 0 -0.4025749816226864 -0.23763099904566601 0 -0.40080856716420182 -0.21745729355996851 0 -0.41519653399342238 -0.2236644900847817 0 -0.4025749816226864 -0.23763099904566601 0 -0.40080856716420182 -0.21745729355996851 0 -0.4025749816226864 -0.23763099904566601 0 -0.38265141747073828 -0.237030164322656 0 -0.38811594008167721 -0.2232824514958778 0 -0.40080856716420182 -0.21745729355996851 0 -0.38229330136016848 -0.20946951495866381 0 -0.39938152856385678 -0.20115950098827401 0 -0.40080856716420182 -0.21745729355996851 0 -0.38229330136016848 -0.20946951495866381 0 -0.40080856716420182 -0.21745729355996851 0 -0.39938152856385678 -0.20115950098827401 0 -0.38811594008167721 -0.2232824514958778 0 -0.40080856716420182 -0.21745729355996851 0 -0.38229330136016848 -0.20946951495866381 0 -0.38229330136016848 -0.20946951495866381 0 -0.37588154361812343 -0.19887903132785081 0 -0.39938152856385678 -0.20115950098827401 0 -0.37225143279059031 -0.21482428559243491 0 -0.38811594008167721 -0.2232824514958778 0 -0.38229330136016848 -0.20946951495866381 0 -0.39938152856385678 -0.20115950098827401 0 -0.37553690556387698 -0.18478244672260671 0 -0.37588154361812343 -0.19887903132785081 0 -0.39938152856385678 -0.20115950098827401 0 -0.37553690556387698 -0.18478244672260671 0 -0.39938152856385678 -0.20115950098827401 0 -0.39722466396437028 -0.176526578067117 0 -0.39938152856385678 -0.20115950098827401 0 -0.40863033494604112 -0.1911625320935624 0 -0.39722466396437028 -0.176526578067117 0 -0.40863033494604112 -0.1911625320935624 0 -0.43147275120953088 -0.19338077090383671 0 -0.40863033494604112 -0.1911625320935624 0 -0.43147275120953088 -0.19338077090383671 0 -0.42521488109412531 -0.19952274005728979 0 -0.40863033494604112 -0.1911625320935624 0 -0.41848821524951108 -0.20187670192626439 0 -0.42521488109412531 -0.19952274005728979 0 -0.40863033494604112 -0.1911625320935624 0 -0.43147275120953088 -0.19338077090383671 0 -0.41974774590474989 -0.18725396513743389 0 -0.39938152856385678 -0.20115950098827401 0 -0.40863033494604112 -0.1911625320935624 0 -0.41308886592915761 -0.20327574270844001 0 -0.40863033494604112 -0.1911625320935624 0 -0.41848821524951108 -0.20187670192626439 0 -0.41308886592915761 -0.20327574270844001 0 -0.40080856716420182 -0.21745729355996851 0 -0.39938152856385678 -0.20115950098827401 0 -0.42301071828972442 -0.21738859055680121 0 -0.39938152856385678 -0.20115950098827401 0 -0.42301071828972442 -0.21738859055680121 0 -0.39938152856385678 -0.20115950098827401 0 -0.41308886592915761 -0.20327574270844001 0 -0.42301071828972442 -0.21738859055680121 0 -0.41308886592915761 -0.20327574270844001 0 -0.4235631570382431 -0.2092731176860215 0 -0.42301071828972442 -0.21738859055680121 0 -0.41848821524951108 -0.20187670192626439 0 -0.41308886592915761 -0.20327574270844001 0 -0.4235631570382431 -0.2092731176860215 0 -0.41848821524951108 -0.20187670192626439 0 -0.4235631570382431 -0.2092731176860215 0 -0.42521488109412531 -0.19952274005728979 0 -0.4235631570382431 -0.2092731176860215 0 -0.43256460158225701 -0.2053710756585036 0 -0.42521488109412531 -0.19952274005728979 0 -0.4235631570382431 -0.2092731176860215 0 -0.42301071828972442 -0.21738859055680121 0 -0.43628499168384449 -0.2156960781545651 0 -0.43628499168384449 -0.2156960781545651 0 -0.43256460158225701 -0.2053710756585036 0 -0.44147501844432702 -0.20976870875186751 0 -0.4235631570382431 -0.2092731176860215 0 -0.43628499168384449 -0.2156960781545651 0 -0.43256460158225701 -0.2053710756585036 0 -0.43246397714440687 -0.1999134680741278 0 -0.43147275120953088 -0.19338077090383671 0 -0.44060367469171441 -0.2013792856768811 0 -0.43256460158225701 -0.2053710756585036 0 -0.43246397714440687 -0.1999134680741278 0 -0.44060367469171441 -0.2013792856768811 0 -0.43256460158225701 -0.2053710756585036 0 -0.43246397714440687 -0.1999134680741278 0 -0.42521488109412531 -0.19952274005728979 0 -0.43246397714440687 -0.1999134680741278 0 -0.43147275120953088 -0.19338077090383671 0 -0.42521488109412531 -0.19952274005728979 0 -0.43071875396461701 -0.18963367478939469 0 -0.43147275120953088 -0.19338077090383671 0 -0.438439995368756 -0.18468663740517291 0 -0.43147275120953088 -0.19338077090383671 0 -0.42660545105720848 -0.1870121373222815 0 -0.41974774590474989 -0.18725396513743389 0 -0.43071875396461701 -0.18963367478939469 0 -0.43147275120953088 -0.19338077090383671 0 -0.42660545105720848 -0.1870121373222815 0 -0.4083032530198375 -0.16554902637267399 0 -0.39506779936487968 -0.15189365514596029 0 -0.42667954627462717 -0.155401709175023 0 -0.42633281737392481 -0.1791464658388511 0 -0.43722875770743053 -0.18167051041055771 0 -0.42667954627462717 -0.155401709175023 0 -0.42633281737392481 -0.1791464658388511 0 -0.42660545105720848 -0.1870121373222815 0 -0.41974774590474989 -0.18725396513743389 0 -0.43071875396461701 -0.18963367478939469 0 -0.42633281737392481 -0.1791464658388511 0 -0.42660545105720848 -0.1870121373222815 0 -0.43071875396461701 -0.18963367478939469 0 -0.43722875770743053 -0.18167051041055771 0 -0.43071875396461701 -0.18963367478939469 0 -0.42633281737392481 -0.1791464658388511 0 -0.43722875770743053 -0.18167051041055771 0 -0.43071875396461701 -0.18963367478939469 0 -0.43722875770743053 -0.18167051041055771 0 -0.438439995368756 -0.18468663740517291 0 -0.43722875770743053 -0.18167051041055771 0 -0.42667954627462717 -0.155401709175023 0 -0.44028998524704172 -0.16197905616152439 0 -0.43722875770743053 -0.18167051041055771 0 -0.42667954627462717 -0.155401709175023 0 -0.42633281737392481 -0.1791464658388511 0 -0.41838719633879312 -0.17365273000241371 0 -0.42667954627462717 -0.155401709175023 0 -0.4083032530198375 -0.16554902637267399 0 -0.41838719633879312 -0.17365273000241371 0 -0.42667954627462717 -0.155401709175023 0 -0.4083032530198375 -0.16554902637267399 0 -0.41045863883475842 -0.17882896633464021 0 -0.41838719633879312 -0.17365273000241371 0 -0.41045863883475842 -0.17882896633464021 0 -0.41838719633879312 -0.17365273000241371 0 -0.41974774590474989 -0.18725396513743389 0 -0.42633281737392481 -0.1791464658388511 0 -0.41838719633879312 -0.17365273000241371 0 -0.41974774590474989 -0.18725396513743389 0 -0.40863033494604112 -0.1911625320935624 0 -0.41045863883475842 -0.17882896633464021 0 -0.41974774590474989 -0.18725396513743389 0 -0.39938152856385678 -0.20115950098827401 0 -0.39722466396437028 -0.176526578067117 0 -0.37553690556387698 -0.18478244672260671 0 -0.40863033494604112 -0.1911625320935624 0 -0.41045863883475842 -0.17882896633464021 0 -0.39722466396437028 -0.176526578067117 0 -0.4083032530198375 -0.16554902637267399 0 -0.41045863883475842 -0.17882896633464021 0 -0.39722466396437028 -0.176526578067117 0 -0.39722466396437028 -0.176526578067117 0 -0.37553690556387698 -0.18478244672260671 0 -0.37684040880866942 -0.1633129553024005 0 -0.39722466396437028 -0.176526578067117 0 -0.37684040880866942 -0.1633129553024005 0 -0.39506779936487968 -0.15189365514596029 0 -0.4083032530198375 -0.16554902637267399 0 -0.39722466396437028 -0.176526578067117 0 -0.39506779936487968 -0.15189365514596029 0 -0.39722466396437028 -0.176526578067117 0 -0.39506779936487968 -0.15189365514596029 0 -0.37684040880866942 -0.1633129553024005 0 -0.39506779936487968 -0.15189365514596029 0 -0.37923062673594887 -0.14195129383739491 0 -0.36897713571108831 -0.12237000583843879 0 -0.37923062673594887 -0.14195129383739491 0 -0.39291093476538907 -0.12726073222480369 0 -0.39506779936487968 -0.15189365514596029 0 -0.37923062673594887 -0.14195129383739491 0 -0.39291093476538907 -0.12726073222480369 0 -0.39506779936487968 -0.15189365514596029 0 -0.39291093476538907 -0.12726073222480369 0 -0.41613033484182471 -0.12913290793948809 0 -0.39506779936487968 -0.15189365514596029 0 -0.39291093476538907 -0.12726073222480369 0 -0.39506779936487968 -0.15189365514596029 0 -0.41613033484182471 -0.12913290793948809 0 -0.42667954627462717 -0.155401709175023 0 -0.41613033484182471 -0.12913290793948809 0 -0.42667954627462717 -0.155401709175023 0 -0.41613033484182471 -0.12913290793948809 0 -0.42667954627462717 -0.155401709175023 0 -0.442227751715213 -0.1391242993871086 0 -0.42667954627462717 -0.155401709175023 0 -0.442227751715213 -0.1391242993871086 0 -0.44028998524704172 -0.16197905616152439 0 -0.41613033484182471 -0.12913290793948809 0 -0.442227751715213 -0.1391242993871086 0 -0.4308404588406185 -0.1096599677822222 0 -0.442227751715213 -0.1391242993871086 0 -0.47405533025657998 -0.1366235239104871 0 -0.45564204398200592 -0.1591470171605229 0 -0.442227751715213 -0.1391242993871086 0 -0.47405533025657998 -0.1366235239104871 0 -0.45211754138960392 -0.11865177594692861 0 -0.442227751715213 -0.1391242993871086 0 -0.45564204398200592 -0.1591470171605229 0 -0.44028998524704172 -0.16197905616152439 0 -0.47405533025657998 -0.1366235239104871 0 -0.45564204398200592 -0.1591470171605229 0 -0.47405533025657998 -0.1366235239104871 0 -0.49246861653115409 -0.1141000306604512 0 -0.49015618858327292 -0.13165222629794129 0 -0.5 -0.145328878505285 0 -0.5 -0.11797557409059781 0 -0.47405533025657998 -0.1366235239104871 0 -0.49015618858327292 -0.13165222629794129 0 -0.49246861653115409 -0.1141000306604512 0 -0.49015618858327292 -0.13165222629794129 0 -0.5 -0.145328878505285 0 -0.48226508969241538 -0.15517016027828831 0 -0.47405533025657998 -0.1366235239104871 0 -0.48226508969241538 -0.15517016027828831 0 -0.45564204398200592 -0.1591470171605229 0 -0.47405533025657998 -0.1366235239104871 0 -0.49015618858327292 -0.13165222629794129 0 -0.48226508969241538 -0.15517016027828831 0 -0.48226508969241538 -0.15517016027828831 0 -0.5 -0.17268218291997239 0 -0.47031908558910712 -0.17659837351313731 0 -0.48226508969241538 -0.15517016027828831 0 -0.47031908558910712 -0.17659837351313731 0 -0.45564204398200592 -0.1591470171605229 0 -0.5 -0.145328878505285 0 -0.48226508969241538 -0.15517016027828831 0 -0.5 -0.17268218291997239 0 -0.5 -0.17268218291997239 0 -0.47031908558910712 -0.17659837351313731 0 -0.47715758373651113 -0.19781724852438529 0 -0.47031908558910712 -0.17659837351313731 0 -0.45253462865068989 -0.1791746224815442 0 -0.45431516747302092 -0.19559900971411101 0 -0.47031908558910712 -0.17659837351313731 0 -0.45564204398200592 -0.1591470171605229 0 -0.45253462865068989 -0.1791746224815442 0 -0.43722875770743053 -0.18167051041055771 0 -0.45564204398200592 -0.1591470171605229 0 -0.43722875770743053 -0.18167051041055771 0 -0.45564204398200592 -0.1591470171605229 0 -0.44028998524704172 -0.16197905616152439 0 -0.438439995368756 -0.18468663740517291 0 -0.45253462865068989 -0.1791746224815442 0 -0.45431516747302092 -0.19559900971411101 0 -0.43722875770743053 -0.18167051041055771 0 -0.45564204398200592 -0.1591470171605229 0 -0.45253462865068989 -0.1791746224815442 0 -0.43722875770743053 -0.18167051041055771 0 -0.438439995368756 -0.18468663740517291 0 -0.45253462865068989 -0.1791746224815442 0 -0.43722875770743053 -0.18167051041055771 0 -0.438439995368756 -0.18468663740517291 0 -0.43147275120953088 -0.19338077090383671 0 -0.438439995368756 -0.18468663740517291 0 -0.45431516747302092 -0.19559900971411101 0 -0.43147275120953088 -0.19338077090383671 0 -0.44060367469171441 -0.2013792856768811 0 -0.45431516747302092 -0.19559900971411101 0 -0.43147275120953088 -0.19338077090383671 0 -0.45431516747302092 -0.19559900971411101 0 -0.44060367469171441 -0.2013792856768811 0 -0.45384264049849021 -0.2082556583683495 0 -0.45431516747302092 -0.19559900971411101 0 -0.44060367469171441 -0.2013792856768811 0 -0.44147501844432702 -0.20976870875186751 0 -0.45384264049849021 -0.2082556583683495 0 -0.43256460158225701 -0.2053710756585036 0 -0.44060367469171441 -0.2013792856768811 0 -0.44147501844432702 -0.20976870875186751 0 -0.43628499168384449 -0.2156960781545651 0 -0.44147501844432702 -0.20976870875186751 0 -0.45045654673292318 -0.2187572961488706 0 -0.44147501844432702 -0.20976870875186751 0 -0.45384264049849021 -0.2082556583683495 0 -0.45045654673292318 -0.2187572961488706 0 -0.46833538391976859 -0.21554473672438779 0 -0.45384264049849021 -0.2082556583683495 0 -0.47715758373651113 -0.19781724852438529 0 -0.46833538391976859 -0.21554473672438779 0 -0.45384264049849021 -0.2082556583683495 0 -0.45045654673292318 -0.2187572961488706 0 -0.47031908558910712 -0.17659837351313731 0 -0.45431516747302092 -0.19559900971411101 0 -0.47715758373651113 -0.19781724852438529 0 -0.45431516747302092 -0.19559900971411101 0 -0.47715758373651113 -0.19781724852438529 0 -0.45384264049849021 -0.2082556583683495 0 -0.45431516747302092 -0.19559900971411101 0 -0.47715758373651113 -0.19781724852438529 0 -0.5 -0.17268218291997239 0 -0.47715758373651113 -0.19781724852438529 0 -0.50000000000000111 -0.2000354873346597 0 -0.47715758373651113 -0.19781724852438529 0 -0.50000000000000111 -0.2000354873346597 0 -0.47715758373651113 -0.19781724852438529 0 -0.50000000000000111 -0.2000354873346597 0 -0.48593090526916088 -0.21189114720113819 0 -0.50000000000000111 -0.2000354873346597 0 -0.48593090526916088 -0.21189114720113819 0 -0.5 -0.2229919572569263 0 -0.46833538391976859 -0.21554473672438779 0 -0.47715758373651113 -0.19781724852438529 0 -0.48593090526916088 -0.21189114720113819 0 -0.46833538391976859 -0.21554473672438779 0 -0.48593090526916088 -0.21189114720113819 0 -0.48112821724282889 -0.22569836959849571 0 -0.46833538391976859 -0.21554473672438779 0 -0.48112821724282889 -0.22569836959849571 0 -0.45986052465829053 -0.23042947751312781 0 -0.48112821724282889 -0.22569836959849571 0 -0.46969437889539828 -0.24095406338282691 0 -0.45986052465829053 -0.23042947751312781 0 -0.48593090526916088 -0.21189114720113819 0 -0.48112821724282889 -0.22569836959849571 0 -0.5 -0.2229919572569263 0 -0.48112821724282889 -0.22569836959849571 0 -0.5 -0.2229919572569263 0 -0.49999999999999972 -0.24594842717919291 0 -0.48112821724282889 -0.22569836959849571 0 -0.49999999999999972 -0.24594842717919291 0 -0.46969437889539828 -0.24095406338282691 0 -0.47861902030246323 -0.25831528033366469 0 -0.49999999999999972 -0.24594842717919291 0 -0.46969437889539828 -0.24095406338282691 0 -0.46969437889539828 -0.24095406338282691 0 -0.45986052465829053 -0.23042947751312781 0 -0.45079035186059652 -0.24728701821004481 0 -0.46833538391976859 -0.21554473672438779 0 -0.45986052465829053 -0.23042947751312781 0 -0.45045654673292318 -0.2187572961488706 0 -0.43628499168384449 -0.2156960781545651 0 -0.44663990801559339 -0.2336176801253261 0 -0.45045654673292318 -0.2187572961488706 0 -0.45986052465829053 -0.23042947751312781 0 -0.44663990801559339 -0.2336176801253261 0 -0.45045654673292318 -0.2187572961488706 0 -0.43675522421664609 -0.24055079796215631 0 -0.42958450082264371 -0.22987168660959351 0 -0.44663990801559339 -0.2336176801253261 0 -0.45986052465829053 -0.23042947751312781 0 -0.44663990801559339 -0.2336176801253261 0 -0.45079035186059652 -0.24728701821004481 0 -0.43675522421664609 -0.24055079796215631 0 -0.44663990801559339 -0.2336176801253261 0 -0.45079035186059652 -0.24728701821004481 0 -0.43981298953622111 -0.25362310229907731 0 -0.43675522421664609 -0.24055079796215631 0 -0.45079035186059652 -0.24728701821004481 0 -0.40774988407501978 -0.03954551048919993 0 -0.41247713727797558 -0.055520511343444823 0 -0.42909330875423318 -0.038565162215915022 0 -0.40774988407501978 -0.03954551048919993 0 -0.42909330875423318 -0.038565162215915022 0 -0.41713055015575268 -0.026517216194404211 0 -0.41247713727797558 -0.055520511343444823 0 -0.42909330875423318 -0.038565162215915022 0 -0.43870944549150731 -0.061152412754872112 0 -0.43571281056801853 -0.019232132624920711 0 -0.41835622924697913 -0.010329231447849269 0 -0.41713055015575268 -0.026517216194404211 0 -0.42909330875423318 -0.038565162215915022 0 -0.43571281056801853 -0.019232132624920711 0 -0.44710465525824861 -0.02947548475730468 0 -0.42909330875423318 -0.038565162215915022 0 -0.43571281056801853 -0.019232132624920711 0 -0.41713055015575268 -0.026517216194404211 0 -0.43571281056801853 -0.019232132624920711 0 -0.41713055015575268 -0.026517216194404211 0 -0.43571281056801853 -0.019232132624920711 0 -0.43073537275873691 -0.0059291936424985554 0 -0.41835622924697913 -0.010329231447849269 0 -0.43073537275873691 -0.0059291936424985554 0 -0.44180668973186432 -0.0051654507905552951 0 -0.43561880314536899 0.0060778636305521688 0 -0.43571281056801853 -0.019232132624920711 0 -0.43073537275873691 -0.0059291936424985554 0 -0.44180668973186432 -0.0051654507905552951 0 -0.43073537275873691 -0.0059291936424985554 0 -0.41835622924697913 -0.010329231447849269 0 -0.42359784139670509 0.0050356193962432594 0 -0.41835622924697913 -0.010329231447849269 0 -0.4054445393806132 -0.023145388418947879 0 -0.40034224439658073 -0.010585148858779061 0 -0.41835622924697913 -0.010329231447849269 0 -0.40034224439658073 -0.010585148858779061 0 -0.40246949919523839 0.0082400476876908005 0 -0.40774988407501978 -0.03954551048919993 0 -0.41713055015575268 -0.026517216194404211 0 -0.4054445393806132 -0.023145388418947879 0 -0.41835622924697913 -0.010329231447849269 0 -0.41713055015575268 -0.026517216194404211 0 -0.4054445393806132 -0.023145388418947879 0 -0.4054445393806132 -0.023145388418947879 0 -0.39351450160097878 -0.0201153105677285 0 -0.40034224439658073 -0.010585148858779061 0 -0.4054445393806132 -0.023145388418947879 0 -0.39351450160097878 -0.0201153105677285 0 -0.39557382680836828 -0.031779912955726339 0 -0.39351450160097878 -0.0201153105677285 0 -0.38419986444758519 -0.027539420797905251 0 -0.39557382680836828 -0.031779912955726339 0 -0.39351450160097878 -0.0201153105677285 0 -0.40034224439658073 -0.010585148858779061 0 -0.38233539472329148 -0.0064805669941802226 0 -0.40034224439658073 -0.010585148858779061 0 -0.38233539472329148 -0.0064805669941802226 0 -0.40246949919523839 0.0082400476876908005 0 -0.37279099411456218 -0.01345874891065147 0 -0.38233539472329148 -0.0064805669941802226 0 -0.37180987954083178 -0.0023840389534433991 0 -0.38233539472329148 -0.0064805669941802226 0 -0.37293241351417789 0.0070642894750902749 0 -0.37180987954083178 -0.0023840389534433991 0 -0.37279099411456218 -0.01345874891065147 0 -0.38233539472329148 -0.0064805669941802226 0 -0.38233539472329148 -0.0064805669941802226 0 -0.38419986444758519 -0.027539420797905251 0 -0.37030284643959538 -0.030386113338177138 0 -0.37279099411456218 -0.01345874891065147 0 -0.38419986444758519 -0.027539420797905251 0 -0.39351450160097878 -0.0201153105677285 0 -0.38233539472329148 -0.0064805669941802226 0 -0.38419986444758519 -0.027539420797905251 0 -0.37279099411456218 -0.01345874891065147 0 -0.38233539472329148 -0.0064805669941802226 0 -0.38419986444758519 -0.027539420797905251 0 -0.37279099411456218 -0.01345874891065147 0 -0.38419986444758519 -0.027539420797905251 0 -0.38419986444758519 -0.027539420797905251 0 -0.38563118903302868 -0.044120874695869533 0 -0.39557382680836828 -0.031779912955726339 0 -0.37030284643959538 -0.030386113338177138 0 -0.38419986444758519 -0.027539420797905251 0 -0.38563118903302868 -0.044120874695869533 0 -0.38563118903302868 -0.044120874695869533 0 -0.39557382680836828 -0.031779912955726339 0 -0.38708290872159412 -0.060700542793745572 0 -0.38419986444758519 -0.027539420797905251 0 -0.38563118903302868 -0.044120874695869533 0 -0.39557382680836828 -0.031779912955726339 0 -0.38708290872159412 -0.060700542793745572 0 -0.40774988407501978 -0.03954551048919993 0 -0.39557382680836828 -0.031779912955726339 0 -0.38708290872159412 -0.060700542793745572 0 -0.40774988407501978 -0.03954551048919993 0 -0.4054445393806132 -0.023145388418947879 0 -0.39557382680836828 -0.031779912955726339 0 -0.41247713727797558 -0.055520511343444823 0 -0.38708290872159412 -0.060700542793745572 0 -0.40282094984934602 -0.068207719325610594 0 -0.40774988407501978 -0.03954551048919993 0 -0.41247713727797558 -0.055520511343444823 0 -0.38708290872159412 -0.060700542793745572 0 -0.36880897750199221 -0.044472365969784503 0 -0.38563118903302868 -0.044120874695869533 0 -0.37742135397157561 -0.058927030215513078 0 -0.38563118903302868 -0.044120874695869533 0 -0.38708290872159412 -0.060700542793745572 0 -0.37742135397157561 -0.058927030215513078 0 -0.38563118903302868 -0.044120874695869533 0 -0.38708290872159412 -0.060700542793745572 0 -0.38708290872159412 -0.060700542793745572 0 -0.37742135397157561 -0.058927030215513078 0 -0.37756310197991422 -0.067820863111880944 0 -0.38708290872159412 -0.060700542793745572 0 -0.38859720556640898 -0.077994886382490192 0 -0.38221769707382519 -0.077271776164573258 0 -0.37125930115982392 -0.066336840340026348 0 -0.37742135397157561 -0.058927030215513078 0 -0.37756310197991422 -0.067820863111880944 0 -0.38708290872159412 -0.060700542793745572 0 -0.37756310197991422 -0.067820863111880944 0 -0.38221769707382519 -0.077271776164573258 0 -0.38708290872159412 -0.060700542793745572 0 -0.38221769707382519 -0.077271776164573258 0 -0.38708290872159412 -0.060700542793745572 0 -0.38859720556640898 -0.077994886382490192 0 -0.38859720556640898 -0.077994886382490192 0 -0.38221769707382519 -0.077271776164573258 0 -0.36983424897275441 -0.075868126045547782 0 -0.38221769707382519 -0.077271776164573258 0 -0.36983424897275441 -0.075868126045547782 0 -0.37756310197991422 -0.067820863111880944 0 -0.38221769707382519 -0.077271776164573258 0 -0.37447224654932348 -0.087295744456982016 0 -0.38221769707382519 -0.077271776164573258 0 -0.37559741639245869 -0.099820891001506623 0 -0.38859720556640898 -0.077994886382490192 0 -0.38400097317129162 -0.090041729153619493 0 -0.39075407016589853 -0.102627809303647 0 -0.38859720556640898 -0.077994886382490192 0 -0.39075407016589853 -0.102627809303647 0 -0.38221769707382519 -0.077271776164573258 0 -0.38400097317129162 -0.090041729153619493 0 -0.37559741639245869 -0.099820891001506623 0 -0.37447224654932348 -0.087295744456982016 0 -0.36983424897275441 -0.075868126045547782 0 -0.38221769707382519 -0.077271776164573258 0 -0.38221769707382519 -0.077271776164573258 0 -0.37559741639245869 -0.099820891001506623 0 -0.38859720556640898 -0.077994886382490192 0 -0.38221769707382519 -0.077271776164573258 0 -0.38400097317129162 -0.090041729153619493 0 -0.38859720556640898 -0.077994886382490192 0 -0.40132082857303591 -0.09088318252997965 0 -0.41644790417480693 -0.081151732205845081 0 -0.38859720556640898 -0.077994886382490192 0 -0.40132082857303591 -0.09088318252997965 0 -0.39075407016589853 -0.102627809303647 0 -0.38859720556640898 -0.077994886382490192 0 -0.41644790417480693 -0.081151732205845081 0 -0.38859720556640898 -0.077994886382490192 0 -0.40282094984934602 -0.068207719325610594 0 -0.41644790417480693 -0.081151732205845081 0 -0.38708290872159412 -0.060700542793745572 0 -0.38859720556640898 -0.077994886382490192 0 -0.40282094984934602 -0.068207719325610594 0 -0.36897713571108831 -0.12237000583843879 0 -0.39291093476538907 -0.12726073222480369 0 -0.38088045108206647 -0.1136183514720918 0 -0.36897713571108831 -0.12237000583843879 0 -0.38088045108206647 -0.1136183514720918 0 -0.37559741639245869 -0.099820891001506623 0 -0.39291093476538907 -0.12726073222480369 0 -0.38088045108206647 -0.1136183514720918 0 -0.39075407016589853 -0.102627809303647 0 -0.38088045108206647 -0.1136183514720918 0 -0.37559741639245869 -0.099820891001506623 0 -0.39075407016589853 -0.102627809303647 0 -0.38400097317129162 -0.090041729153619493 0 -0.37559741639245869 -0.099820891001506623 0 -0.39075407016589853 -0.102627809303647 0 -0.40132082857303591 -0.09088318252997965 0 -0.40558112340902219 -0.102864106703953 0 -0.39075407016589853 -0.102627809303647 0 -0.39291093476538907 -0.12726073222480369 0 -0.39075407016589853 -0.102627809303647 0 -0.39291093476538907 -0.12726073222480369 0 -0.40558112340902219 -0.102864106703953 0 -0.39075407016589853 -0.102627809303647 0 -0.39291093476538907 -0.12726073222480369 0 -0.41613033484182471 -0.12913290793948809 0 -0.40558112340902219 -0.102864106703953 0 -0.41613033484182471 -0.12913290793948809 0 -0.40558112340902219 -0.102864106703953 0 -0.41613033484182471 -0.12913290793948809 0 -0.40558112340902219 -0.102864106703953 0 -0.4308404588406185 -0.1096599677822222 0 -0.40132082857303591 -0.09088318252997965 0 -0.40558112340902219 -0.102864106703953 0 -0.41934985093689181 -0.09617965485727327 0 -0.40558112340902219 -0.102864106703953 0 -0.41934985093689181 -0.09617965485727327 0 -0.4308404588406185 -0.1096599677822222 0 -0.41934985093689181 -0.09617965485727327 0 -0.4308404588406185 -0.1096599677822222 0 -0.44429860278320482 -0.084308578029200193 0 -0.41247713727797558 -0.055520511343444823 0 -0.40282094984934602 -0.068207719325610594 0 -0.41644790417480693 -0.081151732205845081 0 -0.40132082857303591 -0.09088318252997965 0 -0.41934985093689181 -0.09617965485727327 0 -0.41644790417480693 -0.081151732205845081 0 -0.41644790417480693 -0.081151732205845081 0 -0.44429860278320482 -0.084308578029200193 0 -0.41934985093689181 -0.09617965485727327 0 -0.41644790417480693 -0.081151732205845081 0 -0.44429860278320482 -0.084308578029200193 0 -0.41644790417480693 -0.081151732205845081 0 -0.44429860278320482 -0.084308578029200193 0 -0.43870944549150731 -0.061152412754872112 0 -0.41247713727797558 -0.055520511343444823 0 -0.41644790417480693 -0.081151732205845081 0 -0.43870944549150731 -0.061152412754872112 0 -0.44429860278320482 -0.084308578029200193 0 -0.45986649556946141 -0.071395959556615041 0 -0.43870944549150731 -0.061152412754872112 0 -0.44429860278320482 -0.084308578029200193 0 -0.4538577501736053 -0.10155966270297689 0 -0.47214930139160249 -0.087465423852555305 0 -0.44429860278320482 -0.084308578029200193 0 -0.47214930139160249 -0.087465423852555305 0 -0.44429860278320482 -0.084308578029200193 0 -0.45986649556946141 -0.071395959556615041 0 -0.47214930139160249 -0.087465423852555305 0 -0.45986649556946141 -0.071395959556615041 0 -0.48153406372156288 -0.071409188265663628 0 -0.46449210768020599 -0.051705893172169413 0 -0.4308404588406185 -0.1096599677822222 0 -0.45211754138960392 -0.11865177594692861 0 -0.4538577501736053 -0.10155966270297689 0 -0.442227751715213 -0.1391242993871086 0 -0.4308404588406185 -0.1096599677822222 0 -0.45211754138960392 -0.11865177594692861 0 -0.4308404588406185 -0.1096599677822222 0 -0.44429860278320482 -0.084308578029200193 0 -0.4538577501736053 -0.10155966270297689 0 -0.4538577501736053 -0.10155966270297689 0 -0.469422062641071 -0.11061403092063039 0 -0.47214930139160249 -0.087465423852555305 0 -0.45211754138960392 -0.11865177594692861 0 -0.4538577501736053 -0.10155966270297689 0 -0.469422062641071 -0.11061403092063039 0 -0.47405533025657998 -0.1366235239104871 0 -0.45211754138960392 -0.11865177594692861 0 -0.469422062641071 -0.11061403092063039 0 -0.47405533025657998 -0.1366235239104871 0 -0.469422062641071 -0.11061403092063039 0 -0.47970655467315049 -0.11576640692234549 0 -0.47405533025657998 -0.1366235239104871 0 -0.47970655467315049 -0.11576640692234549 0 -0.49246861653115409 -0.1141000306604512 0 -0.469422062641071 -0.11061403092063039 0 -0.48288020926379688 -0.1017280421978134 0 -0.47214930139160249 -0.087465423852555305 0 -0.469422062641071 -0.11061403092063039 0 -0.47970655467315049 -0.11576640692234549 0 -0.48288020926379688 -0.1017280421978134 0 -0.5 -0.11797557409059781 0 -0.49246861653115409 -0.1141000306604512 0 -0.50000000000000044 -0.090622269675910472 0 -0.48288020926379688 -0.1017280421978134 0 -0.49246861653115409 -0.1141000306604512 0 -0.50000000000000044 -0.090622269675910472 0 -0.49015618858327292 -0.13165222629794129 0 -0.5 -0.11797557409059781 0 -0.49246861653115409 -0.1141000306604512 0 -0.47970655467315049 -0.11576640692234549 0 -0.48288020926379688 -0.1017280421978134 0 -0.49246861653115409 -0.1141000306604512 0 -0.45986649556946141 -0.071395959556615041 0 -0.48153406372156288 -0.071409188265663628 0 -0.47214930139160249 -0.087465423852555305 0 -0.47214930139160249 -0.087465423852555305 0 -0.50000000000000044 -0.090622269675910472 0 -0.48153406372156288 -0.071409188265663628 0 -0.47214930139160249 -0.087465423852555305 0 -0.50000000000000044 -0.090622269675910472 0 -0.48288020926379688 -0.1017280421978134 0 -0.47214930139160249 -0.087465423852555305 0 -0.50000000000000044 -0.090622269675910472 0 -0.48153406372156288 -0.071409188265663628 0 -0.50000000000000044 -0.090622269675910472 0 -0.5 -0.069198834770784923 0 -0.48153406372156288 -0.071409188265663628 0 -0.5 -0.069198834770784923 0 -0.48258928650995209 -0.05284139437197545 0 -0.5 -0.069198834770784923 0 -0.5 -0.047775399865659367 0 -0.48258928650995209 -0.05284139437197545 0 -0.5 -0.047775399865659367 0 -0.48169904489321169 -0.03473049394062213 0 -0.50000000000000044 -0.026351964960533911 0 -0.5 -0.047775399865659367 0 -0.48169904489321169 -0.03473049394062213 0 -0.48258928650995209 -0.05284139437197545 0 -0.48169904489321169 -0.03473049394062213 0 -0.46449210768020599 -0.051705893172169413 0 -0.48169904489321169 -0.03473049394062213 0 -0.48258928650995209 -0.05284139437197545 0 -0.46449210768020599 -0.051705893172169413 0 -0.48169904489321169 -0.03473049394062213 0 -0.46915747016573112 -0.035157151818124219 0 -0.46449210768020599 -0.051705893172169413 0 -0.48169904489321169 -0.03473049394062213 0 -0.46915747016573112 -0.035157151818124219 0 -0.47499869741002743 -0.02686275547864575 0 -0.48153406372156288 -0.071409188265663628 0 -0.48258928650995209 -0.05284139437197545 0 -0.46449210768020599 -0.051705893172169413 0 -0.45986649556946141 -0.071395959556615041 0 -0.46449210768020599 -0.051705893172169413 0 -0.43870944549150731 -0.061152412754872112 0 -0.46449210768020599 -0.051705893172169413 0 -0.45873557444283192 -0.034472498616010677 0 -0.44611027316733542 -0.042046332074062498 0 -0.46915747016573112 -0.035157151818124219 0 -0.46449210768020599 -0.051705893172169413 0 -0.45873557444283192 -0.034472498616010677 0 -0.46915747016573112 -0.035157151818124219 0 -0.45873557444283192 -0.034472498616010677 0 -0.46586192640237878 -0.028014117883173109 0 -0.42909330875423318 -0.038565162215915022 0 -0.44611027316733542 -0.042046332074062498 0 -0.44710465525824861 -0.02947548475730468 0 -0.45873557444283192 -0.034472498616010677 0 -0.44611027316733542 -0.042046332074062498 0 -0.44710465525824861 -0.02947548475730468 0 -0.42909330875423318 -0.038565162215915022 0 -0.44611027316733542 -0.042046332074062498 0 -0.43870944549150731 -0.061152412754872112 0 -0.46449210768020599 -0.051705893172169413 0 -0.44611027316733542 -0.042046332074062498 0 -0.43870944549150731 -0.061152412754872112 0 -0.43571281056801853 -0.019232132624920711 0 -0.44180668973186432 -0.0051654507905552951 0 -0.45429507098028449 -0.01194704905543767 0 -0.43571281056801853 -0.019232132624920711 0 -0.45429507098028449 -0.01194704905543767 0 -0.44980449113335391 -0.0021121160436215081 0 -0.44180668973186432 -0.0051654507905552951 0 -0.45429507098028449 -0.01194704905543767 0 -0.44980449113335391 -0.0021121160436215081 0 -0.44180668973186432 -0.0051654507905552951 0 -0.44563122467031402 0.0059141659804821389 0 -0.43571281056801853 -0.019232132624920711 0 -0.45331494151808982 -0.018336145587236469 0 -0.45429507098028449 -0.01194704905543767 0 -0.43571281056801853 -0.019232132624920711 0 -0.44710465525824861 -0.02947548475730468 0 -0.45331494151808982 -0.018336145587236469 0 -0.45331494151808982 -0.018336145587236469 0 -0.46049706392553469 -0.015873022880298609 0 -0.45966102309898232 -0.024200637425682729 0 -0.44710465525824861 -0.02947548475730468 0 -0.45331494151808982 -0.018336145587236469 0 -0.45966102309898232 -0.024200637425682729 0 -0.45873557444283192 -0.034472498616010677 0 -0.44710465525824861 -0.02947548475730468 0 -0.45966102309898232 -0.024200637425682729 0 -0.45873557444283192 -0.034472498616010677 0 -0.45966102309898232 -0.024200637425682729 0 -0.46586192640237878 -0.028014117883173109 0 -0.45966102309898232 -0.024200637425682729 0 -0.46586192640237878 -0.028014117883173109 0 -0.46598050672304048 -0.018790879433634951 0 -0.46049706392553469 -0.015873022880298609 0 -0.45966102309898232 -0.024200637425682729 0 -0.46598050672304048 -0.018790879433634951 0 -0.45429507098028449 -0.01194704905543767 0 -0.45702259458146932 0.0058326548029490888 0 -0.45429507098028449 -0.01194704905543767 0 -0.46923377730727528 -0.0060904028995010136 0 -0.45702259458146932 0.0058326548029490888 0 -0.46049706392553469 -0.015873022880298609 0 -0.45429507098028449 -0.01194704905543767 0 -0.46923377730727528 -0.0060904028995010136 0 -0.45429507098028449 -0.01194704905543767 0 -0.46923377730727528 -0.0060904028995010136 0 -0.46049706392553469 -0.015873022880298609 0 -0.46598050672304048 -0.018790879433634951 0 -0.46923377730727528 -0.0060904028995010136 0 -0.44980449113335391 -0.0021121160436215081 0 -0.45429507098028449 -0.01194704905543767 0 -0.45702259458146932 0.0058326548029490888 0 -0.45331494151808982 -0.018336145587236469 0 -0.46049706392553469 -0.015873022880298609 0 -0.45429507098028449 -0.01194704905543767 0 -0.45331494151808982 -0.018336145587236469 0 -0.45429507098028449 -0.01194704905543767 0 -0.46923377730727528 -0.0060904028995010136 0 -0.48417248363426568 -0.0002337567435632274 0 -0.47499869741002743 -0.02686275547864575 0 -0.48417248363426568 -0.0002337567435632274 0 -0.47499869741002743 -0.02686275547864575 0 -0.48417248363426568 -0.0002337567435632274 0 -0.47499869741002743 -0.02686275547864575 0 -0.48575177281506499 -0.017510912948459759 0 -0.46923377730727528 -0.0060904028995010136 0 -0.48417248363426568 -0.0002337567435632274 0 -0.46598050672304048 -0.018790879433634951 0 -0.46923377730727528 -0.0060904028995010136 0 -0.47499869741002743 -0.02686275547864575 0 -0.46586192640237878 -0.028014117883173109 0 -0.46598050672304048 -0.018790879433634951 0 -0.47499869741002743 -0.02686275547864575 0 -0.46915747016573112 -0.035157151818124219 0 -0.46586192640237878 -0.028014117883173109 0 -0.47499869741002743 -0.02686275547864575 0 -0.47499869741002743 -0.02686275547864575 0 -0.48533887430613049 -0.024214814269200691 0 -0.48575177281506499 -0.017510912948459759 0 -0.48169904489321169 -0.03473049394062213 0 -0.47499869741002743 -0.02686275547864575 0 -0.48533887430613049 -0.024214814269200691 0 -0.48169904489321169 -0.03473049394062213 0 -0.49890598210621789 -0.017755094709075169 0 -0.50000000000000044 -0.026351964960533911 0 -0.48169904489321169 -0.03473049394062213 0 -0.48533887430613049 -0.024214814269200691 0 -0.49890598210621789 -0.017755094709075169 0 -0.48169904489321169 -0.03473049394062213 0 -0.49890598210621789 -0.017755094709075169 0 -0.48533887430613049 -0.024214814269200691 0 -0.48575177281506499 -0.017510912948459759 0 -0.49890598210621789 -0.017755094709075169 0 -0.49890598210621789 -0.017755094709075169 0 -0.50000000000000044 -0.026351964960533911 0 -0.48417248363426568 -0.0002337567435632274 0 -0.48575177281506499 -0.017510912948459759 0 -0.49890598210621789 -0.017755094709075169 0 -0.49890598210621789 -0.017755094709075169 0 -0.4960820783836718 0.0044353411542801379 0 -0.48417248363426568 -0.0002337567435632274 0 -0.49890598210621789 -0.017755094709075169 0 -0.4960820783836718 0.0044353411542801379 0 -0.49890598210621789 -0.017755094709075169 0 -0.4999999999999975 0.0059713430055264981 0 -0.4960820783836718 0.0044353411542801379 0 -0.48417248363426568 -0.0002337567435632274 0 -0.49330336195520469 0.02627069205382802 0 -0.4999999999999975 0.0059713430055264981 0 -0.4960820783836718 0.0044353411542801379 0 -0.5 0.021583573423249462 0 -0.4960820783836718 0.0044353411542801379 0 -0.49330336195520469 0.02627069205382802 0 -0.48417248363426568 -0.0002337567435632274 0 -0.4960820783836718 0.0044353411542801379 0 -0.49330336195520469 0.02627069205382802 0 -0.48417248363426568 -0.0002337567435632274 0 -0.49330336195520469 0.02627069205382802 0 -0.48126065169423338 0.016750951296508401 0 -0.4999999999999975 0.0059713430055264981 0 -0.4960820783836718 0.0044353411542801379 0 -0.48417248363426568 -0.0002337567435632274 0 -0.4960820783836718 0.0044353411542801379 0 -0.49330336195520469 0.02627069205382802 0 -0.47599809063618581 0.029095690118167299 0 -0.4922460630897183 0.034579021574999168 0 -0.4960820783836718 0.0044353411542801379 0 -0.5 0.021583573423249462 0 -0.49330336195520469 0.02627069205382802 0 -0.49330336195520469 0.02627069205382802 0 -0.4922460630897183 0.034579021574999168 0 -0.49330336195520469 0.02627069205382802 0 -0.49668125762428489 0.036075801667292767 0 -0.5 0.021583573423249462 0 -0.49330336195520469 0.02627069205382802 0 -0.49668125762428489 0.036075801667292767 0 -0.47599809063618581 0.029095690118167299 0 -0.47156867055127832 0.01187117975760116 0 -0.45975011818265288 0.0236123586613361 0 -0.49330336195520469 0.02627069205382802 0 -0.48126065169423338 0.016750951296508401 0 -0.47599809063618581 0.029095690118167299 0 -0.48126065169423338 0.016750951296508401 0 -0.47599809063618581 0.029095690118167299 0 -0.47156867055127832 0.01187117975760116 0 -0.48417248363426568 -0.0002337567435632274 0 -0.48126065169423338 0.016750951296508401 0 -0.47156867055127832 0.01187117975760116 0 -0.46923377730727528 -0.0060904028995010136 0 -0.48417248363426568 -0.0002337567435632274 0 -0.47156867055127832 0.01187117975760116 0 -0.49150890907471317 0.051777578788957002 0 -0.499999999999999 0.045709205407559073 0 -0.5 0.06253327329700431 0 -0.49150890907471317 0.051777578788957002 0 -0.48122062655303022 0.057966151400956817 0 -0.5 0.06253327329700431 0 -0.49150890907471317 0.051777578788957002 0 -0.48552602806631029 0.048283161356978938 0 -0.48122062655303022 0.057966151400956817 0 -0.49150890907471317 0.051777578788957002 0 -0.48552602806631029 0.048283161356978938 0 -0.4913584995422004 0.041553558921507167 0 -0.48552602806631029 0.048283161356978938 0 -0.4913584995422004 0.041553558921507167 0 -0.47801607709529781 0.041835356316494751 0 -0.4913584995422004 0.041553558921507167 0 -0.4922460630897183 0.034579021574999168 0 -0.47801607709529781 0.041835356316494751 0 -0.4913584995422004 0.041553558921507167 0 -0.499999999999999 0.045709205407559073 0 -0.49668125762428489 0.036075801667292767 0 -0.49150890907471317 0.051777578788957002 0 -0.4913584995422004 0.041553558921507167 0 -0.499999999999999 0.045709205407559073 0 -0.499999999999999 0.045709205407559073 0 -0.49668125762428489 0.036075801667292767 0 -0.50000000000000078 0.037195803840972493 0 -0.499999999999999 0.045709205407559073 0 -0.49668125762428489 0.036075801667292767 0 -0.49668125762428489 0.036075801667292767 0 -0.4922460630897183 0.034579021574999168 0 -0.4913584995422004 0.041553558921507167 0 -0.49668125762428489 0.036075801667292767 0 -0.4922460630897183 0.034579021574999168 0 -0.5 0.021583573423249462 0 -0.49668125762428489 0.036075801667292767 0 -0.50000000000000078 0.037195803840972493 0 -0.49330336195520469 0.02627069205382802 0 -0.49668125762428489 0.036075801667292767 0 -0.4922460630897183 0.034579021574999168 0 -0.49668125762428489 0.036075801667292767 0 -0.50000000000000078 0.037195803840972493 0 -0.4913584995422004 0.041553558921507167 0 -0.4922460630897183 0.034579021574999168 0 -0.47599809063618581 0.029095690118167299 0 -0.4922460630897183 0.034579021574999168 0 -0.47599809063618581 0.029095690118167299 0 -0.47801607709529781 0.041835356316494751 0 -0.45975011818265288 0.0236123586613361 0 -0.47599809063618581 0.029095690118167299 0 -0.4922460630897183 0.034579021574999168 0 -0.47801607709529781 0.041835356316494751 0 -0.48122062655303022 0.057966151400956817 0 -0.46422370482429481 0.053390298463279279 0 -0.46723920560533022 0.07243091205056626 0 -0.48552602806631029 0.048283161356978938 0 -0.47801607709529781 0.041835356316494751 0 -0.48122062655303022 0.057966151400956817 0 -0.47801607709529781 0.041835356316494751 0 -0.48122062655303022 0.057966151400956817 0 -0.46422370482429481 0.053390298463279279 0 -0.46422370482429481 0.053390298463279279 0 -0.45834658937366329 0.049093372711744 0 -0.44267059145821402 0.073824171072702255 0 -0.46422370482429481 0.053390298463279279 0 -0.45834658937366329 0.049093372711744 0 -0.46422370482429481 0.053390298463279279 0 -0.45834658937366329 0.049093372711744 0 -0.46071967688461679 0.045349537771039443 0 -0.45834658937366329 0.049093372711744 0 -0.46071967688461679 0.045349537771039443 0 -0.46422370482429481 0.053390298463279279 0 -0.45975011818265288 0.0236123586613361 0 -0.47801607709529781 0.041835356316494751 0 -0.46422370482429481 0.053390298463279279 0 -0.45975011818265288 0.0236123586613361 0 -0.46071967688461679 0.045349537771039443 0 -0.4532279141438405 0.03482273616335383 0 -0.45975011818265288 0.0236123586613361 0 -0.46422370482429481 0.053390298463279279 0 -0.46071967688461679 0.045349537771039443 0 -0.45975011818265288 0.0236123586613361 0 -0.45834658937366329 0.049093372711744 0 -0.46071967688461679 0.045349537771039443 0 -0.4532279141438405 0.03482273616335383 0 -0.45834658937366329 0.049093372711744 0 -0.44047509652042471 0.036027017540652587 0 -0.45834658937366329 0.049093372711744 0 -0.4532279141438405 0.03482273616335383 0 -0.44047509652042471 0.036027017540652587 0 -0.4532279141438405 0.03482273616335383 0 -0.44047509652042471 0.036027017540652587 0 -0.44746020137229708 0.02721190424379297 0 -0.45834658937366329 0.049093372711744 0 -0.44047509652042471 0.036027017540652587 0 -0.43649015472064689 0.056633228663465943 0 -0.45834658937366329 0.049093372711744 0 -0.44267059145821402 0.073824171072702255 0 -0.45834658937366329 0.049093372711744 0 -0.43649015472064689 0.056633228663465943 0 -0.44267059145821402 0.073824171072702255 0 -0.45702259458146932 0.0058326548029490888 0 -0.45732743008720877 0.022794754995289119 0 -0.45061302568719519 0.014457287400348731 0 -0.47156867055127832 0.01187117975760116 0 -0.45702259458146932 0.0058326548029490888 0 -0.45975011818265288 0.0236123586613361 0 -0.45702259458146932 0.0058326548029490888 0 -0.45975011818265288 0.0236123586613361 0 -0.46923377730727528 -0.0060904028995010136 0 -0.47156867055127832 0.01187117975760116 0 -0.45702259458146932 0.0058326548029490888 0 -0.47599809063618581 0.029095690118167299 0 -0.45975011818265288 0.0236123586613361 0 -0.45702259458146932 0.0058326548029490888 0 -0.45975011818265288 0.0236123586613361 0 -0.45732743008720877 0.022794754995289119 0 -0.4532279141438405 0.03482273616335383 0 -0.45975011818265288 0.0236123586613361 0 -0.45370132454046241 0.02592935011534556 0 -0.45975011818265288 0.0236123586613361 0 -0.45370132454046241 0.02592935011534556 0 -0.45732743008720877 0.022794754995289119 0 -0.45975011818265288 0.0236123586613361 0 -0.45732743008720877 0.022794754995289119 0 -0.45370132454046241 0.02592935011534556 0 -0.45732743008720877 0.022794754995289119 0 -0.45074095891631227 0.021204996512955779 0 -0.45732743008720877 0.022794754995289119 0 -0.45074095891631227 0.021204996512955779 0 -0.45061302568719519 0.014457287400348731 0 -0.45074095891631227 0.021204996512955779 0 -0.44746020137229708 0.02721190424379297 0 -0.4409342151200053 0.016881434685688961 0 -0.44047509652042471 0.036027017540652587 0 -0.44746020137229708 0.02721190424379297 0 -0.4409342151200053 0.016881434685688961 0 -0.45074095891631227 0.021204996512955779 0 -0.4409342151200053 0.016881434685688961 0 -0.45061302568719519 0.014457287400348731 0 -0.4532279141438405 0.03482273616335383 0 -0.45370132454046241 0.02592935011534556 0 -0.44746020137229708 0.02721190424379297 0 -0.45370132454046241 0.02592935011534556 0 -0.45074095891631227 0.021204996512955779 0 -0.44746020137229708 0.02721190424379297 0 -0.4409342151200053 0.016881434685688961 0 -0.44563122467031402 0.0059141659804821389 0 -0.43561880314536899 0.0060778636305521688 0 -0.4409342151200053 0.016881434685688961 0 -0.45061302568719519 0.014457287400348731 0 -0.44563122467031402 0.0059141659804821389 0 -0.45702259458146932 0.0058326548029490888 0 -0.45061302568719519 0.014457287400348731 0 -0.44563122467031402 0.0059141659804821389 0 -0.44980449113335391 -0.0021121160436215081 0 -0.45702259458146932 0.0058326548029490888 0 -0.44563122467031402 0.0059141659804821389 0 -0.44180668973186432 -0.0051654507905552951 0 -0.44563122467031402 0.0059141659804821389 0 -0.43561880314536899 0.0060778636305521688 0 -0.43073537275873691 -0.0059291936424985554 0 -0.43561880314536899 0.0060778636305521688 0 -0.42359784139670509 0.0050356193962432594 0 -0.4409342151200053 0.016881434685688961 0 -0.43561880314536899 0.0060778636305521688 0 -0.42260360366718641 0.022960662369560569 0 -0.43561880314536899 0.0060778636305521688 0 -0.42359784139670509 0.0050356193962432594 0 -0.42260360366718641 0.022960662369560569 0 -0.42359784139670509 0.0050356193962432594 0 -0.42260360366718641 0.022960662369560569 0 -0.42260360366718641 0.022960662369560569 0 -0.40246949919523839 0.0082400476876908005 0 -0.41835622924697913 -0.010329231447849269 0 -0.42359784139670509 0.0050356193962432594 0 -0.40246949919523839 0.0082400476876908005 0 -0.42359784139670509 0.0050356193962432594 0 -0.42260360366718641 0.022960662369560569 0 -0.40246949919523839 0.0082400476876908005 0 -0.42260360366718641 0.022960662369560569 0 -0.40246949919523839 0.0082400476876908005 0 -0.4006569271450014 0.029101629221092499 0 -0.44047509652042471 0.036027017540652587 0 -0.4409342151200053 0.016881434685688961 0 -0.42260360366718641 0.022960662369560569 0 -0.44047509652042471 0.036027017540652587 0 -0.42260360366718641 0.022960662369560569 0 -0.44047509652042471 0.036027017540652587 0 -0.43649015472064689 0.056633228663465943 0 -0.42139348399369952 0.044777825917180478 0 -0.44047509652042471 0.036027017540652587 0 -0.42260360366718641 0.022960662369560569 0 -0.42139348399369952 0.044777825917180478 0 -0.42260360366718641 0.022960662369560569 0 -0.42139348399369952 0.044777825917180478 0 -0.43649015472064689 0.056633228663465943 0 -0.42139348399369952 0.044777825917180478 0 -0.42018336432021219 0.066594989464800358 0 -0.42139348399369952 0.044777825917180478 0 -0.39835701383225569 0.048175149076846981 0 -0.42018336432021219 0.066594989464800358 0 -0.42139348399369952 0.044777825917180478 0 -0.42018336432021219 0.066594989464800358 0 -0.42139348399369952 0.044777825917180478 0 -0.39835701383225569 0.048175149076846981 0 -0.4006569271450014 0.029101629221092499 0 -0.42260360366718641 0.022960662369560569 0 -0.42139348399369952 0.044777825917180478 0 -0.4006569271450014 0.029101629221092499 0 -0.39835701383225569 0.048175149076846981 0 -0.37863350987998812 0.035797582514910387 0 -0.4006569271450014 0.029101629221092499 0 -0.39835701383225569 0.048175149076846981 0 -0.3978108475107649 0.065663713218744924 0 -0.42018336432021219 0.066594989464800358 0 -0.39835701383225569 0.048175149076846981 0 -0.3767825674583356 0.056936657269455522 0 -0.3978108475107649 0.065663713218744924 0 -0.39835701383225569 0.048175149076846981 0 -0.3767825674583356 0.056936657269455522 0 -0.37863350987998812 0.035797582514910387 0 -0.3767825674583356 0.056936657269455522 0 -0.37863350987998812 0.035797582514910387 0 -0.37863350987998812 0.035797582514910387 0 -0.37688104160310898 0.017624964106173799 0 -0.37159774160155429 0.027305265212969821 0 -0.37863350987998812 0.035797582514910387 0 -0.37688104160310898 0.017624964106173799 0 -0.38048445230164052 0.01465850776036517 0 -0.37863350987998812 0.035797582514910387 0 -0.38048445230164052 0.01465850776036517 0 -0.4006569271450014 0.029101629221092499 0 -0.37863350987998812 0.035797582514910387 0 -0.38048445230164052 0.01465850776036517 0 -0.38233539472329148 -0.0064805669941802226 0 -0.38048445230164052 0.01465850776036517 0 -0.37293241351417789 0.0070642894750902749 0 -0.38233539472329148 -0.0064805669941802226 0 -0.38048445230164052 0.01465850776036517 0 -0.37688104160310898 0.017624964106173799 0 -0.38048445230164052 0.01465850776036517 0 -0.37293241351417789 0.0070642894750902749 0 -0.38233539472329148 -0.0064805669941802226 0 -0.38048445230164052 0.01465850776036517 0 -0.40246949919523839 0.0082400476876908005 0 -0.38233539472329148 -0.0064805669941802226 0 -0.40246949919523839 0.0082400476876908005 0 -0.38048445230164052 0.01465850776036517 0 -0.40246949919523839 0.0082400476876908005 0 -0.4006569271450014 0.029101629221092499 0 -0.39103012734040232 0.10096169542520771 0 -0.39980658623765442 0.1011693976195637 0 -0.39582712391627961 0.1179058292095949 0 -0.39103012734040232 0.10096169542520771 0 -0.39980658623765442 0.1011693976195637 0 -0.38687045175237877 0.093247991815406439 0 -0.39980658623765442 0.1011693976195637 0 -0.39582712391627961 0.1179058292095949 0 -0.41131859562731382 0.12328576779461781 0 -0.39980658623765442 0.1011693976195637 0 -0.41131859562731382 0.12328576779461781 0 -0.39582712391627961 0.1179058292095949 0 -0.41131859562731382 0.12328576779461781 0 -0.3950198144529844 0.12920219619802431 0 -0.39582712391627961 0.1179058292095949 0 -0.38936317880585419 0.12181311613409319 0 -0.3950198144529844 0.12920219619802431 0 -0.38316466271376559 0.11205638266858969 0 -0.36981286132130131 0.1365356428047925 0 -0.39582712391627961 0.1179058292095949 0 -0.38459625805884401 0.10693452532773549 0 -0.39582712391627961 0.1179058292095949 0 -0.38316466271376559 0.11205638266858969 0 -0.38459625805884401 0.10693452532773549 0 -0.38316466271376559 0.11205638266858969 0 -0.38936317880585419 0.12181311613409319 0 -0.38344111414038751 0.128088056460164 0 -0.39582712391627961 0.1179058292095949 0 -0.38316466271376559 0.11205638266858969 0 -0.38936317880585419 0.12181311613409319 0 -0.38316466271376559 0.11205638266858969 0 -0.38459625805884401 0.10693452532773549 0 -0.37158912676135991 0.1162494321253334 0 -0.38459625805884401 0.10693452532773549 0 -0.37336539220141057 0.095963221445873742 0 -0.37158912676135991 0.1162494321253334 0 -0.39103012734040232 0.10096169542520771 0 -0.39582712391627961 0.1179058292095949 0 -0.38459625805884401 0.10693452532773549 0 -0.39103012734040232 0.10096169542520771 0 -0.38459625805884401 0.10693452532773549 0 -0.38396555733825938 0.099276858503555887 0 -0.39103012734040232 0.10096169542520771 0 -0.38396555733825938 0.099276858503555887 0 -0.38687045175237877 0.093247991815406439 0 -0.38396555733825938 0.099276858503555887 0 -0.38687045175237877 0.093247991815406439 0 -0.37336539220141057 0.095963221445873742 0 -0.38459625805884401 0.10693452532773549 0 -0.37336539220141057 0.095963221445873742 0 -0.38459625805884401 0.10693452532773549 0 -0.38396555733825938 0.099276858503555887 0 -0.37336539220141057 0.095963221445873742 0 -0.38090110015791512 0.086178545015863653 0 -0.37507397982987423 0.07644993935766467 0 -0.37336539220141057 0.095963221445873742 0 -0.38090110015791512 0.086178545015863653 0 -0.38687045175237877 0.093247991815406439 0 -0.37336539220141057 0.095963221445873742 0 -0.38090110015791512 0.086178545015863653 0 -0.38829457684799501 0.079053027444509594 0 -0.37507397982987423 0.07644993935766467 0 -0.38090110015791512 0.086178545015863653 0 -0.38829457684799501 0.079053027444509594 0 -0.38687045175237877 0.093247991815406439 0 -0.3767825674583356 0.056936657269455522 0 -0.38829457684799501 0.079053027444509594 0 -0.37507397982987423 0.07644993935766467 0 -0.3767825674583356 0.056936657269455522 0 -0.38829457684799501 0.079053027444509594 0 -0.3978108475107649 0.065663713218744924 0 -0.3767825674583356 0.056936657269455522 0 -0.37507397982987423 0.07644993935766467 0 -0.3767825674583356 0.056936657269455522 0 -0.38829457684799501 0.079053027444509594 0 -0.38829457684799501 0.079053027444509594 0 -0.40543671509502632 0.077558742838112191 0 -0.3978108475107649 0.065663713218744924 0 -0.39980658623765442 0.1011693976195637 0 -0.38829457684799501 0.079053027444509594 0 -0.38687045175237877 0.093247991815406439 0 -0.39980658623765442 0.1011693976195637 0 -0.38829457684799501 0.079053027444509594 0 -0.39980658623765442 0.1011693976195637 0 -0.38829457684799501 0.079053027444509594 0 -0.40543671509502632 0.077558742838112191 0 -0.39980658623765442 0.1011693976195637 0 -0.40543671509502632 0.077558742838112191 0 -0.41897324464672497 0.08841215301242028 0 -0.40543671509502632 0.077558742838112191 0 -0.3978108475107649 0.065663713218744924 0 -0.42018336432021219 0.066594989464800358 0 -0.40543671509502632 0.077558742838112191 0 -0.41897324464672497 0.08841215301242028 0 -0.42018336432021219 0.066594989464800358 0 -0.41897324464672497 0.08841215301242028 0 -0.42018336432021219 0.066594989464800358 0 -0.43649015472064689 0.056633228663465943 0 -0.42018336432021219 0.066594989464800358 0 -0.42891561317000287 0.078021478202746325 0 -0.43649015472064689 0.056633228663465943 0 -0.42891561317000287 0.078021478202746325 0 -0.44267059145821402 0.073824171072702255 0 -0.41897324464672497 0.08841215301242028 0 -0.42018336432021219 0.066594989464800358 0 -0.42891561317000287 0.078021478202746325 0 -0.42891561317000287 0.078021478202746325 0 -0.42699459354276381 0.098554969433660142 0 -0.44267059145821402 0.073824171072702255 0 -0.41897324464672497 0.08841215301242028 0 -0.42891561317000287 0.078021478202746325 0 -0.42699459354276381 0.098554969433660142 0 -0.42699459354276381 0.098554969433660142 0 -0.44267059145821402 0.073824171072702255 0 -0.39980658623765442 0.1011693976195637 0 -0.41897324464672497 0.08841215301242028 0 -0.41350785131075413 0.10097761836664861 0 -0.42699459354276381 0.098554969433660142 0 -0.41350785131075413 0.10097761836664861 0 -0.41131859562731382 0.12328576779461781 0 -0.41897324464672497 0.08841215301242028 0 -0.42699459354276381 0.098554969433660142 0 -0.41350785131075413 0.10097761836664861 0 -0.39980658623765442 0.1011693976195637 0 -0.41350785131075413 0.10097761836664861 0 -0.41131859562731382 0.12328576779461781 0 -0.42699459354276381 0.098554969433660142 0 -0.41131859562731382 0.12328576779461781 0 -0.41131859562731382 0.12328576779461781 0 -0.44247843779432988 0.1095302018873829 0 -0.44192001225592692 0.1285010564052502 0 -0.42699459354276381 0.098554969433660142 0 -0.41131859562731382 0.12328576779461781 0 -0.44247843779432988 0.1095302018873829 0 -0.44247843779432988 0.1095302018873829 0 -0.46128000817061909 0.1121198179989838 0 -0.44192001225592692 0.1285010564052502 0 -0.46128000817061909 0.1121198179989838 0 -0.44192001225592692 0.1285010564052502 0 -0.42699459354276381 0.098554969433660142 0 -0.44247843779432988 0.1095302018873829 0 -0.45355047344276139 0.093699775339335434 0 -0.44247843779432988 0.1095302018873829 0 -0.46128000817061909 0.1121198179989838 0 -0.45355047344276139 0.093699775339335434 0 -0.46128000817061909 0.1121198179989838 0 -0.45355047344276139 0.093699775339335434 0 -0.48064000408531149 0.09573857959271731 0 -0.42699459354276381 0.098554969433660142 0 -0.44267059145821402 0.073824171072702255 0 -0.45355047344276139 0.093699775339335434 0 -0.45355047344276139 0.093699775339335434 0 -0.46723920560533022 0.07243091205056626 0 -0.48064000408531149 0.09573857959271731 0 -0.44267059145821402 0.073824171072702255 0 -0.45355047344276139 0.093699775339335434 0 -0.46723920560533022 0.07243091205056626 0 -0.46422370482429481 0.053390298463279279 0 -0.44267059145821402 0.073824171072702255 0 -0.46723920560533022 0.07243091205056626 0 -0.46422370482429481 0.053390298463279279 0 -0.46723920560533022 0.07243091205056626 0 -0.48122062655303022 0.057966151400956817 0 -0.46723920560533022 0.07243091205056626 0 -0.48444054956174643 0.074124494931942425 0 -0.46723920560533022 0.07243091205056626 0 -0.48444054956174643 0.074124494931942425 0 -0.48064000408531149 0.09573857959271731 0 -0.50000000000000266 0.079357341186449548 0 -0.48444054956174643 0.074124494931942425 0 -0.48064000408531149 0.09573857959271731 0 -0.50000000000000266 0.079357341186449548 0 -0.48064000408531149 0.09573857959271731 0 -0.5 0.1044010982252164 0 -0.50000000000000266 0.079357341186449548 0 -0.48064000408531149 0.09573857959271731 0 -0.50000000000000266 0.079357341186449548 0 -0.48444054956174643 0.074124494931942425 0 -0.5 0.06253327329700431 0 -0.48122062655303022 0.057966151400956817 0 -0.48444054956174643 0.074124494931942425 0 -0.5 0.06253327329700431 0 -0.46128000817061909 0.1121198179989838 0 -0.48279509364318468 0.12080028796464599 0 -0.47019617766372063 0.1380611687641714 0 -0.46128000817061909 0.1121198179989838 0 -0.48279509364318468 0.12080028796464599 0 -0.48064000408531149 0.09573857959271731 0 -0.46128000817061909 0.1121198179989838 0 -0.48064000408531149 0.09573857959271731 0 -0.48279509364318468 0.12080028796464599 0 -0.48064000408531149 0.09573857959271731 0 -0.5 0.1044010982252164 0 -0.48279509364318468 0.12080028796464599 0 -0.5 0.1044010982252164 0 -0.5 0.12944485526398319 0 -0.48279509364318468 0.12080028796464599 0 -0.5 0.12944485526398319 0 -0.48604267523529338 0.1400784644714346 0 -0.48279509364318468 0.12080028796464599 0 -0.48604267523529338 0.1400784644714346 0 -0.47019617766372063 0.1380611687641714 0 -0.48604267523529338 0.1400784644714346 0 -0.47019617766372063 0.1380611687641714 0 -0.47722210486956168 0.15759739806162251 0 -0.47019617766372063 0.1380611687641714 0 -0.47722210486956168 0.15759739806162251 0 -0.46117847421650621 0.154008203834019 0 -0.48604267523529338 0.1400784644714346 0 -0.5 0.15448861230274999 0 -0.47722210486956168 0.15759739806162251 0 -0.5 0.12944485526398319 0 -0.48604267523529338 0.1400784644714346 0 -0.5 0.15448861230274999 0 -0.5 0.15448861230274999 0 -0.47722210486956168 0.15759739806162251 0 -0.48351286272778238 0.1715963902124259 0 -0.5 0.15448861230274999 0 -0.5 0.17953236934151681 0 -0.48351286272778238 0.1715963902124259 0 -0.5 0.17953236934151681 0 -0.48351286272778238 0.1715963902124259 0 -0.47458586777458189 0.19367222462949901 0 -0.48351286272778238 0.1715963902124259 0 -0.46575634099476831 0.17269134672674111 0 -0.47458586777458189 0.19367222462949901 0 -0.47722210486956168 0.15759739806162251 0 -0.48351286272778238 0.1715963902124259 0 -0.46575634099476831 0.17269134672674111 0 -0.47722210486956168 0.15759739806162251 0 -0.46575634099476831 0.17269134672674111 0 -0.46117847421650621 0.154008203834019 0 -0.44959872155142039 0.1671316879471024 0 -0.45002570755367238 0.15149505301549279 0 -0.46117847421650621 0.154008203834019 0 -0.46575634099476831 0.17269134672674111 0 -0.44959872155142039 0.1671316879471024 0 -0.46117847421650621 0.154008203834019 0 -0.46575634099476831 0.17269134672674111 0 -0.44917173554916812 0.182768322878712 0 -0.44959872155142039 0.1671316879471024 0 -0.46575634099476831 0.17269134672674111 0 -0.44917173554916812 0.182768322878712 0 -0.47458586777458189 0.19367222462949901 0 -0.44917173554916812 0.182768322878712 0 -0.44959872155142039 0.1671316879471024 0 -0.44917173554916812 0.182768322878712 0 -0.44421641628853431 0.18064224932709699 0 -0.44959872155142039 0.1671316879471024 0 -0.44917173554916812 0.182768322878712 0 -0.44421641628853431 0.18064224932709699 0 -0.44421641628853431 0.18064224932709699 0 -0.44959872155142039 0.1671316879471024 0 -0.44044881958412518 0.17141168269269649 0 -0.43920335118410142 0.17819602675372009 0 -0.44421641628853431 0.18064224932709699 0 -0.44044881958412518 0.17141168269269649 0 -0.43920335118410142 0.17819602675372009 0 -0.44044881958412518 0.17141168269269649 0 -0.43559171438882938 0.17497662636149031 0 -0.44917173554916812 0.182768322878712 0 -0.44421641628853431 0.18064224932709699 0 -0.44050363174608342 0.1877625854641162 0 -0.43964888363658888 0.18266176741168991 0 -0.43714282702898621 0.1850588579192021 0 -0.43616142929847612 0.18096905285605239 0 -0.43920335118410142 0.17819602675372009 0 -0.44421641628853431 0.18064224932709699 0 -0.43964888363658888 0.18266176741168991 0 -0.43920335118410142 0.17819602675372009 0 -0.43964888363658888 0.18266176741168991 0 -0.43616142929847612 0.18096905285605239 0 -0.43964888363658888 0.18266176741168991 0 -0.44050363174608342 0.1877625854641162 0 -0.43714282702898621 0.1850588579192021 0 -0.43752663078338527 0.18879391992782341 0 -0.44050363174608342 0.1877625854641162 0 -0.43714282702898621 0.1850588579192021 0 -0.44421641628853431 0.18064224932709699 0 -0.43964888363658888 0.18266176741168991 0 -0.44050363174608342 0.1877625854641162 0 -0.44959872155142039 0.1671316879471024 0 -0.44091859196536898 0.15956295855373989 0 -0.45002570755367238 0.15149505301549279 0 -0.44959872155142039 0.1671316879471024 0 -0.45002570755367238 0.15149505301549279 0 -0.44044881958412518 0.17141168269269649 0 -0.44091859196536898 0.15956295855373989 0 -0.4328942085784494 0.16779510037891079 0 -0.44959872155142039 0.1671316879471024 0 -0.44044881958412518 0.17141168269269649 0 -0.44091859196536898 0.15956295855373989 0 -0.44091859196536898 0.15956295855373989 0 -0.45002570755367238 0.15149505301549279 0 -0.43900064201726169 0.14641225238890429 0 -0.45002570755367238 0.15149505301549279 0 -0.43900064201726169 0.14641225238890429 0 -0.45393350364628449 0.13843292540113691 0 -0.46128000817061909 0.1121198179989838 0 -0.44192001225592692 0.1285010564052502 0 -0.45393350364628449 0.13843292540113691 0 -0.43900064201726169 0.14641225238890429 0 -0.44192001225592692 0.1285010564052502 0 -0.45393350364628449 0.13843292540113691 0 -0.46128000817061909 0.1121198179989838 0 -0.47019617766372063 0.1380611687641714 0 -0.45393350364628449 0.13843292540113691 0 -0.47019617766372063 0.1380611687641714 0 -0.45393350364628449 0.13843292540113691 0 -0.46117847421650621 0.154008203834019 0 -0.45002570755367238 0.15149505301549279 0 -0.45393350364628449 0.13843292540113691 0 -0.46117847421650621 0.154008203834019 0 -0.47993662372660462 0.23872573632670871 0 -0.5 0.22803608132453049 0 -0.5 0.25149603626877748 0 -0.47993662372660462 0.23872573632670871 0 -0.5 0.22803608132453049 0 -0.48597362379357317 0.21662791820345639 0 -0.47993662372660462 0.23872573632670871 0 -0.48597362379357317 0.21662791820345639 0 -0.46772067323941541 0.22093564349740999 0 -0.48597362379357317 0.21662791820345639 0 -0.47458586777458189 0.19367222462949901 0 -0.46772067323941541 0.22093564349740999 0 -0.5 0.22803608132453049 0 -0.48597362379357317 0.21662791820345639 0 -0.49999999999999661 0.20457612638028361 0 -0.48597362379357317 0.21662791820345639 0 -0.49999999999999661 0.20457612638028361 0 -0.47458586777458189 0.19367222462949901 0 -0.5 0.17953236934151681 0 -0.49999999999999661 0.20457612638028361 0 -0.47458586777458189 0.19367222462949901 0 -0.49999999999999661 0.20457612638028361 0 -0.47458586777458189 0.19367222462949901 0 -0.44917173554916812 0.182768322878712 0 -0.47458586777458189 0.19367222462949901 0 -0.44839735859592827 0.21112674599657971 0 -0.44917173554916812 0.182768322878712 0 -0.47458586777458189 0.19367222462949901 0 -0.44050363174608342 0.1877625854641162 0 -0.44839735859592827 0.21112674599657971 0 -0.4372196780724788 0.1917167107770823 0 -0.44917173554916812 0.182768322878712 0 -0.44050363174608342 0.1877625854641162 0 -0.44839735859592827 0.21112674599657971 0 -0.44917173554916812 0.182768322878712 0 -0.44839735859592827 0.21112674599657971 0 -0.44050363174608342 0.1877625854641162 0 -0.4372196780724788 0.1917167107770823 0 -0.43752663078338527 0.18879391992782341 0 -0.44050363174608342 0.1877625854641162 0 -0.4372196780724788 0.1917167107770823 0 -0.44839735859592827 0.21112674599657971 0 -0.43416486815127148 0.22080448282352519 0 -0.4372196780724788 0.1917167107770823 0 -0.47458586777458189 0.19367222462949901 0 -0.44839735859592827 0.21112674599657971 0 -0.46772067323941541 0.22093564349740999 0 -0.47993662372660462 0.23872573632670871 0 -0.46772067323941541 0.22093564349740999 0 -0.44762298164268821 0.23948516911444739 0 -0.47993662372660462 0.23872573632670871 0 -0.44762298164268821 0.23948516911444739 0 -0.47451806798994201 0.26322601374090121 0 -0.44839735859592827 0.21112674599657971 0 -0.46772067323941541 0.22093564349740999 0 -0.44762298164268821 0.23948516911444739 0 -0.44839735859592827 0.21112674599657971 0 -0.44762298164268821 0.23948516911444739 0 -0.43416486815127148 0.22080448282352519 0 -0.44839735859592827 0.21112674599657971 0 -0.44762298164268821 0.23948516911444739 0 -0.44762298164268821 0.23948516911444739 0 -0.43111005823006537 0.24989225486996819 0 -0.43416486815127148 0.22080448282352519 0 -0.41449150783961669 0.23178483534738811 0 -0.40516101789932918 0.25657686647302069 0 -0.41449150783961669 0.23178483534738811 0 -0.42127337807423859 0.25538243113189962 0 -0.41449150783961669 0.23178483534738811 0 -0.42127337807423859 0.25538243113189962 0 -0.40516101789932918 0.25657686647302069 0 -0.43111005823006537 0.24989225486996819 0 -0.43416486815127148 0.22080448282352519 0 -0.43111005823006537 0.24989225486996819 0 -0.41449150783961669 0.23178483534738811 0 -0.42127337807423859 0.25538243113189962 0 -0.43416486815127148 0.22080448282352519 0 -0.41449150783961669 0.23178483534738811 0 -0.42323307867727789 0.2085576203049605 0 -0.43111005823006537 0.24989225486996819 0 -0.43416486815127148 0.22080448282352519 0 -0.41449150783961669 0.23178483534738811 0 -0.41449150783961669 0.23178483534738811 0 -0.411779545069277 0.2223485295757994 0 -0.42323307867727789 0.2085576203049605 0 -0.41449150783961669 0.23178483534738811 0 -0.42323307867727789 0.2085576203049605 0 -0.41449150783961669 0.23178483534738811 0 -0.411779545069277 0.2223485295757994 0 -0.39394669757350109 0.24382060887220011 0 -0.41449150783961669 0.23178483534738811 0 -0.411779545069277 0.2223485295757994 0 -0.411779545069277 0.2223485295757994 0 -0.42323307867727789 0.2085576203049605 0 -0.40562059566259118 0.2009183940043042 0 -0.411779545069277 0.2223485295757994 0 -0.40562059566259118 0.2009183940043042 0 -0.411779545069277 0.2223485295757994 0 -0.42323307867727789 0.2085576203049605 0 -0.43416486815127148 0.22080448282352519 0 -0.4372196780724788 0.1917167107770823 0 -0.43416486815127148 0.22080448282352519 0 -0.42323307867727789 0.2085576203049605 0 -0.4372196780724788 0.1917167107770823 0 -0.42323307867727789 0.2085576203049605 0 -0.4372196780724788 0.1917167107770823 0 -0.42635617302409867 0.194223951352094 0 -0.42323307867727789 0.2085576203049605 0 -0.4372196780724788 0.1917167107770823 0 -0.42323307867727789 0.2085576203049605 0 -0.42635617302409867 0.194223951352094 0 -0.4166065925566268 0.19908117032758671 0 -0.4372196780724788 0.1917167107770823 0 -0.42635617302409867 0.194223951352094 0 -0.43229589057517748 0.1862945300621548 0 -0.43752663078338527 0.18879391992782341 0 -0.4372196780724788 0.1917167107770823 0 -0.43229589057517748 0.1862945300621548 0 -0.43752663078338527 0.18879391992782341 0 -0.4372196780724788 0.1917167107770823 0 -0.42635617302409867 0.194223951352094 0 -0.43229589057517748 0.1862945300621548 0 -0.42244345738572647 0.18687153280430699 0 -0.42635617302409867 0.194223951352094 0 -0.4166065925566268 0.19908117032758671 0 -0.42244345738572647 0.18687153280430699 0 -0.42323307867727789 0.2085576203049605 0 -0.4166065925566268 0.19908117032758671 0 -0.40562059566259118 0.2009183940043042 0 -0.4166065925566268 0.19908117032758671 0 -0.40562059566259118 0.2009183940043042 0 -0.40954823910814447 0.18506874507416241 0 -0.4166065925566268 0.19908117032758671 0 -0.42244345738572647 0.18687153280430699 0 -0.40954823910814447 0.18506874507416241 0 -0.40562059566259118 0.2009183940043042 0 -0.40954823910814447 0.18506874507416241 0 -0.39102612134795067 0.18661935449828099 0 -0.40562059566259118 0.2009183940043042 0 -0.38506034502119069 0.20301610738122439 0 -0.39102612134795067 0.18661935449828099 0 -0.38506034502119069 0.20301610738122439 0 -0.39102612134795067 0.18661935449828099 0 -0.36552010806709312 0.18556192848613429 0 -0.38506034502119069 0.20301610738122439 0 -0.38670174456980372 0.21966233083923811 0 -0.36337373143998608 0.21007507132680489 0 -0.38506034502119069 0.20301610738122439 0 -0.3981197690397193 0.2152595651325839 0 -0.38670174456980372 0.21966233083923811 0 -0.411779545069277 0.2223485295757994 0 -0.40562059566259118 0.2009183940043042 0 -0.3981197690397193 0.2152595651325839 0 -0.40562059566259118 0.2009183940043042 0 -0.38506034502119069 0.20301610738122439 0 -0.3981197690397193 0.2152595651325839 0 -0.411779545069277 0.2223485295757994 0 -0.39394669757350109 0.24382060887220011 0 -0.411779545069277 0.2223485295757994 0 -0.39470913989012851 0.22700592405250461 0 -0.39394669757350109 0.24382060887220011 0 -0.411779545069277 0.2223485295757994 0 -0.3981197690397193 0.2152595651325839 0 -0.39470913989012851 0.22700592405250461 0 -0.3981197690397193 0.2152595651325839 0 -0.39470913989012851 0.22700592405250461 0 -0.38670174456980372 0.21966233083923811 0 -0.39470913989012851 0.22700592405250461 0 -0.38670174456980372 0.21966233083923811 0 -0.3814742957151267 0.23294076884828391 0 -0.38670174456980372 0.21966233083923811 0 -0.3814742957151267 0.23294076884828391 0 -0.37178884445503979 0.22341194030271799 0 -0.39470913989012851 0.22700592405250461 0 -0.3814742957151267 0.23294076884828391 0 -0.39394669757350109 0.24382060887220011 0 -0.3814742957151267 0.23294076884828391 0 -0.37681523902969338 0.2467608340689659 0 -0.39394669757350109 0.24382060887220011 0 -0.41449150783961669 0.23178483534738811 0 -0.39394669757350109 0.24382060887220011 0 -0.40516101789932918 0.25657686647302069 0 -0.41590092260170231 0.14284063790722051 0 -0.41467039575103398 0.1500371762055403 0 -0.42256001634123319 0.14488229481151479 0 -0.41467039575103398 0.1500371762055403 0 -0.42068818570174599 0.1517799267685073 0 -0.41524073712425991 0.16000258553599539 0 -0.41467039575103398 0.1500371762055403 0 -0.42068818570174599 0.1517799267685073 0 -0.42256001634123319 0.14488229481151479 0 -0.41467039575103398 0.1500371762055403 0 -0.41524073712425991 0.16000258553599539 0 -0.40353914639416899 0.15208429384309691 0 -0.41590092260170231 0.14284063790722051 0 -0.41467039575103398 0.1500371762055403 0 -0.40857560433094781 0.14118732076691759 0 -0.41467039575103398 0.1500371762055403 0 -0.40857560433094781 0.14118732076691759 0 -0.40353914639416899 0.15208429384309691 0 -0.41131859562731382 0.12328576779461781 0 -0.40857560433094781 0.14118732076691759 0 -0.40452956594258321 0.13399629002772881 0 -0.41131859562731382 0.12328576779461781 0 -0.41590092260170231 0.14284063790722051 0 -0.40857560433094781 0.14118732076691759 0 -0.41131859562731382 0.12328576779461781 0 -0.42256001634123319 0.14488229481151479 0 -0.41131859562731382 0.12328576779461781 0 -0.41590092260170231 0.14284063790722051 0 -0.42256001634123319 0.14488229481151479 0 -0.41131859562731382 0.12328576779461781 0 -0.40452956594258321 0.13399629002772881 0 -0.44192001225592692 0.1285010564052502 0 -0.42256001634123319 0.14488229481151479 0 -0.41131859562731382 0.12328576779461781 0 -0.44192001225592692 0.1285010564052502 0 -0.42256001634123319 0.14488229481151479 0 -0.43900064201726169 0.14641225238890429 0 -0.44192001225592692 0.1285010564052502 0 -0.42256001634123319 0.14488229481151479 0 -0.43900064201726169 0.14641225238890429 0 -0.42256001634123319 0.14488229481151479 0 -0.42948471513832692 0.15818572401865691 0 -0.42068818570174599 0.1517799267685073 0 -0.42256001634123319 0.14488229481151479 0 -0.42948471513832692 0.15818572401865691 0 -0.42256001634123319 0.14488229481151479 0 -0.42948471513832692 0.15818572401865691 0 -0.44091859196536898 0.15956295855373989 0 -0.43900064201726169 0.14641225238890429 0 -0.42948471513832692 0.15818572401865691 0 -0.44091859196536898 0.15956295855373989 0 -0.4328942085784494 0.16779510037891079 0 -0.42948471513832692 0.15818572401865691 0 -0.44044881958412518 0.17141168269269649 0 -0.4328942085784494 0.16779510037891079 0 -0.43559171438882938 0.17497662636149031 0 -0.4328942085784494 0.16779510037891079 0 -0.42346371439967723 0.168004284044277 0 -0.42948471513832692 0.15818572401865691 0 -0.4328942085784494 0.16779510037891079 0 -0.42346371439967723 0.168004284044277 0 -0.42925076329899509 0.17651126912607171 0 -0.42346371439967723 0.168004284044277 0 -0.42948471513832692 0.15818572401865691 0 -0.41524073712425991 0.16000258553599539 0 -0.43229589057517748 0.1862945300621548 0 -0.43616142929847612 0.18096905285605239 0 -0.42925076329899509 0.17651126912607171 0 -0.43229589057517748 0.1862945300621548 0 -0.43714282702898621 0.1850588579192021 0 -0.43616142929847612 0.18096905285605239 0 -0.43752663078338527 0.18879391992782341 0 -0.43229589057517748 0.1862945300621548 0 -0.43714282702898621 0.1850588579192021 0 -0.4328942085784494 0.16779510037891079 0 -0.43559171438882938 0.17497662636149031 0 -0.42925076329899509 0.17651126912607171 0 -0.43920335118410142 0.17819602675372009 0 -0.43616142929847612 0.18096905285605239 0 -0.43559171438882938 0.17497662636149031 0 -0.43616142929847612 0.18096905285605239 0 -0.43559171438882938 0.17497662636149031 0 -0.42925076329899509 0.17651126912607171 0 -0.42346371439967723 0.168004284044277 0 -0.42925076329899509 0.17651126912607171 0 -0.42016428207785572 0.17826634611534231 0 -0.42925076329899509 0.17651126912607171 0 -0.42244345738572647 0.18687153280430699 0 -0.42016428207785572 0.17826634611534231 0 -0.43229589057517748 0.1862945300621548 0 -0.42925076329899509 0.17651126912607171 0 -0.42244345738572647 0.18687153280430699 0 -0.40954823910814447 0.18506874507416241 0 -0.41361810673140642 0.17185107207761621 0 -0.39901361529928969 0.16907473057497049 0 -0.42244345738572647 0.18687153280430699 0 -0.42016428207785572 0.17826634611534231 0 -0.40954823910814447 0.18506874507416241 0 -0.42346371439967723 0.168004284044277 0 -0.42016428207785572 0.17826634611534231 0 -0.41361810673140642 0.17185107207761621 0 -0.42016428207785572 0.17826634611534231 0 -0.40954823910814447 0.18506874507416241 0 -0.41361810673140642 0.17185107207761621 0 -0.41524073712425991 0.16000258553599539 0 -0.41361810673140642 0.17185107207761621 0 -0.39901361529928969 0.16907473057497049 0 -0.42068818570174599 0.1517799267685073 0 -0.42948471513832692 0.15818572401865691 0 -0.41524073712425991 0.16000258553599539 0 -0.42346371439967723 0.168004284044277 0 -0.41524073712425991 0.16000258553599539 0 -0.41361810673140642 0.17185107207761621 0 -0.41524073712425991 0.16000258553599539 0 -0.39901361529928969 0.16907473057497049 0 -0.40353914639416899 0.15208429384309691 0 -0.39901361529928969 0.16907473057497049 0 -0.38482012880806687 0.15928097787663259 0 -0.40353914639416899 0.15208429384309691 0 -0.40954823910814447 0.18506874507416241 0 -0.39901361529928969 0.16907473057497049 0 -0.39102612134795067 0.18661935449828099 0 -0.39102612134795067 0.18661935449828099 0 -0.37919018726606651 0.17411559992979431 0 -0.36552010806709312 0.18556192848613429 0 -0.39901361529928969 0.16907473057497049 0 -0.39102612134795067 0.18661935449828099 0 -0.37919018726606651 0.17411559992979431 0 -0.37919018726606651 0.17411559992979431 0 -0.38482012880806687 0.15928097787663259 0 -0.36766648469420021 0.1610487856454636 0 -0.39901361529928969 0.16907473057497049 0 -0.37919018726606651 0.17411559992979431 0 -0.38482012880806687 0.15928097787663259 0 -0.38482012880806687 0.15928097787663259 0 -0.37932955826446868 0.1456256995963873 0 -0.39090720235838178 0.14317503519488339 0 -0.38482012880806687 0.15928097787663259 0 -0.37932955826446868 0.1456256995963873 0 -0.36766648469420021 0.1610487856454636 0 -0.38482012880806687 0.15928097787663259 0 -0.39090720235838178 0.14317503519488339 0 -0.40353914639416899 0.15208429384309691 0 -0.40857560433094781 0.14118732076691759 0 -0.40107787866518307 0.14219015268594201 0 -0.40353914639416899 0.15208429384309691 0 -0.39090720235838178 0.14317503519488339 0 -0.40107787866518307 0.14219015268594201 0 -0.40353914639416899 0.15208429384309691 0 -0.41131859562731382 0.12328576779461781 0 -0.40452956594258321 0.13399629002772881 0 -0.3950198144529844 0.12920219619802431 0 -0.40857560433094781 0.14118732076691759 0 -0.40107787866518307 0.14219015268594201 0 -0.40452956594258321 0.13399629002772881 0 -0.40107787866518307 0.14219015268594201 0 -0.40452956594258321 0.13399629002772881 0 -0.3950198144529844 0.12920219619802431 0 -0.39090720235838178 0.14317503519488339 0 -0.40107787866518307 0.14219015268594201 0 -0.3950198144529844 0.12920219619802431 0 -0.37932955826446868 0.1456256995963873 0 -0.38344111414038751 0.128088056460164 0 -0.36981286132130131 0.1365356428047925 0 -0.38316466271376559 0.11205638266858969 0 -0.38344111414038751 0.128088056460164 0 -0.36981286132130131 0.1365356428047925 0 -0.38936317880585419 0.12181311613409319 0 -0.3950198144529844 0.12920219619802431 0 -0.38344111414038751 0.128088056460164 0 -0.37932955826446868 0.1456256995963873 0 -0.39090720235838178 0.14317503519488339 0 -0.38344111414038751 0.128088056460164 0 -0.39090720235838178 0.14317503519488339 0 -0.3950198144529844 0.12920219619802431 0 -0.38344111414038751 0.128088056460164 0 -0.36981286132130131 0.1365356428047925 0 -0.37158912676135991 0.1162494321253334 0 -0.35624543278902698 0.1246179120644431 0 -0.36981286132130131 0.1365356428047925 0 -0.37158912676135991 0.1162494321253334 0 -0.34580233259674747 0.14208825583931489 0 -0.35624543278902698 0.1246179120644431 0 -0.33974952812225329 0.1226975489845159 0 -0.36981286132130131 0.1365356428047925 0 -0.34580233259674747 0.14208825583931489 0 -0.35624543278902698 0.1246179120644431 0 -0.36981286132130131 0.1365356428047925 0 -0.34580233259674747 0.14208825583931489 0 -0.35740530264887233 0.15928372356703829 0 -0.34580233259674747 0.14208825583931489 0 -0.35740530264887233 0.15928372356703829 0 -0.34023666363690203 0.16117843010542299 0 -0.36981286132130131 0.1365356428047925 0 -0.36766648469420021 0.1610487856454636 0 -0.35740530264887233 0.15928372356703829 0 -0.36981286132130131 0.1365356428047925 0 -0.35740530264887233 0.15928372356703829 0 -0.37932955826446868 0.1456256995963873 0 -0.36981286132130131 0.1365356428047925 0 -0.36766648469420021 0.1610487856454636 0 -0.36981286132130131 0.1365356428047925 0 -0.36766648469420021 0.1610487856454636 0 -0.36766648469420021 0.1610487856454636 0 -0.35632802460037888 0.17570101640931621 0 -0.35740530264887233 0.15928372356703829 0 -0.37919018726606651 0.17411559992979431 0 -0.36766648469420021 0.1610487856454636 0 -0.36552010806709312 0.18556192848613429 0 -0.36766648469420021 0.1610487856454636 0 -0.36552010806709312 0.18556192848613429 0 -0.35632802460037888 0.17570101640931621 0 -0.36766648469420021 0.1610487856454636 0 -0.36552010806709312 0.18556192848613429 0 -0.35632802460037888 0.17570101640931621 0 -0.34499774397644839 0.18203180432928701 0 -0.35740530264887233 0.15928372356703829 0 -0.36552010806709312 0.18556192848613429 0 -0.35454900862539729 0.185239985658079 0 -0.35632802460037888 0.17570101640931621 0 -0.35454900862539729 0.185239985658079 0 -0.35632802460037888 0.17570101640931621 0 -0.34499774397644839 0.18203180432928701 0 -0.34499774397644839 0.18203180432928701 0 -0.34727826824847569 0.19013869868501859 0 -0.34098004688355987 0.18939787047978829 0 -0.35454900862539729 0.185239985658079 0 -0.34499774397644839 0.18203180432928701 0 -0.34727826824847569 0.19013869868501859 0 -0.34499774397644839 0.18203180432928701 0 -0.35740530264887233 0.15928372356703829 0 -0.34499774397644839 0.18203180432928701 0 -0.35740530264887233 0.15928372356703829 0 -0.34023666363690203 0.16117843010542299 0 -0.34499774397644839 0.18203180432928701 0 -0.34023666363690203 0.16117843010542299 0 -0.32664256249564932 0.1693616124939081 0 -0.34023666363690203 0.16117843010542299 0 -0.32664256249564932 0.1693616124939081 0 -0.32633537646679162 0.1531267542975665 0 -0.34499774397644839 0.18203180432928701 0 -0.33393738788578781 0.18400998556694351 0 -0.32664256249564932 0.1693616124939081 0 -0.33393738788578781 0.18400998556694351 0 -0.32409164738369062 0.18664122878144609 0 -0.32664256249564932 0.1693616124939081 0 -0.34499774397644839 0.18203180432928701 0 -0.32664256249564932 0.1693616124939081 0 -0.34499774397644839 0.18203180432928701 0 -0.33393738788578781 0.18400998556694351 0 -0.34098004688355987 0.18939787047978829 0 -0.34499774397644839 0.18203180432928701 0 -0.34098004688355987 0.18939787047978829 0 -0.32664256249564932 0.1693616124939081 0 -0.30445932994677272 0.1704116507041907 0 -0.30995217817374399 0.1833459098967346 0 -0.32409164738369062 0.18664122878144609 0 -0.32664256249564932 0.1693616124939081 0 -0.30995217817374399 0.1833459098967346 0 -0.32664256249564932 0.1693616124939081 0 -0.30828738101485009 0.1566914206585292 0 -0.32664256249564932 0.1693616124939081 0 -0.30828738101485009 0.1566914206585292 0 -0.30445932994677272 0.1704116507041907 0 -0.32664256249564932 0.1693616124939081 0 -0.32633537646679162 0.1531267542975665 0 -0.30828738101485009 0.1566914206585292 0 -0.32633537646679162 0.1531267542975665 0 -0.30828738101485009 0.1566914206585292 0 -0.32633537646679162 0.1531267542975665 0 -0.31265804899462329 0.1335309411573897 0 -0.30828738101485009 0.1566914206585292 0 -0.32633537646679162 0.1531267542975665 0 -0.31265804899462329 0.1335309411573897 0 -0.32976347551344021 0.13450620195519941 0 -0.31265804899462329 0.1335309411573897 0 -0.32976347551344021 0.13450620195519941 0 -0.32506615603551459 0.1211059287090778 0 -0.34580233259674747 0.14208825583931489 0 -0.32976347551344021 0.13450620195519941 0 -0.33974952812225329 0.1226975489845159 0 -0.32976347551344021 0.13450620195519941 0 -0.33974952812225329 0.1226975489845159 0 -0.32506615603551459 0.1211059287090778 0 -0.34580233259674747 0.14208825583931489 0 -0.34023666363690203 0.16117843010542299 0 -0.32633537646679162 0.1531267542975665 0 -0.34580233259674747 0.14208825583931489 0 -0.32633537646679162 0.1531267542975665 0 -0.32976347551344021 0.13450620195519941 0 -0.34805031185967189 0.24248250917218181 0 -0.33794474823729193 0.2462943468213025 0 -0.35908097818577422 0.2591013570081464 0 -0.34805031185967189 0.24248250917218181 0 -0.3612273548128791 0.23458821416747561 0 -0.35908097818577422 0.2591013570081464 0 -0.34805031185967189 0.24248250917218181 0 -0.34764946497557359 0.23283323941427819 0 -0.34221103321679153 0.2385079899849393 0 -0.34805031185967189 0.24248250917218181 0 -0.3612273548128791 0.23458821416747561 0 -0.34764946497557359 0.23283323941427819 0 -0.37681523902969338 0.2467608340689659 0 -0.3612273548128791 0.23458821416747561 0 -0.36830935552651811 0.25143577335329698 0 -0.3814742957151267 0.23294076884828391 0 -0.37681523902969338 0.2467608340689659 0 -0.3612273548128791 0.23458821416747561 0 -0.3612273548128791 0.23458821416747561 0 -0.35908097818577422 0.2591013570081464 0 -0.36830935552651811 0.25143577335329698 0 -0.3612273548128791 0.23458821416747561 0 -0.35908097818577422 0.2591013570081464 0 -0.3612273548128791 0.23458821416747561 0 -0.37178884445503979 0.22341194030271799 0 -0.36337373143998608 0.21007507132680489 0 -0.3612273548128791 0.23458821416747561 0 -0.36337373143998608 0.21007507132680489 0 -0.3814742957151267 0.23294076884828391 0 -0.3612273548128791 0.23458821416747561 0 -0.37178884445503979 0.22341194030271799 0 -0.3612273548128791 0.23458821416747561 0 -0.35141444431575902 0.22306473820722361 0 -0.36337373143998608 0.21007507132680489 0 -0.3612273548128791 0.23458821416747561 0 -0.34764946497557359 0.23283323941427819 0 -0.35141444431575902 0.22306473820722361 0 -0.34764946497557359 0.23283323941427819 0 -0.35141444431575902 0.22306473820722361 0 -0.34102276926112213 0.22489529070786601 0 -0.35141444431575902 0.22306473820722361 0 -0.34607628053686801 0.21460203565195371 0 -0.34102276926112213 0.22489529070786601 0 -0.35141444431575902 0.22306473820722361 0 -0.34607628053686801 0.21460203565195371 0 -0.36337373143998608 0.21007507132680489 0 -0.34727991033162731 0.20530378236896829 0 -0.36337373143998608 0.21007507132680489 0 -0.35299810048411262 0.1955574155522416 0 -0.34607628053686801 0.21460203565195371 0 -0.34727991033162731 0.20530378236896829 0 -0.36337373143998608 0.21007507132680489 0 -0.38670174456980372 0.21966233083923811 0 -0.37178884445503979 0.22341194030271799 0 -0.36337373143998608 0.21007507132680489 0 -0.38506034502119069 0.20301610738122439 0 -0.36552010806709312 0.18556192848613429 0 -0.36337373143998608 0.21007507132680489 0 -0.36552010806709312 0.18556192848613429 0 -0.36337373143998608 0.21007507132680489 0 -0.36552010806709312 0.18556192848613429 0 -0.36337373143998608 0.21007507132680489 0 -0.35299810048411262 0.1955574155522416 0 -0.36552010806709312 0.18556192848613429 0 -0.35454900862539729 0.185239985658079 0 -0.35299810048411262 0.1955574155522416 0 -0.35454900862539729 0.185239985658079 0 -0.35299810048411262 0.1955574155522416 0 -0.34727826824847569 0.19013869868501859 0 -0.34727991033162731 0.20530378236896829 0 -0.35299810048411262 0.1955574155522416 0 -0.34153593217659961 0.1975479952421258 0 -0.35299810048411262 0.1955574155522416 0 -0.34727826824847569 0.19013869868501859 0 -0.34153593217659961 0.1975479952421258 0 -0.34098004688355987 0.18939787047978829 0 -0.34153593217659961 0.1975479952421258 0 -0.33297493868959022 0.19261741175028779 0 -0.34727826824847569 0.19013869868501859 0 -0.34098004688355987 0.18939787047978829 0 -0.34153593217659961 0.1975479952421258 0 -0.33393738788578781 0.18400998556694351 0 -0.34098004688355987 0.18939787047978829 0 -0.33297493868959022 0.19261741175028779 0 -0.34153593217659961 0.1975479952421258 0 -0.33135688024324478 0.20154783922908609 0 -0.33781900714914742 0.2078462307375302 0 -0.34153593217659961 0.1975479952421258 0 -0.33135688024324478 0.20154783922908609 0 -0.33297493868959022 0.19261741175028779 0 -0.33135688024324478 0.20154783922908609 0 -0.33297493868959022 0.19261741175028779 0 -0.32562076130593087 0.19579907721391751 0 -0.33393738788578781 0.18400998556694351 0 -0.32409164738369062 0.18664122878144609 0 -0.33297493868959022 0.19261741175028779 0 -0.32409164738369062 0.18664122878144609 0 -0.3158441129583357 0.19609071224125529 0 -0.32562076130593087 0.19579907721391751 0 -0.32409164738369062 0.18664122878144609 0 -0.33297493868959022 0.19261741175028779 0 -0.32562076130593087 0.19579907721391751 0 -0.32409164738369062 0.18664122878144609 0 -0.3158441129583357 0.19609071224125529 0 -0.30995217817374399 0.1833459098967346 0 -0.33135688024324478 0.20154783922908609 0 -0.32562076130593087 0.19579907721391751 0 -0.32284366557461458 0.2030691807055732 0 -0.3158441129583357 0.19609071224125529 0 -0.32562076130593087 0.19579907721391751 0 -0.32284366557461458 0.2030691807055732 0 -0.33135688024324478 0.20154783922908609 0 -0.32284366557461458 0.2030691807055732 0 -0.32974235247203471 0.20971933264668041 0 -0.32284366557461458 0.2030691807055732 0 -0.32309307152136058 0.2117085688005903 0 -0.32974235247203471 0.20971933264668041 0 -0.32284366557461458 0.2030691807055732 0 -0.32309307152136058 0.2117085688005903 0 -0.31146680227267282 0.21051333787707549 0 -0.3158441129583357 0.19609071224125529 0 -0.32284366557461458 0.2030691807055732 0 -0.31146680227267282 0.21051333787707549 0 -0.31969273554359678 0.21814188674397739 0 -0.32309307152136058 0.2117085688005903 0 -0.31146680227267282 0.21051333787707549 0 -0.31969273554359678 0.21814188674397739 0 -0.31399116159765178 0.2242394991592663 0 -0.31146680227267282 0.21051333787707549 0 -0.31969273554359678 0.21814188674397739 0 -0.32309307152136058 0.2117085688005903 0 -0.32779366962027479 0.21771707584397321 0 -0.32309307152136058 0.2117085688005903 0 -0.32779366962027479 0.21771707584397321 0 -0.32974235247203471 0.20971933264668041 0 -0.32779366962027479 0.21771707584397321 0 -0.33554782072356631 0.2164271005633292 0 -0.32974235247203471 0.20971933264668041 0 -0.33554782072356631 0.2164271005633292 0 -0.32974235247203471 0.20971933264668041 0 -0.33781900714914742 0.2078462307375302 0 -0.33135688024324478 0.20154783922908609 0 -0.32974235247203471 0.20971933264668041 0 -0.33781900714914742 0.2078462307375302 0 -0.34607628053686801 0.21460203565195371 0 -0.34727991033162731 0.20530378236896829 0 -0.33781900714914742 0.2078462307375302 0 -0.34727991033162731 0.20530378236896829 0 -0.34153593217659961 0.1975479952421258 0 -0.33781900714914742 0.2078462307375302 0 -0.34607628053686801 0.21460203565195371 0 -0.33554782072356631 0.2164271005633292 0 -0.34102276926112213 0.22489529070786601 0 -0.34607628053686801 0.21460203565195371 0 -0.33554782072356631 0.2164271005633292 0 -0.33781900714914742 0.2078462307375302 0 -0.33554782072356631 0.2164271005633292 0 -0.34102276926112213 0.22489529070786601 0 -0.33260315228546189 0.22356054498719019 0 -0.34102276926112213 0.22489529070786601 0 -0.33549124767505062 0.23033144909356271 0 -0.33260315228546189 0.22356054498719019 0 -0.34764946497557359 0.23283323941427819 0 -0.34102276926112213 0.22489529070786601 0 -0.34065898509287063 0.2335008221618228 0 -0.34102276926112213 0.22489529070786601 0 -0.34065898509287063 0.2335008221618228 0 -0.33549124767505062 0.23033144909356271 0 -0.34065898509287063 0.2335008221618228 0 -0.33549124767505062 0.23033144909356271 0 -0.33652024277756748 0.23657383169933541 0 -0.33549124767505062 0.23033144909356271 0 -0.32884294156018778 0.2300653484284946 0 -0.33260315228546189 0.22356054498719019 0 -0.33549124767505062 0.23033144909356271 0 -0.33257807015149399 0.23409763316890411 0 -0.33652024277756748 0.23657383169933541 0 -0.33549124767505062 0.23033144909356271 0 -0.33257807015149399 0.23409763316890411 0 -0.32884294156018778 0.2300653484284946 0 -0.33257807015149399 0.23409763316890411 0 -0.32884294156018778 0.2300653484284946 0 -0.32569176798966343 0.23644239556402641 0 -0.32884294156018778 0.2300653484284946 0 -0.33260315228546189 0.22356054498719019 0 -0.32427538827444891 0.2241086856597799 0 -0.32779366962027479 0.21771707584397321 0 -0.33260315228546189 0.22356054498719019 0 -0.32427538827444891 0.2241086856597799 0 -0.32779366962027479 0.21771707584397321 0 -0.33554782072356631 0.2164271005633292 0 -0.33260315228546189 0.22356054498719019 0 -0.31969273554359678 0.21814188674397739 0 -0.32779366962027479 0.21771707584397321 0 -0.32427538827444891 0.2241086856597799 0 -0.31969273554359678 0.21814188674397739 0 -0.32427538827444891 0.2241086856597799 0 -0.31399116159765178 0.2242394991592663 0 -0.32427538827444891 0.2241086856597799 0 -0.31399116159765178 0.2242394991592663 0 -0.32179559908096572 0.23008328318664331 0 -0.31399116159765178 0.2242394991592663 0 -0.32179559908096572 0.23008328318664331 0 -0.31617673598287649 0.23556048712164909 0 -0.32179559908096572 0.23008328318664331 0 -0.32569176798966343 0.23644239556402641 0 -0.31617673598287649 0.23556048712164909 0 -0.32884294156018778 0.2300653484284946 0 -0.32427538827444891 0.2241086856597799 0 -0.32179559908096572 0.23008328318664331 0 -0.32884294156018778 0.2300653484284946 0 -0.32179559908096572 0.23008328318664331 0 -0.32569176798966343 0.23644239556402641 0 -0.32569176798966343 0.23644239556402641 0 -0.31993371780797092 0.24194747632618219 0 -0.31617673598287649 0.23556048712164909 0 -0.32569176798966343 0.23644239556402641 0 -0.31993371780797092 0.24194747632618219 0 -0.32714903080060409 0.2445555323191671 0 -0.31993371780797092 0.24194747632618219 0 -0.31617673598287649 0.23556048712164909 0 -0.30806477178239122 0.2443534105402905 0 -0.31993371780797092 0.24194747632618219 0 -0.30806477178239122 0.2443534105402905 0 -0.32082041548708717 0.25046015867422061 0 -0.31993371780797092 0.24194747632618219 0 -0.32714903080060409 0.2445555323191671 0 -0.32082041548708717 0.25046015867422061 0 -0.32714903080060409 0.2445555323191671 0 -0.33794474823729193 0.2462943468213025 0 -0.32082041548708717 0.25046015867422061 0 -0.32714903080060409 0.2445555323191671 0 -0.33418067921754202 0.24401359616721591 0 -0.33794474823729193 0.2462943468213025 0 -0.32714903080060409 0.2445555323191671 0 -0.33418067921754202 0.24401359616721591 0 -0.33189285830438731 0.23933692380093519 0 -0.32569176798966343 0.23644239556402641 0 -0.32714903080060409 0.2445555323191671 0 -0.33189285830438731 0.23933692380093519 0 -0.33257807015149399 0.23409763316890411 0 -0.32569176798966343 0.23644239556402641 0 -0.33189285830438731 0.23933692380093519 0 -0.33257807015149399 0.23409763316890411 0 -0.33189285830438731 0.23933692380093519 0 -0.33652024277756748 0.23657383169933541 0 -0.33189285830438731 0.23933692380093519 0 -0.33699881885759331 0.2412777967071307 0 -0.33652024277756748 0.23657383169933541 0 -0.33418067921754202 0.24401359616721591 0 -0.33189285830438731 0.23933692380093519 0 -0.33699881885759331 0.2412777967071307 0 -0.33699881885759331 0.2412777967071307 0 -0.34221103321679153 0.2385079899849393 0 -0.34018829172972048 0.2435699076369495 0 -0.33699881885759331 0.2412777967071307 0 -0.33652024277756748 0.23657383169933541 0 -0.34221103321679153 0.2385079899849393 0 -0.34805031185967189 0.24248250917218181 0 -0.34221103321679153 0.2385079899849393 0 -0.34018829172972048 0.2435699076369495 0 -0.34065898509287063 0.2335008221618228 0 -0.33652024277756748 0.23657383169933541 0 -0.34221103321679153 0.2385079899849393 0 -0.34764946497557359 0.23283323941427819 0 -0.34065898509287063 0.2335008221618228 0 -0.34221103321679153 0.2385079899849393 0 -0.34805031185967189 0.24248250917218181 0 -0.34018829172972048 0.2435699076369495 0 -0.33794474823729193 0.2462943468213025 0 -0.33418067921754202 0.24401359616721591 0 -0.33699881885759331 0.2412777967071307 0 -0.33794474823729193 0.2462943468213025 0 -0.33699881885759331 0.2412777967071307 0 -0.34018829172972048 0.2435699076369495 0 -0.33794474823729193 0.2462943468213025 0 -0.33418067921754202 0.24401359616721591 0 -0.33794474823729193 0.2462943468213025 0 -0.34018829172972048 0.2435699076369495 0 -0.33794474823729193 0.2462943468213025 0 -0.29240119724970248 0.2340162237067446 0 -0.29273814627298023 0.25310047739325697 0 -0.29240119724970248 0.2340162237067446 0 -0.2780346769370437 0.2336175214183823 0 -0.27739300119014232 0.2498976087937482 0 -0.29240119724970248 0.2340162237067446 0 -0.27739300119014232 0.2498976087937482 0 -0.29240119724970248 0.2340162237067446 0 -0.27739300119014232 0.2498976087937482 0 -0.29273814627298023 0.25310047739325697 0 -0.30806477178239122 0.2443534105402905 0 -0.30673882452670043 0.2321813265546544 0 -0.29240119724970248 0.2340162237067446 0 -0.30806477178239122 0.2443534105402905 0 -0.29240119724970248 0.2340162237067446 0 -0.29273814627298023 0.25310047739325697 0 -0.31617673598287649 0.23556048712164909 0 -0.30806477178239122 0.2443534105402905 0 -0.30673882452670043 0.2321813265546544 0 -0.30306025602087988 0.2227370122453215 0 -0.29240119724970248 0.2340162237067446 0 -0.30673882452670043 0.2321813265546544 0 -0.30306025602087988 0.2227370122453215 0 -0.29240119724970248 0.2340162237067446 0 -0.31399116159765178 0.2242394991592663 0 -0.31617673598287649 0.23556048712164909 0 -0.30673882452670043 0.2321813265546544 0 -0.31399116159765178 0.2242394991592663 0 -0.30306025602087988 0.2227370122453215 0 -0.31146680227267282 0.21051333787707549 0 -0.31399116159765178 0.2242394991592663 0 -0.30673882452670043 0.2321813265546544 0 -0.30306025602087988 0.2227370122453215 0 -0.30306025602087988 0.2227370122453215 0 -0.29240119724970248 0.2340162237067446 0 -0.29196610192620198 0.20937312057234081 0 -0.29240119724970248 0.2340162237067446 0 -0.29196610192620198 0.20937312057234081 0 -0.27972206359127388 0.21956341316192629 0 -0.29240119724970248 0.2340162237067446 0 -0.29196610192620198 0.20937312057234081 0 -0.29240119724970248 0.2340162237067446 0 -0.27972206359127388 0.21956341316192629 0 -0.2780346769370437 0.2336175214183823 0 -0.29196610192620198 0.20937312057234081 0 -0.27749404969024849 0.2026482187120813 0 -0.27972206359127388 0.21956341316192629 0 -0.30306025602087988 0.2227370122453215 0 -0.29196610192620198 0.20937312057234081 0 -0.31146680227267282 0.21051333787707549 0 -0.29196610192620198 0.20937312057234081 0 -0.31146680227267282 0.21051333787707549 0 -0.30415204038673038 0.19681061960506871 0 -0.30415204038673038 0.19681061960506871 0 -0.30995217817374399 0.1833459098967346 0 -0.29153100660269771 0.1847300174379371 0 -0.3158441129583357 0.19609071224125529 0 -0.31146680227267282 0.21051333787707549 0 -0.30415204038673038 0.19681061960506871 0 -0.3158441129583357 0.19609071224125529 0 -0.30415204038673038 0.19681061960506871 0 -0.30995217817374399 0.1833459098967346 0 -0.29196610192620198 0.20937312057234081 0 -0.29153100660269771 0.1847300174379371 0 -0.29196610192620198 0.20937312057234081 0 -0.30415204038673038 0.19681061960506871 0 -0.29153100660269771 0.1847300174379371 0 -0.29196610192620198 0.20937312057234081 0 -0.27749404969024849 0.2026482187120813 0 -0.29153100660269771 0.1847300174379371 0 -0.27749404969024849 0.2026482187120813 0 -0.27416887309146498 0.18877632338230771 0 -0.29153100660269771 0.1847300174379371 0 -0.27749404969024849 0.2026482187120813 0 -0.27416887309146498 0.18877632338230771 0 -0.26090277770307602 0.200712592166394 0 -0.27749404969024849 0.2026482187120813 0 -0.26090277770307602 0.200712592166394 0 -0.27416887309146498 0.18877632338230771 0 -0.26090277770307602 0.200712592166394 0 -0.26250790677840119 0.18018522526811359 0 -0.26090277770307602 0.200712592166394 0 -0.24431150571590329 0.1987769656207086 0 -0.25379456404049172 0.18919542510943149 0 -0.26090277770307602 0.200712592166394 0 -0.24431150571590329 0.1987769656207086 0 -0.25379456404049172 0.18919542510943149 0 -0.26090277770307602 0.200712592166394 0 -0.26250790677840119 0.18018522526811359 0 -0.26090277770307602 0.200712592166394 0 -0.25665430688663771 0.21589195771650829 0 -0.26850715206498998 0.21269075461861989 0 -0.26090277770307602 0.200712592166394 0 -0.25665430688663771 0.21589195771650829 0 -0.24431150571590329 0.1987769656207086 0 -0.25665430688663771 0.21589195771650829 0 -0.26850715206498998 0.21269075461861989 0 -0.26881658971272943 0.22577333514778911 0 -0.27749404969024849 0.2026482187120813 0 -0.26090277770307602 0.200712592166394 0 -0.26850715206498998 0.21269075461861989 0 -0.27749404969024849 0.2026482187120813 0 -0.26850715206498998 0.21269075461861989 0 -0.27972206359127388 0.21956341316192629 0 -0.27972206359127388 0.21956341316192629 0 -0.2780346769370437 0.2336175214183823 0 -0.26881658971272943 0.22577333514778911 0 -0.2780346769370437 0.2336175214183823 0 -0.26881658971272943 0.22577333514778911 0 -0.26856127774889971 0.2391786728789041 0 -0.26850715206498998 0.21269075461861989 0 -0.27972206359127388 0.21956341316192629 0 -0.26881658971272943 0.22577333514778911 0 -0.25665430688663771 0.21589195771650829 0 -0.26881658971272943 0.22577333514778911 0 -0.2561550017687102 0.23160506951541199 0 -0.25665430688663771 0.21589195771650829 0 -0.2561550017687102 0.23160506951541199 0 -0.24021544137663131 0.22700409590258699 0 -0.26881658971272943 0.22577333514778911 0 -0.2561550017687102 0.23160506951541199 0 -0.26856127774889971 0.2391786728789041 0 -0.2561550017687102 0.23160506951541199 0 -0.25727145084114272 0.24379712609696269 0 -0.26856127774889971 0.2391786728789041 0 -0.2561550017687102 0.23160506951541199 0 -0.25727145084114272 0.24379712609696269 0 -0.2474478051010339 0.2420611433304935 0 -0.25727145084114272 0.24379712609696269 0 -0.24747775448132589 0.25266819895304049 0 -0.2474478051010339 0.2420611433304935 0 -0.25727145084114272 0.24379712609696269 0 -0.26856127774889971 0.2391786728789041 0 -0.26434182981645687 0.25094058488530963 0 -0.2780346769370437 0.2336175214183823 0 -0.26856127774889971 0.2391786728789041 0 -0.27739300119014232 0.2498976087937482 0 -0.26856127774889971 0.2391786728789041 0 -0.27739300119014232 0.2498976087937482 0 -0.26434182981645687 0.25094058488530963 0 -0.2908231157046009 0.14463620932889709 0 -0.30828738101485009 0.1566914206585292 0 -0.29109591127919399 0.16008691430353339 0 -0.2908231157046009 0.14463620932889709 0 -0.29109591127919399 0.16008691430353339 0 -0.2908231157046009 0.14463620932889709 0 -0.29109591127919399 0.16008691430353339 0 -0.2779468474066632 0.15148251576725141 0 -0.2908231157046009 0.14463620932889709 0 -0.27939502406493882 0.13674764045049589 0 -0.2908231157046009 0.14463620932889709 0 -0.2779468474066632 0.15148251576725141 0 -0.27939502406493882 0.13674764045049589 0 -0.2908231157046009 0.14463620932889709 0 -0.29044183311698268 0.1230409734749877 0 -0.2908231157046009 0.14463620932889709 0 -0.27939502406493882 0.13674764045049589 0 -0.29044183311698268 0.1230409734749877 0 -0.27939502406493882 0.13674764045049589 0 -0.27576356919880768 0.1225160009322438 0 -0.29044183311698268 0.1230409734749877 0 -0.31265804899462329 0.1335309411573897 0 -0.2908231157046009 0.14463620932889709 0 -0.29044183311698268 0.1230409734749877 0 -0.2908231157046009 0.14463620932889709 0 -0.30828738101485009 0.1566914206585292 0 -0.31265804899462329 0.1335309411573897 0 -0.2908231157046009 0.14463620932889709 0 -0.30828738101485009 0.1566914206585292 0 -0.30828738101485009 0.1566914206585292 0 -0.29109591127919399 0.16008691430353339 0 -0.30828738101485009 0.1566914206585292 0 -0.30445932994677272 0.1704116507041907 0 -0.29109591127919399 0.16008691430353339 0 -0.30445932994677272 0.1704116507041907 0 -0.30995217817374399 0.1833459098967346 0 -0.29153100660269771 0.1847300174379371 0 -0.29153100660269771 0.1847300174379371 0 -0.29109591127919399 0.16008691430353339 0 -0.27840862468290162 0.17560556332701219 0 -0.27416887309146498 0.18877632338230771 0 -0.29153100660269771 0.1847300174379371 0 -0.27840862468290162 0.17560556332701219 0 -0.29153100660269771 0.1847300174379371 0 -0.29109591127919399 0.16008691430353339 0 -0.30445932994677272 0.1704116507041907 0 -0.29153100660269771 0.1847300174379371 0 -0.29109591127919399 0.16008691430353339 0 -0.29109591127919399 0.16008691430353339 0 -0.26893969921605648 0.16446299607051951 0 -0.2779468474066632 0.15148251576725141 0 -0.29109591127919399 0.16008691430353339 0 -0.26893969921605648 0.16446299607051951 0 -0.27840862468290162 0.17560556332701219 0 -0.29109591127919399 0.16008691430353339 0 -0.26893969921605648 0.16446299607051951 0 -0.26893969921605648 0.16446299607051951 0 -0.27840862468290162 0.17560556332701219 0 -0.26250790677840119 0.18018522526811359 0 -0.27416887309146498 0.18877632338230771 0 -0.27840862468290162 0.17560556332701219 0 -0.26250790677840119 0.18018522526811359 0 -0.26250790677840119 0.18018522526811359 0 -0.2467834871529184 0.16883907783750191 0 -0.24745606596458641 0.17710691738250969 0 -0.25379456404049172 0.18919542510943149 0 -0.26250790677840119 0.18018522526811359 0 -0.24745606596458641 0.17710691738250969 0 -0.26893969921605648 0.16446299607051951 0 -0.25702012596221718 0.15826425787540541 0 -0.2467834871529184 0.16883907783750191 0 -0.26893969921605648 0.16446299607051951 0 -0.26250790677840119 0.18018522526811359 0 -0.2467834871529184 0.16883907783750191 0 -0.26893969921605648 0.16446299607051951 0 -0.2467834871529184 0.16883907783750191 0 -0.25702012596221718 0.15826425787540541 0 -0.24827633448406999 0.15132421157691051 0 -0.2467834871529184 0.16883907783750191 0 -0.26893969921605648 0.16446299607051951 0 -0.25702012596221718 0.15826425787540541 0 -0.26449536115126959 0.14886007275210431 0 -0.2597301887922594 0.1353712897314211 0 -0.24603781378442921 0.1363995227782519 0 -0.24827633448406999 0.15132421157691051 0 -0.25702012596221718 0.15826425787540541 0 -0.26449536115126959 0.14886007275210431 0 -0.24827633448406999 0.15132421157691051 0 -0.26449536115126959 0.14886007275210431 0 -0.2597301887922594 0.1353712897314211 0 -0.24827633448406999 0.15132421157691051 0 -0.26893969921605648 0.16446299607051951 0 -0.26449536115126959 0.14886007275210431 0 -0.2779468474066632 0.15148251576725141 0 -0.26449536115126959 0.14886007275210431 0 -0.2779468474066632 0.15148251576725141 0 -0.27939502406493882 0.13674764045049589 0 -0.26449536115126959 0.14886007275210431 0 -0.27939502406493882 0.13674764045049589 0 -0.2597301887922594 0.1353712897314211 0 -0.27939502406493882 0.13674764045049589 0 -0.2597301887922594 0.1353712897314211 0 -0.27576356919880768 0.1225160009322438 0 -0.2597301887922594 0.1353712897314211 0 -0.2500144574684745 0.12364619665035551 0 -0.24603781378442921 0.1363995227782519 0 -0.2597301887922594 0.1353712897314211 0 -0.2500144574684745 0.12364619665035551 0 -0.26339902018305139 0.1145885199036198 0 -0.2500144574684745 0.12364619665035551 0 -0.26339902018305139 0.1145885199036198 0 -0.2455730396100507 0.1086139258876115 0 -0.2597301887922594 0.1353712897314211 0 -0.26339902018305139 0.1145885199036198 0 -0.26706785157384311 0.093805750075818567 0 -0.2414497811422408 0.085208171387366111 0 -0.2455730396100507 0.1086139258876115 0 -0.26339902018305139 0.1145885199036198 0 -0.26706785157384311 0.093805750075818567 0 -0.2455730396100507 0.1086139258876115 0 -0.26339902018305139 0.1145885199036198 0 -0.26706785157384311 0.093805750075818567 0 -0.26339902018305139 0.1145885199036198 0 -0.26706785157384311 0.093805750075818567 0 -0.2773465649204101 0.11107939640154969 0 -0.26706785157384311 0.093805750075818567 0 -0.2773465649204101 0.11107939640154969 0 -0.29006055052936841 0.1014457376210782 0 -0.26706785157384311 0.093805750075818567 0 -0.29006055052936841 0.1014457376210782 0 -0.2597301887922594 0.1353712897314211 0 -0.26339902018305139 0.1145885199036198 0 -0.27576356919880768 0.1225160009322438 0 -0.26339902018305139 0.1145885199036198 0 -0.2773465649204101 0.11107939640154969 0 -0.27576356919880768 0.1225160009322438 0 -0.2773465649204101 0.11107939640154969 0 -0.27576356919880768 0.1225160009322438 0 -0.29044183311698268 0.1230409734749877 0 -0.2773465649204101 0.11107939640154969 0 -0.29044183311698268 0.1230409734749877 0 -0.29006055052936841 0.1014457376210782 0 -0.29044183311698268 0.1230409734749877 0 -0.29006055052936841 0.1014457376210782 0 -0.30424606503231522 0.091110553564450844 0 -0.31262733714930852 0.10894420350565601 0 -0.31862562682325118 0.093992716884604019 0 -0.29006055052936841 0.1014457376210782 0 -0.30424606503231522 0.091110553564450844 0 -0.31262733714930852 0.10894420350565601 0 -0.29006055052936841 0.1014457376210782 0 -0.31262733714930852 0.10894420350565601 0 -0.29044183311698268 0.1230409734749877 0 -0.29006055052936841 0.1014457376210782 0 -0.31262733714930852 0.10894420350565601 0 -0.31265804899462329 0.1335309411573897 0 -0.29044183311698268 0.1230409734749877 0 -0.31262733714930852 0.10894420350565601 0 -0.3120214944027036 0.078117048994577443 0 -0.28952648700128519 0.071212916832001746 0 -0.3120214944027036 0.078117048994577443 0 -0.28952648700128519 0.071212916832001746 0 -0.30773782166686692 0.060427841934973789 0 -0.28952648700128519 0.071212916832001746 0 -0.30773782166686692 0.060427841934973789 0 -0.3120214944027036 0.078117048994577443 0 -0.30424606503231522 0.091110553564450844 0 -0.31862562682325118 0.093992716884604019 0 -0.3120214944027036 0.078117048994577443 0 -0.30424606503231522 0.091110553564450844 0 -0.28952648700128519 0.071212916832001746 0 -0.29006055052936841 0.1014457376210782 0 -0.28952648700128519 0.071212916832001746 0 -0.27927712631947071 0.07728237853553302 0 -0.29006055052936841 0.1014457376210782 0 -0.28952648700128519 0.071212916832001746 0 -0.29006055052936841 0.1014457376210782 0 -0.30424606503231522 0.091110553564450844 0 -0.28952648700128519 0.071212916832001746 0 -0.28952648700128519 0.071212916832001746 0 -0.27927712631947071 0.07728237853553302 0 -0.28952648700128519 0.071212916832001746 0 -0.28937319319092208 0.062514917485086363 0 -0.30773782166686692 0.060427841934973789 0 -0.28952648700128519 0.071212916832001746 0 -0.27882152888025158 0.067927731621984386 0 -0.27927712631947071 0.07728237853553302 0 -0.28952648700128519 0.071212916832001746 0 -0.28937319319092208 0.062514917485086363 0 -0.28952648700128519 0.071212916832001746 0 -0.27882152888025158 0.067927731621984386 0 -0.28937319319092208 0.062514917485086363 0 -0.27882152888025158 0.067927731621984386 0 -0.27987580464235512 0.058307586470057647 0 -0.28952648700128519 0.071212916832001746 0 -0.28937319319092208 0.062514917485086363 0 -0.27882152888025158 0.067927731621984386 0 -0.28937319319092208 0.062514917485086363 0 -0.27882152888025158 0.067927731621984386 0 -0.27882152888025158 0.067927731621984386 0 -0.27092067420187799 0.07198072806288755 0 -0.27200544833213092 0.065835825595902231 0 -0.27882152888025158 0.067927731621984386 0 -0.27200544833213092 0.065835825595902231 0 -0.27987580464235512 0.058307586470057647 0 -0.27882152888025158 0.067927731621984386 0 -0.27092067420187799 0.07198072806288755 0 -0.27882152888025158 0.067927731621984386 0 -0.27200544833213092 0.065835825595902231 0 -0.27882152888025158 0.067927731621984386 0 -0.27927712631947071 0.07728237853553302 0 -0.27092067420187799 0.07198072806288755 0 -0.27092067420187799 0.07198072806288755 0 -0.26840011722172408 0.073273728489490278 0 -0.27200544833213092 0.065835825595902231 0 -0.27092067420187799 0.07198072806288755 0 -0.26840011722172408 0.073273728489490278 0 -0.26840011722172408 0.073273728489490278 0 -0.27200544833213092 0.065835825595902231 0 -0.26137302110268912 0.070629898140295994 0 -0.27092067420187799 0.07198072806288755 0 -0.27200544833213092 0.065835825595902231 0 -0.26706785157384311 0.093805750075818567 0 -0.27927712631947071 0.07728237853553302 0 -0.27092067420187799 0.07198072806288755 0 -0.26706785157384311 0.093805750075818567 0 -0.29006055052936841 0.1014457376210782 0 -0.27927712631947071 0.07728237853553302 0 -0.26706785157384311 0.093805750075818567 0 -0.27092067420187799 0.07198072806288755 0 -0.26840011722172408 0.073273728489490278 0 -0.26706785157384311 0.093805750075818567 0 -0.27092067420187799 0.07198072806288755 0 -0.26014884675160588 0.081156863371451782 0 -0.25276639289259578 0.074270958708192392 0 -0.2414497811422408 0.085208171387366111 0 -0.26706785157384311 0.093805750075818567 0 -0.2414497811422408 0.085208171387366111 0 -0.26706785157384311 0.093805750075818567 0 -0.26014884675160588 0.081156863371451782 0 -0.2414497811422408 0.085208171387366111 0 -0.26706785157384311 0.093805750075818567 0 -0.26840011722172408 0.073273728489490278 0 -0.26014884675160588 0.081156863371451782 0 -0.27200544833213092 0.065835825595902231 0 -0.25626457959536209 0.061004835420003511 0 -0.27200544833213092 0.065835825595902231 0 -0.26137302110268912 0.070629898140295994 0 -0.25626457959536209 0.061004835420003511 0 -0.26014884675160588 0.081156863371451782 0 -0.26137302110268912 0.070629898140295994 0 -0.25276639289259578 0.074270958708192392 0 -0.26840011722172408 0.073273728489490278 0 -0.26014884675160588 0.081156863371451782 0 -0.26137302110268912 0.070629898140295994 0 -0.26137302110268912 0.070629898140295994 0 -0.25276639289259578 0.074270958708192392 0 -0.25626457959536209 0.061004835420003511 0 -0.25276639289259578 0.074270958708192392 0 -0.25626457959536209 0.061004835420003511 0 -0.24227965263950299 0.067380038872434392 0 -0.25626457959536209 0.061004835420003511 0 -0.2542126422301646 0.050625017747445523 0 -0.2433042830864994 0.055027202448312627 0 -0.27200544833213092 0.065835825595902231 0 -0.25626457959536209 0.061004835420003511 0 -0.2651417014209449 0.054722139262564452 0 -0.25626457959536209 0.061004835420003511 0 -0.2651417014209449 0.054722139262564452 0 -0.2542126422301646 0.050625017747445523 0 -0.2651417014209449 0.054722139262564452 0 -0.2542126422301646 0.050625017747445523 0 -0.26162582723184902 0.04307546478074338 0 -0.2542126422301646 0.050625017747445523 0 -0.26162582723184902 0.04307546478074338 0 -0.247206080807887 0.04269664093361468 0 -0.25178836883168471 0.034885037221451053 0 -0.26162582723184902 0.04307546478074338 0 -0.247206080807887 0.04269664093361468 0 -0.26162582723184902 0.04307546478074338 0 -0.27273940582057532 0.038010300948733478 0 -0.2620428070555047 0.028656771280111019 0 -0.25178836883168471 0.034885037221451053 0 -0.26162582723184902 0.04307546478074338 0 -0.2620428070555047 0.028656771280111019 0 -0.27273940582057532 0.038010300948733478 0 -0.2620428070555047 0.028656771280111019 0 -0.28442180529788041 0.031306164250049527 0 -0.26162582723184902 0.04307546478074338 0 -0.27273940582057532 0.038010300948733478 0 -0.27512676071156728 0.048154577854375623 0 -0.27273940582057532 0.038010300948733478 0 -0.2810616711643612 0.040831575722560333 0 -0.28442180529788041 0.031306164250049527 0 -0.2810616711643612 0.040831575722560333 0 -0.27512676071156728 0.048154577854375623 0 -0.28288114432081579 0.049878122659754047 0 -0.27273940582057532 0.038010300948733478 0 -0.2810616711643612 0.040831575722560333 0 -0.27512676071156728 0.048154577854375623 0 -0.27512676071156728 0.048154577854375623 0 -0.27987580464235512 0.058307586470057647 0 -0.28288114432081579 0.049878122659754047 0 -0.27200544833213092 0.065835825595902231 0 -0.27512676071156728 0.048154577854375623 0 -0.27987580464235512 0.058307586470057647 0 -0.27200544833213092 0.065835825595902231 0 -0.2651417014209449 0.054722139262564452 0 -0.27512676071156728 0.048154577854375623 0 -0.27200544833213092 0.065835825595902231 0 -0.27512676071156728 0.048154577854375623 0 -0.2651417014209449 0.054722139262564452 0 -0.26162582723184902 0.04307546478074338 0 -0.27512676071156728 0.048154577854375623 0 -0.2520988178639067 -0.0074431167796321571 0 -0.25929054607124369 0.0082633914887152455 0 -0.24728209233149009 0.010337292275029671 0 -0.25929054607124369 0.0082633914887152455 0 -0.26347254424441802 0.019124388374475651 0 -0.24728209233149009 0.010337292275029671 0 -0.2520988178639067 -0.0074431167796321571 0 -0.25929054607124369 0.0082633914887152455 0 -0.26860117861025579 0.00098416649955779712 0 -0.25929054607124369 0.0082633914887152455 0 -0.26347254424441802 0.019124388374475651 0 -0.27376429530001761 0.01271562200855513 0 -0.25178836883168471 0.034885037221451053 0 -0.2620428070555047 0.028656771280111019 0 -0.23627876023149799 0.025111271891335121 0 -0.26347254424441802 0.019124388374475651 0 -0.2620428070555047 0.028656771280111019 0 -0.23627876023149799 0.025111271891335121 0 -0.2620428070555047 0.028656771280111019 0 -0.28442180529788041 0.031306164250049527 0 -0.2620428070555047 0.028656771280111019 0 -0.2736677305144406 0.022308497840373441 0 -0.28442180529788041 0.031306164250049527 0 -0.2736677305144406 0.022308497840373441 0 -0.28347942794475872 0.019370810756825289 0 -0.28442180529788041 0.031306164250049527 0 -0.2736677305144406 0.022308497840373441 0 -0.27376429530001761 0.01271562200855513 0 -0.28347942794475872 0.019370810756825289 0 -0.26347254424441802 0.019124388374475651 0 -0.2620428070555047 0.028656771280111019 0 -0.2736677305144406 0.022308497840373441 0 -0.26347254424441802 0.019124388374475651 0 -0.2736677305144406 0.022308497840373441 0 -0.27376429530001761 0.01271562200855513 0 -0.27871756099426093 -0.0061602514197482616 0 -0.26860117861025579 0.00098416649955779712 0 -0.28533747578866669 0.0057230835820348174 0 -0.27376429530001761 0.01271562200855513 0 -0.26860117861025579 0.00098416649955779712 0 -0.28533747578866669 0.0057230835820348174 0 -0.27376429530001761 0.01271562200855513 0 -0.28533747578866669 0.0057230835820348174 0 -0.28347942794475872 0.019370810756825289 0 -0.25929054607124369 0.0082633914887152455 0 -0.27376429530001761 0.01271562200855513 0 -0.26860117861025579 0.00098416649955779712 0 -0.28533747578866669 0.0057230835820348174 0 -0.2960607194878786 0.019196348206757741 0 -0.30297757949018539 0.007638752858504072 0 -0.29458949306733412 -0.01100266496878353 0 -0.28533747578866669 0.0057230835820348174 0 -0.30297757949018539 0.007638752858504072 0 -0.28533747578866669 0.0057230835820348174 0 -0.2960607194878786 0.019196348206757741 0 -0.28347942794475872 0.019370810756825289 0 -0.2960607194878786 0.019196348206757741 0 -0.28442180529788041 0.031306164250049527 0 -0.30680080354025607 0.033955557219988053 0 -0.2960607194878786 0.019196348206757741 0 -0.28347942794475872 0.019370810756825289 0 -0.28442180529788041 0.031306164250049527 0 -0.2960607194878786 0.019196348206757741 0 -0.30879567230422672 0.021503298297083442 0 -0.30680080354025607 0.033955557219988053 0 -0.30879567230422672 0.021503298297083442 0 -0.30680080354025607 0.033955557219988053 0 -0.31790921299618508 0.027956428645086261 0 -0.2960607194878786 0.019196348206757741 0 -0.30879567230422672 0.021503298297083442 0 -0.30297757949018539 0.007638752858504072 0 -0.31240634161385089 -0.0057222447989648366 0 -0.30297757949018539 0.007638752858504072 0 -0.32079307169824178 0.015441352695479889 0 -0.30879567230422672 0.021503298297083442 0 -0.30297757949018539 0.007638752858504072 0 -0.32079307169824178 0.015441352695479889 0 -0.28937319319092208 0.062514917485086363 0 -0.29579180608457167 0.049562564404477413 0 -0.28896829189487699 0.039581955766697173 0 -0.28937319319092208 0.062514917485086363 0 -0.28288114432081579 0.049878122659754047 0 -0.28896829189487699 0.039581955766697173 0 -0.28937319319092208 0.062514917485086363 0 -0.28896829189487699 0.039581955766697173 0 -0.28937319319092208 0.062514917485086363 0 -0.27987580464235512 0.058307586470057647 0 -0.28288114432081579 0.049878122659754047 0 -0.28896829189487699 0.039581955766697173 0 -0.28442180529788041 0.031306164250049527 0 -0.30680080354025607 0.033955557219988053 0 -0.28442180529788041 0.031306164250049527 0 -0.30680080354025607 0.033955557219988053 0 -0.2810616711643612 0.040831575722560333 0 -0.28288114432081579 0.049878122659754047 0 -0.28896829189487699 0.039581955766697173 0 -0.2810616711643612 0.040831575722560333 0 -0.28896829189487699 0.039581955766697173 0 -0.28442180529788041 0.031306164250049527 0 -0.29579180608457167 0.049562564404477413 0 -0.28896829189487699 0.039581955766697173 0 -0.30089134544467883 0.043598645749890488 0 -0.28896829189487699 0.039581955766697173 0 -0.30089134544467883 0.043598645749890488 0 -0.30680080354025607 0.033955557219988053 0 -0.30089134544467883 0.043598645749890488 0 -0.30680080354025607 0.033955557219988053 0 -0.31071128291635958 0.043931315293977903 0 -0.30680080354025607 0.033955557219988053 0 -0.31071128291635958 0.043931315293977903 0 -0.31993457532337949 0.043767270032501603 0 -0.30568424482829498 0.054147641168173118 0 -0.30773782166686692 0.060427841934973789 0 -0.32199529646567138 0.045780364851266887 0 -0.30089134544467883 0.043598645749890488 0 -0.31071128291635958 0.043931315293977903 0 -0.30568424482829498 0.054147641168173118 0 -0.28937319319092208 0.062514917485086363 0 -0.30568424482829498 0.054147641168173118 0 -0.28937319319092208 0.062514917485086363 0 -0.29579180608457167 0.049562564404477413 0 -0.30568424482829498 0.054147641168173118 0 -0.28937319319092208 0.062514917485086363 0 -0.30568424482829498 0.054147641168173118 0 -0.30773782166686692 0.060427841934973789 0 -0.29579180608457167 0.049562564404477413 0 -0.30089134544467883 0.043598645749890488 0 -0.30568424482829498 0.054147641168173118 0 -0.30773782166686692 0.060427841934973789 0 -0.32594926608280173 0.04964295236320497 0 -0.32439595890415213 0.067658368266007282 0 -0.30568424482829498 0.054147641168173118 0 -0.32199529646567138 0.045780364851266887 0 -0.30773782166686692 0.060427841934973789 0 -0.32594926608280173 0.04964295236320497 0 -0.30773782166686692 0.060427841934973789 0 -0.32594926608280173 0.04964295236320497 0 -0.32199529646567138 0.045780364851266887 0 -0.31071128291635958 0.043931315293977903 0 -0.30568424482829498 0.054147641168173118 0 -0.32199529646567138 0.045780364851266887 0 -0.32594926608280173 0.04964295236320497 0 -0.32199529646567138 0.045780364851266887 0 -0.30680080354025607 0.033955557219988053 0 -0.32917980178263212 0.036604950189924913 0 -0.31790921299618508 0.027956428645086261 0 -0.30680080354025607 0.033955557219988053 0 -0.32917980178263212 0.036604950189924913 0 -0.30680080354025607 0.033955557219988053 0 -0.31993457532337949 0.043767270032501603 0 -0.32215510653609081 0.039847542616729723 0 -0.31071128291635958 0.043931315293977903 0 -0.31993457532337949 0.043767270032501603 0 -0.32199529646567138 0.045780364851266887 0 -0.30680080354025607 0.033955557219988053 0 -0.32215510653609081 0.039847542616729723 0 -0.32917980178263212 0.036604950189924913 0 -0.32772544414696853 0.039029451029497821 0 -0.32215510653609081 0.039847542616729723 0 -0.32917980178263212 0.036604950189924913 0 -0.32199529646567138 0.045780364851266887 0 -0.33098780216453988 0.041167371058066483 0 -0.32199529646567138 0.045780364851266887 0 -0.32643477134560878 0.041205874703609667 0 -0.33098780216453988 0.041167371058066483 0 -0.32594926608280173 0.04964295236320497 0 -0.32199529646567138 0.045780364851266887 0 -0.33098780216453988 0.041167371058066483 0 -0.31993457532337949 0.043767270032501603 0 -0.32199529646567138 0.045780364851266887 0 -0.32215510653609081 0.039847542616729723 0 -0.31993457532337949 0.043767270032501603 0 -0.32199529646567138 0.045780364851266887 0 -0.32199529646567138 0.045780364851266887 0 -0.32215510653609081 0.039847542616729723 0 -0.32643477134560878 0.041205874703609667 0 -0.32772544414696853 0.039029451029497821 0 -0.32215510653609081 0.039847542616729723 0 -0.32643477134560878 0.041205874703609667 0 -0.32772544414696853 0.039029451029497821 0 -0.32643477134560878 0.041205874703609667 0 -0.33018059747926171 0.039130420436908821 0 -0.3319601592047558 0.036934109669199487 0 -0.33785715763142249 0.037632240390070959 0 -0.34557043750802641 0.020136490142583851 0 -0.33098780216453988 0.041167371058066483 0 -0.33275042361872043 0.045615279911210317 0 -0.32594926608280173 0.04964295236320497 0 -0.33098780216453988 0.041167371058066483 0 -0.33275042361872043 0.045615279911210317 0 -0.33275042361872043 0.045615279911210317 0 -0.33785715763142249 0.037632240390070959 0 -0.35838605259323808 0.030433758814998511 0 -0.33098780216453988 0.041167371058066483 0 -0.33275042361872043 0.045615279911210317 0 -0.33785715763142249 0.037632240390070959 0 -0.32643477134560878 0.041205874703609667 0 -0.33018059747926171 0.039130420436908821 0 -0.33098780216453988 0.041167371058066483 0 -0.33018059747926171 0.039130420436908821 0 -0.33098780216453988 0.041167371058066483 0 -0.3319601592047558 0.036934109669199487 0 -0.33018059747926171 0.039130420436908821 0 -0.33098780216453988 0.041167371058066483 0 -0.33098780216453988 0.041167371058066483 0 -0.33785715763142249 0.037632240390070959 0 -0.3319601592047558 0.036934109669199487 0 -0.32917980178263212 0.036604950189924913 0 -0.33216011478563479 0.023180359639787439 0 -0.3319601592047558 0.036934109669199487 0 -0.32917980178263212 0.036604950189924913 0 -0.33018059747926171 0.039130420436908821 0 -0.32917980178263212 0.036604950189924913 0 -0.32772544414696853 0.039029451029497821 0 -0.33018059747926171 0.039130420436908821 0 -0.32917980178263212 0.036604950189924913 0 -0.33018059747926171 0.039130420436908821 0 -0.3319601592047558 0.036934109669199487 0 -0.32917980178263212 0.036604950189924913 0 -0.33018059747926171 0.039130420436908821 0 -0.3319601592047558 0.036934109669199487 0 -0.33098780216453988 0.041167371058066483 0 -0.3319601592047558 0.036934109669199487 0 -0.33785715763142249 0.037632240390070959 0 -0.3319601592047558 0.036934109669199487 0 -0.33785715763142249 0.037632240390070959 0 -0.33275042361872043 0.045615279911210317 0 -0.34136904784005162 0.044048436327715337 0 -0.33708135814915691 0.046902885840503762 0 -0.34136904784005162 0.044048436327715337 0 -0.34037971421262808 0.049271433662665412 0 -0.33708135814915691 0.046902885840503762 0 -0.34239825276137981 0.05455048937325873 0 -0.33384326485018651 0.048373023598606867 0 -0.34175464145567058 0.065083042057428611 0 -0.32594926608280173 0.04964295236320497 0 -0.33384326485018651 0.048373023598606867 0 -0.34175464145567058 0.065083042057428611 0 -0.34136904784005162 0.044048436327715337 0 -0.34037971421262808 0.049271433662665412 0 -0.34744843814018661 0.048172054176549579 0 -0.32594926608280173 0.04964295236320497 0 -0.34175464145567058 0.065083042057428611 0 -0.32594926608280173 0.04964295236320497 0 -0.32439595890415213 0.067658368266007282 0 -0.34175464145567058 0.065083042057428611 0 -0.34037971421262808 0.049271433662665412 0 -0.34239825276137981 0.05455048937325873 0 -0.33384326485018651 0.048373023598606867 0 -0.34037971421262808 0.049271433662665412 0 -0.34239825276137981 0.05455048937325873 0 -0.34744843814018661 0.048172054176549579 0 -0.34037971421262808 0.049271433662665412 0 -0.33708135814915691 0.046902885840503762 0 -0.33384326485018651 0.048373023598606867 0 -0.32594926608280173 0.04964295236320497 0 -0.33275042361872043 0.045615279911210317 0 -0.33384326485018651 0.048373023598606867 0 -0.32594926608280173 0.04964295236320497 0 -0.33275042361872043 0.045615279911210317 0 -0.33275042361872043 0.045615279911210317 0 -0.33708135814915691 0.046902885840503762 0 -0.33384326485018651 0.048373023598606867 0 -0.33275042361872043 0.045615279911210317 0 -0.33384326485018651 0.048373023598606867 0 -0.31240634161385089 -0.0057222447989648366 0 -0.32079307169824178 0.015441352695479889 0 -0.33519624187438168 0.0073911367791017982 0 -0.31240634161385089 -0.0057222447989648366 0 -0.32079307169824178 0.015441352695479889 0 -0.32917980178263212 0.036604950189924913 0 -0.32079307169824178 0.015441352695479889 0 -0.33216011478563479 0.023180359639787439 0 -0.32917980178263212 0.036604950189924913 0 -0.32079307169824178 0.015441352695479889 0 -0.31790921299618508 0.027956428645086261 0 -0.32917980178263212 0.036604950189924913 0 -0.32079307169824178 0.015441352695479889 0 -0.30879567230422672 0.021503298297083442 0 -0.32079307169824178 0.015441352695479889 0 -0.31790921299618508 0.027956428645086261 0 -0.3319601592047558 0.036934109669199487 0 -0.34557043750802641 0.020136490142583851 0 -0.3319601592047558 0.036934109669199487 0 -0.33216011478563479 0.023180359639787439 0 -0.34557043750802641 0.020136490142583851 0 -0.33216011478563479 0.023180359639787439 0 -0.33519624187438168 0.0073911367791017982 0 -0.34557043750802641 0.020136490142583851 0 -0.32079307169824178 0.015441352695479889 0 -0.33216011478563479 0.023180359639787439 0 -0.33519624187438168 0.0073911367791017982 0 -0.35918071581129568 0.003338870615967294 0 -0.35472639731399302 0.01456330549001511 0 -0.34557043750802641 0.020136490142583851 0 -0.35918071581129568 0.003338870615967294 0 -0.34557043750802641 0.020136490142583851 0 -0.34048686778571402 -0.01002932277235691 0 -0.33519624187438168 0.0073911367791017982 0 -0.35918071581129568 0.003338870615967294 0 -0.33519624187438168 0.0073911367791017982 0 -0.35918071581129568 0.003338870615967294 0 -0.34557043750802641 0.020136490142583851 0 -0.33785715763142249 0.037632240390070959 0 -0.35073250469386041 0.023991326964377901 0 -0.36065317327381408 0.025949568881161809 0 -0.33785715763142249 0.037632240390070959 0 -0.34557043750802641 0.020136490142583851 0 -0.35073250469386041 0.023991326964377901 0 -0.35472639731399302 0.01456330549001511 0 -0.35073250469386041 0.023991326964377901 0 -0.36065317327381408 0.025949568881161809 0 -0.35472639731399302 0.01456330549001511 0 -0.36065317327381408 0.025949568881161809 0 -0.35472639731399302 0.01456330549001511 0 -0.34557043750802641 0.020136490142583851 0 -0.35073250469386041 0.023991326964377901 0 -0.37688104160310898 0.017624964106173799 0 -0.36065317327381408 0.025949568881161809 0 -0.37688104160310898 0.017624964106173799 0 -0.36065317327381408 0.025949568881161809 0 -0.37159774160155429 0.027305265212969821 0 -0.37688104160310898 0.017624964106173799 0 -0.36065317327381408 0.025949568881161809 0 -0.36487474830327798 0.01370819971368166 0 -0.35472639731399302 0.01456330549001511 0 -0.36065317327381408 0.025949568881161809 0 -0.36487474830327798 0.01370819971368166 0 -0.35918071581129568 0.003338870615967294 0 -0.36487474830327798 0.01370819971368166 0 -0.37293241351417789 0.0070642894750902749 0 -0.35918071581129568 0.003338870615967294 0 -0.35472639731399302 0.01456330549001511 0 -0.36487474830327798 0.01370819971368166 0 -0.37688104160310898 0.017624964106173799 0 -0.36487474830327798 0.01370819971368166 0 -0.37293241351417789 0.0070642894750902749 0 -0.37180987954083178 -0.0023840389534433991 0 -0.35918071581129568 0.003338870615967294 0 -0.37293241351417789 0.0070642894750902749 0 -0.35637174767026331 0.052769817269856502 0 -0.36150859064853669 0.06635251754121152 0 -0.34175464145567058 0.065083042057428611 0 -0.35637174767026331 0.052769817269856502 0 -0.34744843814018661 0.048172054176549579 0 -0.35298255356379388 0.046060095028059272 0 -0.34239825276137981 0.05455048937325873 0 -0.35637174767026331 0.052769817269856502 0 -0.34175464145567058 0.065083042057428611 0 -0.34239825276137981 0.05455048937325873 0 -0.35637174767026331 0.052769817269856502 0 -0.34744843814018661 0.048172054176549579 0 -0.33275042361872043 0.045615279911210317 0 -0.35838605259323808 0.030433758814998511 0 -0.33785715763142249 0.037632240390070959 0 -0.35838605259323808 0.030433758814998511 0 -0.36065317327381408 0.025949568881161809 0 -0.33785715763142249 0.037632240390070959 0 -0.36065317327381408 0.025949568881161809 0 -0.34136904784005162 0.044048436327715337 0 -0.34744843814018661 0.048172054176549579 0 -0.35120633071796292 0.042028683535925433 0 -0.33275042361872043 0.045615279911210317 0 -0.34136904784005162 0.044048436327715337 0 -0.35838605259323808 0.030433758814998511 0 -0.34136904784005162 0.044048436327715337 0 -0.35838605259323808 0.030433758814998511 0 -0.35120633071796292 0.042028683535925433 0 -0.34744843814018661 0.048172054176549579 0 -0.35120633071796292 0.042028683535925433 0 -0.35298255356379388 0.046060095028059272 0 -0.35838605259323808 0.030433758814998511 0 -0.35120633071796292 0.042028683535925433 0 -0.35812954425322058 0.04102714735793847 0 -0.35637174767026331 0.052769817269856502 0 -0.35298255356379388 0.046060095028059272 0 -0.35812954425322058 0.04102714735793847 0 -0.35120633071796292 0.042028683535925433 0 -0.35298255356379388 0.046060095028059272 0 -0.35812954425322058 0.04102714735793847 0 -0.3767825674583356 0.056936657269455522 0 -0.37863350987998812 0.035797582514910387 0 -0.36871787036607478 0.041443113075308673 0 -0.35637174767026331 0.052769817269856502 0 -0.35812954425322058 0.04102714735793847 0 -0.36871787036607478 0.041443113075308673 0 -0.36065317327381408 0.025949568881161809 0 -0.36871787036607478 0.041443113075308673 0 -0.35838605259323808 0.030433758814998511 0 -0.35812954425322058 0.04102714735793847 0 -0.36871787036607478 0.041443113075308673 0 -0.35838605259323808 0.030433758814998511 0 -0.36065317327381408 0.025949568881161809 0 -0.36871787036607478 0.041443113075308673 0 -0.36065317327381408 0.025949568881161809 0 -0.37159774160155429 0.027305265212969821 0 -0.36871787036607478 0.041443113075308673 0 -0.37863350987998812 0.035797582514910387 0 -0.37159774160155429 0.027305265212969821 0 -0.36871787036607478 0.041443113075308673 0 -0.3767825674583356 0.056936657269455522 0 -0.35637174767026331 0.052769817269856502 0 -0.36150859064853669 0.06635251754121152 0 -0.3767825674583356 0.056936657269455522 0 -0.36871787036607478 0.041443113075308673 0 -0.3767825674583356 0.056936657269455522 0 -0.35637174767026331 0.052769817269856502 0 -0.36871787036607478 0.041443113075308673 0 -0.3767825674583356 0.056936657269455522 0 -0.37507397982987423 0.07644993935766467 0 -0.36150859064853669 0.06635251754121152 0 -0.37507397982987423 0.07644993935766467 0 -0.36150859064853669 0.06635251754121152 0 -0.35756001682853938 0.080523131751652308 0 -0.36150859064853669 0.06635251754121152 0 -0.35756001682853938 0.080523131751652308 0 -0.34175464145567058 0.065083042057428611 0 -0.35756001682853938 0.080523131751652308 0 -0.34175464145567058 0.065083042057428611 0 -0.35756001682853938 0.080523131751652308 0 -0.34175464145567058 0.065083042057428611 0 -0.33451657091271753 0.085020955979851542 0 -0.35756001682853938 0.080523131751652308 0 -0.35227669535169881 0.10432607003665099 0 -0.33451657091271753 0.085020955979851542 0 -0.35756001682853938 0.080523131751652308 0 -0.37336539220141057 0.095963221445873742 0 -0.37507397982987423 0.07644993935766467 0 -0.37336539220141057 0.095963221445873742 0 -0.37507397982987423 0.07644993935766467 0 -0.35756001682853938 0.080523131751652308 0 -0.37336539220141057 0.095963221445873742 0 -0.35756001682853938 0.080523131751652308 0 -0.37336539220141057 0.095963221445873742 0 -0.35227669535169881 0.10432607003665099 0 -0.37336539220141057 0.095963221445873742 0 -0.37158912676135991 0.1162494321253334 0 -0.37336539220141057 0.095963221445873742 0 -0.37158912676135991 0.1162494321253334 0 -0.35227669535169881 0.10432607003665099 0 -0.38316466271376559 0.11205638266858969 0 -0.36981286132130131 0.1365356428047925 0 -0.37158912676135991 0.1162494321253334 0 -0.37158912676135991 0.1162494321253334 0 -0.35624543278902698 0.1246179120644431 0 -0.35227669535169881 0.10432607003665099 0 -0.35624543278902698 0.1246179120644431 0 -0.35227669535169881 0.10432607003665099 0 -0.33974952812225329 0.1226975489845159 0 -0.35227669535169881 0.10432607003665099 0 -0.33053239039794791 0.10585074794262821 0 -0.33451657091271753 0.085020955979851542 0 -0.35227669535169881 0.10432607003665099 0 -0.33053239039794791 0.10585074794262821 0 -0.33974952812225329 0.1226975489845159 0 -0.33053239039794791 0.10585074794262821 0 -0.33974952812225329 0.1226975489845159 0 -0.32506615603551459 0.1211059287090778 0 -0.33053239039794791 0.10585074794262821 0 -0.32506615603551459 0.1211059287090778 0 -0.31262733714930852 0.10894420350565601 0 -0.31265804899462329 0.1335309411573897 0 -0.32506615603551459 0.1211059287090778 0 -0.31262733714930852 0.10894420350565601 0 -0.33053239039794791 0.10585074794262821 0 -0.31862562682325118 0.093992716884604019 0 -0.33451657091271753 0.085020955979851542 0 -0.33053239039794791 0.10585074794262821 0 -0.31262733714930852 0.10894420350565601 0 -0.31862562682325118 0.093992716884604019 0 -0.3120214944027036 0.078117048994577443 0 -0.33451657091271753 0.085020955979851542 0 -0.3120214944027036 0.078117048994577443 0 -0.31862562682325118 0.093992716884604019 0 -0.33451657091271753 0.085020955979851542 0 -0.3120214944027036 0.078117048994577443 0 -0.32439595890415213 0.067658368266007282 0 -0.33451657091271753 0.085020955979851542 0 -0.3120214944027036 0.078117048994577443 0 -0.30773782166686692 0.060427841934973789 0 -0.32439595890415213 0.067658368266007282 0 -0.32439595890415213 0.067658368266007282 0 -0.34175464145567058 0.065083042057428611 0 -0.33451657091271753 0.085020955979851542 0 -0.39154102416311592 0.47832657176277149 0 -0.40808948033189779 0.46137564092058603 0 -0.40770445973933661 0.48234236359134192 0 -0.38910674043026883 0.5 0 -0.40770445973933661 0.48234236359134192 0 -0.41748483710484652 0.5 0 -0.39154102416311592 0.47832657176277149 0 -0.38910674043026883 0.5 0 -0.40770445973933661 0.48234236359134192 0 -0.39154102416311592 0.47832657176277149 0 -0.38910674043026883 0.5 0 -0.37479402773925369 0.48345061054471988 0 -0.39154102416311592 0.47832657176277149 0 -0.38043376619751701 0.46469685031467078 0 -0.37479402773925369 0.48345061054471988 0 -0.38043376619751701 0.46469685031467078 0 -0.37917353421580752 0.44594847604030191 0 -0.36619148805679169 0.45026802838349639 0 -0.37917353421580752 0.44594847604030191 0 -0.39331569598531041 0.44819211974022832 0 -0.38497704736812249 0.43061424070484811 0 -0.38043376619751701 0.46469685031467078 0 -0.37917353421580752 0.44594847604030191 0 -0.39331569598531041 0.44819211974022832 0 -0.39331569598531041 0.44819211974022832 0 -0.38497704736812249 0.43061424070484811 0 -0.37917353421580752 0.44594847604030191 0 -0.38497704736812249 0.43061424070484811 0 -0.37094967347129609 0.43597114105826601 0 -0.39331569598531041 0.44819211974022832 0 -0.40808948033189779 0.46137564092058603 0 -0.41004264850680461 0.4432445123507267 0 -0.39331569598531041 0.44819211974022832 0 -0.41004264850680461 0.4432445123507267 0 -0.40256752001615709 0.42695012051622322 0 -0.39154102416311592 0.47832657176277149 0 -0.38043376619751701 0.46469685031467078 0 -0.40808948033189779 0.46137564092058603 0 -0.38043376619751701 0.46469685031467078 0 -0.39331569598531041 0.44819211974022832 0 -0.40808948033189779 0.46137564092058603 0 -0.38043376619751701 0.46469685031467078 0 -0.40808948033189779 0.46137564092058603 0 -0.40808948033189779 0.46137564092058603 0 -0.41004264850680461 0.4432445123507267 0 -0.42188684802614812 0.44979630461288939 0 -0.41004264850680461 0.4432445123507267 0 -0.42548766391088477 0.43762333488295929 0 -0.42188684802614812 0.44979630461288939 0 -0.42548766391088477 0.43762333488295929 0 -0.42188684802614812 0.44979630461288939 0 -0.43220679091380387 0.44678174930254722 0 -0.42188684802614812 0.44979630461288939 0 -0.43220679091380387 0.44678174930254722 0 -0.43574519446627857 0.45805443152650133 0 -0.42548766391088477 0.43762333488295929 0 -0.43220679091380387 0.44678174930254722 0 -0.43599188965124541 0.43812091441268908 0 -0.40808948033189779 0.46137564092058603 0 -0.42188684802614812 0.44979630461288939 0 -0.43574519446627857 0.45805443152650133 0 -0.40808948033189779 0.46137564092058603 0 -0.43574519446627857 0.45805443152650133 0 -0.42252776235473882 0.46908454004391498 0 -0.40808948033189779 0.46137564092058603 0 -0.43574519446627857 0.45805443152650133 0 -0.43574519446627857 0.45805443152650133 0 -0.43686308765383619 0.46520412794957411 0 -0.42252776235473882 0.46908454004391498 0 -0.43686308765383619 0.46520412794957411 0 -0.43515661026763569 0.47869920213755862 0 -0.42252776235473882 0.46908454004391498 0 -0.43515661026763569 0.47869920213755862 0 -0.42252776235473882 0.46908454004391498 0 -0.42531549799903678 0.48522888335227993 0 -0.42252776235473882 0.46908454004391498 0 -0.40770445973933661 0.48234236359134192 0 -0.42531549799903678 0.48522888335227993 0 -0.40808948033189779 0.46137564092058603 0 -0.42252776235473882 0.46908454004391498 0 -0.40770445973933661 0.48234236359134192 0 -0.40770445973933661 0.48234236359134192 0 -0.41748483710484652 0.5 0 -0.42531549799903678 0.48522888335227993 0 -0.43515661026763569 0.47869920213755862 0 -0.42531549799903678 0.48522888335227993 0 -0.44586293377942421 0.49999999999999778 0 -0.41748483710484652 0.5 0 -0.42531549799903678 0.48522888335227993 0 -0.44586293377942421 0.49999999999999778 0 -0.44586293377942421 0.49999999999999778 0 -0.44521376955114261 0.47397845934202398 0 -0.44586293377942421 0.49999999999999778 0 -0.44521376955114261 0.47397845934202398 0 -0.45880637964805171 0.49999999999999939 0 -0.43515661026763569 0.47869920213755862 0 -0.44586293377942421 0.49999999999999778 0 -0.44521376955114261 0.47397845934202398 0 -0.43686308765383619 0.46520412794957411 0 -0.43515661026763569 0.47869920213755862 0 -0.44521376955114261 0.47397845934202398 0 -0.44521376955114261 0.47397845934202398 0 -0.45880637964805171 0.49999999999999939 0 -0.46883351757595032 0.47397993854757831 0 -0.45880637964805171 0.49999999999999939 0 -0.46883351757595032 0.47397993854757831 0 -0.5 0.5 0 -0.46883351757595032 0.47397993854757831 0 -0.48474867780434883 0.46517096474208619 0 -0.45880637964805171 0.49999999999999939 0 -0.5 0.5 0 -0.46883351757595032 0.47397993854757831 0 -0.5 0.5 0 -0.48474867780434883 0.46517096474208619 0 -0.5 0.45525695869579608 0 -0.5 0.45525695869579608 0 -0.47886065550384888 0.44795987709515711 0 -0.4888877934317476 0.42193981564273592 0 -0.48474867780434883 0.46517096474208619 0 -0.5 0.45525695869579608 0 -0.47886065550384888 0.44795987709515711 0 -0.46883351757595032 0.47397993854757831 0 -0.47886065550384888 0.44795987709515711 0 -0.46136141765357569 0.45480837207735397 0 -0.46883351757595032 0.47397993854757831 0 -0.47886065550384888 0.44795987709515711 0 -0.46883351757595032 0.47397993854757831 0 -0.48474867780434883 0.46517096474208619 0 -0.47886065550384888 0.44795987709515711 0 -0.47886065550384888 0.44795987709515711 0 -0.46136141765357569 0.45480837207735397 0 -0.47107485896969092 0.42986191336572982 0 -0.46136141765357569 0.45480837207735397 0 -0.45287722360023702 0.42934117654910442 0 -0.47107485896969092 0.42986191336572982 0 -0.44521376955114261 0.47397845934202398 0 -0.46883351757595032 0.47397993854757831 0 -0.46136141765357569 0.45480837207735397 0 -0.43686308765383619 0.46520412794957411 0 -0.44456460532286141 0.44795691868405019 0 -0.43686308765383619 0.46520412794957411 0 -0.44521376955114261 0.47397845934202398 0 -0.44456460532286141 0.44795691868405019 0 -0.44521376955114261 0.47397845934202398 0 -0.46136141765357569 0.45480837207735397 0 -0.44456460532286141 0.44795691868405019 0 -0.43574519446627857 0.45805443152650133 0 -0.43686308765383619 0.46520412794957411 0 -0.44456460532286141 0.44795691868405019 0 -0.44521376955114261 0.47397845934202398 0 -0.44456460532286141 0.44795691868405019 0 -0.44456460532286141 0.44795691868405019 0 -0.45287722360023702 0.42934117654910442 0 -0.44456460532286141 0.44795691868405019 0 -0.44406611079433478 0.42797492479606242 0 -0.46136141765357569 0.45480837207735397 0 -0.44456460532286141 0.44795691868405019 0 -0.45287722360023702 0.42934117654910442 0 -0.43599188965124541 0.43812091441268908 0 -0.44456460532286141 0.44795691868405019 0 -0.44406611079433478 0.42797492479606242 0 -0.43220679091380387 0.44678174930254722 0 -0.43574519446627857 0.45805443152650133 0 -0.44456460532286141 0.44795691868405019 0 -0.43220679091380387 0.44678174930254722 0 -0.43599188965124541 0.43812091441268908 0 -0.44456460532286141 0.44795691868405019 0 -0.44456460532286141 0.44795691868405019 0 -0.44406611079433478 0.42797492479606242 0 -0.45287722360023702 0.42934117654910442 0 -0.43599188965124541 0.43812091441268908 0 -0.44406611079433478 0.42797492479606242 0 -0.43495540071854139 0.42908922320100318 0 -0.44406611079433478 0.42797492479606242 0 -0.43561709626757011 0.41965003353212421 0 -0.43495540071854139 0.42908922320100318 0 -0.44406611079433478 0.42797492479606242 0 -0.45287722360023702 0.42934117654910442 0 -0.4501513009936095 0.41782590145917903 0 -0.44356761626580848 0.40799293090807459 0 -0.4501513009936095 0.41782590145917903 0 -0.46118984187761242 0.41072543441415821 0 -0.44406611079433478 0.42797492479606242 0 -0.44356761626580848 0.40799293090807459 0 -0.43561709626757011 0.41965003353212421 0 -0.44406611079433478 0.42797492479606242 0 -0.44356761626580848 0.40799293090807459 0 -0.44406611079433478 0.42797492479606242 0 -0.44356761626580848 0.40799293090807459 0 -0.4501513009936095 0.41782590145917903 0 -0.45287722360023702 0.42934117654910442 0 -0.46118984187761242 0.41072543441415821 0 -0.45287722360023702 0.42934117654910442 0 -0.4501513009936095 0.41782590145917903 0 -0.46118984187761242 0.41072543441415821 0 -0.45287722360023702 0.42934117654910442 0 -0.46118984187761242 0.41072543441415821 0 -0.47107485896969092 0.42986191336572982 0 -0.47886065550384888 0.44795987709515711 0 -0.4888877934317476 0.42193981564273592 0 -0.5 0.45525695869579608 0 -0.4888877934317476 0.42193981564273592 0 -0.5 0.39443224800179111 0 -0.47886065550384888 0.44795987709515711 0 -0.47107485896969092 0.42986191336572982 0 -0.4888877934317476 0.42193981564273592 0 -0.4752348562730645 0.4096718734814343 0 -0.4888877934317476 0.42193981564273592 0 -0.48475123007749349 0.39327097014049978 0 -0.47107485896969092 0.42986191336572982 0 -0.4752348562730645 0.4096718734814343 0 -0.4888877934317476 0.42193981564273592 0 -0.46118984187761242 0.41072543441415821 0 -0.47107485896969092 0.42986191336572982 0 -0.4752348562730645 0.4096718734814343 0 -0.48541344147974103 0.37822834974751107 0 -0.5 0.39443224800179111 0 -0.5 0.37042817254066129 0 -0.48541344147974103 0.37822834974751107 0 -0.5 0.39443224800179111 0 -0.48475123007749349 0.39327097014049978 0 -0.5 0.39443224800179111 0 -0.48475123007749349 0.39327097014049978 0 -0.4888877934317476 0.42193981564273592 0 -0.5 0.39443224800179111 0 -0.48475123007749349 0.39327097014049978 0 -0.4752348562730645 0.4096718734814343 0 -0.48475123007749349 0.39327097014049978 0 -0.46950246015498681 0.39210969227921177 0 -0.48475123007749349 0.39327097014049978 0 -0.46950246015498681 0.39210969227921177 0 -0.48475123007749349 0.39327097014049978 0 -0.46950246015498681 0.39210969227921177 0 -0.47349732342471967 0.38316337211723561 0 -0.46950246015498681 0.39210969227921177 0 -0.47349732342471967 0.38316337211723561 0 -0.48541344147974103 0.37822834974751107 0 -0.48475123007749349 0.39327097014049978 0 -0.47349732342471967 0.38316337211723561 0 -0.48541344147974103 0.37822834974751107 0 -0.47349732342471967 0.38316337211723561 0 -0.47072146254030151 0.37053448900272618 0 -0.47349732342471967 0.38316337211723561 0 -0.46186451004902113 0.38080857806051938 0 -0.47072146254030151 0.37053448900272618 0 -0.46186451004902113 0.38080857806051938 0 -0.44597832582633362 0.38094990842404142 0 -0.45573057662823208 0.36911302352831221 0 -0.46186451004902113 0.38080857806051938 0 -0.4564290261491859 0.39111407823564032 0 -0.44597832582633362 0.38094990842404142 0 -0.46950246015498681 0.39210969227921177 0 -0.47349732342471967 0.38316337211723561 0 -0.46186451004902113 0.38080857806051938 0 -0.46950246015498681 0.39210969227921177 0 -0.46186451004902113 0.38080857806051938 0 -0.4564290261491859 0.39111407823564032 0 -0.46118984187761242 0.41072543441415821 0 -0.46950246015498681 0.39210969227921177 0 -0.46118984187761242 0.41072543441415821 0 -0.4752348562730645 0.4096718734814343 0 -0.46950246015498681 0.39210969227921177 0 -0.44356761626580848 0.40799293090807459 0 -0.46118984187761242 0.41072543441415821 0 -0.4564290261491859 0.39111407823564032 0 -0.46118984187761242 0.41072543441415821 0 -0.46950246015498681 0.39210969227921177 0 -0.4564290261491859 0.39111407823564032 0 -0.46950246015498681 0.39210969227921177 0 -0.4564290261491859 0.39111407823564032 0 -0.44356761626580848 0.40799293090807459 0 -0.4564290261491859 0.39111407823564032 0 -0.44197956351583118 0.39325780883621908 0 -0.44356761626580848 0.40799293090807459 0 -0.44197956351583118 0.39325780883621908 0 -0.42796125617470693 0.39631793335974153 0 -0.4564290261491859 0.39111407823564032 0 -0.44197956351583118 0.39325780883621908 0 -0.44597832582633362 0.38094990842404142 0 -0.44197956351583118 0.39325780883621908 0 -0.44597832582633362 0.38094990842404142 0 -0.43384965247277318 0.38741436851814259 0 -0.44597832582633362 0.38094990842404142 0 -0.43114146467589748 0.37708904059557868 0 -0.44087010818503608 0.36788833969746659 0 -0.44597832582633362 0.38094990842404142 0 -0.43114146467589748 0.37708904059557868 0 -0.43384965247277318 0.38741436851814259 0 -0.43384965247277318 0.38741436851814259 0 -0.42218379391587257 0.38569458325931733 0 -0.42796125617470693 0.39631793335974153 0 -0.43114146467589748 0.37708904059557868 0 -0.43384965247277318 0.38741436851814259 0 -0.42218379391587257 0.38569458325931733 0 -0.43114146467589748 0.37708904059557868 0 -0.42218379391587257 0.38569458325931733 0 -0.42054255401152829 0.37085398730012359 0 -0.42218379391587257 0.38569458325931733 0 -0.41744373217146991 0.39974634521256569 0 -0.40590783559132948 0.3849147787565711 0 -0.42218379391587257 0.38569458325931733 0 -0.40590783559132948 0.3849147787565711 0 -0.42054255401152829 0.37085398730012359 0 -0.40590783559132948 0.3849147787565711 0 -0.4067538310726837 0.3706862339550539 0 -0.42054255401152829 0.37085398730012359 0 -0.40590783559132948 0.3849147787565711 0 -0.42054255401152829 0.37085398730012359 0 -0.41744373217146991 0.39974634521256569 0 -0.40419574101250078 0.40689373836952619 0 -0.40590783559132948 0.3849147787565711 0 -0.41744373217146991 0.39974634521256569 0 -0.42796125617470693 0.39631793335974153 0 -0.42858296590556888 0.4100655473624531 0 -0.42218379391587257 0.38569458325931733 0 -0.41744373217146991 0.39974634521256569 0 -0.42796125617470693 0.39631793335974153 0 -0.44197956351583118 0.39325780883621908 0 -0.43384965247277318 0.38741436851814259 0 -0.42796125617470693 0.39631793335974153 0 -0.44356761626580848 0.40799293090807459 0 -0.42796125617470693 0.39631793335974153 0 -0.42858296590556888 0.4100655473624531 0 -0.44356761626580848 0.40799293090807459 0 -0.43561709626757011 0.41965003353212421 0 -0.42858296590556888 0.4100655473624531 0 -0.43561709626757011 0.41965003353212421 0 -0.42858296590556888 0.4100655473624531 0 -0.42691338765359682 0.42312754139302738 0 -0.42858296590556888 0.4100655473624531 0 -0.42691338765359682 0.42312754139302738 0 -0.4162159225176042 0.41555787865248611 0 -0.42548766391088477 0.43762333488295929 0 -0.43599188965124541 0.43812091441268908 0 -0.43495540071854139 0.42908922320100318 0 -0.43561709626757011 0.41965003353212421 0 -0.43495540071854139 0.42908922320100318 0 -0.42691338765359682 0.42312754139302738 0 -0.42548766391088477 0.43762333488295929 0 -0.42691338765359682 0.42312754139302738 0 -0.41624542852100949 0.42930067755908452 0 -0.42548766391088477 0.43762333488295929 0 -0.43495540071854139 0.42908922320100318 0 -0.42691338765359682 0.42312754139302738 0 -0.41004264850680461 0.4432445123507267 0 -0.41624542852100949 0.42930067755908452 0 -0.40256752001615709 0.42695012051622322 0 -0.41004264850680461 0.4432445123507267 0 -0.42548766391088477 0.43762333488295929 0 -0.41624542852100949 0.42930067755908452 0 -0.42691338765359682 0.42312754139302738 0 -0.41624542852100949 0.42930067755908452 0 -0.4162159225176042 0.41555787865248611 0 -0.41624542852100949 0.42930067755908452 0 -0.4162159225176042 0.41555787865248611 0 -0.40256752001615709 0.42695012051622322 0 -0.4162159225176042 0.41555787865248611 0 -0.40419574101250078 0.40689373836952619 0 -0.40256752001615709 0.42695012051622322 0 -0.41744373217146991 0.39974634521256569 0 -0.4162159225176042 0.41555787865248611 0 -0.40419574101250078 0.40689373836952619 0 -0.41744373217146991 0.39974634521256569 0 -0.42858296590556888 0.4100655473624531 0 -0.4162159225176042 0.41555787865248611 0 -0.3917663186073132 0.41521773686629337 0 -0.40419574101250078 0.40689373836952619 0 -0.40256752001615709 0.42695012051622322 0 -0.3917663186073132 0.41521773686629337 0 -0.40419574101250078 0.40689373836952619 0 -0.39127311717113072 0.39897557021301872 0 -0.39331569598531041 0.44819211974022832 0 -0.40256752001615709 0.42695012051622322 0 -0.38497704736812249 0.43061424070484811 0 -0.3917663186073132 0.41521773686629337 0 -0.40256752001615709 0.42695012051622322 0 -0.38497704736812249 0.43061424070484811 0 -0.38497704736812249 0.43061424070484811 0 -0.37663839875093391 0.41303636166946828 0 -0.3739796580857051 0.42506441976553888 0 -0.38497704736812249 0.43061424070484811 0 -0.37094967347129609 0.43597114105826601 0 -0.3739796580857051 0.42506441976553888 0 -0.3917663186073132 0.41521773686629337 0 -0.37663839875093391 0.41303636166946828 0 -0.39127311717113072 0.39897557021301872 0 -0.3917663186073132 0.41521773686629337 0 -0.38497704736812249 0.43061424070484811 0 -0.37663839875093391 0.41303636166946828 0 -0.38497704736812249 0.43061424070484811 0 -0.37663839875093391 0.41303636166946828 0 -0.38816067729293852 0.38063292028707851 0 -0.3720525463745622 0.40336938059776112 0 -0.38816067729293852 0.38063292028707851 0 -0.39127311717113072 0.39897557021301872 0 -0.3720525463745622 0.40336938059776112 0 -0.37663839875093391 0.41303636166946828 0 -0.39127311717113072 0.39897557021301872 0 -0.3720525463745622 0.40336938059776112 0 -0.37663839875093391 0.41303636166946828 0 -0.39127311717113072 0.39897557021301872 0 -0.38816067729293852 0.38063292028707851 0 -0.3734654164974382 0.38729605376202009 0 -0.3720525463745622 0.40336938059776112 0 -0.38816067729293852 0.38063292028707851 0 -0.37578790504521442 0.3718181929392439 0 -0.3734654164974382 0.38729605376202009 0 -0.38816067729293852 0.38063292028707851 0 -0.40590783559132948 0.3849147787565711 0 -0.4067538310726837 0.3706862339550539 0 -0.38816067729293852 0.38063292028707851 0 -0.40590783559132948 0.3849147787565711 0 -0.39127311717113072 0.39897557021301872 0 -0.40419574101250078 0.40689373836952619 0 -0.40590783559132948 0.3849147787565711 0 -0.39127311717113072 0.39897557021301872 0 -0.40590783559132948 0.3849147787565711 0 -0.39127311717113072 0.39897557021301872 0 -0.40426880821131622 0.35789645997639707 0 -0.39863709583671442 0.34117700631461972 0 -0.41488928025630589 0.35913302345509918 0 -0.3908550727913328 0.35274380985572079 0 -0.40426880821131622 0.35789645997639707 0 -0.38770976091632542 0.36398941436200088 0 -0.3908550727913328 0.35274380985572079 0 -0.40426880821131622 0.35789645997639707 0 -0.39863709583671442 0.34117700631461972 0 -0.38816067729293852 0.38063292028707851 0 -0.40426880821131622 0.35789645997639707 0 -0.38816067729293852 0.38063292028707851 0 -0.40426880821131622 0.35789645997639707 0 -0.38770976091632542 0.36398941436200088 0 -0.38816067729293852 0.38063292028707851 0 -0.40426880821131622 0.35789645997639707 0 -0.4067538310726837 0.3706862339550539 0 -0.38816067729293852 0.38063292028707851 0 -0.38770976091632542 0.36398941436200088 0 -0.37578790504521442 0.3718181929392439 0 -0.38770976091632542 0.36398941436200088 0 -0.37578790504521442 0.3718181929392439 0 -0.37947634124082502 0.3568556887515642 0 -0.3908550727913328 0.35274380985572079 0 -0.37876898870174192 0.34145368770627038 0 -0.39863709583671442 0.34117700631461972 0 -0.3908550727913328 0.35274380985572079 0 -0.38770976091632542 0.36398941436200088 0 -0.37947634124082502 0.3568556887515642 0 -0.3908550727913328 0.35274380985572079 0 -0.37947634124082502 0.3568556887515642 0 -0.37876898870174192 0.34145368770627038 0 -0.37947634124082502 0.3568556887515642 0 -0.37876898870174192 0.34145368770627038 0 -0.36933936884233193 0.35052873935918971 0 -0.37876898870174192 0.34145368770627038 0 -0.38238491141712289 0.32322098917414022 0 -0.36796266564545121 0.3245537925308748 0 -0.38238491141712289 0.32322098917414022 0 -0.39863709583671442 0.34117700631461972 0 -0.37876898870174192 0.34145368770627038 0 -0.38238491141712289 0.32322098917414022 0 -0.39863709583671442 0.34117700631461972 0 -0.38238491141712289 0.32322098917414022 0 -0.39339861471437759 0.31043172352140141 0 -0.38150164608751752 0.30521501282884972 0 -0.39861148603199981 0.32481546625491969 0 -0.41167211542469018 0.33295366918134489 0 -0.40696469276709363 0.31629394308309278 0 -0.38238491141712289 0.32322098917414022 0 -0.39861148603199981 0.32481546625491969 0 -0.39339861471437759 0.31043172352140141 0 -0.39861148603199981 0.32481546625491969 0 -0.40696469276709363 0.31629394308309278 0 -0.39339861471437759 0.31043172352140141 0 -0.38238491141712289 0.32322098917414022 0 -0.39861148603199981 0.32481546625491969 0 -0.39863709583671442 0.34117700631461972 0 -0.39861148603199981 0.32481546625491969 0 -0.39863709583671442 0.34117700631461972 0 -0.41167211542469018 0.33295366918134489 0 -0.39863709583671442 0.34117700631461972 0 -0.41167211542469018 0.33295366918134489 0 -0.41105106727294211 0.34395314962958151 0 -0.41167211542469018 0.33295366918134489 0 -0.42315502763620583 0.32563972279927123 0 -0.42682498718132639 0.33507974051788808 0 -0.41167211542469018 0.33295366918134489 0 -0.42000533714740179 0.34336454991792992 0 -0.41105106727294211 0.34395314962958151 0 -0.41167211542469018 0.33295366918134489 0 -0.42000533714740179 0.34336454991792992 0 -0.42682498718132639 0.33507974051788808 0 -0.41167211542469018 0.33295366918134489 0 -0.40696469276709363 0.31629394308309278 0 -0.42315502763620583 0.32563972279927123 0 -0.40696469276709363 0.31629394308309278 0 -0.42315502763620583 0.32563972279927123 0 -0.42474336898485882 0.31051560304280518 0 -0.42315502763620583 0.32563972279927123 0 -0.43547294344781728 0.32365208868720602 0 -0.42474336898485882 0.31051560304280518 0 -0.42315502763620583 0.32563972279927123 0 -0.42474336898485882 0.31051560304280518 0 -0.42315502763620583 0.32563972279927123 0 -0.43547294344781728 0.32365208868720602 0 -0.42682498718132639 0.33507974051788808 0 -0.43547294344781728 0.32365208868720602 0 -0.43682799137759198 0.31122845674964661 0 -0.42474336898485882 0.31051560304280518 0 -0.42000533714740179 0.34336454991792992 0 -0.42682498718132639 0.33507974051788808 0 -0.43209608328509169 0.34633478859696287 0 -0.43547294344781728 0.32365208868720602 0 -0.42682498718132639 0.33507974051788808 0 -0.43663192828537889 0.33761083588793273 0 -0.42682498718132639 0.33507974051788808 0 -0.43663192828537889 0.33761083588793273 0 -0.43209608328509169 0.34633478859696287 0 -0.43663192828537889 0.33761083588793273 0 -0.43209608328509169 0.34633478859696287 0 -0.44347850500087632 0.34685850170102839 0 -0.43209608328509169 0.34633478859696287 0 -0.43629399320877982 0.35629371292937762 0 -0.44347850500087632 0.34685850170102839 0 -0.43209608328509169 0.34633478859696287 0 -0.43629399320877982 0.35629371292937762 0 -0.42478066234594769 0.35319577320386758 0 -0.43629399320877982 0.35629371292937762 0 -0.42478066234594769 0.35319577320386758 0 -0.4295471105079271 0.36276605482011592 0 -0.42478066234594769 0.35319577320386758 0 -0.41488928025630589 0.35913302345509918 0 -0.4295471105079271 0.36276605482011592 0 -0.42000533714740179 0.34336454991792992 0 -0.43209608328509169 0.34633478859696287 0 -0.42478066234594769 0.35319577320386758 0 -0.42000533714740179 0.34336454991792992 0 -0.41730386006970621 0.34957627134009939 0 -0.41105106727294211 0.34395314962958151 0 -0.39863709583671442 0.34117700631461972 0 -0.41488928025630589 0.35913302345509918 0 -0.41730386006970621 0.34957627134009939 0 -0.41488928025630589 0.35913302345509918 0 -0.41105106727294211 0.34395314962958151 0 -0.39863709583671442 0.34117700631461972 0 -0.41488928025630589 0.35913302345509918 0 -0.41105106727294211 0.34395314962958151 0 -0.42000533714740179 0.34336454991792992 0 -0.42478066234594769 0.35319577320386758 0 -0.41730386006970621 0.34957627134009939 0 -0.42478066234594769 0.35319577320386758 0 -0.41730386006970621 0.34957627134009939 0 -0.41488928025630589 0.35913302345509918 0 -0.41488928025630589 0.35913302345509918 0 -0.4067538310726837 0.3706862339550539 0 -0.42054255401152829 0.37085398730012359 0 -0.40426880821131622 0.35789645997639707 0 -0.41488928025630589 0.35913302345509918 0 -0.4067538310726837 0.3706862339550539 0 -0.43114146467589748 0.37708904059557868 0 -0.41488928025630589 0.35913302345509918 0 -0.42054255401152829 0.37085398730012359 0 -0.43114146467589748 0.37708904059557868 0 -0.41488928025630589 0.35913302345509918 0 -0.43114146467589748 0.37708904059557868 0 -0.41488928025630589 0.35913302345509918 0 -0.4295471105079271 0.36276605482011592 0 -0.43629399320877982 0.35629371292937762 0 -0.4295471105079271 0.36276605482011592 0 -0.44087010818503608 0.36788833969746659 0 -0.43114146467589748 0.37708904059557868 0 -0.4295471105079271 0.36276605482011592 0 -0.44087010818503608 0.36788833969746659 0 -0.43629399320877982 0.35629371292937762 0 -0.44087010818503608 0.36788833969746659 0 -0.44978536564713378 0.35738685210163768 0 -0.44087010818503608 0.36788833969746659 0 -0.44978536564713378 0.35738685210163768 0 -0.45573057662823208 0.36911302352831221 0 -0.44597832582633362 0.38094990842404142 0 -0.44087010818503608 0.36788833969746659 0 -0.45573057662823208 0.36911302352831221 0 -0.43629399320877982 0.35629371292937762 0 -0.44347850500087632 0.34685850170102839 0 -0.44978536564713378 0.35738685210163768 0 -0.44347850500087632 0.34685850170102839 0 -0.44978536564713378 0.35738685210163768 0 -0.45719756912951159 0.34643176992570818 0 -0.44978536564713378 0.35738685210163768 0 -0.45719756912951159 0.34643176992570818 0 -0.46493121994202752 0.35738608665461952 0 -0.45719756912951159 0.34643176992570818 0 -0.46493121994202752 0.35738608665461952 0 -0.47264171287105439 0.34330953868717928 0 -0.44978536564713378 0.35738685210163768 0 -0.46493121994202752 0.35738608665461952 0 -0.45573057662823208 0.36911302352831221 0 -0.46493121994202752 0.35738608665461952 0 -0.45573057662823208 0.36911302352831221 0 -0.47072146254030151 0.37053448900272618 0 -0.46186451004902113 0.38080857806051938 0 -0.45573057662823208 0.36911302352831221 0 -0.47072146254030151 0.37053448900272618 0 -0.48541344147974103 0.37822834974751107 0 -0.47072146254030151 0.37053448900272618 0 -0.48351063283593149 0.35754084668215302 0 -0.46493121994202752 0.35738608665461952 0 -0.47072146254030151 0.37053448900272618 0 -0.48351063283593149 0.35754084668215302 0 -0.46493121994202752 0.35738608665461952 0 -0.48351063283593149 0.35754084668215302 0 -0.47264171287105439 0.34330953868717928 0 -0.48351063283593149 0.35754084668215302 0 -0.48737174617026358 0.33514963066610592 0 -0.47264171287105439 0.34330953868717928 0 -0.48351063283593149 0.35754084668215302 0 -0.5 0.34642409707953142 0 -0.5 0.37042817254066129 0 -0.48351063283593149 0.35754084668215302 0 -0.5 0.34642409707953142 0 -0.48737174617026358 0.33514963066610592 0 -0.48541344147974103 0.37822834974751107 0 -0.48351063283593149 0.35754084668215302 0 -0.5 0.37042817254066129 0 -0.5 0.3224200216184015 0 -0.48737174617026358 0.33514963066610592 0 -0.4849301166547253 0.31157008299008437 0 -0.5 0.34642409707953142 0 -0.5 0.3224200216184015 0 -0.48737174617026358 0.33514963066610592 0 -0.47264171287105439 0.34330953868717928 0 -0.47361674937065662 0.32638284027022257 0 -0.46103070939135832 0.33364379852912007 0 -0.48737174617026358 0.33514963066610592 0 -0.47264171287105439 0.34330953868717928 0 -0.47361674937065662 0.32638284027022257 0 -0.48737174617026358 0.33514963066610592 0 -0.47361674937065662 0.32638284027022257 0 -0.4849301166547253 0.31157008299008437 0 -0.47361674937065662 0.32638284027022257 0 -0.46255054052847833 0.30889501234327738 0 -0.4849301166547253 0.31157008299008437 0 -0.47361674937065662 0.32638284027022257 0 -0.46101278996396799 0.32133181231231228 0 -0.46255054052847833 0.30889501234327738 0 -0.47361674937065662 0.32638284027022257 0 -0.46101278996396799 0.32133181231231228 0 -0.46103070939135832 0.33364379852912007 0 -0.46101278996396799 0.32133181231231228 0 -0.4522825846588423 0.31832684581420628 0 -0.44951495473549058 0.3251424949961097 0 -0.46101278996396799 0.32133181231231228 0 -0.46103070939135832 0.33364379852912007 0 -0.44951495473549058 0.3251424949961097 0 -0.46101278996396799 0.32133181231231228 0 -0.4522825846588423 0.31832684581420628 0 -0.45317887174263488 0.31069239654201147 0 -0.46101278996396799 0.32133181231231228 0 -0.45317887174263488 0.31069239654201147 0 -0.46255054052847833 0.30889501234327738 0 -0.45719756912951159 0.34643176992570818 0 -0.47264171287105439 0.34330953868717928 0 -0.46103070939135832 0.33364379852912007 0 -0.45719756912951159 0.34643176992570818 0 -0.46103070939135832 0.33364379852912007 0 -0.44859857176617701 0.3367642678356999 0 -0.44347850500087632 0.34685850170102839 0 -0.45719756912951159 0.34643176992570818 0 -0.44859857176617701 0.3367642678356999 0 -0.46103070939135832 0.33364379852912007 0 -0.44859857176617701 0.3367642678356999 0 -0.44951495473549058 0.3251424949961097 0 -0.44859857176617701 0.3367642678356999 0 -0.44215988895555153 0.33048193092217459 0 -0.44951495473549058 0.3251424949961097 0 -0.43663192828537889 0.33761083588793273 0 -0.44859857176617701 0.3367642678356999 0 -0.44215988895555153 0.33048193092217459 0 -0.43547294344781728 0.32365208868720602 0 -0.43663192828537889 0.33761083588793273 0 -0.44215988895555153 0.33048193092217459 0 -0.43663192828537889 0.33761083588793273 0 -0.44347850500087632 0.34685850170102839 0 -0.44859857176617701 0.3367642678356999 0 -0.44542372219327592 0.3161406794063919 0 -0.4522825846588423 0.31832684581420628 0 -0.44951495473549058 0.3251424949961097 0 -0.44542372219327592 0.3161406794063919 0 -0.4522825846588423 0.31832684581420628 0 -0.45317887174263488 0.31069239654201147 0 -0.43547294344781728 0.32365208868720602 0 -0.44542372219327592 0.3161406794063919 0 -0.44951495473549058 0.3251424949961097 0 -0.43547294344781728 0.32365208868720602 0 -0.44215988895555153 0.33048193092217459 0 -0.44951495473549058 0.3251424949961097 0 -0.43547294344781728 0.32365208868720602 0 -0.44542372219327592 0.3161406794063919 0 -0.43682799137759198 0.31122845674964661 0 -0.44542372219327592 0.3161406794063919 0 -0.44376051598923488 0.30768452247400357 0 -0.43682799137759198 0.31122845674964661 0 -0.44376051598923488 0.30768452247400357 0 -0.43682799137759198 0.31122845674964661 0 -0.43620991363261929 0.30220380309434719 0 -0.44600391436305459 0.29877695818440198 0 -0.4460742277362062 0.29620201535018259 0 -0.46255054052847833 0.30889501234327738 0 -0.44600391436305459 0.29877695818440198 0 -0.4460742277362062 0.29620201535018259 0 -0.43620991363261929 0.30220380309434719 0 -0.44376051598923488 0.30768452247400357 0 -0.44600391436305459 0.29877695818440198 0 -0.43620991363261929 0.30220380309434719 0 -0.44600391436305459 0.29877695818440198 0 -0.4460742277362062 0.29620201535018259 0 -0.44542372219327592 0.3161406794063919 0 -0.44376051598923488 0.30768452247400357 0 -0.45317887174263488 0.31069239654201147 0 -0.44376051598923488 0.30768452247400357 0 -0.44600391436305459 0.29877695818440198 0 -0.45317887174263488 0.31069239654201147 0 -0.4460742277362062 0.29620201535018259 0 -0.44684860468944809 0.26784359223231508 0 -0.43671824110323432 0.28729366077605178 0 -0.4460742277362062 0.29620201535018259 0 -0.44684860468944809 0.26784359223231508 0 -0.4460742277362062 0.29620201535018259 0 -0.46343459427640121 0.28012380726899289 0 -0.44684860468944809 0.26784359223231508 0 -0.4460742277362062 0.29620201535018259 0 -0.4730371138681031 0.29730898075372708 0 -0.4460742277362062 0.29620201535018259 0 -0.4730371138681031 0.29730898075372708 0 -0.46343459427640121 0.28012380726899289 0 -0.4460742277362062 0.29620201535018259 0 -0.46255054052847833 0.30889501234327738 0 -0.4730371138681031 0.29730898075372708 0 -0.44600391436305459 0.29877695818440198 0 -0.45317887174263488 0.31069239654201147 0 -0.46255054052847833 0.30889501234327738 0 -0.46255054052847833 0.30889501234327738 0 -0.4730371138681031 0.29730898075372708 0 -0.4849301166547253 0.31157008299008437 0 -0.4730371138681031 0.29730898075372708 0 -0.48195616749389042 0.28061082712795571 0 -0.46343459427640121 0.28012380726899289 0 -0.49999999999999989 0.29841594615727163 0 -0.5 0.27495599121302461 0 -0.48195616749389042 0.28061082712795571 0 -0.4730371138681031 0.29730898075372708 0 -0.49999999999999989 0.29841594615727163 0 -0.48195616749389042 0.28061082712795571 0 -0.5 0.3224200216184015 0 -0.49999999999999989 0.29841594615727163 0 -0.4849301166547253 0.31157008299008437 0 -0.4730371138681031 0.29730898075372708 0 -0.49999999999999989 0.29841594615727163 0 -0.4730371138681031 0.29730898075372708 0 -0.49999999999999989 0.29841594615727163 0 -0.4849301166547253 0.31157008299008437 0 -0.47993662372660462 0.23872573632670871 0 -0.5 0.25149603626877748 0 -0.47451806798994201 0.26322601374090121 0 -0.5 0.25149603626877748 0 -0.5 0.27495599121302461 0 -0.47451806798994201 0.26322601374090121 0 -0.5 0.27495599121302461 0 -0.48195616749389042 0.28061082712795571 0 -0.47451806798994201 0.26322601374090121 0 -0.48195616749389042 0.28061082712795571 0 -0.47451806798994201 0.26322601374090121 0 -0.46343459427640121 0.28012380726899289 0 -0.44762298164268821 0.23948516911444739 0 -0.47451806798994201 0.26322601374090121 0 -0.44684860468944809 0.26784359223231508 0 -0.47451806798994201 0.26322601374090121 0 -0.46343459427640121 0.28012380726899289 0 -0.44684860468944809 0.26784359223231508 0 -0.44762298164268821 0.23948516911444739 0 -0.43111005823006537 0.24989225486996819 0 -0.44684860468944809 0.26784359223231508 0 -0.44762298164268821 0.23948516911444739 0 -0.44684860468944809 0.26784359223231508 0 -0.43111005823006537 0.24989225486996819 0 -0.42805524830885988 0.27898002691641138 0 -0.43111005823006537 0.24989225486996819 0 -0.44684860468944809 0.26784359223231508 0 -0.42805524830885988 0.27898002691641138 0 -0.43111005823006537 0.24989225486996819 0 -0.42127337807423859 0.25538243113189962 0 -0.42805524830885988 0.27898002691641138 0 -0.41380148088901691 0.26386134506572018 0 -0.42127337807423859 0.25538243113189962 0 -0.40516101789932918 0.25657686647302069 0 -0.41380148088901691 0.26386134506572018 0 -0.41023717767436418 0.27418942594728801 0 -0.40516101789932918 0.25657686647302069 0 -0.41023717767436418 0.27418942594728801 0 -0.42805524830885988 0.27898002691641138 0 -0.41368504894569619 0.283269644536007 0 -0.41380148088901691 0.26386134506572018 0 -0.41023717767436418 0.27418942594728801 0 -0.42805524830885988 0.27898002691641138 0 -0.41380148088901691 0.26386134506572018 0 -0.42127337807423859 0.25538243113189962 0 -0.42805524830885988 0.27898002691641138 0 -0.41023717767436418 0.27418942594728801 0 -0.41368504894569619 0.283269644536007 0 -0.40726937107517691 0.28221571706697662 0 -0.44684860468944809 0.26784359223231508 0 -0.42861782588312303 0.28093752208155148 0 -0.43671824110323432 0.28729366077605178 0 -0.44684860468944809 0.26784359223231508 0 -0.42805524830885988 0.27898002691641138 0 -0.42861782588312303 0.28093752208155148 0 -0.42127337807423859 0.25538243113189962 0 -0.42805524830885988 0.27898002691641138 0 -0.42805524830885988 0.27898002691641138 0 -0.42861782588312303 0.28093752208155148 0 -0.42805524830885988 0.27898002691641138 0 -0.42633171033351358 0.29539148328633941 0 -0.4460742277362062 0.29620201535018259 0 -0.43671824110323432 0.28729366077605178 0 -0.42633171033351358 0.29539148328633941 0 -0.42805524830885988 0.27898002691641138 0 -0.42861782588312303 0.28093752208155148 0 -0.42633171033351358 0.29539148328633941 0 -0.42861782588312303 0.28093752208155148 0 -0.43671824110323432 0.28729366077605178 0 -0.42633171033351358 0.29539148328633941 0 -0.4460742277362062 0.29620201535018259 0 -0.42633171033351358 0.29539148328633941 0 -0.42805524830885988 0.27898002691641138 0 -0.42633171033351358 0.29539148328633941 0 -0.41899360019286269 0.28887381404808882 0 -0.4460742277362062 0.29620201535018259 0 -0.42633171033351358 0.29539148328633941 0 -0.43620991363261929 0.30220380309434719 0 -0.43682799137759198 0.31122845674964661 0 -0.43620991363261929 0.30220380309434719 0 -0.42474336898485882 0.31051560304280518 0 -0.42633171033351358 0.29539148328633941 0 -0.42474336898485882 0.31051560304280518 0 -0.4187741514135882 0.30132649232625602 0 -0.42633171033351358 0.29539148328633941 0 -0.42474336898485882 0.31051560304280518 0 -0.42633171033351358 0.29539148328633941 0 -0.43620991363261929 0.30220380309434719 0 -0.42474336898485882 0.31051560304280518 0 -0.40696469276709363 0.31629394308309278 0 -0.42474336898485882 0.31051560304280518 0 -0.41305557976177992 0.30660746722210069 0 -0.42474336898485882 0.31051560304280518 0 -0.4187741514135882 0.30132649232625602 0 -0.41305557976177992 0.30660746722210069 0 -0.42633171033351358 0.29539148328633941 0 -0.4187741514135882 0.30132649232625602 0 -0.41376385720514058 0.29487550815882968 0 -0.4187741514135882 0.30132649232625602 0 -0.41103161087172529 0.30049963117876899 0 -0.41305557976177992 0.30660746722210069 0 -0.4187741514135882 0.30132649232625602 0 -0.41103161087172529 0.30049963117876899 0 -0.41376385720514058 0.29487550815882968 0 -0.41103161087172529 0.30049963117876899 0 -0.41376385720514058 0.29487550815882968 0 -0.40546072750939788 0.2976604079869023 0 -0.41103161087172529 0.30049963117876899 0 -0.41305557976177992 0.30660746722210069 0 -0.40453764530960529 0.3053828894813167 0 -0.41103161087172529 0.30049963117876899 0 -0.40453764530960529 0.3053828894813167 0 -0.40546072750939788 0.2976604079869023 0 -0.40696469276709363 0.31629394308309278 0 -0.41305557976177992 0.30660746722210069 0 -0.40453764530960529 0.3053828894813167 0 -0.42805524830885988 0.27898002691641138 0 -0.41899360019286269 0.28887381404808882 0 -0.41368504894569619 0.283269644536007 0 -0.41899360019286269 0.28887381404808882 0 -0.41313213617110278 0.2918524073428565 0 -0.41368504894569619 0.283269644536007 0 -0.42633171033351358 0.29539148328633941 0 -0.41376385720514058 0.29487550815882968 0 -0.42633171033351358 0.29539148328633941 0 -0.41899360019286269 0.28887381404808882 0 -0.41376385720514058 0.29487550815882968 0 -0.41899360019286269 0.28887381404808882 0 -0.41313213617110278 0.2918524073428565 0 -0.41376385720514058 0.29487550815882968 0 -0.41313213617110278 0.2918524073428565 0 -0.40148093585532291 0.29093907882304809 0 -0.40546072750939788 0.2976604079869023 0 -0.41313213617110278 0.2918524073428565 0 -0.41376385720514058 0.29487550815882968 0 -0.40546072750939788 0.2976604079869023 0 -0.41313213617110278 0.2918524073428565 0 -0.41368504894569619 0.283269644536007 0 -0.40726937107517691 0.28221571706697662 0 -0.39150035178174852 0.29287460236378049 0 -0.40546072750939788 0.2976604079869023 0 -0.38441764650924187 0.29353894995111729 0 -0.41313213617110278 0.2918524073428565 0 -0.40726937107517691 0.28221571706697662 0 -0.39583052795904211 0.28136889759865352 0 -0.41313213617110278 0.2918524073428565 0 -0.40148093585532291 0.29093907882304809 0 -0.39583052795904211 0.28136889759865352 0 -0.41313213617110278 0.2918524073428565 0 -0.39583052795904211 0.28136889759865352 0 -0.40546072750939788 0.2976604079869023 0 -0.38441764650924187 0.29353894995111729 0 -0.40148093585532291 0.29093907882304809 0 -0.39150035178174852 0.29287460236378049 0 -0.40546072750939788 0.2976604079869023 0 -0.39150035178174852 0.29287460236378049 0 -0.39583052795904211 0.28136889759865352 0 -0.38493161666103137 0.28430852037826398 0 -0.39150035178174852 0.29287460236378049 0 -0.39583052795904211 0.28136889759865352 0 -0.40148093585532291 0.29093907882304809 0 -0.39150035178174852 0.29287460236378049 0 -0.39583052795904211 0.28136889759865352 0 -0.40546072750939788 0.2976604079869023 0 -0.39591760409135912 0.30130618964485367 0 -0.38441764650924187 0.29353894995111729 0 -0.40696469276709363 0.31629394308309278 0 -0.40453764530960529 0.3053828894813167 0 -0.39339861471437759 0.31043172352140141 0 -0.40453764530960529 0.3053828894813167 0 -0.40546072750939788 0.2976604079869023 0 -0.39591760409135912 0.30130618964485367 0 -0.40453764530960529 0.3053828894813167 0 -0.39591760409135912 0.30130618964485367 0 -0.39339861471437759 0.31043172352140141 0 -0.39591760409135912 0.30130618964485367 0 -0.39339861471437759 0.31043172352140141 0 -0.38880887785062401 0.3026229689865555 0 -0.38238491141712289 0.32322098917414022 0 -0.38150164608751752 0.30521501282884972 0 -0.3661327269975313 0.30526497203366071 0 -0.39339861471437759 0.31043172352140141 0 -0.38880887785062401 0.3026229689865555 0 -0.38150164608751752 0.30521501282884972 0 -0.38880887785062401 0.3026229689865555 0 -0.38150164608751752 0.30521501282884972 0 -0.38441764650924187 0.29353894995111729 0 -0.39591760409135912 0.30130618964485367 0 -0.38880887785062401 0.3026229689865555 0 -0.38441764650924187 0.29353894995111729 0 -0.38150164608751752 0.30521501282884972 0 -0.38441764650924187 0.29353894995111729 0 -0.37369667475645579 0.29831241351080923 0 -0.39150035178174852 0.29287460236378049 0 -0.38493161666103137 0.28430852037826398 0 -0.38441764650924187 0.29353894995111729 0 -0.38493161666103137 0.28430852037826398 0 -0.38441764650924187 0.29353894995111729 0 -0.37545380398271588 0.28352502467436952 0 -0.39583052795904211 0.28136889759865352 0 -0.37745575307240842 0.27023512730339949 0 -0.39583052795904211 0.28136889759865352 0 -0.38493161666103137 0.28430852037826398 0 -0.37745575307240842 0.27023512730339949 0 -0.38493161666103137 0.28430852037826398 0 -0.37545380398271588 0.28352502467436952 0 -0.37745575307240842 0.27023512730339949 0 -0.39583052795904211 0.28136889759865352 0 -0.37745575307240842 0.27023512730339949 0 -0.38642849736781398 0.26497125686707018 0 -0.37745575307240842 0.27023512730339949 0 -0.37611385007772519 0.26529268816860069 0 -0.38642849736781398 0.26497125686707018 0 -0.39394669757350109 0.24382060887220011 0 -0.37611385007772519 0.26529268816860069 0 -0.38642849736781398 0.26497125686707018 0 -0.39394669757350109 0.24382060887220011 0 -0.37611385007772519 0.26529268816860069 0 -0.37681523902969338 0.2467608340689659 0 -0.39394669757350109 0.24382060887220011 0 -0.37611385007772519 0.26529268816860069 0 -0.39394669757350109 0.24382060887220011 0 -0.38642849736781398 0.26497125686707018 0 -0.39379450080350847 0.26243309064601511 0 -0.39394669757350109 0.24382060887220011 0 -0.40516101789932918 0.25657686647302069 0 -0.39379450080350847 0.26243309064601511 0 -0.39583052795904211 0.28136889759865352 0 -0.38642849736781398 0.26497125686707018 0 -0.39379450080350847 0.26243309064601511 0 -0.39583052795904211 0.28136889759865352 0 -0.40516101789932918 0.25657686647302069 0 -0.39583052795904211 0.28136889759865352 0 -0.40516101789932918 0.25657686647302069 0 -0.39379450080350847 0.26243309064601511 0 -0.41023717767436418 0.27418942594728801 0 -0.39583052795904211 0.28136889759865352 0 -0.40516101789932918 0.25657686647302069 0 -0.41023717767436418 0.27418942594728801 0 -0.40726937107517691 0.28221571706697662 0 -0.39583052795904211 0.28136889759865352 0 -0.34807726489019097 0.27296083645517988 0 -0.35908097818577422 0.2591013570081464 0 -0.33602412288711547 0.2666447573279459 0 -0.35908097818577422 0.2591013570081464 0 -0.35696520457300701 0.28326499172780728 0 -0.34807726489019097 0.27296083645517988 0 -0.35908097818577422 0.2591013570081464 0 -0.35696520457300701 0.28326499172780728 0 -0.34807726489019097 0.27296083645517988 0 -0.35696520457300701 0.28326499172780728 0 -0.34233148450892997 0.28529603387954677 0 -0.33794474823729193 0.2462943468213025 0 -0.35908097818577422 0.2591013570081464 0 -0.33794474823729193 0.2462943468213025 0 -0.35908097818577422 0.2591013570081464 0 -0.33602412288711547 0.2666447573279459 0 -0.37745575307240842 0.27023512730339949 0 -0.37611385007772519 0.26529268816860069 0 -0.35908097818577422 0.2591013570081464 0 -0.37681523902969338 0.2467608340689659 0 -0.37611385007772519 0.26529268816860069 0 -0.36830935552651811 0.25143577335329698 0 -0.37745575307240842 0.27023512730339949 0 -0.35908097818577422 0.2591013570081464 0 -0.37611385007772519 0.26529268816860069 0 -0.35908097818577422 0.2591013570081464 0 -0.36830935552651811 0.25143577335329698 0 -0.35908097818577422 0.2591013570081464 0 -0.36646606106459839 0.27710879852581088 0 -0.35696520457300701 0.28326499172780728 0 -0.37745575307240842 0.27023512730339949 0 -0.35908097818577422 0.2591013570081464 0 -0.36646606106459839 0.27710879852581088 0 -0.37545380398271588 0.28352502467436952 0 -0.37745575307240842 0.27023512730339949 0 -0.36646606106459839 0.27710879852581088 0 -0.38441764650924187 0.29353894995111729 0 -0.36337456550908592 0.28941749191533228 0 -0.37369667475645579 0.29831241351080923 0 -0.38441764650924187 0.29353894995111729 0 -0.37545380398271588 0.28352502467436952 0 -0.36337456550908592 0.28941749191533228 0 -0.37545380398271588 0.28352502467436952 0 -0.36646606106459839 0.27710879852581088 0 -0.36337456550908592 0.28941749191533228 0 -0.36337456550908592 0.28941749191533228 0 -0.3661327269975313 0.30526497203366071 0 -0.34998133804897991 0.28679431972205183 0 -0.38441764650924187 0.29353894995111729 0 -0.36337456550908592 0.28941749191533228 0 -0.36646606106459839 0.27710879852581088 0 -0.36337456550908592 0.28941749191533228 0 -0.35696520457300701 0.28326499172780728 0 -0.36337456550908592 0.28941749191533228 0 -0.37369667475645579 0.29831241351080923 0 -0.3661327269975313 0.30526497203366071 0 -0.38150164608751752 0.30521501282884972 0 -0.37369667475645579 0.29831241351080923 0 -0.3661327269975313 0.30526497203366071 0 -0.34233148450892997 0.28529603387954677 0 -0.35178944789718308 0.31326384377316469 0 -0.35290436147651277 0.29843561465736368 0 -0.34233148450892997 0.28529603387954677 0 -0.35178944789718308 0.31326384377316469 0 -0.3661327269975313 0.30526497203366071 0 -0.35290436147651277 0.29843561465736368 0 -0.35178944789718308 0.31326384377316469 0 -0.3661327269975313 0.30526497203366071 0 -0.35290436147651277 0.29843561465736368 0 -0.34998133804897991 0.28679431972205183 0 -0.3661327269975313 0.30526497203366071 0 -0.34998133804897991 0.28679431972205183 0 -0.36337456550908592 0.28941749191533228 0 -0.34998133804897991 0.28679431972205183 0 -0.36337456550908592 0.28941749191533228 0 -0.35696520457300701 0.28326499172780728 0 -0.34998133804897991 0.28679431972205183 0 -0.35290436147651277 0.29843561465736368 0 -0.34998133804897991 0.28679431972205183 0 -0.34233148450892997 0.28529603387954677 0 -0.34998133804897991 0.28679431972205183 0 -0.34233148450892997 0.28529603387954677 0 -0.35696520457300701 0.28326499172780728 0 -0.34998133804897991 0.28679431972205183 0 -0.34233148450892997 0.28529603387954677 0 -0.34233148450892997 0.28529603387954677 0 -0.33342520207507781 0.28355166625079059 0 -0.33691349311946839 0.31278880123960301 0 -0.34233148450892997 0.28529603387954677 0 -0.33342520207507781 0.28355166625079059 0 -0.34233148450892997 0.28529603387954677 0 -0.33342520207507781 0.28355166625079059 0 -0.33324783544175979 0.28206506661364272 0 -0.33342520207507781 0.28355166625079059 0 -0.33083501010922139 0.29868736480638719 0 -0.32702089934552331 0.29216073320518249 0 -0.33342520207507781 0.28355166625079059 0 -0.33324783544175979 0.28206506661364272 0 -0.34233148450892997 0.28529603387954677 0 -0.33691349311946839 0.31278880123960301 0 -0.35178944789718308 0.31326384377316469 0 -0.33342520207507781 0.28355166625079059 0 -0.33691349311946839 0.31278880123960301 0 -0.33342520207507781 0.28355166625079059 0 -0.33083501010922139 0.29868736480638719 0 -0.33691349311946839 0.31278880123960301 0 -0.33083501010922139 0.29868736480638719 0 -0.3298101075078847 0.30759353645186488 0 -0.32624817923498461 0.30332558030217688 0 -0.33083501010922139 0.29868736480638719 0 -0.3298101075078847 0.30759353645186488 0 -0.33691349311946839 0.31278880123960301 0 -0.3298101075078847 0.30759353645186488 0 -0.32635291797494431 0.30755578048912158 0 -0.32938802086093399 0.31397476770227623 0 -0.3298101075078847 0.30759353645186488 0 -0.32938802086093399 0.31397476770227623 0 -0.33691349311946839 0.31278880123960301 0 -0.31996536429597389 0.30532923750016838 0 -0.30562211511745663 0.31419001765028048 0 -0.32938802086093399 0.31397476770227623 0 -0.32635291797494431 0.30755578048912158 0 -0.31996536429597389 0.30532923750016838 0 -0.32938802086093399 0.31397476770227623 0 -0.3298101075078847 0.30759353645186488 0 -0.32635291797494431 0.30755578048912158 0 -0.32624817923498461 0.30332558030217688 0 -0.32635291797494431 0.30755578048912158 0 -0.32624817923498461 0.30332558030217688 0 -0.31996536429597389 0.30532923750016838 0 -0.32624817923498461 0.30332558030217688 0 -0.32319109774024912 0.29725202303367682 0 -0.31996536429597389 0.30532923750016838 0 -0.33083501010922139 0.29868736480638719 0 -0.32624817923498461 0.30332558030217688 0 -0.32319109774024912 0.29725202303367682 0 -0.32319109774024912 0.29725202303367682 0 -0.31996536429597389 0.30532923750016838 0 -0.31181403891036208 0.29632269312241749 0 -0.33342520207507781 0.28355166625079059 0 -0.31089724817384762 0.2791393838176543 0 -0.33342520207507781 0.28355166625079059 0 -0.32063228745754457 0.28915187872987519 0 -0.31089724817384762 0.2791393838176543 0 -0.33342520207507781 0.28355166625079059 0 -0.33324783544175979 0.28206506661364272 0 -0.31089724817384762 0.2791393838176543 0 -0.32063228745754457 0.28915187872987519 0 -0.31089724817384762 0.2791393838176543 0 -0.31181403891036208 0.29632269312241749 0 -0.33342520207507781 0.28355166625079059 0 -0.32702089934552331 0.29216073320518249 0 -0.32063228745754457 0.28915187872987519 0 -0.32319109774024912 0.29725202303367682 0 -0.32702089934552331 0.29216073320518249 0 -0.32063228745754457 0.28915187872987519 0 -0.33083501010922139 0.29868736480638719 0 -0.32319109774024912 0.29725202303367682 0 -0.32702089934552331 0.29216073320518249 0 -0.32319109774024912 0.29725202303367682 0 -0.32063228745754457 0.28915187872987519 0 -0.31181403891036208 0.29632269312241749 0 -0.32442099820557019 0.2627168653194788 0 -0.30762219930103463 0.26189979111203171 0 -0.31089724817384762 0.2791393838176543 0 -0.32442099820557019 0.2627168653194788 0 -0.31089724817384762 0.2791393838176543 0 -0.33324783544175979 0.28206506661364272 0 -0.3267557773654165 0.27284169927763618 0 -0.31089724817384762 0.2791393838176543 0 -0.3267557773654165 0.27284169927763618 0 -0.32442099820557019 0.2627168653194788 0 -0.31089724817384762 0.2791393838176543 0 -0.34233148450892997 0.28529603387954677 0 -0.33602412288711547 0.2666447573279459 0 -0.33324783544175979 0.28206506661364272 0 -0.3267557773654165 0.27284169927763618 0 -0.33602412288711547 0.2666447573279459 0 -0.34807726489019097 0.27296083645517988 0 -0.34233148450892997 0.28529603387954677 0 -0.33602412288711547 0.2666447573279459 0 -0.34233148450892997 0.28529603387954677 0 -0.33324783544175979 0.28206506661364272 0 -0.33602412288711547 0.2666447573279459 0 -0.3267557773654165 0.27284169927763618 0 -0.33602412288711547 0.2666447573279459 0 -0.32442099820557019 0.2627168653194788 0 -0.33794474823729193 0.2462943468213025 0 -0.32442099820557019 0.2627168653194788 0 -0.33794474823729193 0.2462943468213025 0 -0.33602412288711547 0.2666447573279459 0 -0.32442099820557019 0.2627168653194788 0 -0.33794474823729193 0.2462943468213025 0 -0.32082041548708717 0.25046015867422061 0 -0.32442099820557019 0.2627168653194788 0 -0.32082041548708717 0.25046015867422061 0 -0.32442099820557019 0.2627168653194788 0 -0.30762219930103463 0.26189979111203171 0 -0.30806477178239122 0.2443534105402905 0 -0.30762219930103463 0.26189979111203171 0 -0.29273814627298023 0.25310047739325697 0 -0.30806477178239122 0.2443534105402905 0 -0.32082041548708717 0.25046015867422061 0 -0.30762219930103463 0.26189979111203171 0 -0.30762219930103463 0.26189979111203171 0 -0.2986224877965688 0.26454199544144719 0 -0.29273814627298023 0.25310047739325697 0 -0.31089724817384762 0.2791393838176543 0 -0.29085324108974031 0.27521360250903931 0 -0.29340140952858468 0.28388163346327122 0 -0.30762219930103463 0.26189979111203171 0 -0.31089724817384762 0.2791393838176543 0 -0.30105451031600661 0.2709829821807308 0 -0.31089724817384762 0.2791393838176543 0 -0.30105451031600661 0.2709829821807308 0 -0.29085324108974031 0.27521360250903931 0 -0.31089724817384762 0.2791393838176543 0 -0.29085324108974031 0.27521360250903931 0 -0.30762219930103463 0.26189979111203171 0 -0.2986224877965688 0.26454199544144719 0 -0.30105451031600661 0.2709829821807308 0 -0.2986224877965688 0.26454199544144719 0 -0.30105451031600661 0.2709829821807308 0 -0.29307509529625397 0.27218473107976943 0 -0.29085324108974031 0.27521360250903931 0 -0.28740939435417068 0.27680983519128571 0 -0.27080923400563328 0.27128782120042239 0 -0.29085324108974031 0.27521360250903931 0 -0.28626508863132499 0.26761106535722923 0 -0.27080923400563328 0.27128782120042239 0 -0.29085324108974031 0.27521360250903931 0 -0.28740939435417068 0.27680983519128571 0 -0.29340140952858468 0.28388163346327122 0 -0.30105451031600661 0.2709829821807308 0 -0.29085324108974031 0.27521360250903931 0 -0.29307509529625397 0.27218473107976943 0 -0.29085324108974031 0.27521360250903931 0 -0.29307509529625397 0.27218473107976943 0 -0.28626508863132499 0.26761106535722923 0 -0.2986224877965688 0.26454199544144719 0 -0.29307509529625397 0.27218473107976943 0 -0.29273814627298023 0.25310047739325697 0 -0.29307509529625397 0.27218473107976943 0 -0.29273814627298023 0.25310047739325697 0 -0.29307509529625397 0.27218473107976943 0 -0.28626508863132499 0.26761106535722923 0 -0.29273814627298023 0.25310047739325697 0 -0.28626508863132499 0.26761106535722923 0 -0.29273814627298023 0.25310047739325697 0 -0.28202896296579771 0.26111807112144131 0 -0.27739300119014232 0.2498976087937482 0 -0.29273814627298023 0.25310047739325697 0 -0.28202896296579771 0.26111807112144131 0 -0.27739300119014232 0.2498976087937482 0 -0.26238480513058621 0.26577899388075549 0 -0.27739300119014232 0.2498976087937482 0 -0.26238480513058621 0.26577899388075549 0 -0.26434182981645687 0.25094058488530963 0 -0.27739300119014232 0.2498976087937482 0 -0.28202896296579771 0.26111807112144131 0 -0.27080923400563328 0.27128782120042239 0 -0.27739300119014232 0.2498976087937482 0 -0.27080923400563328 0.27128782120042239 0 -0.26238480513058621 0.26577899388075549 0 -0.29085324108974031 0.27521360250903931 0 -0.27080923400563328 0.27128782120042239 0 -0.28626508863132499 0.26761106535722923 0 -0.28202896296579771 0.26111807112144131 0 -0.27080923400563328 0.27128782120042239 0 -0.28740939435417068 0.27680983519128571 0 -0.27080923400563328 0.27128782120042239 0 -0.26654383045280827 0.28623119828848997 0 -0.27080923400563328 0.27128782120042239 0 -0.26128895581232059 0.2766508167422187 0 -0.26654383045280827 0.28623119828848997 0 -0.26238480513058621 0.26577899388075549 0 -0.2473766090710299 0.28166037896776291 0 -0.26238480513058621 0.26577899388075549 0 -0.26128895581232059 0.2766508167422187 0 -0.2473766090710299 0.28166037896776291 0 -0.27080923400563328 0.27128782120042239 0 -0.26238480513058621 0.26577899388075549 0 -0.26128895581232059 0.2766508167422187 0 -0.26238480513058621 0.26577899388075549 0 -0.25292703069924483 0.26651900669448142 0 -0.2473766090710299 0.28166037896776291 0 -0.25292703069924483 0.26651900669448142 0 -0.25609861417151381 0.25605052277617718 0 -0.24909991397027259 0.26088405249251428 0 -0.26238480513058621 0.26577899388075549 0 -0.25292703069924483 0.26651900669448142 0 -0.25609861417151381 0.25605052277617718 0 -0.25609861417151381 0.25605052277617718 0 -0.24747775448132589 0.25266819895304049 0 -0.24909991397027259 0.26088405249251428 0 -0.25727145084114272 0.24379712609696269 0 -0.25609861417151381 0.25605052277617718 0 -0.24747775448132589 0.25266819895304049 0 -0.25727145084114272 0.24379712609696269 0 -0.25609861417151381 0.25605052277617718 0 -0.26434182981645687 0.25094058488530963 0 -0.26238480513058621 0.26577899388075549 0 -0.25609861417151381 0.25605052277617718 0 -0.26434182981645687 0.25094058488530963 0 -0.25789042718056432 0.30265013098191862 0 -0.25050063588921662 0.29773753647149243 0 -0.25380716470350739 0.31465931032116667 0 -0.25050063588921662 0.29773753647149243 0 -0.25380716470350739 0.31465931032116667 0 -0.2460538491720502 0.30362120837674089 0 -0.25050063588921662 0.29773753647149243 0 -0.25380716470350739 0.31465931032116667 0 -0.25789042718056432 0.30265013098191862 0 -0.26057306808043779 0.29484382996021619 0 -0.26668084004909559 0.30335984717479642 0 -0.25789042718056432 0.30265013098191862 0 -0.26668084004909559 0.30335984717479642 0 -0.25380716470350739 0.31465931032116667 0 -0.25789042718056432 0.30265013098191862 0 -0.25050063588921662 0.29773753647149243 0 -0.26057306808043779 0.29484382996021619 0 -0.26654383045280827 0.28623119828848997 0 -0.24567826655144581 0.2956525613856944 0 -0.25050063588921662 0.29773753647149243 0 -0.26057306808043779 0.29484382996021619 0 -0.24567826655144581 0.2956525613856944 0 -0.26654383045280827 0.28623119828848997 0 -0.24552216629469559 0.2881465010030026 0 -0.24567826655144581 0.2956525613856944 0 -0.26128895581232059 0.2766508167422187 0 -0.26654383045280827 0.28623119828848997 0 -0.2473766090710299 0.28166037896776291 0 -0.26057306808043779 0.29484382996021619 0 -0.26654383045280827 0.28623119828848997 0 -0.24567826655144581 0.2956525613856944 0 -0.26654383045280827 0.28623119828848997 0 -0.24552216629469559 0.2881465010030026 0 -0.2473766090710299 0.28166037896776291 0 -0.26057306808043779 0.29484382996021619 0 -0.26654383045280827 0.28623119828848997 0 -0.26668084004909559 0.30335984717479642 0 -0.28740939435417068 0.27680983519128571 0 -0.26654383045280827 0.28623119828848997 0 -0.28147043525125248 0.29147302009040882 0 -0.28740939435417068 0.27680983519128571 0 -0.26654383045280827 0.28623119828848997 0 -0.26654383045280827 0.28623119828848997 0 -0.26668084004909559 0.30335984717479642 0 -0.28147043525125248 0.29147302009040882 0 -0.26668084004909559 0.30335984717479642 0 -0.28185620937397932 0.31440526759828408 0 -0.25380716470350739 0.31465931032116667 0 -0.26668084004909559 0.30335984717479642 0 -0.28147043525125248 0.29147302009040882 0 -0.28185620937397932 0.31440526759828408 0 -0.29637672877391302 0.29677232570796869 0 -0.30562211511745663 0.31419001765028048 0 -0.28185620937397932 0.31440526759828408 0 -0.28147043525125248 0.29147302009040882 0 -0.29637672877391302 0.29677232570796869 0 -0.28185620937397932 0.31440526759828408 0 -0.29637672877391302 0.29677232570796869 0 -0.28185620937397932 0.31440526759828408 0 -0.28740939435417068 0.27680983519128571 0 -0.28147043525125248 0.29147302009040882 0 -0.29340140952858468 0.28388163346327122 0 -0.28147043525125248 0.29147302009040882 0 -0.29637672877391302 0.29677232570796869 0 -0.29340140952858468 0.28388163346327122 0 -0.31089724817384762 0.2791393838176543 0 -0.29637672877391302 0.29677232570796869 0 -0.29340140952858468 0.28388163346327122 0 -0.31089724817384762 0.2791393838176543 0 -0.29637672877391302 0.29677232570796869 0 -0.31089724817384762 0.2791393838176543 0 -0.29637672877391302 0.29677232570796869 0 -0.31181403891036208 0.29632269312241749 0 -0.31996536429597389 0.30532923750016838 0 -0.31181403891036208 0.29632269312241749 0 -0.30562211511745663 0.31419001765028048 0 -0.29637672877391302 0.29677232570796869 0 -0.31181403891036208 0.29632269312241749 0 -0.30562211511745663 0.31419001765028048 0 -0.30562211511745663 0.31419001765028048 0 -0.30882617002347212 0.32665835226438411 0 -0.32055868187189668 0.32326925931144812 0 -0.30562211511745663 0.31419001765028048 0 -0.30882617002347212 0.32665835226438411 0 -0.29706607829107662 0.32433766788163049 0 -0.30305858682018211 0.33723871101451491 0 -0.31392693160122143 0.34739986220294289 0 -0.31769229831007528 0.33475463069358152 0 -0.30882617002347212 0.32665835226438411 0 -0.30305858682018211 0.33723871101451491 0 -0.31769229831007528 0.33475463069358152 0 -0.30882617002347212 0.32665835226438411 0 -0.29706607829107662 0.32433766788163049 0 -0.30305858682018211 0.33723871101451491 0 -0.30305858682018211 0.33723871101451491 0 -0.28596731012029342 0.32919599088068918 0 -0.29471350551989478 0.34589684988561381 0 -0.29706607829107662 0.32433766788163049 0 -0.30305858682018211 0.33723871101451491 0 -0.28596731012029342 0.32919599088068918 0 -0.28596731012029342 0.32919599088068918 0 -0.2835124413248864 0.34473936314640602 0 -0.29471350551989478 0.34589684988561381 0 -0.28596731012029342 0.32919599088068918 0 -0.27705094421634119 0.33701910870316509 0 -0.2835124413248864 0.34473936314640602 0 -0.30562211511745663 0.31419001765028048 0 -0.28185620937397932 0.31440526759828408 0 -0.30562211511745663 0.31419001765028048 0 -0.29706607829107662 0.32433766788163049 0 -0.28185620937397932 0.31440526759828408 0 -0.29706607829107662 0.32433766788163049 0 -0.28596731012029342 0.32919599088068918 0 -0.28185620937397932 0.31440526759828408 0 -0.28185620937397932 0.31440526759828408 0 -0.25380716470350739 0.31465931032116667 0 -0.28185620937397932 0.31440526759828408 0 -0.27050122642421942 0.32819415138432378 0 -0.25380716470350739 0.31465931032116667 0 -0.28185620937397932 0.31440526759828408 0 -0.27050122642421942 0.32819415138432378 0 -0.28596731012029342 0.32919599088068918 0 -0.28185620937397932 0.31440526759828408 0 -0.27050122642421942 0.32819415138432378 0 -0.28596731012029342 0.32919599088068918 0 -0.27705094421634119 0.33701910870316509 0 -0.27050122642421942 0.32819415138432378 0 -0.27705094421634119 0.33701910870316509 0 -0.27200109271270928 0.34612967854435372 0 -0.2835124413248864 0.34473936314640602 0 -0.27705094421634119 0.33701910870316509 0 -0.26961888410183449 0.33903734197325008 0 -0.27200109271270928 0.34612967854435372 0 -0.26961888410183449 0.33903734197325008 0 -0.27050122642421942 0.32819415138432378 0 -0.2591462434744598 0.34198303517036371 0 -0.26961888410183449 0.33903734197325008 0 -0.26596658175057009 0.34372427409081108 0 -0.27200109271270928 0.34612967854435372 0 -0.27705094421634119 0.33701910870316509 0 -0.26961888410183449 0.33903734197325008 0 -0.27050122642421942 0.32819415138432378 0 -0.2591462434744598 0.34198303517036371 0 -0.25270756293501878 0.34980182433866192 0 -0.24330742636243741 0.33512807726625438 0 -0.2591462434744598 0.34198303517036371 0 -0.25380716470350739 0.31465931032116667 0 -0.24330742636243741 0.33512807726625438 0 -0.27050122642421942 0.32819415138432378 0 -0.2591462434744598 0.34198303517036371 0 -0.25380716470350739 0.31465931032116667 0 -0.2591462434744598 0.34198303517036371 0 -0.25380716470350739 0.31465931032116667 0 -0.27050122642421942 0.32819415138432378 0 -0.2591462434744598 0.34198303517036371 0 -0.26961888410183449 0.33903734197325008 0 -0.26596658175057009 0.34372427409081108 0 -0.2591462434744598 0.34198303517036371 0 -0.26459195213134901 0.36985245821751889 0 -0.25200336759263231 0.36266484576205621 0 -0.2479947466348614 0.37352466122982808 0 -0.26459195213134901 0.36985245821751889 0 -0.25200336759263231 0.36266484576205621 0 -0.26037771221738287 0.3482853046320914 0 -0.25200336759263231 0.36266484576205621 0 -0.25270756293501878 0.34980182433866192 0 -0.26037771221738287 0.3482853046320914 0 -0.26459195213134901 0.36985245821751889 0 -0.26037771221738287 0.3482853046320914 0 -0.26729108465451368 0.35407867870710918 0 -0.26459195213134901 0.36985245821751889 0 -0.26037771221738287 0.3482853046320914 0 -0.2591462434744598 0.34198303517036371 0 -0.25270756293501878 0.34980182433866192 0 -0.26037771221738287 0.3482853046320914 0 -0.2591462434744598 0.34198303517036371 0 -0.25270756293501878 0.34980182433866192 0 -0.25270756293501878 0.34980182433866192 0 -0.26037771221738287 0.3482853046320914 0 -0.2591462434744598 0.34198303517036371 0 -0.26037771221738287 0.3482853046320914 0 -0.26310010671327699 0.34774704067527701 0 -0.2591462434744598 0.34198303517036371 0 -0.26037771221738287 0.3482853046320914 0 -0.26037771221738287 0.3482853046320914 0 -0.26310010671327699 0.34774704067527701 0 -0.26729108465451368 0.35407867870710918 0 -0.26037771221738287 0.3482853046320914 0 -0.26310010671327699 0.34774704067527701 0 -0.26596658175057009 0.34372427409081108 0 -0.2591462434744598 0.34198303517036371 0 -0.26310010671327699 0.34774704067527701 0 -0.26729108465451368 0.35407867870710918 0 -0.27200109271270928 0.34612967854435372 0 -0.27638455949785351 0.3583789114663043 0 -0.26596658175057009 0.34372427409081108 0 -0.26310010671327699 0.34774704067527701 0 -0.27200109271270928 0.34612967854435372 0 -0.26310010671327699 0.34774704067527701 0 -0.26729108465451368 0.35407867870710918 0 -0.27200109271270928 0.34612967854435372 0 -0.27200109271270928 0.34612967854435372 0 -0.27638455949785351 0.3583789114663043 0 -0.2835124413248864 0.34473936314640602 0 -0.26459195213134901 0.36985245821751889 0 -0.27638455949785351 0.3583789114663043 0 -0.28575964977858059 0.37567680241266638 0 -0.26459195213134901 0.36985245821751889 0 -0.26729108465451368 0.35407867870710918 0 -0.27638455949785351 0.3583789114663043 0 -0.27638455949785351 0.3583789114663043 0 -0.29025769790093459 0.35776506435084288 0 -0.28575964977858059 0.37567680241266638 0 -0.29025769790093459 0.35776506435084288 0 -0.29948958143226079 0.36685993442420228 0 -0.28575964977858059 0.37567680241266638 0 -0.27638455949785351 0.3583789114663043 0 -0.2835124413248864 0.34473936314640602 0 -0.29025769790093459 0.35776506435084288 0 -0.29025769790093459 0.35776506435084288 0 -0.29471350551989478 0.34589684988561381 0 -0.30241391068564538 0.35384425633854599 0 -0.2835124413248864 0.34473936314640602 0 -0.29025769790093459 0.35776506435084288 0 -0.29471350551989478 0.34589684988561381 0 -0.30305858682018211 0.33723871101451491 0 -0.29471350551989478 0.34589684988561381 0 -0.30241391068564538 0.35384425633854599 0 -0.30305858682018211 0.33723871101451491 0 -0.30241391068564538 0.35384425633854599 0 -0.31392693160122143 0.34739986220294289 0 -0.30241391068564538 0.35384425633854599 0 -0.31244235661057618 0.36339190192454351 0 -0.31392693160122143 0.34739986220294289 0 -0.29948958143226079 0.36685993442420228 0 -0.31244235661057618 0.36339190192454351 0 -0.30853729317346867 0.38075992599654301 0 -0.29948958143226079 0.36685993442420228 0 -0.30853729317346867 0.38075992599654301 0 -0.28575964977858059 0.37567680241266638 0 -0.29025769790093459 0.35776506435084288 0 -0.30241391068564538 0.35384425633854599 0 -0.29948958143226079 0.36685993442420228 0 -0.30241391068564538 0.35384425633854599 0 -0.29948958143226079 0.36685993442420228 0 -0.31244235661057618 0.36339190192454351 0 -0.31244235661057618 0.36339190192454351 0 -0.32386506143722288 0.37348330693125797 0 -0.30853729317346867 0.38075992599654301 0 -0.31244235661057618 0.36339190192454351 0 -0.32386506143722288 0.37348330693125797 0 -0.3267644468988587 0.3573001272142638 0 -0.32386506143722288 0.37348330693125797 0 -0.3267644468988587 0.3573001272142638 0 -0.34389007520824788 0.37126307121722768 0 -0.34040178416385819 0.34202593622841532 0 -0.34389007520824788 0.37126307121722768 0 -0.3267644468988587 0.3573001272142638 0 -0.34040178416385819 0.34202593622841532 0 -0.34389007520824788 0.37126307121722768 0 -0.3267644468988587 0.3573001272142638 0 -0.32615934270771518 0.34212262383528369 0 -0.34040178416385819 0.34202593622841532 0 -0.3267644468988587 0.3573001272142638 0 -0.31392693160122143 0.34739986220294289 0 -0.32615934270771518 0.34212262383528369 0 -0.31244235661057618 0.36339190192454351 0 -0.3267644468988587 0.3573001272142638 0 -0.31392693160122143 0.34739986220294289 0 -0.31392693160122143 0.34739986220294289 0 -0.31769229831007528 0.33475463069358152 0 -0.32615934270771518 0.34212262383528369 0 -0.30882617002347212 0.32665835226438411 0 -0.31769229831007528 0.33475463069358152 0 -0.32055868187189668 0.32326925931144812 0 -0.31769229831007528 0.33475463069358152 0 -0.32615934270771518 0.34212262383528369 0 -0.33201125256456271 0.32913256283721498 0 -0.31769229831007528 0.33475463069358152 0 -0.32055868187189668 0.32326925931144812 0 -0.33201125256456271 0.32913256283721498 0 -0.30562211511745663 0.31419001765028048 0 -0.32938802086093399 0.31397476770227623 0 -0.30562211511745663 0.31419001765028048 0 -0.32055868187189668 0.32326925931144812 0 -0.32938802086093399 0.31397476770227623 0 -0.32055868187189668 0.32326925931144812 0 -0.32955316460928441 0.3203719148482253 0 -0.33201125256456271 0.32913256283721498 0 -0.32055868187189668 0.32326925931144812 0 -0.32938802086093399 0.31397476770227623 0 -0.32955316460928441 0.3203719148482253 0 -0.33691349311946839 0.31278880123960301 0 -0.34040178416385819 0.34202593622841532 0 -0.34493207201903497 0.32610782444177711 0 -0.33691349311946839 0.31278880123960301 0 -0.34040178416385819 0.34202593622841532 0 -0.33691349311946839 0.31278880123960301 0 -0.33201125256456271 0.32913256283721498 0 -0.34040178416385819 0.34202593622841532 0 -0.32955316460928441 0.3203719148482253 0 -0.33691349311946839 0.31278880123960301 0 -0.33201125256456271 0.32913256283721498 0 -0.32938802086093399 0.31397476770227623 0 -0.32955316460928441 0.3203719148482253 0 -0.33691349311946839 0.31278880123960301 0 -0.32615934270771518 0.34212262383528369 0 -0.33201125256456271 0.32913256283721498 0 -0.34040178416385819 0.34202593622841532 0 -0.34995486304849788 0.33573443919456752 0 -0.36124741128543603 0.34123165366678287 0 -0.34819384061074338 0.35307520667217962 0 -0.34995486304849788 0.33573443919456752 0 -0.35178944789718308 0.31326384377316469 0 -0.36124741128543603 0.34123165366678287 0 -0.34040178416385819 0.34202593622841532 0 -0.34995486304849788 0.33573443919456752 0 -0.34493207201903497 0.32610782444177711 0 -0.34040178416385819 0.34202593622841532 0 -0.34995486304849788 0.33573443919456752 0 -0.34819384061074338 0.35307520667217962 0 -0.34995486304849788 0.33573443919456752 0 -0.34493207201903497 0.32610782444177711 0 -0.35178944789718308 0.31326384377316469 0 -0.35178944789718308 0.31326384377316469 0 -0.36124741128543603 0.34123165366678287 0 -0.33691349311946839 0.31278880123960301 0 -0.34493207201903497 0.32610782444177711 0 -0.35178944789718308 0.31326384377316469 0 -0.38238491141712289 0.32322098917414022 0 -0.3661327269975313 0.30526497203366071 0 -0.38238491141712289 0.32322098917414022 0 -0.3661327269975313 0.30526497203366071 0 -0.36796266564545121 0.3245537925308748 0 -0.3661327269975313 0.30526497203366071 0 -0.35178944789718308 0.31326384377316469 0 -0.36796266564545121 0.3245537925308748 0 -0.35178944789718308 0.31326384377316469 0 -0.36796266564545121 0.3245537925308748 0 -0.36124741128543603 0.34123165366678287 0 -0.37876898870174192 0.34145368770627038 0 -0.36796266564545121 0.3245537925308748 0 -0.36124741128543603 0.34123165366678287 0 -0.36124741128543603 0.34123165366678287 0 -0.36933936884233193 0.35052873935918971 0 -0.34819384061074338 0.35307520667217962 0 -0.36933936884233193 0.35052873935918971 0 -0.36333777948732338 0.36129426325208019 0 -0.34819384061074338 0.35307520667217962 0 -0.37947634124082502 0.3568556887515642 0 -0.36933936884233193 0.35052873935918971 0 -0.36333777948732338 0.36129426325208019 0 -0.37876898870174192 0.34145368770627038 0 -0.36124741128543603 0.34123165366678287 0 -0.36933936884233193 0.35052873935918971 0 -0.37578790504521442 0.3718181929392439 0 -0.37947634124082502 0.3568556887515642 0 -0.36333777948732338 0.36129426325208019 0 -0.37578790504521442 0.3718181929392439 0 -0.36333777948732338 0.36129426325208019 0 -0.3601231934926532 0.37822229363497017 0 -0.34389007520824788 0.37126307121722768 0 -0.34819384061074338 0.35307520667217962 0 -0.3601231934926532 0.37822229363497017 0 -0.36333777948732338 0.36129426325208019 0 -0.34819384061074338 0.35307520667217962 0 -0.3601231934926532 0.37822229363497017 0 -0.34819384061074338 0.35307520667217962 0 -0.3601231934926532 0.37822229363497017 0 -0.34040178416385819 0.34202593622841532 0 -0.34389007520824788 0.37126307121722768 0 -0.34819384061074338 0.35307520667217962 0 -0.35871375583178572 0.40492844361452862 0 -0.34806452102887148 0.39948881645879608 0 -0.35338357400425902 0.41308766054152418 0 -0.35741359874124462 0.39427079887023381 0 -0.35871375583178572 0.40492844361452862 0 -0.34806452102887148 0.39948881645879608 0 -0.35741359874124462 0.39427079887023381 0 -0.34806452102887148 0.39948881645879608 0 -0.34811397697835023 0.38534506004511287 0 -0.34389007520824788 0.37126307121722768 0 -0.34811397697835023 0.38534506004511287 0 -0.3601231934926532 0.37822229363497017 0 -0.35741359874124462 0.39427079887023381 0 -0.34811397697835023 0.38534506004511287 0 -0.3601231934926532 0.37822229363497017 0 -0.3601231934926532 0.37822229363497017 0 -0.3734654164974382 0.38729605376202009 0 -0.3720525463745622 0.40336938059776112 0 -0.37578790504521442 0.3718181929392439 0 -0.3601231934926532 0.37822229363497017 0 -0.3734654164974382 0.38729605376202009 0 -0.35741359874124462 0.39427079887023381 0 -0.3601231934926532 0.37822229363497017 0 -0.3720525463745622 0.40336938059776112 0 -0.3601231934926532 0.37822229363497017 0 -0.3720525463745622 0.40336938059776112 0 -0.35741359874124462 0.39427079887023381 0 -0.35871375583178572 0.40492844361452862 0 -0.3720525463745622 0.40336938059776112 0 -0.37663839875093391 0.41303636166946828 0 -0.3720525463745622 0.40336938059776112 0 -0.37663839875093391 0.41303636166946828 0 -0.3720525463745622 0.40336938059776112 0 -0.36146654035272557 0.41831141868918659 0 -0.37663839875093391 0.41303636166946828 0 -0.3739796580857051 0.42506441976553888 0 -0.36185490894350891 0.42724009017399228 0 -0.37663839875093391 0.41303636166946828 0 -0.36185490894350891 0.42724009017399228 0 -0.37663839875093391 0.41303636166946828 0 -0.36146654035272557 0.41831141868918659 0 -0.36185490894350891 0.42724009017399228 0 -0.35871375583178572 0.40492844361452862 0 -0.3720525463745622 0.40336938059776112 0 -0.36146654035272557 0.41831141868918659 0 -0.3720525463745622 0.40336938059776112 0 -0.36146654035272557 0.41831141868918659 0 -0.37094967347129609 0.43597114105826601 0 -0.3739796580857051 0.42506441976553888 0 -0.36185490894350891 0.42724009017399228 0 -0.37094967347129609 0.43597114105826601 0 -0.36185490894350891 0.42724009017399228 0 -0.36031937943803349 0.4410036038194653 0 -0.36185490894350891 0.42724009017399228 0 -0.34707141913608591 0.44144381867851851 0 -0.36185490894350891 0.42724009017399228 0 -0.34707141913608591 0.44144381867851851 0 -0.36031937943803349 0.4410036038194653 0 -0.36185490894350891 0.42724009017399228 0 -0.35088053433089039 0.43325345678061328 0 -0.34707141913608591 0.44144381867851851 0 -0.36146654035272557 0.41831141868918659 0 -0.3502521655395005 0.42233215056768991 0 -0.35088053433089039 0.43325345678061328 0 -0.36146654035272557 0.41831141868918659 0 -0.36185490894350891 0.42724009017399228 0 -0.35088053433089039 0.43325345678061328 0 -0.36146654035272557 0.41831141868918659 0 -0.35088053433089039 0.43325345678061328 0 -0.3502521655395005 0.42233215056768991 0 -0.34284831863018111 0.41634190193513498 0 -0.34268186037944642 0.43066631489199048 0 -0.3502521655395005 0.42233215056768991 0 -0.35088053433089039 0.43325345678061328 0 -0.34268186037944642 0.43066631489199048 0 -0.35088053433089039 0.43325345678061328 0 -0.34268186037944642 0.43066631489199048 0 -0.34707141913608591 0.44144381867851851 0 -0.34806452102887148 0.39948881645879608 0 -0.35338357400425902 0.41308766054152418 0 -0.34284831863018111 0.41634190193513498 0 -0.35871375583178572 0.40492844361452862 0 -0.36146654035272557 0.41831141868918659 0 -0.35338357400425902 0.41308766054152418 0 -0.36146654035272557 0.41831141868918659 0 -0.3502521655395005 0.42233215056768991 0 -0.35338357400425902 0.41308766054152418 0 -0.3502521655395005 0.42233215056768991 0 -0.35338357400425902 0.41308766054152418 0 -0.34284831863018111 0.41634190193513498 0 -0.33296803257016577 0.40774291801663659 0 -0.34284831863018111 0.41634190193513498 0 -0.32691235369307381 0.42761001032127732 0 -0.34806452102887148 0.39948881645879608 0 -0.33296803257016577 0.40774291801663659 0 -0.34284831863018111 0.41634190193513498 0 -0.34284831863018111 0.41634190193513498 0 -0.34268186037944642 0.43066631489199048 0 -0.32691235369307381 0.42761001032127732 0 -0.34268186037944642 0.43066631489199048 0 -0.32691235369307381 0.42761001032127732 0 -0.33699374623612721 0.44086602349531911 0 -0.32691235369307381 0.42761001032127732 0 -0.31633212807502048 0.40671121945674771 0 -0.29922651536377692 0.42362897386023102 0 -0.33296803257016577 0.40774291801663659 0 -0.32691235369307381 0.42761001032127732 0 -0.31633212807502048 0.40671121945674771 0 -0.33296803257016577 0.40774291801663659 0 -0.31633212807502048 0.40671121945674771 0 -0.33068284142368182 0.38856264191122669 0 -0.31633212807502048 0.40671121945674771 0 -0.33068284142368182 0.38856264191122669 0 -0.30853729317346867 0.38075992599654301 0 -0.34806452102887148 0.39948881645879608 0 -0.34811397697835023 0.38534506004511287 0 -0.33068284142368182 0.38856264191122669 0 -0.34806452102887148 0.39948881645879608 0 -0.33296803257016577 0.40774291801663659 0 -0.33068284142368182 0.38856264191122669 0 -0.32386506143722288 0.37348330693125797 0 -0.34389007520824788 0.37126307121722768 0 -0.33068284142368182 0.38856264191122669 0 -0.34389007520824788 0.37126307121722768 0 -0.34811397697835023 0.38534506004511287 0 -0.33068284142368182 0.38856264191122669 0 -0.32386506143722288 0.37348330693125797 0 -0.33068284142368182 0.38856264191122669 0 -0.30853729317346867 0.38075992599654301 0 -0.31633212807502048 0.40671121945674771 0 -0.30853729317346867 0.38075992599654301 0 -0.29256916006016892 0.39906541562984721 0 -0.31633212807502048 0.40671121945674771 0 -0.29256916006016892 0.39906541562984721 0 -0.30853729317346867 0.38075992599654301 0 -0.29256916006016892 0.39906541562984721 0 -0.28575964977858059 0.37567680241266638 0 -0.29256916006016892 0.39906541562984721 0 -0.28575964977858059 0.37567680241266638 0 -0.2688061920453173 0.39141961180294621 0 -0.26459195213134901 0.36985245821751889 0 -0.2688061920453173 0.39141961180294621 0 -0.26459195213134901 0.36985245821751889 0 -0.28575964977858059 0.37567680241266638 0 -0.2688061920453173 0.39141961180294621 0 -0.29256916006016892 0.39906541562984721 0 -0.2688061920453173 0.39141961180294621 0 -0.27378854132207647 0.41691770736980938 0 -0.29256916006016892 0.39906541562984721 0 -0.2688061920453173 0.39141961180294621 0 -0.2688061920453173 0.39141961180294621 0 -0.27378854132207647 0.41691770736980938 0 -0.2688061920453173 0.39141961180294621 0 -0.25196346146775661 0.4045087982104385 0 -0.27378854132207647 0.41691770736980938 0 -0.2688061920453173 0.39141961180294621 0 -0.25196346146775661 0.4045087982104385 0 -0.2517011221411829 0.3859160059886102 0 -0.26459195213134901 0.36985245821751889 0 -0.2688061920453173 0.39141961180294621 0 -0.2517011221411829 0.3859160059886102 0 -0.26459195213134901 0.36985245821751889 0 -0.2517011221411829 0.3859160059886102 0 -0.2479947466348614 0.37352466122982808 0 -0.2688061920453173 0.39141961180294621 0 -0.2517011221411829 0.3859160059886102 0 -0.25196346146775661 0.4045087982104385 0 -0.25641654511452738 0.43119935750548388 0 -0.27378854132207647 0.41691770736980938 0 -0.25641654511452738 0.43119935750548388 0 -0.27378854132207647 0.41691770736980938 0 -0.27877089059883481 0.44241580293667282 0 -0.27378854132207647 0.41691770736980938 0 -0.27877089059883481 0.44241580293667282 0 -0.27378854132207647 0.41691770736980938 0 -0.29922651536377692 0.42362897386023102 0 -0.27877089059883481 0.44241580293667282 0 -0.29256916006016892 0.39906541562984721 0 -0.27378854132207647 0.41691770736980938 0 -0.29922651536377692 0.42362897386023102 0 -0.31633212807502048 0.40671121945674771 0 -0.29256916006016892 0.39906541562984721 0 -0.29922651536377692 0.42362897386023102 0 -0.32691235369307381 0.42761001032127732 0 -0.29922651536377692 0.42362897386023102 0 -0.30698601843348738 0.44905368744703172 0 -0.30698601843348738 0.44905368744703172 0 -0.30192348974272382 0.47496689697898747 0 -0.32512233792875522 0.4713392691028403 0 -0.30698601843348738 0.44905368744703172 0 -0.28375323987559292 0.46791389850353621 0 -0.30192348974272382 0.47496689697898747 0 -0.30698601843348738 0.44905368744703172 0 -0.28375323987559292 0.46791389850353621 0 -0.27877089059883481 0.44241580293667282 0 -0.28375323987559292 0.46791389850353621 0 -0.27877089059883481 0.44241580293667282 0 -0.29922651536377692 0.42362897386023102 0 -0.30698601843348738 0.44905368744703172 0 -0.27877089059883481 0.44241580293667282 0 -0.25641654511452738 0.43119935750548388 0 -0.27877089059883481 0.44241580293667282 0 -0.26535662919000541 0.45580289739199492 0 -0.28375323987559292 0.46791389850353621 0 -0.26535662919000541 0.45580289739199492 0 -0.26848732538941528 0.47389662767678692 0 -0.28375323987559292 0.46791389850353621 0 -0.27877089059883481 0.44241580293667282 0 -0.26535662919000541 0.45580289739199492 0 -0.26535662919000541 0.45580289739199492 0 -0.25502281106591768 0.47026197411212167 0 -0.26848732538941528 0.47389662767678692 0 -0.26535662919000541 0.45580289739199492 0 -0.25502281106591768 0.47026197411212167 0 -0.24742697334070379 0.45181341538248071 0 -0.25502281106591768 0.47026197411212167 0 -0.24742697334070379 0.45181341538248071 0 -0.25641654511452738 0.43119935750548388 0 -0.26535662919000541 0.45580289739199492 0 -0.24742697334070379 0.45181341538248071 0 -0.26261864879113123 0.48871053284176291 0 -0.24385163168021851 0.49999999999999861 0 -0.24411887685538569 0.48641927337025331 0 -0.26261864879113123 0.48871053284176291 0 -0.26726686883882261 0.50000000000000144 0 -0.24385163168021851 0.49999999999999861 0 -0.26261864879113123 0.48871053284176291 0 -0.26726686883882261 0.50000000000000144 0 -0.26261864879113123 0.48871053284176291 0 -0.25502281106591768 0.47026197411212167 0 -0.26848732538941528 0.47389662767678692 0 -0.26261864879113123 0.48871053284176291 0 -0.24451455346417789 0.47295912738400769 0 -0.26261864879113123 0.48871053284176291 0 -0.25502281106591768 0.47026197411212167 0 -0.26261864879113123 0.48871053284176291 0 -0.24451455346417789 0.47295912738400769 0 -0.24411887685538569 0.48641927337025331 0 -0.26261864879113123 0.48871053284176291 0 -0.25502281106591768 0.47026197411212167 0 -0.24451455346417789 0.47295912738400769 0 -0.26261864879113123 0.48871053284176291 0 -0.26848732538941528 0.47389662767678692 0 -0.27594393798660072 0.48437662284752192 0 -0.28375323987559292 0.46791389850353621 0 -0.26848732538941528 0.47389662767678692 0 -0.27594393798660072 0.48437662284752192 0 -0.27594393798660072 0.48437662284752192 0 -0.27559435373195879 0.49999999999999878 0 -0.28978340206924741 0.48652762984152909 0 -0.26261864879113123 0.48871053284176291 0 -0.27594393798660072 0.48437662284752192 0 -0.27559435373195879 0.49999999999999878 0 -0.26261864879113123 0.48871053284176291 0 -0.26726686883882261 0.50000000000000144 0 -0.27559435373195879 0.49999999999999878 0 -0.26261864879113123 0.48871053284176291 0 -0.27559435373195879 0.49999999999999878 0 -0.27559435373195879 0.49999999999999878 0 -0.28978340206924741 0.48652762984152909 0 -0.30397245040653631 0.5 0 -0.28375323987559292 0.46791389850353621 0 -0.28978340206924741 0.48652762984152909 0 -0.30192348974272382 0.47496689697898747 0 -0.28375323987559292 0.46791389850353621 0 -0.27594393798660072 0.48437662284752192 0 -0.28978340206924741 0.48652762984152909 0 -0.30192348974272382 0.47496689697898747 0 -0.30397245040653631 0.5 0 -0.32512233792875522 0.4713392691028403 0 -0.28978340206924741 0.48652762984152909 0 -0.30192348974272382 0.47496689697898747 0 -0.30397245040653631 0.5 0 -0.33235054708111389 0.5 0 -0.32512233792875522 0.4713392691028403 0 -0.35277805206313612 0.46801805970875549 0 -0.30397245040653631 0.5 0 -0.33235054708111389 0.5 0 -0.32512233792875522 0.4713392691028403 0 -0.32512233792875522 0.4713392691028403 0 -0.35277805206313612 0.46801805970875549 0 -0.30698601843348738 0.44905368744703172 0 -0.32512233792875522 0.4713392691028403 0 -0.32737819422055131 0.44931013294199301 0 -0.32691235369307381 0.42761001032127732 0 -0.30698601843348738 0.44905368744703172 0 -0.32737819422055131 0.44931013294199301 0 -0.32691235369307381 0.42761001032127732 0 -0.32737819422055131 0.44931013294199301 0 -0.33699374623612721 0.44086602349531911 0 -0.32737819422055131 0.44931013294199301 0 -0.33699374623612721 0.44086602349531911 0 -0.34092490375147849 0.4552998406428162 0 -0.33699374623612721 0.44086602349531911 0 -0.34092490375147849 0.4552998406428162 0 -0.34707141913608591 0.44144381867851851 0 -0.34268186037944642 0.43066631489199048 0 -0.33699374623612721 0.44086602349531911 0 -0.34707141913608591 0.44144381867851851 0 -0.32512233792875522 0.4713392691028403 0 -0.32737819422055131 0.44931013294199301 0 -0.34092490375147849 0.4552998406428162 0 -0.32512233792875522 0.4713392691028403 0 -0.34092490375147849 0.4552998406428162 0 -0.35277805206313612 0.46801805970875549 0 -0.34092490375147849 0.4552998406428162 0 -0.35277805206313612 0.46801805970875549 0 -0.35349147411650861 0.45129569688089283 0 -0.35277805206313612 0.46801805970875549 0 -0.35349147411650861 0.45129569688089283 0 -0.36619148805679169 0.45026802838349639 0 -0.34092490375147849 0.4552998406428162 0 -0.34707141913608591 0.44144381867851851 0 -0.35349147411650861 0.45129569688089283 0 -0.34707141913608591 0.44144381867851851 0 -0.35349147411650861 0.45129569688089283 0 -0.36031937943803349 0.4410036038194653 0 -0.37094967347129609 0.43597114105826601 0 -0.36031937943803349 0.4410036038194653 0 -0.36619148805679169 0.45026802838349639 0 -0.35349147411650861 0.45129569688089283 0 -0.36031937943803349 0.4410036038194653 0 -0.36619148805679169 0.45026802838349639 0 -0.37917353421580752 0.44594847604030191 0 -0.37094967347129609 0.43597114105826601 0 -0.36619148805679169 0.45026802838349639 0 -0.38043376619751701 0.46469685031467078 0 -0.35277805206313612 0.46801805970875549 0 -0.36619148805679169 0.45026802838349639 0 -0.38043376619751701 0.46469685031467078 0 -0.35277805206313612 0.46801805970875549 0 -0.33235054708111389 0.5 0 -0.35277805206313612 0.46801805970875549 0 -0.36072864375569141 0.5 0 -0.35277805206313612 0.46801805970875549 0 -0.37479402773925369 0.48345061054471988 0 -0.36072864375569141 0.5 0 -0.38043376619751701 0.46469685031467078 0 -0.35277805206313612 0.46801805970875549 0 -0.37479402773925369 0.48345061054471988 0 -0.38910674043026883 0.5 0 -0.37479402773925369 0.48345061054471988 0 -0.36072864375569141 0.5 0 -0.15169828430521071 0.47316940828127679 0 -0.15143502834472719 0.49519326621148019 0 -0.142973916337021 0.48407862635776489 0 -0.15169828430521071 0.47316940828127679 0 -0.15143502834472719 0.49519326621148019 0 -0.142973916337021 0.48407862635776489 0 -0.14084511507447911 0.47454800699929278 0 -0.15169828430521071 0.47316940828127679 0 -0.14084511507447911 0.47454800699929278 0 -0.15169828430521071 0.47316940828127679 0 -0.13835721212779389 0.46284774265826528 0 -0.15143502834472719 0.49519326621148019 0 -0.12989931658880219 0.5 0 -0.1568155119433825 0.5 0 -0.142973916337021 0.48407862635776489 0 -0.15143502834472719 0.49519326621148019 0 -0.12989931658880219 0.5 0 -0.15169828430521071 0.47316940828127679 0 -0.15143502834472719 0.49519326621148019 0 -0.1625128434288943 0.48838494498827689 0 -0.12989931658880219 0.5 0 -0.13035104752789081 0.47809625069986389 0 -0.117102535461582 0.48686981281920849 0 -0.142973916337021 0.48407862635776489 0 -0.12989931658880219 0.5 0 -0.13035104752789081 0.47809625069986389 0 -0.13035104752789081 0.47809625069986389 0 -0.13835721212779389 0.46284774265826528 0 -0.1185012435203201 0.46927925235729062 0 -0.142973916337021 0.48407862635776489 0 -0.14084511507447911 0.47454800699929278 0 -0.13035104752789081 0.47809625069986389 0 -0.14084511507447911 0.47454800699929278 0 -0.13035104752789081 0.47809625069986389 0 -0.13835721212779389 0.46284774265826528 0 -0.13835721212779389 0.46284774265826528 0 -0.12448230083334889 0.45650400003295732 0 -0.1185012435203201 0.46927925235729062 0 -0.13835721212779389 0.46284774265826528 0 -0.13371725689362179 0.44724190180039608 0 -0.12448230083334889 0.45650400003295732 0 -0.13371725689362179 0.44724190180039608 0 -0.12507756614931231 0.43410096216537541 0 -0.12178995440549591 0.44512499793160332 0 -0.13371725689362179 0.44724190180039608 0 -0.12178995440549591 0.44512499793160332 0 -0.12448230083334889 0.45650400003295732 0 -0.13371725689362179 0.44724190180039608 0 -0.1406349675800885 0.43372815766310191 0 -0.12507756614931231 0.43410096216537541 0 -0.1519615402656922 0.45114555035107351 0 -0.1520669395303689 0.44232790220801982 0 -0.1406349675800885 0.43372815766310191 0 -0.13371725689362179 0.44724190180039608 0 -0.1519615402656922 0.45114555035107351 0 -0.1406349675800885 0.43372815766310191 0 -0.1519615402656922 0.45114555035107351 0 -0.1406349675800885 0.43372815766310191 0 -0.1520669395303689 0.44232790220801982 0 -0.1406349675800885 0.43372815766310191 0 -0.1519615402656922 0.45114555035107351 0 -0.1520669395303689 0.44232790220801982 0 -0.13835721212779389 0.46284774265826528 0 -0.13371725689362179 0.44724190180039608 0 -0.1519615402656922 0.45114555035107351 0 -0.15169828430521071 0.47316940828127679 0 -0.1519615402656922 0.45114555035107351 0 -0.15169828430521071 0.47316940828127679 0 -0.13835721212779389 0.46284774265826528 0 -0.1519615402656922 0.45114555035107351 0 -0.1519615402656922 0.45114555035107351 0 -0.16784662378182619 0.47557277517553831 0 -0.15169828430521071 0.47316940828127679 0 -0.1519615402656922 0.45114555035107351 0 -0.16784662378182619 0.47557277517553831 0 -0.1519615402656922 0.45114555035107351 0 -0.17500097680015711 0.45958011930244691 0 -0.16784662378182619 0.47557277517553831 0 -0.1519615402656922 0.45114555035107351 0 -0.1520669395303689 0.44232790220801982 0 -0.17500097680015711 0.45958011930244691 0 -0.1520669395303689 0.44232790220801982 0 -0.17332503035440741 0.44689887834850078 0 -0.17500097680015711 0.45958011930244691 0 -0.1520669395303689 0.44232790220801982 0 -0.17500097680015711 0.45958011930244691 0 -0.1520669395303689 0.44232790220801982 0 -0.1694898447109324 0.43892982433020272 0 -0.17332503035440741 0.44689887834850078 0 -0.1520669395303689 0.44232790220801982 0 -0.1694898447109324 0.43892982433020272 0 -0.16104620061652439 0.43447046083409718 0 -0.1694898447109324 0.43892982433020272 0 -0.17332503035440741 0.44689887834850078 0 -0.18129863363297349 0.4416342461361023 0 -0.1694898447109324 0.43892982433020272 0 -0.18129863363297349 0.4416342461361023 0 -0.17692269096856941 0.43367655050588227 0 -0.17332503035440741 0.44689887834850078 0 -0.17500097680015711 0.45958011930244691 0 -0.18876875709760671 0.45202229976573272 0 -0.17332503035440741 0.44689887834850078 0 -0.18129863363297349 0.4416342461361023 0 -0.18876875709760671 0.45202229976573272 0 -0.18129863363297349 0.4416342461361023 0 -0.1932701227617025 0.44083826087666039 0 -0.18482624364415551 0.43223326673590551 0 -0.17500097680015711 0.45958011930244691 0 -0.1979350140699436 0.47683233639687661 0 -0.17500097680015711 0.45958011930244691 0 -0.1979350140699436 0.47683233639687661 0 -0.18876875709760671 0.45202229976573272 0 -0.17500097680015711 0.45958011930244691 0 -0.16784662378182619 0.47557277517553831 0 -0.1979350140699436 0.47683233639687661 0 -0.16784662378182619 0.47557277517553831 0 -0.1837317072979629 0.50000000000000155 0 -0.1979350140699436 0.47683233639687661 0 -0.15169828430521071 0.47316940828127679 0 -0.16784662378182619 0.47557277517553831 0 -0.1625128434288943 0.48838494498827689 0 -0.1568155119433825 0.5 0 -0.1625128434288943 0.48838494498827689 0 -0.1837317072979629 0.50000000000000155 0 -0.16784662378182619 0.47557277517553831 0 -0.1625128434288943 0.48838494498827689 0 -0.1837317072979629 0.50000000000000155 0 -0.15143502834472719 0.49519326621148019 0 -0.1568155119433825 0.5 0 -0.1625128434288943 0.48838494498827689 0 -0.16784662378182619 0.47557277517553831 0 -0.1837317072979629 0.50000000000000155 0 -0.1837317072979629 0.50000000000000155 0 -0.1979350140699436 0.47683233639687661 0 -0.2137916694890907 0.5 0 -0.21138991120185679 0.48166009387935133 0 -0.2254906734860149 0.4840074332552427 0 -0.20712971529181079 0.46801486651048768 0 -0.2254906734860149 0.4840074332552427 0 -0.20712971529181079 0.46801486651048768 0 -0.1979350140699436 0.47683233639687661 0 -0.21138991120185679 0.48166009387935133 0 -0.20712971529181079 0.46801486651048768 0 -0.21138991120185679 0.48166009387935133 0 -0.2137916694890907 0.5 0 -0.2254906734860149 0.4840074332552427 0 -0.1979350140699436 0.47683233639687661 0 -0.21138991120185679 0.48166009387935133 0 -0.2137916694890907 0.5 0 -0.2137916694890907 0.5 0 -0.2254906734860149 0.4840074332552427 0 -0.24385163168021851 0.49999999999999861 0 -0.2254906734860149 0.4840074332552427 0 -0.22588635009480709 0.47054728726899758 0 -0.24451455346417789 0.47295912738400769 0 -0.2254906734860149 0.4840074332552427 0 -0.22588635009480709 0.47054728726899758 0 -0.20712971529181079 0.46801486651048768 0 -0.2254906734860149 0.4840074332552427 0 -0.24451455346417789 0.47295912738400769 0 -0.24411887685538569 0.48641927337025331 0 -0.2254906734860149 0.4840074332552427 0 -0.24385163168021851 0.49999999999999861 0 -0.24411887685538569 0.48641927337025331 0 -0.2254906734860149 0.4840074332552427 0 -0.24385163168021851 0.49999999999999861 0 -0.25641654511452738 0.43119935750548388 0 -0.24742697334070379 0.45181341538248071 0 -0.23246444304955641 0.43722452166784931 0 -0.24742697334070379 0.45181341538248071 0 -0.22641045813722471 0.45720772192625231 0 -0.23246444304955641 0.43722452166784931 0 -0.25502281106591768 0.47026197411212167 0 -0.24451455346417789 0.47295912738400769 0 -0.24742697334070379 0.45181341538248071 0 -0.24451455346417789 0.47295912738400769 0 -0.22641045813722471 0.45720772192625231 0 -0.24451455346417789 0.47295912738400769 0 -0.24742697334070379 0.45181341538248071 0 -0.22641045813722471 0.45720772192625231 0 -0.22588635009480709 0.47054728726899758 0 -0.24451455346417789 0.47295912738400769 0 -0.22641045813722471 0.45720772192625231 0 -0.22588635009480709 0.47054728726899758 0 -0.22641045813722471 0.45720772192625231 0 -0.20712971529181079 0.46801486651048768 0 -0.22641045813722471 0.45720772192625231 0 -0.20830636281027159 0.44145631646849681 0 -0.23246444304955641 0.43722452166784931 0 -0.22641045813722471 0.45720772192625231 0 -0.20830636281027159 0.44145631646849681 0 -0.20327231322329059 0.45383647245285968 0 -0.22641045813722471 0.45720772192625231 0 -0.20830636281027159 0.44145631646849681 0 -0.22641045813722471 0.45720772192625231 0 -0.20327231322329059 0.45383647245285968 0 -0.20712971529181079 0.46801486651048768 0 -0.20327231322329059 0.45383647245285968 0 -0.20712971529181079 0.46801486651048768 0 -0.18876875709760671 0.45202229976573272 0 -0.20712971529181079 0.46801486651048768 0 -0.18876875709760671 0.45202229976573272 0 -0.1979350140699436 0.47683233639687661 0 -0.20712971529181079 0.46801486651048768 0 -0.18876875709760671 0.45202229976573272 0 -0.20830636281027159 0.44145631646849681 0 -0.20327231322329059 0.45383647245285968 0 -0.1932701227617025 0.44083826087666039 0 -0.20327231322329059 0.45383647245285968 0 -0.18876875709760671 0.45202229976573272 0 -0.1932701227617025 0.44083826087666039 0 -0.18129863363297349 0.4416342461361023 0 -0.18876875709760671 0.45202229976573272 0 -0.1932701227617025 0.44083826087666039 0 -0.20830636281027159 0.44145631646849681 0 -0.1902022674833207 0.42570491101073887 0 -0.20830636281027159 0.44145631646849681 0 -0.1932701227617025 0.44083826087666039 0 -0.1902022674833207 0.42570491101073887 0 -0.1932701227617025 0.44083826087666039 0 -0.1902022674833207 0.42570491101073887 0 -0.18482624364415551 0.43223326673590551 0 -0.1902022674833207 0.42570491101073887 0 -0.18482624364415551 0.43223326673590551 0 -0.19077518972003721 0.41288679034252479 0 -0.20582859134624529 0.40672913934271981 0 -0.18917352532038509 0.40411489938929701 0 -0.1902022674833207 0.42570491101073887 0 -0.20582859134624529 0.40672913934271981 0 -0.1902022674833207 0.42570491101073887 0 -0.19077518972003721 0.41288679034252479 0 -0.20582859134624529 0.40672913934271981 0 -0.1902022674833207 0.42570491101073887 0 -0.20582859134624529 0.40672913934271981 0 -0.2186670199541938 0.42255412485717558 0 -0.20582859134624529 0.40672913934271981 0 -0.2186670199541938 0.42255412485717558 0 -0.222433818747787 0.40518975741403013 0 -0.20830636281027159 0.44145631646849681 0 -0.1902022674833207 0.42570491101073887 0 -0.2186670199541938 0.42255412485717558 0 -0.2186670199541938 0.42255412485717558 0 -0.23246444304955641 0.43722452166784931 0 -0.23670444353669359 0.41649764864508232 0 -0.20830636281027159 0.44145631646849681 0 -0.2186670199541938 0.42255412485717558 0 -0.23246444304955641 0.43722452166784931 0 -0.23670444353669359 0.41649764864508232 0 -0.2351156576479411 0.40042734437208749 0 -0.222433818747787 0.40518975741403013 0 -0.2186670199541938 0.42255412485717558 0 -0.23670444353669359 0.41649764864508232 0 -0.222433818747787 0.40518975741403013 0 -0.25196346146775661 0.4045087982104385 0 -0.25641654511452738 0.43119935750548388 0 -0.23670444353669359 0.41649764864508232 0 -0.25196346146775661 0.4045087982104385 0 -0.23670444353669359 0.41649764864508232 0 -0.2351156576479411 0.40042734437208749 0 -0.25641654511452738 0.43119935750548388 0 -0.23246444304955641 0.43722452166784931 0 -0.23670444353669359 0.41649764864508232 0 -0.2517011221411829 0.3859160059886102 0 -0.2345960522370486 0.38041240017427369 0 -0.2479947466348614 0.37352466122982808 0 -0.2517011221411829 0.3859160059886102 0 -0.2345960522370486 0.38041240017427369 0 -0.2517011221411829 0.3859160059886102 0 -0.2403934024002532 0.39013860256710109 0 -0.2345960522370486 0.38041240017427369 0 -0.25196346146775661 0.4045087982104385 0 -0.2517011221411829 0.3859160059886102 0 -0.2403934024002532 0.39013860256710109 0 -0.25196346146775661 0.4045087982104385 0 -0.2403934024002532 0.39013860256710109 0 -0.2351156576479411 0.40042734437208749 0 -0.2403934024002532 0.39013860256710109 0 -0.2351156576479411 0.40042734437208749 0 -0.22145491520916971 0.38775336767470059 0 -0.2351156576479411 0.40042734437208749 0 -0.222433818747787 0.40518975741403013 0 -0.22145491520916971 0.38775336767470059 0 -0.22145491520916971 0.38775336767470059 0 -0.2370812390720943 0.36877759600668131 0 -0.2345960522370486 0.38041240017427369 0 -0.22145491520916971 0.38775336767470059 0 -0.2370812390720943 0.36877759600668131 0 -0.2403934024002532 0.39013860256710109 0 -0.2345960522370486 0.38041240017427369 0 -0.22145491520916971 0.38775336767470059 0 -0.22145491520916971 0.38775336767470059 0 -0.22190770640411439 0.37107662785869661 0 -0.2370812390720943 0.36877759600668131 0 -0.22145491520916971 0.38775336767470059 0 -0.20710757299253241 0.37513590021740861 0 -0.19881570481120051 0.39309352229022537 0 -0.22145491520916971 0.38775336767470059 0 -0.20710757299253241 0.37513590021740861 0 -0.22190770640411439 0.37107662785869661 0 -0.20582859134624529 0.40672913934271981 0 -0.22145491520916971 0.38775336767470059 0 -0.19881570481120051 0.39309352229022537 0 -0.20582859134624529 0.40672913934271981 0 -0.222433818747787 0.40518975741403013 0 -0.22145491520916971 0.38775336767470059 0 -0.20582859134624529 0.40672913934271981 0 -0.22145491520916971 0.38775336767470059 0 -0.20582859134624529 0.40672913934271981 0 -0.19881570481120051 0.39309352229022537 0 -0.18917352532038509 0.40411489938929701 0 -0.19881570481120051 0.39309352229022537 0 -0.1883760201552388 0.39260459670661008 0 -0.18917352532038509 0.40411489938929701 0 -0.20710757299253241 0.37513590021740861 0 -0.19881570481120051 0.39309352229022537 0 -0.19620361940245221 0.38099421976397502 0 -0.20710757299253241 0.37513590021740861 0 -0.19881570481120051 0.39309352229022537 0 -0.1883760201552388 0.39260459670661008 0 -0.19620361940245221 0.38099421976397502 0 -0.18242372221363379 0.38100230659433998 0 -0.19881570481120051 0.39309352229022537 0 -0.1883760201552388 0.39260459670661008 0 -0.19620361940245221 0.38099421976397502 0 -0.18242372221363379 0.38100230659433998 0 -0.16513191541473671 0.38430150920762118 0 -0.17692851641644239 0.39915360083920531 0 -0.18242372221363379 0.38100230659433998 0 -0.16513191541473671 0.38430150920762118 0 -0.1740233566666414 0.36535903776555301 0 -0.16513191541473671 0.38430150920762118 0 -0.15333531441303161 0.36944941757603661 0 -0.16513191541473671 0.38430150920762118 0 -0.1655904819770769 0.40429151224394611 0 -0.17692851641644239 0.39915360083920531 0 -0.16513191541473671 0.38430150920762118 0 -0.1655904819770769 0.40429151224394611 0 -0.15267152111183879 0.39174891879925189 0 -0.1655904819770769 0.40429151224394611 0 -0.15236923032110289 0.41703841050363583 0 -0.15267152111183879 0.39174891879925189 0 -0.16513191541473671 0.38430150920762118 0 -0.17692851641644239 0.39915360083920531 0 -0.1655904819770769 0.40429151224394611 0 -0.17692851641644239 0.39915360083920531 0 -0.17789637473019779 0.41499821162734368 0 -0.1883760201552388 0.39260459670661008 0 -0.18242372221363379 0.38100230659433998 0 -0.17692851641644239 0.39915360083920531 0 -0.18917352532038509 0.40411489938929701 0 -0.17692851641644239 0.39915360083920531 0 -0.17789637473019779 0.41499821162734368 0 -0.1883760201552388 0.39260459670661008 0 -0.18917352532038509 0.40411489938929701 0 -0.17692851641644239 0.39915360083920531 0 -0.19077518972003721 0.41288679034252479 0 -0.18917352532038509 0.40411489938929701 0 -0.17789637473019779 0.41499821162734368 0 -0.1902022674833207 0.42570491101073887 0 -0.17789637473019779 0.41499821162734368 0 -0.1902022674833207 0.42570491101073887 0 -0.19077518972003721 0.41288679034252479 0 -0.17789637473019779 0.41499821162734368 0 -0.18482624364415551 0.43223326673590551 0 -0.180091895532453 0.42681774374245518 0 -0.17692269096856941 0.43367655050588227 0 -0.18129863363297349 0.4416342461361023 0 -0.18482624364415551 0.43223326673590551 0 -0.17692269096856941 0.43367655050588227 0 -0.1902022674833207 0.42570491101073887 0 -0.17789637473019779 0.41499821162734368 0 -0.180091895532453 0.42681774374245518 0 -0.1902022674833207 0.42570491101073887 0 -0.18482624364415551 0.43223326673590551 0 -0.180091895532453 0.42681774374245518 0 -0.180091895532453 0.42681774374245518 0 -0.17692269096856941 0.43367655050588227 0 -0.17061190083602151 0.42747577883240501 0 -0.17789637473019779 0.41499821162734368 0 -0.180091895532453 0.42681774374245518 0 -0.17061190083602151 0.42747577883240501 0 -0.1694898447109324 0.43892982433020272 0 -0.17692269096856941 0.43367655050588227 0 -0.17061190083602151 0.42747577883240501 0 -0.16242059439370929 0.42390681966217958 0 -0.16104620061652439 0.43447046083409718 0 -0.15236923032110289 0.41703841050363583 0 -0.1694898447109324 0.43892982433020272 0 -0.17061190083602151 0.42747577883240501 0 -0.16104620061652439 0.43447046083409718 0 -0.17061190083602151 0.42747577883240501 0 -0.16242059439370929 0.42390681966217958 0 -0.16565504580118859 0.41664262847858019 0 -0.17061190083602151 0.42747577883240501 0 -0.16242059439370929 0.42390681966217958 0 -0.16104620061652439 0.43447046083409718 0 -0.1655904819770769 0.40429151224394611 0 -0.17789637473019779 0.41499821162734368 0 -0.1655904819770769 0.40429151224394611 0 -0.17789637473019779 0.41499821162734368 0 -0.16565504580118859 0.41664262847858019 0 -0.17789637473019779 0.41499821162734368 0 -0.17061190083602151 0.42747577883240501 0 -0.16565504580118859 0.41664262847858019 0 -0.16242059439370929 0.42390681966217958 0 -0.16565504580118859 0.41664262847858019 0 -0.15236923032110289 0.41703841050363583 0 -0.1655904819770769 0.40429151224394611 0 -0.16565504580118859 0.41664262847858019 0 -0.15236923032110289 0.41703841050363583 0 -0.15236923032110289 0.41703841050363583 0 -0.14075921491739601 0.41143402941290053 0 -0.1406349675800885 0.43372815766310191 0 -0.15236923032110289 0.41703841050363583 0 -0.14075921491739601 0.41143402941290053 0 -0.15267152111183879 0.39174891879925189 0 -0.1520669395303689 0.44232790220801982 0 -0.15236923032110289 0.41703841050363583 0 -0.1520669395303689 0.44232790220801982 0 -0.15236923032110289 0.41703841050363583 0 -0.1406349675800885 0.43372815766310191 0 -0.1520669395303689 0.44232790220801982 0 -0.16104620061652439 0.43447046083409718 0 -0.15236923032110289 0.41703841050363583 0 -0.1406349675800885 0.43372815766310191 0 -0.1208912272793301 0.41887585364363339 0 -0.1406349675800885 0.43372815766310191 0 -0.12507756614931231 0.43410096216537541 0 -0.1208912272793301 0.41887585364363339 0 -0.1406349675800885 0.43372815766310191 0 -0.13022918341305051 0.41772670390524652 0 -0.1406349675800885 0.43372815766310191 0 -0.13022918341305051 0.41772670390524652 0 -0.1208912272793301 0.41887585364363339 0 -0.14075921491739601 0.41143402941290053 0 -0.1406349675800885 0.43372815766310191 0 -0.13022918341305051 0.41772670390524652 0 -0.13022918341305051 0.41772670390524652 0 -0.11982339924601131 0.4017252501473918 0 -0.13022918341305051 0.41772670390524652 0 -0.13161965497643799 0.40752208823643787 0 -0.11982339924601131 0.4017252501473918 0 -0.14075921491739601 0.41143402941290053 0 -0.13022918341305051 0.41772670390524652 0 -0.13161965497643799 0.40752208823643787 0 -0.1356668223292945 0.39920236948021298 0 -0.12513716185575369 0.38826139798381032 0 -0.11982339924601131 0.4017252501473918 0 -0.13161965497643799 0.40752208823643787 0 -0.1356668223292945 0.39920236948021298 0 -0.11982339924601131 0.4017252501473918 0 -0.14075921491739601 0.41143402941290053 0 -0.13161965497643799 0.40752208823643787 0 -0.1356668223292945 0.39920236948021298 0 -0.1356668223292945 0.39920236948021298 0 -0.12513716185575369 0.38826139798381032 0 -0.13796689672942281 0.386762090739936 0 -0.13796689672942281 0.386762090739936 0 -0.14752539655961069 0.38132350040640561 0 -0.12852133512902381 0.37435556570918188 0 -0.12513716185575369 0.38826139798381032 0 -0.13796689672942281 0.386762090739936 0 -0.12852133512902381 0.37435556570918188 0 -0.16513191541473671 0.38430150920762118 0 -0.14752539655961069 0.38132350040640561 0 -0.15267152111183879 0.39174891879925189 0 -0.13796689672942281 0.386762090739936 0 -0.14752539655961069 0.38132350040640561 0 -0.15267152111183879 0.39174891879925189 0 -0.16513191541473671 0.38430150920762118 0 -0.14752539655961069 0.38132350040640561 0 -0.15333531441303161 0.36944941757603661 0 -0.14752539655961069 0.38132350040640561 0 -0.15333531441303161 0.36944941757603661 0 -0.12852133512902381 0.37435556570918188 0 -0.1356668223292945 0.39920236948021298 0 -0.13796689672942281 0.386762090739936 0 -0.15267152111183879 0.39174891879925189 0 -0.14075921491739601 0.41143402941290053 0 -0.1356668223292945 0.39920236948021298 0 -0.15267152111183879 0.39174891879925189 0 -0.15236923032110289 0.41703841050363583 0 -0.15267152111183879 0.39174891879925189 0 -0.15333531441303161 0.36944941757603661 0 -0.13852972383782561 0.35080896446154503 0 -0.16057993266288231 0.35190320371053779 0 -0.13852972383782561 0.35080896446154503 0 -0.14973075046299139 0.33339207071346899 0 -0.16057993266288231 0.35190320371053779 0 -0.15333531441303161 0.36944941757603661 0 -0.12852133512902381 0.37435556570918188 0 -0.15333531441303161 0.36944941757603661 0 -0.13677724403655159 0.36396439335413122 0 -0.13852972383782561 0.35080896446154503 0 -0.15333531441303161 0.36944941757603661 0 -0.13852972383782561 0.35080896446154503 0 -0.15333531441303161 0.36944941757603661 0 -0.13677724403655159 0.36396439335413122 0 -0.12852133512902381 0.37435556570918188 0 -0.13677724403655159 0.36396439335413122 0 -0.12852133512902381 0.37435556570918188 0 -0.1235766246187102 0.36259321073060258 0 -0.13852972383782561 0.35080896446154503 0 -0.12370830653213639 0.34738114189026242 0 -0.1235766246187102 0.36259321073060258 0 -0.13677724403655159 0.36396439335413122 0 -0.13852972383782561 0.35080896446154503 0 -0.1235766246187102 0.36259321073060258 0 -0.13852972383782561 0.35080896446154503 0 -0.1237241332626204 0.33216851134705289 0 -0.12370830653213639 0.34738114189026242 0 -0.13852972383782561 0.35080896446154503 0 -0.1237241332626204 0.33216851134705289 0 -0.13852972383782561 0.35080896446154503 0 -0.14973075046299139 0.33339207071346899 0 -0.1237241332626204 0.33216851134705289 0 -0.1341206268061905 0.31382363598053481 0 -0.14973075046299139 0.33339207071346899 0 -0.1237241332626204 0.33216851134705289 0 -0.1341206268061905 0.31382363598053481 0 -0.14973075046299139 0.33339207071346899 0 -0.15760171592919209 0.31688571346048222 0 -0.14973075046299139 0.33339207071346899 0 -0.16944941699614591 0.3400005723868208 0 -0.16564016905716819 0.32760679075579902 0 -0.14973075046299139 0.33339207071346899 0 -0.16944941699614591 0.3400005723868208 0 -0.16057993266288231 0.35190320371053779 0 -0.16944941699614591 0.3400005723868208 0 -0.16564016905716819 0.32760679075579902 0 -0.17950354894099729 0.32975386625822373 0 -0.15760171592919209 0.31688571346048222 0 -0.16564016905716819 0.32760679075579902 0 -0.17516534415053481 0.3183662922151797 0 -0.15760171592919209 0.31688571346048222 0 -0.17516534415053481 0.3183662922151797 0 -0.1722499065692536 0.30529714990576151 0 -0.14973075046299139 0.33339207071346899 0 -0.15760171592919209 0.31688571346048222 0 -0.16564016905716819 0.32760679075579902 0 -0.16564016905716819 0.32760679075579902 0 -0.17516534415053481 0.3183662922151797 0 -0.17950354894099729 0.32975386625822373 0 -0.18692850416404189 0.32152548835334133 0 -0.17950354894099729 0.32975386625822373 0 -0.19402315441124729 0.33055020850646383 0 -0.17516534415053481 0.3183662922151797 0 -0.18692850416404189 0.32152548835334133 0 -0.17950354894099729 0.32975386625822373 0 -0.17516534415053481 0.3183662922151797 0 -0.18692850416404189 0.32152548835334133 0 -0.18956229363096039 0.30787571304617212 0 -0.16944941699614591 0.3400005723868208 0 -0.17950354894099729 0.32975386625822373 0 -0.1858147048668457 0.34047384533173752 0 -0.17950354894099729 0.32975386625822373 0 -0.1858147048668457 0.34047384533173752 0 -0.19402315441124729 0.33055020850646383 0 -0.1858147048668457 0.34047384533173752 0 -0.1797389071224775 0.35121162461574468 0 -0.19385463262209809 0.34826443054474832 0 -0.16944941699614591 0.3400005723868208 0 -0.1858147048668457 0.34047384533173752 0 -0.1797389071224775 0.35121162461574468 0 -0.1797389071224775 0.35121162461574468 0 -0.1740233566666414 0.36535903776555301 0 -0.19471139892025169 0.36126865795507118 0 -0.16944941699614591 0.3400005723868208 0 -0.1797389071224775 0.35121162461574468 0 -0.16057993266288231 0.35190320371053779 0 -0.1797389071224775 0.35121162461574468 0 -0.16057993266288231 0.35190320371053779 0 -0.1740233566666414 0.36535903776555301 0 -0.16513191541473671 0.38430150920762118 0 -0.15333531441303161 0.36944941757603661 0 -0.1740233566666414 0.36535903776555301 0 -0.15333531441303161 0.36944941757603661 0 -0.16057993266288231 0.35190320371053779 0 -0.1740233566666414 0.36535903776555301 0 -0.15333531441303161 0.36944941757603661 0 -0.1740233566666414 0.36535903776555301 0 -0.1740233566666414 0.36535903776555301 0 -0.19471139892025169 0.36126865795507118 0 -0.18242372221363379 0.38100230659433998 0 -0.1740233566666414 0.36535903776555301 0 -0.19471139892025169 0.36126865795507118 0 -0.20710757299253241 0.37513590021740861 0 -0.19620361940245221 0.38099421976397502 0 -0.19471139892025169 0.36126865795507118 0 -0.19620361940245221 0.38099421976397502 0 -0.18242372221363379 0.38100230659433998 0 -0.19471139892025169 0.36126865795507118 0 -0.1797389071224775 0.35121162461574468 0 -0.19471139892025169 0.36126865795507118 0 -0.19385463262209809 0.34826443054474832 0 -0.19471139892025169 0.36126865795507118 0 -0.19385463262209809 0.34826443054474832 0 -0.20844553088452339 0.34695657247020478 0 -0.19385463262209809 0.34826443054474832 0 -0.20844553088452339 0.34695657247020478 0 -0.1996709228506417 0.33824758923117337 0 -0.19471139892025169 0.36126865795507118 0 -0.2153994411738622 0.3571782781445908 0 -0.19471139892025169 0.36126865795507118 0 -0.2153994411738622 0.3571782781445908 0 -0.20844553088452339 0.34695657247020478 0 -0.2153994411738622 0.3571782781445908 0 -0.20844553088452339 0.34695657247020478 0 -0.21585856219286559 0.33998044135649158 0 -0.20710757299253241 0.37513590021740861 0 -0.2153994411738622 0.3571782781445908 0 -0.20710757299253241 0.37513590021740861 0 -0.19471139892025169 0.36126865795507118 0 -0.2153994411738622 0.3571782781445908 0 -0.20710757299253241 0.37513590021740861 0 -0.2153994411738622 0.3571782781445908 0 -0.22190770640411439 0.37107662785869661 0 -0.22190770640411439 0.37107662785869661 0 -0.23405350205444039 0.35349005124162569 0 -0.2370812390720943 0.36877759600668131 0 -0.2153994411738622 0.3571782781445908 0 -0.22190770640411439 0.37107662785869661 0 -0.23405350205444039 0.35349005124162569 0 -0.2153994411738622 0.3571782781445908 0 -0.22517650872702061 0.33600417355676693 0 -0.2153994411738622 0.3571782781445908 0 -0.23405350205444039 0.35349005124162569 0 -0.22517650872702061 0.33600417355676693 0 -0.2153994411738622 0.3571782781445908 0 -0.23405350205444039 0.35349005124162569 0 -0.2153994411738622 0.3571782781445908 0 -0.22517650872702061 0.33600417355676693 0 -0.21585856219286559 0.33998044135649158 0 -0.25270756293501878 0.34980182433866192 0 -0.23405350205444039 0.35349005124162569 0 -0.25270756293501878 0.34980182433866192 0 -0.2370812390720943 0.36877759600668131 0 -0.25270756293501878 0.34980182433866192 0 -0.23405350205444039 0.35349005124162569 0 -0.24330742636243741 0.33512807726625438 0 -0.25270756293501878 0.34980182433866192 0 -0.23405350205444039 0.35349005124162569 0 -0.2370812390720943 0.36877759600668131 0 -0.25200336759263231 0.36266484576205621 0 -0.25270756293501878 0.34980182433866192 0 -0.2370812390720943 0.36877759600668131 0 -0.25200336759263231 0.36266484576205621 0 -0.2479947466348614 0.37352466122982808 0 -0.2370812390720943 0.36877759600668131 0 -0.2345960522370486 0.38041240017427369 0 -0.2479947466348614 0.37352466122982808 0 -0.2370812390720943 0.36877759600668131 0 -0.25380716470350739 0.31465931032116667 0 -0.23495357628017649 0.31483006896894178 0 -0.25380716470350739 0.31465931032116667 0 -0.23495357628017649 0.31483006896894178 0 -0.24330742636243741 0.33512807726625438 0 -0.25380716470350739 0.31465931032116667 0 -0.23495357628017649 0.31483006896894178 0 -0.23881632670568609 0.31185875252781381 0 -0.23495357628017649 0.31483006896894178 0 -0.23678092759347899 0.31087259116527871 0 -0.23495357628017649 0.31483006896894178 0 -0.23881632670568609 0.31185875252781381 0 -0.23678092759347899 0.31087259116527871 0 -0.23495357628017649 0.31483006896894178 0 -0.24330742636243741 0.33512807726625438 0 -0.22517650872702061 0.33600417355676693 0 -0.23405350205444039 0.35349005124162569 0 -0.24330742636243741 0.33512807726625438 0 -0.22517650872702061 0.33600417355676693 0 -0.22517650872702061 0.33600417355676693 0 -0.22261061858386921 0.33292435314083352 0 -0.21585856219286559 0.33998044135649158 0 -0.22261061858386921 0.33292435314083352 0 -0.22359459806860141 0.31493294825727008 0 -0.21390062148632291 0.32342537892412149 0 -0.22261061858386921 0.33292435314083352 0 -0.22359459806860141 0.31493294825727008 0 -0.23495357628017649 0.31483006896894178 0 -0.22261061858386921 0.33292435314083352 0 -0.22359459806860141 0.31493294825727008 0 -0.23495357628017649 0.31483006896894178 0 -0.22517650872702061 0.33600417355676693 0 -0.23495357628017649 0.31483006896894178 0 -0.22517650872702061 0.33600417355676693 0 -0.22261061858386921 0.33292435314083352 0 -0.23495357628017649 0.31483006896894178 0 -0.22359459806860141 0.31493294825727008 0 -0.22885168382910909 0.31021955196963857 0 -0.23495357628017649 0.31483006896894178 0 -0.22359459806860141 0.31493294825727008 0 -0.22359459806860141 0.31493294825727008 0 -0.21390062148632291 0.32342537892412149 0 -0.2040544143842285 0.31510992546013722 0 -0.22359459806860141 0.31493294825727008 0 -0.2040544143842285 0.31510992546013722 0 -0.22359459806860141 0.31493294825727008 0 -0.2040544143842285 0.31510992546013722 0 -0.2099208691017595 0.31179798771479278 0 -0.21390062148632291 0.32342537892412149 0 -0.21432176379806181 0.33132338673659562 0 -0.2087009306135037 0.32841946731217819 0 -0.21390062148632291 0.32342537892412149 0 -0.20622424778892501 0.3226097894740001 0 -0.2040544143842285 0.31510992546013722 0 -0.21390062148632291 0.32342537892412149 0 -0.20622424778892501 0.3226097894740001 0 -0.2087009306135037 0.32841946731217819 0 -0.20622424778892501 0.3226097894740001 0 -0.2087009306135037 0.32841946731217819 0 -0.20228511365158211 0.32589521677075678 0 -0.20622424778892501 0.3226097894740001 0 -0.20141524320502219 0.31996629731432918 0 -0.20228511365158211 0.32589521677075678 0 -0.20622424778892501 0.3226097894740001 0 -0.2040544143842285 0.31510992546013722 0 -0.20141524320502219 0.31996629731432918 0 -0.20844553088452339 0.34695657247020478 0 -0.21585856219286559 0.33998044135649158 0 -0.20919750998985451 0.33549588408995762 0 -0.22261061858386921 0.33292435314083352 0 -0.21390062148632291 0.32342537892412149 0 -0.21432176379806181 0.33132338673659562 0 -0.22261061858386921 0.33292435314083352 0 -0.21585856219286559 0.33998044135649158 0 -0.21432176379806181 0.33132338673659562 0 -0.21585856219286559 0.33998044135649158 0 -0.21432176379806181 0.33132338673659562 0 -0.20919750998985451 0.33549588408995762 0 -0.2036616493637316 0.33236424603862419 0 -0.20919750998985451 0.33549588408995762 0 -0.1996709228506417 0.33824758923117337 0 -0.21432176379806181 0.33132338673659562 0 -0.2087009306135037 0.32841946731217819 0 -0.20919750998985451 0.33549588408995762 0 -0.2087009306135037 0.32841946731217819 0 -0.2036616493637316 0.33236424603862419 0 -0.20228511365158211 0.32589521677075678 0 -0.2087009306135037 0.32841946731217819 0 -0.2036616493637316 0.33236424603862419 0 -0.20919750998985451 0.33549588408995762 0 -0.20844553088452339 0.34695657247020478 0 -0.20919750998985451 0.33549588408995762 0 -0.1996709228506417 0.33824758923117337 0 -0.2036616493637316 0.33236424603862419 0 -0.19402315441124729 0.33055020850646383 0 -0.20228511365158211 0.32589521677075678 0 -0.2036616493637316 0.33236424603862419 0 -0.1996709228506417 0.33824758923117337 0 -0.19402315441124729 0.33055020850646383 0 -0.1858147048668457 0.34047384533173752 0 -0.1996709228506417 0.33824758923117337 0 -0.19402315441124729 0.33055020850646383 0 -0.1858147048668457 0.34047384533173752 0 -0.19385463262209809 0.34826443054474832 0 -0.1996709228506417 0.33824758923117337 0 -0.20141524320502219 0.31996629731432918 0 -0.19516545735167129 0.31967977087298238 0 -0.19658396595256991 0.31194233035442259 0 -0.2040544143842285 0.31510992546013722 0 -0.20141524320502219 0.31996629731432918 0 -0.19658396595256991 0.31194233035442259 0 -0.20141524320502219 0.31996629731432918 0 -0.20228511365158211 0.32589521677075678 0 -0.19516545735167129 0.31967977087298238 0 -0.19402315441124729 0.33055020850646383 0 -0.20228511365158211 0.32589521677075678 0 -0.19516545735167129 0.31967977087298238 0 -0.18692850416404189 0.32152548835334133 0 -0.19402315441124729 0.33055020850646383 0 -0.19516545735167129 0.31967977087298238 0 -0.18692850416404189 0.32152548835334133 0 -0.19516545735167129 0.31967977087298238 0 -0.18956229363096039 0.30787571304617212 0 -0.19516545735167129 0.31967977087298238 0 -0.18956229363096039 0.30787571304617212 0 -0.19658396595256991 0.31194233035442259 0 -0.18956229363096039 0.30787571304617212 0 -0.20225694177066861 0.30488542386563922 0 -0.19955961707894801 0.29283867434168942 0 -0.2040544143842285 0.31510992546013722 0 -0.19658396595256991 0.31194233035442259 0 -0.20225694177066861 0.30488542386563922 0 -0.18956229363096039 0.30787571304617212 0 -0.19658396595256991 0.31194233035442259 0 -0.20225694177066861 0.30488542386563922 0 -0.19955961707894801 0.29283867434168942 0 -0.18928781681581139 0.27267657158075331 0 -0.17496790456869729 0.28092386285791993 0 -0.18956229363096039 0.30787571304617212 0 -0.19955961707894801 0.29283867434168942 0 -0.17496790456869729 0.28092386285791993 0 -0.19955961707894801 0.29283867434168942 0 -0.21476500210589389 0.29279092463530088 0 -0.22415132958919859 0.30475348582545919 0 -0.19955961707894801 0.29283867434168942 0 -0.21476500210589389 0.29279092463530088 0 -0.21355214248190721 0.28139890849862959 0 -0.21476500210589389 0.29279092463530088 0 -0.21355214248190721 0.28139890849862959 0 -0.21946710521586241 0.29021666966487453 0 -0.20225694177066861 0.30488542386563922 0 -0.2099208691017595 0.31179798771479278 0 -0.22415132958919859 0.30475348582545919 0 -0.20225694177066861 0.30488542386563922 0 -0.19955961707894801 0.29283867434168942 0 -0.22415132958919859 0.30475348582545919 0 -0.19955961707894801 0.29283867434168942 0 -0.22415132958919859 0.30475348582545919 0 -0.2040544143842285 0.31510992546013722 0 -0.20225694177066861 0.30488542386563922 0 -0.2099208691017595 0.31179798771479278 0 -0.2099208691017595 0.31179798771479278 0 -0.22415132958919859 0.30475348582545919 0 -0.22359459806860141 0.31493294825727008 0 -0.2099208691017595 0.31179798771479278 0 -0.22415132958919859 0.30475348582545919 0 -0.22359459806860141 0.31493294825727008 0 -0.22415132958919859 0.30475348582545919 0 -0.22415132958919859 0.30475348582545919 0 -0.23901380243312589 0.30603687481892222 0 -0.2398470747468559 0.30251516990387561 0 -0.22415132958919859 0.30475348582545919 0 -0.23282602543044259 0.2977347737984718 0 -0.24567826655144581 0.2956525613856944 0 -0.22359459806860141 0.31493294825727008 0 -0.22415132958919859 0.30475348582545919 0 -0.22885168382910909 0.31021955196963857 0 -0.22415132958919859 0.30475348582545919 0 -0.23678092759347899 0.31087259116527871 0 -0.22415132958919859 0.30475348582545919 0 -0.23901380243312589 0.30603687481892222 0 -0.23678092759347899 0.31087259116527871 0 -0.23495357628017649 0.31483006896894178 0 -0.22885168382910909 0.31021955196963857 0 -0.23678092759347899 0.31087259116527871 0 -0.22415132958919859 0.30475348582545919 0 -0.22885168382910909 0.31021955196963857 0 -0.23678092759347899 0.31087259116527871 0 -0.22415132958919859 0.30475348582545919 0 -0.23282602543044259 0.2977347737984718 0 -0.22697377511855429 0.29977081044452297 0 -0.23282602543044259 0.2977347737984718 0 -0.22697377511855429 0.29977081044452297 0 -0.2306960898604298 0.29441019583863759 0 -0.22415132958919859 0.30475348582545919 0 -0.22697377511855429 0.29977081044452297 0 -0.22773076284712149 0.28935195021960819 0 -0.22415132958919859 0.30475348582545919 0 -0.22539994668645019 0.28192335970010818 0 -0.21476500210589389 0.29279092463530088 0 -0.22415132958919859 0.30475348582545919 0 -0.21946710521586241 0.29021666966487453 0 -0.22415132958919859 0.30475348582545919 0 -0.21946710521586241 0.29021666966487453 0 -0.22539994668645019 0.28192335970010818 0 -0.22415132958919859 0.30475348582545919 0 -0.22539994668645019 0.28192335970010818 0 -0.22773076284712149 0.28935195021960819 0 -0.21355214248190721 0.28139890849862959 0 -0.21946710521586241 0.29021666966487453 0 -0.22539994668645019 0.28192335970010818 0 -0.22539994668645019 0.28192335970010818 0 -0.23202331269808721 0.28345835646634399 0 -0.22773076284712149 0.28935195021960819 0 -0.23202331269808721 0.28345835646634399 0 -0.22773076284712149 0.28935195021960819 0 -0.23276817843483091 0.28999671283865081 0 -0.23202331269808721 0.28345835646634399 0 -0.23276817843483091 0.28999671283865081 0 -0.23584814525762529 0.28660417237144559 0 -0.22697377511855429 0.29977081044452297 0 -0.22773076284712149 0.28935195021960819 0 -0.2306960898604298 0.29441019583863759 0 -0.22773076284712149 0.28935195021960819 0 -0.23276817843483091 0.28999671283865081 0 -0.2306960898604298 0.29441019583863759 0 -0.23276817843483091 0.28999671283865081 0 -0.2306960898604298 0.29441019583863759 0 -0.2359692929717 0.29376637684060741 0 -0.23282602543044259 0.2977347737984718 0 -0.2306960898604298 0.29441019583863759 0 -0.2359692929717 0.29376637684060741 0 -0.23282602543044259 0.2977347737984718 0 -0.2359692929717 0.29376637684060741 0 -0.24567826655144581 0.2956525613856944 0 -0.2359692929717 0.29376637684060741 0 -0.23883176608733511 0.28980994830183721 0 -0.24567826655144581 0.2956525613856944 0 -0.23276817843483091 0.28999671283865081 0 -0.2359692929717 0.29376637684060741 0 -0.23883176608733511 0.28980994830183721 0 -0.23202331269808721 0.28345835646634399 0 -0.23584814525762529 0.28660417237144559 0 -0.23976932381024799 0.28315167187895068 0 -0.23276817843483091 0.28999671283865081 0 -0.23883176608733511 0.28980994830183721 0 -0.23584814525762529 0.28660417237144559 0 -0.23883176608733511 0.28980994830183721 0 -0.23584814525762529 0.28660417237144559 0 -0.23976932381024799 0.28315167187895068 0 -0.23883176608733511 0.28980994830183721 0 -0.23976932381024799 0.28315167187895068 0 -0.24552216629469559 0.2881465010030026 0 -0.23976932381024799 0.28315167187895068 0 -0.24552216629469559 0.2881465010030026 0 -0.2473766090710299 0.28166037896776291 0 -0.23883176608733511 0.28980994830183721 0 -0.24552216629469559 0.2881465010030026 0 -0.24567826655144581 0.2956525613856944 0 -0.22415132958919859 0.30475348582545919 0 -0.24567826655144581 0.2956525613856944 0 -0.24567826655144581 0.2956525613856944 0 -0.2460538491720502 0.30362120837674089 0 -0.2398470747468559 0.30251516990387561 0 -0.22415132958919859 0.30475348582545919 0 -0.24567826655144581 0.2956525613856944 0 -0.2398470747468559 0.30251516990387561 0 -0.25050063588921662 0.29773753647149243 0 -0.24567826655144581 0.2956525613856944 0 -0.2460538491720502 0.30362120837674089 0 -0.2460538491720502 0.30362120837674089 0 -0.24255553307209959 0.30563634940949003 0 -0.2398470747468559 0.30251516990387561 0 -0.25380716470350739 0.31465931032116667 0 -0.24450137157070539 0.30896098642186848 0 -0.23881632670568609 0.31185875252781381 0 -0.25380716470350739 0.31465931032116667 0 -0.2460538491720502 0.30362120837674089 0 -0.24450137157070539 0.30896098642186848 0 -0.2460538491720502 0.30362120837674089 0 -0.24450137157070539 0.30896098642186848 0 -0.24255553307209959 0.30563634940949003 0 -0.24450137157070539 0.30896098642186848 0 -0.24255553307209959 0.30563634940949003 0 -0.24038891436549001 0.30867528421249862 0 -0.23901380243312589 0.30603687481892222 0 -0.24038891436549001 0.30867528421249862 0 -0.23678092759347899 0.31087259116527871 0 -0.24255553307209959 0.30563634940949003 0 -0.23901380243312589 0.30603687481892222 0 -0.2398470747468559 0.30251516990387561 0 -0.24255553307209959 0.30563634940949003 0 -0.23901380243312589 0.30603687481892222 0 -0.24038891436549001 0.30867528421249862 0 -0.24450137157070539 0.30896098642186848 0 -0.24038891436549001 0.30867528421249862 0 -0.23881632670568609 0.31185875252781381 0 -0.24038891436549001 0.30867528421249862 0 -0.23881632670568609 0.31185875252781381 0 -0.23678092759347899 0.31087259116527871 0 -0.23881632670568609 0.31185875252781381 0 -0.23678092759347899 0.31087259116527871 0 -0.23901380243312589 0.30603687481892222 0 -0.23678092759347899 0.31087259116527871 0 -0.2361193770373593 0.25523122618446548 0 -0.24370516019042601 0.26173440379262658 0 -0.2395308875244678 0.27140799379713237 0 -0.2361193770373593 0.25523122618446548 0 -0.24747775448132589 0.25266819895304049 0 -0.24370516019042601 0.26173440379262658 0 -0.24747775448132589 0.25266819895304049 0 -0.24909991397027259 0.26088405249251428 0 -0.24370516019042601 0.26173440379262658 0 -0.25292703069924483 0.26651900669448142 0 -0.24909991397027259 0.26088405249251428 0 -0.24629786793870409 0.26848054753598027 0 -0.24909991397027259 0.26088405249251428 0 -0.24370516019042601 0.26173440379262658 0 -0.24629786793870409 0.26848054753598027 0 -0.23202331269808721 0.28345835646634399 0 -0.2361193770373593 0.25523122618446548 0 -0.2395308875244678 0.27140799379713237 0 -0.24370516019042601 0.26173440379262658 0 -0.24629786793870409 0.26848054753598027 0 -0.2395308875244678 0.27140799379713237 0 -0.25292703069924483 0.26651900669448142 0 -0.2473766090710299 0.28166037896776291 0 -0.24629786793870409 0.26848054753598027 0 -0.23976932381024799 0.28315167187895068 0 -0.2473766090710299 0.28166037896776291 0 -0.2395308875244678 0.27140799379713237 0 -0.2473766090710299 0.28166037896776291 0 -0.24629786793870409 0.26848054753598027 0 -0.2395308875244678 0.27140799379713237 0 -0.23202331269808721 0.28345835646634399 0 -0.23976932381024799 0.28315167187895068 0 -0.2395308875244678 0.27140799379713237 0 -0.23202331269808721 0.28345835646634399 0 -0.2361193770373593 0.25523122618446548 0 -0.23202331269808721 0.28345835646634399 0 -0.2361193770373593 0.25523122618446548 0 -0.22664856378370191 0.25909323357475722 0 -0.22539994668645019 0.28192335970010818 0 -0.22664856378370191 0.25909323357475722 0 -0.2174590747611562 0.27021419719448431 0 -0.22539994668645019 0.28192335970010818 0 -0.23202331269808721 0.28345835646634399 0 -0.22664856378370191 0.25909323357475722 0 -0.22539994668645019 0.28192335970010818 0 -0.22664856378370191 0.25909323357475722 0 -0.21355214248190721 0.28139890849862959 0 -0.22539994668645019 0.28192335970010818 0 -0.2174590747611562 0.27021419719448431 0 -0.2361193770373593 0.25523122618446548 0 -0.22664856378370191 0.25909323357475722 0 -0.22789718088095359 0.23626310744940621 0 -0.22664856378370191 0.25909323357475722 0 -0.21621109099988239 0.25988875535915812 0 -0.2174590747611562 0.27021419719448431 0 -0.22664856378370191 0.25909323357475722 0 -0.21621109099988239 0.25988875535915812 0 -0.21874497254918079 0.24783068221235149 0 -0.21621109099988239 0.25988875535915812 0 -0.20755865675759641 0.25163089594010191 0 -0.20552557843772851 0.2692400959278593 0 -0.21621109099988239 0.25988875535915812 0 -0.20755865675759641 0.25163089594010191 0 -0.21874497254918079 0.24783068221235149 0 -0.19955961707894801 0.29283867434168942 0 -0.21355214248190721 0.28139890849862959 0 -0.20552557843772851 0.2692400959278593 0 -0.21355214248190721 0.28139890849862959 0 -0.2174590747611562 0.27021419719448431 0 -0.20552557843772851 0.2692400959278593 0 -0.21621109099988239 0.25988875535915812 0 -0.2174590747611562 0.27021419719448431 0 -0.20552557843772851 0.2692400959278593 0 -0.19955961707894801 0.29283867434168942 0 -0.20552557843772851 0.2692400959278593 0 -0.18928781681581139 0.27267657158075331 0 -0.20552557843772851 0.2692400959278593 0 -0.18928781681581139 0.27267657158075331 0 -0.1941262486701465 0.25679149545311902 0 -0.20755865675759641 0.25163089594010191 0 -0.20552557843772851 0.2692400959278593 0 -0.1941262486701465 0.25679149545311902 0 -0.20755865675759641 0.25163089594010191 0 -0.1941262486701465 0.25679149545311902 0 -0.19628793804382469 0.24386246613431761 0 -0.17501226609956549 0.26228574933317111 0 -0.1604978674310856 0.24780485758206641 0 -0.1808175670532057 0.24650865715101761 0 -0.1941262486701465 0.25679149545311902 0 -0.17501226609956549 0.26228574933317111 0 -0.1808175670532057 0.24650865715101761 0 -0.18928781681581139 0.27267657158075331 0 -0.1941262486701465 0.25679149545311902 0 -0.17501226609956549 0.26228574933317111 0 -0.17501226609956549 0.26228574933317111 0 -0.15037619205844649 0.26900905137415049 0 -0.1604978674310856 0.24780485758206641 0 -0.17496790456869729 0.28092386285791993 0 -0.1570843580772783 0.28833702555324892 0 -0.15037619205844649 0.26900905137415049 0 -0.17501226609956549 0.26228574933317111 0 -0.17496790456869729 0.28092386285791993 0 -0.15037619205844649 0.26900905137415049 0 -0.17496790456869729 0.28092386285791993 0 -0.15037619205844649 0.26900905137415049 0 -0.18928781681581139 0.27267657158075331 0 -0.17501226609956549 0.26228574933317111 0 -0.17496790456869729 0.28092386285791993 0 -0.19955961707894801 0.29283867434168942 0 -0.17496790456869729 0.28092386285791993 0 -0.18956229363096039 0.30787571304617212 0 -0.17496790456869729 0.28092386285791993 0 -0.1722499065692536 0.30529714990576151 0 -0.17516534415053481 0.3183662922151797 0 -0.18956229363096039 0.30787571304617212 0 -0.1722499065692536 0.30529714990576151 0 -0.15760171592919209 0.31688571346048222 0 -0.1722499065692536 0.30529714990576151 0 -0.1513824357825789 0.30171366153476231 0 -0.1722499065692536 0.30529714990576151 0 -0.1570843580772783 0.28833702555324892 0 -0.1513824357825789 0.30171366153476231 0 -0.17496790456869729 0.28092386285791993 0 -0.1722499065692536 0.30529714990576151 0 -0.1570843580772783 0.28833702555324892 0 -0.1570843580772783 0.28833702555324892 0 -0.1513824357825789 0.30171366153476231 0 -0.1364453514074154 0.28474140209365029 0 -0.1341206268061905 0.31382363598053481 0 -0.1513824357825789 0.30171366153476231 0 -0.1364453514074154 0.28474140209365029 0 -0.1341206268061905 0.31382363598053481 0 -0.15760171592919209 0.31688571346048222 0 -0.1513824357825789 0.30171366153476231 0 -0.1341206268061905 0.31382363598053481 0 -0.1364453514074154 0.28474140209365029 0 -0.12015974918390041 0.29802124925478912 0 -0.1364453514074154 0.28474140209365029 0 -0.1195145873930611 0.27229453862143382 0 -0.12015974918390041 0.29802124925478912 0 -0.1364453514074154 0.28474140209365029 0 -0.1257844795481958 0.2570942398903811 0 -0.15037619205844649 0.26900905137415049 0 -0.1364453514074154 0.28474140209365029 0 -0.1257844795481958 0.2570942398903811 0 -0.1195145873930611 0.27229453862143382 0 -0.1257844795481958 0.2570942398903811 0 -0.15037619205844649 0.26900905137415049 0 -0.1375157473462392 0.24180231514973341 0 -0.1257844795481958 0.2570942398903811 0 -0.15037619205844649 0.26900905137415049 0 -0.15037619205844649 0.26900905137415049 0 -0.1604978674310856 0.24780485758206641 0 -0.1375157473462392 0.24180231514973341 0 -0.1570843580772783 0.28833702555324892 0 -0.1364453514074154 0.28474140209365029 0 -0.15037619205844649 0.26900905137415049 0 -0.1004753526815685 0.27364659355841459 0 -0.1195145873930611 0.27229453862143382 0 -0.1077621354300637 0.28573939016842292 0 -0.1004753526815685 0.27364659355841459 0 -0.104625552311968 0.25840865451950668 0 -0.1195145873930611 0.27229453862143382 0 -0.1004753526815685 0.27364659355841459 0 -0.097257572097561834 0.28605988084379341 0 -0.085034342822385089 0.27806390345232029 0 -0.104625552311968 0.25840865451950668 0 -0.084877724252648237 0.26029169999109231 0 -0.092953108990414202 0.2482343684178544 0 -0.1004753526815685 0.27364659355841459 0 -0.104625552311968 0.25840865451950668 0 -0.084877724252648237 0.26029169999109231 0 -0.104625552311968 0.25840865451950668 0 -0.1038179082207661 0.2447173299240448 0 -0.092953108990414202 0.2482343684178544 0 -0.104625552311968 0.25840865451950668 0 -0.1195145873930611 0.27229453862143382 0 -0.1188694256022219 0.24656782798807839 0 -0.1257844795481958 0.2570942398903811 0 -0.1195145873930611 0.27229453862143382 0 -0.1188694256022219 0.24656782798807839 0 -0.1195145873930611 0.27229453862143382 0 -0.1188694256022219 0.24656782798807839 0 -0.1195145873930611 0.27229453862143382 0 -0.12015974918390041 0.29802124925478912 0 -0.1077621354300637 0.28573939016842292 0 -0.12015974918390041 0.29802124925478912 0 -0.1014034157942265 0.29867468856368351 0 -0.1077621354300637 0.28573939016842292 0 -0.1195145873930611 0.27229453862143382 0 -0.12015974918390041 0.29802124925478912 0 -0.1341206268061905 0.31382363598053481 0 -0.12015974918390041 0.29802124925478912 0 -0.1089185426874151 0.31352805823256091 0 -0.12015974918390041 0.29802124925478912 0 -0.1014034157942265 0.29867468856368351 0 -0.1089185426874151 0.31352805823256091 0 -0.1014034157942265 0.29867468856368351 0 -0.087883341413514587 0.31043226405718022 0 -0.1089185426874151 0.31352805823256091 0 -0.1004753526815685 0.27364659355841459 0 -0.1077621354300637 0.28573939016842292 0 -0.097257572097561834 0.28605988084379341 0 -0.1014034157942265 0.29867468856368351 0 -0.1077621354300637 0.28573939016842292 0 -0.097257572097561834 0.28605988084379341 0 -0.1014034157942265 0.29867468856368351 0 -0.097257572097561834 0.28605988084379341 0 -0.086143828799657401 0.29346554579859652 0 -0.097257572097561834 0.28605988084379341 0 -0.086143828799657401 0.29346554579859652 0 -0.085034342822385089 0.27806390345232029 0 -0.086143828799657401 0.29346554579859652 0 -0.07076315053102504 0.28680778099315202 0 -0.085034342822385089 0.27806390345232029 0 -0.086143828799657401 0.29346554579859652 0 -0.087883341413514587 0.31043226405718022 0 -0.07452115013923144 0.30075475688144948 0 -0.1014034157942265 0.29867468856368351 0 -0.086143828799657401 0.29346554579859652 0 -0.087883341413514587 0.31043226405718022 0 -0.07452115013923144 0.30075475688144948 0 -0.061747309429613463 0.29778371818390331 0 -0.064632329086675891 0.31565102570547632 0 -0.087883341413514587 0.31043226405718022 0 -0.07452115013923144 0.30075475688144948 0 -0.064632329086675891 0.31565102570547632 0 -0.086143828799657401 0.29346554579859652 0 -0.07452115013923144 0.30075475688144948 0 -0.07076315053102504 0.28680778099315202 0 -0.07452115013923144 0.30075475688144948 0 -0.07076315053102504 0.28680778099315202 0 -0.061747309429613463 0.29778371818390331 0 -0.07076315053102504 0.28680778099315202 0 -0.067170634809057994 0.26888334143016462 0 -0.054623778091940668 0.28205096874141372 0 -0.07076315053102504 0.28680778099315202 0 -0.067170634809057994 0.26888334143016462 0 -0.085034342822385089 0.27806390345232029 0 -0.1004753526815685 0.27364659355841459 0 -0.085034342822385089 0.27806390345232029 0 -0.084877724252648237 0.26029169999109231 0 -0.067170634809057994 0.26888334143016462 0 -0.085034342822385089 0.27806390345232029 0 -0.084877724252648237 0.26029169999109231 0 -0.084877724252648237 0.26029169999109231 0 -0.078488296782803058 0.24223177236244689 0 -0.092953108990414202 0.2482343684178544 0 -0.067170634809057994 0.26888334143016462 0 -0.084877724252648237 0.26029169999109231 0 -0.063404290350803638 0.25053412802719932 0 -0.084877724252648237 0.26029169999109231 0 -0.063404290350803638 0.25053412802719932 0 -0.078488296782803058 0.24223177236244689 0 -0.063404290350803638 0.25053412802719932 0 -0.048246923241275157 0.25888997225044141 0 -0.042155663524131561 0.2409184808780816 0 -0.067170634809057994 0.26888334143016462 0 -0.063404290350803638 0.25053412802719932 0 -0.048246923241275157 0.25888997225044141 0 -0.067170634809057994 0.26888334143016462 0 -0.048246923241275157 0.25888997225044141 0 -0.054623778091940668 0.28205096874141372 0 -0.048246923241275157 0.25888997225044141 0 -0.036136810036737438 0.27945947545561711 0 -0.048246923241275157 0.25888997225044141 0 -0.036136810036737438 0.27945947545561711 0 -0.054623778091940668 0.28205096874141372 0 -0.048246923241275157 0.25888997225044141 0 -0.031266506123036962 0.25803754002367357 0 -0.042155663524131561 0.2409184808780816 0 -0.048246923241275157 0.25888997225044141 0 -0.036136810036737438 0.27945947545561711 0 -0.031266506123036962 0.25803754002367357 0 -0.031266506123036962 0.25803754002367357 0 -0.019972446392499649 0.27132173475151761 0 -0.0154606163912278 0.25672212347018147 0 -0.031266506123036962 0.25803754002367357 0 -0.0154606163912278 0.25672212347018147 0 -0.022209461625391828 0.24127642670813079 0 -0.036136810036737438 0.27945947545561711 0 -0.031266506123036962 0.25803754002367357 0 -0.019972446392499649 0.27132173475151761 0 -0.036136810036737438 0.27945947545561711 0 -0.019972446392499649 0.27132173475151761 0 -0.01983330229519889 0.28476847948393119 0 -0.019972446392499649 0.27132173475151761 0 -0.009252906236806354 0.28010347058630503 0 -0.01983330229519889 0.28476847948393119 0 -0.019972446392499649 0.27132173475151761 0 -0.009252906236806354 0.28010347058630503 0 -0.006782571146791443 0.26609624414014699 0 -0.009252906236806354 0.28010347058630503 0 0.0036218862169032778 0.28727876264082469 0 0.0039862574867759772 0.27390840501826019 0 -0.009252906236806354 0.28010347058630503 0 -0.006782571146791443 0.26609624414014699 0 0.0039862574867759772 0.27390840501826019 0 -0.006782571146791443 0.26609624414014699 0 -0.001929197643986852 0.25249673890194402 0 0.0053505978239543383 0.2623879654846023 0 -0.001929197643986852 0.25249673890194402 0 -0.0154606163912278 0.25672212347018147 0 -0.01120624772319823 0.24557773519825321 0 -0.006782571146791443 0.26609624414014699 0 -0.001929197643986852 0.25249673890194402 0 -0.0154606163912278 0.25672212347018147 0 -0.019972446392499649 0.27132173475151761 0 -0.006782571146791443 0.26609624414014699 0 -0.0154606163912278 0.25672212347018147 0 -0.0092057290982383352 0.30241212343694263 0 -0.01145837084528714 0.31112742780152092 0 -0.02402669683219974 0.3000289786607927 0 -0.0092057290982383352 0.30241212343694263 0 -0.0097776519777512706 0.29292873796542379 0 -0.02402669683219974 0.3000289786607927 0 -0.0092057290982383352 0.30241212343694263 0 -0.01145837084528714 0.31112742780152092 0 -0.0044544331564319349 0.30831082105239271 0 -0.01145837084528714 0.31112742780152092 0 -0.0044544331564319349 0.30831082105239271 0 -0.0068313346172969077 0.31657409921056889 0 -0.0044544331564319349 0.30831082105239271 0 -0.00031144100700618749 0.31417227031794248 0 0.003688507320478407 0.29966465170458301 0 -0.0092057290982383352 0.30241212343694263 0 -0.0044544331564319349 0.30831082105239271 0 0.003688507320478407 0.29966465170458301 0 -0.0092057290982383352 0.30241212343694263 0 -0.0097776519777512706 0.29292873796542379 0 0.003688507320478407 0.29966465170458301 0 -0.0097776519777512706 0.29292873796542379 0 0.0036218862169032778 0.28727876264082469 0 0.003688507320478407 0.29966465170458301 0 -0.009252906236806354 0.28010347058630503 0 -0.0097776519777512706 0.29292873796542379 0 0.0036218862169032778 0.28727876264082469 0 -0.009252906236806354 0.28010347058630503 0 -0.0097776519777512706 0.29292873796542379 0 -0.01983330229519889 0.28476847948393119 0 -0.036136810036737438 0.27945947545561711 0 -0.02402669683219974 0.3000289786607927 0 -0.0097776519777512706 0.29292873796542379 0 -0.01983330229519889 0.28476847948393119 0 -0.02402669683219974 0.3000289786607927 0 -0.036136810036737438 0.27945947545561711 0 -0.01983330229519889 0.28476847948393119 0 -0.02402669683219974 0.3000289786607927 0 -0.02402669683219974 0.3000289786607927 0 -0.035446702619713437 0.3075775172745861 0 -0.02935829842596813 0.31812548066943619 0 -0.01145837084528714 0.31112742780152092 0 -0.02402669683219974 0.3000289786607927 0 -0.0119165836276628 0.32059848186596879 0 -0.02402669683219974 0.3000289786607927 0 -0.0119165836276628 0.32059848186596879 0 -0.02402669683219974 0.3000289786607927 0 -0.035446702619713437 0.3075775172745861 0 -0.044984230575997763 0.3000036306971009 0 -0.035446702619713437 0.3075775172745861 0 -0.044984230575997763 0.3000036306971009 0 -0.045919829605122003 0.31379377085315102 0 -0.036136810036737438 0.27945947545561711 0 -0.044984230575997763 0.3000036306971009 0 -0.054623778091940668 0.28205096874141372 0 -0.036136810036737438 0.27945947545561711 0 -0.02402669683219974 0.3000289786607927 0 -0.044984230575997763 0.3000036306971009 0 -0.07076315053102504 0.28680778099315202 0 -0.054623778091940668 0.28205096874141372 0 -0.061747309429613463 0.29778371818390331 0 -0.044984230575997763 0.3000036306971009 0 -0.054623778091940668 0.28205096874141372 0 -0.061747309429613463 0.29778371818390331 0 -0.044984230575997763 0.3000036306971009 0 -0.064632329086675891 0.31565102570547632 0 -0.044984230575997763 0.3000036306971009 0 -0.061747309429613463 0.29778371818390331 0 -0.064632329086675891 0.31565102570547632 0 -0.044984230575997763 0.3000036306971009 0 -0.045919829605122003 0.31379377085315102 0 -0.064632329086675891 0.31565102570547632 0 -0.054279737926603587 0.32697398455731919 0 -0.045919829605122003 0.31379377085315102 0 -0.064632329086675891 0.31565102570547632 0 -0.054279737926603587 0.32697398455731919 0 -0.067145772078419638 0.33795769725667751 0 -0.064632329086675891 0.31565102570547632 0 -0.054279737926603587 0.32697398455731919 0 -0.040663665674189137 0.3289368508685544 0 -0.045919829605122003 0.31379377085315102 0 -0.054279737926603587 0.32697398455731919 0 -0.052365903672035627 0.3415476895711218 0 -0.067145772078419638 0.33795769725667751 0 -0.054279737926603587 0.32697398455731919 0 -0.052365903672035627 0.3415476895711218 0 -0.040663665674189137 0.3289368508685544 0 -0.040663665674189137 0.3289368508685544 0 -0.028922112947862951 0.33178679935980881 0 -0.038060107204081997 0.34558556751853098 0 -0.052365903672035627 0.3415476895711218 0 -0.040663665674189137 0.3289368508685544 0 -0.038060107204081997 0.34558556751853098 0 -0.035446702619713437 0.3075775172745861 0 -0.045919829605122003 0.31379377085315102 0 -0.02935829842596813 0.31812548066943619 0 -0.045919829605122003 0.31379377085315102 0 -0.02935829842596813 0.31812548066943619 0 -0.040663665674189137 0.3289368508685544 0 -0.045919829605122003 0.31379377085315102 0 -0.02935829842596813 0.31812548066943619 0 -0.040663665674189137 0.3289368508685544 0 -0.02935829842596813 0.31812548066943619 0 -0.028922112947862951 0.33178679935980881 0 -0.02402669683219974 0.3000289786607927 0 -0.02935829842596813 0.31812548066943619 0 -0.0119165836276628 0.32059848186596879 0 -0.02935829842596813 0.31812548066943619 0 -0.028922112947862951 0.33178679935980881 0 -0.01279676724681451 0.32245719048572252 0 -0.02935829842596813 0.31812548066943619 0 -0.0119165836276628 0.32059848186596879 0 -0.01279676724681451 0.32245719048572252 0 -0.02935829842596813 0.31812548066943619 0 -0.01279676724681451 0.32245719048572252 0 -0.01135579614756347 0.33453021612537942 0 -0.01279676724681451 0.32245719048572252 0 -0.02365433943736938 0.34538543248104298 0 -0.028922112947862951 0.33178679935980881 0 -0.01279676724681451 0.32245719048572252 0 -0.02365433943736938 0.34538543248104298 0 -0.01279676724681451 0.32245719048572252 0 -0.02365433943736938 0.34538543248104298 0 -0.028922112947862951 0.33178679935980881 0 -0.02365433943736938 0.34538543248104298 0 -0.038060107204081997 0.34558556751853098 0 -0.01135579614756347 0.33453021612537942 0 -0.0054063871653592162 0.33510428122268188 0 -0.0094592222341694544 0.32477240676708169 0 -0.01135579614756347 0.33453021612537942 0 -0.0084269792520210024 0.34440474163617579 0 -0.02365433943736938 0.34538543248104298 0 -0.01135579614756347 0.33453021612537942 0 -0.0054063871653592162 0.33510428122268188 0 -0.0084269792520210024 0.34440474163617579 0 -0.0054063871653592162 0.33510428122268188 0 -0.0084269792520210024 0.34440474163617579 0 0.002312440597944485 0.33608895260951682 0 -0.0054063871653592162 0.33510428122268188 0 -0.0094592222341694544 0.32477240676708169 0 0.002312440597944485 0.33608895260951682 0 -0.0094592222341694544 0.32477240676708169 0 -0.01046290093808098 0.32306761904393072 0 0.01219435951576551 0.32899368206650981 0 -0.0042305238379278208 0.32018573530970851 0 -0.01046290093808098 0.32306761904393072 0 0.0011833167759787489 0.32212892083165617 0 -0.00031144100700618749 0.31417227031794248 0 -0.0042305238379278208 0.32018573530970851 0 -0.0068313346172969077 0.31657409921056889 0 -0.00031144100700618749 0.31417227031794248 0 -0.0042305238379278208 0.32018573530970851 0 0.0011833167759787489 0.32212892083165617 0 -0.0044544331564319349 0.30831082105239271 0 -0.00031144100700618749 0.31417227031794248 0 -0.0068313346172969077 0.31657409921056889 0 -0.0042305238379278208 0.32018573530970851 0 -0.0068313346172969077 0.31657409921056889 0 -0.008870758967530196 0.31983776137398162 0 -0.0068313346172969077 0.31657409921056889 0 -0.008870758967530196 0.31983776137398162 0 -0.010840070520261549 0.31832517871822258 0 -0.01145837084528714 0.31112742780152092 0 -0.010840070520261549 0.31832517871822258 0 -0.0119165836276628 0.32059848186596879 0 -0.010840070520261549 0.31832517871822258 0 -0.0119165836276628 0.32059848186596879 0 -0.008870758967530196 0.31983776137398162 0 -0.010840070520261549 0.31832517871822258 0 -0.0119165836276628 0.32059848186596879 0 -0.01145837084528714 0.31112742780152092 0 -0.0068313346172969077 0.31657409921056889 0 -0.010840070520261549 0.31832517871822258 0 -0.01135579614756347 0.33453021612537942 0 -0.01279676724681451 0.32245719048572252 0 -0.0094592222341694544 0.32477240676708169 0 -0.0119165836276628 0.32059848186596879 0 -0.01279676724681451 0.32245719048572252 0 -0.01046290093808098 0.32306761904393072 0 -0.0119165836276628 0.32059848186596879 0 -0.01279676724681451 0.32245719048572252 0 -0.0042305238379278208 0.32018573530970851 0 -0.008870758967530196 0.31983776137398162 0 -0.01046290093808098 0.32306761904393072 0 -0.0119165836276628 0.32059848186596879 0 -0.01046290093808098 0.32306761904393072 0 -0.008870758967530196 0.31983776137398162 0 -0.0119165836276628 0.32059848186596879 0 -0.01046290093808098 0.32306761904393072 0 -0.01279676724681451 0.32245719048572252 0 -0.0094592222341694544 0.32477240676708169 0 -0.01046290093808098 0.32306761904393072 0 -0.01279676724681451 0.32245719048572252 0 -0.01046290093808098 0.32306761904393072 0 -0.0094592222341694544 0.32477240676708169 0 -0.01046290093808098 0.32306761904393072 0 -0.0018581631687612751 0.3552044043817652 0 -0.017714945226015681 0.35885029571460841 0 -0.01737824787548433 0.37635482584546309 0 -0.0018581631687612751 0.3552044043817652 0 -0.01737824787548433 0.37635482584546309 0 0.0022016208263191542 0.37487773095411731 0 -0.0018581631687612751 0.3552044043817652 0 -0.01737824787548433 0.37635482584546309 0 -0.0018581631687612751 0.3552044043817652 0 -0.0084269792520210024 0.34440474163617579 0 0.002312440597944485 0.33608895260951682 0 -0.0018581631687612751 0.3552044043817652 0 -0.0084269792520210024 0.34440474163617579 0 -0.017714945226015681 0.35885029571460841 0 -0.02365433943736938 0.34538543248104298 0 -0.034511911627924441 0.36831367447636332 0 -0.017714945226015681 0.35885029571460841 0 -0.02365433943736938 0.34538543248104298 0 -0.034511911627924441 0.36831367447636332 0 -0.0084269792520210024 0.34440474163617579 0 -0.017714945226015681 0.35885029571460841 0 -0.02365433943736938 0.34538543248104298 0 -0.017714945226015681 0.35885029571460841 0 -0.034511911627924441 0.36831367447636332 0 -0.01737824787548433 0.37635482584546309 0 -0.034511911627924441 0.36831367447636332 0 -0.038060107204081997 0.34558556751853098 0 -0.048242709865110471 0.35754295835429528 0 -0.052365903672035627 0.3415476895711218 0 -0.038060107204081997 0.34558556751853098 0 -0.048242709865110471 0.35754295835429528 0 -0.02365433943736938 0.34538543248104298 0 -0.034511911627924441 0.36831367447636332 0 -0.038060107204081997 0.34558556751853098 0 -0.052365903672035627 0.3415476895711218 0 -0.063134899201449435 0.35382272228923178 0 -0.067145772078419638 0.33795769725667751 0 -0.052365903672035627 0.3415476895711218 0 -0.048242709865110471 0.35754295835429528 0 -0.063134899201449435 0.35382272228923178 0 -0.034511911627924441 0.36831367447636332 0 -0.048242709865110471 0.35754295835429528 0 -0.058594684814692932 0.37094427864665891 0 -0.048242709865110471 0.35754295835429528 0 -0.058594684814692932 0.37094427864665891 0 -0.063134899201449435 0.35382272228923178 0 -0.058594684814692932 0.37094427864665891 0 -0.083515002008343706 0.35810666105094707 0 -0.063134899201449435 0.35382272228923178 0 -0.058594684814692932 0.37094427864665891 0 -0.083515002008343706 0.35810666105094707 0 -0.078893376561008935 0.38416786197547598 0 -0.083515002008343706 0.35810666105094707 0 -0.10370735584501629 0.37926171384232887 0 -0.078893376561008935 0.38416786197547598 0 -0.083515002008343706 0.35810666105094707 0 -0.084280427597353991 0.33129842071385168 0 -0.1039285261080321 0.34694581572222721 0 -0.083515002008343706 0.35810666105094707 0 -0.063134899201449435 0.35382272228923178 0 -0.067145772078419638 0.33795769725667751 0 -0.067145772078419638 0.33795769725667751 0 -0.064632329086675891 0.31565102570547632 0 -0.084280427597353991 0.33129842071385168 0 -0.064632329086675891 0.31565102570547632 0 -0.084280427597353991 0.33129842071385168 0 -0.087883341413514587 0.31043226405718022 0 -0.064632329086675891 0.31565102570547632 0 -0.084280427597353991 0.33129842071385168 0 -0.087883341413514587 0.31043226405718022 0 -0.084280427597353991 0.33129842071385168 0 -0.1017377043743611 0.32953723803703339 0 -0.083515002008343706 0.35810666105094707 0 -0.067145772078419638 0.33795769725667751 0 -0.084280427597353991 0.33129842071385168 0 -0.084280427597353991 0.33129842071385168 0 -0.1017377043743611 0.32953723803703339 0 -0.1039285261080321 0.34694581572222721 0 -0.084280427597353991 0.33129842071385168 0 -0.1039285261080321 0.34694581572222721 0 -0.087883341413514587 0.31043226405718022 0 -0.1017377043743611 0.32953723803703339 0 -0.1089185426874151 0.31352805823256091 0 -0.1341206268061905 0.31382363598053481 0 -0.1089185426874151 0.31352805823256091 0 -0.1237241332626204 0.33216851134705289 0 -0.1017377043743611 0.32953723803703339 0 -0.1089185426874151 0.31352805823256091 0 -0.1237241332626204 0.33216851134705289 0 -0.1089185426874151 0.31352805823256091 0 -0.1237241332626204 0.33216851134705289 0 -0.1237241332626204 0.33216851134705289 0 -0.12370830653213639 0.34738114189026242 0 -0.1039285261080321 0.34694581572222721 0 -0.1017377043743611 0.32953723803703339 0 -0.1237241332626204 0.33216851134705289 0 -0.1039285261080321 0.34694581572222721 0 -0.12370830653213639 0.34738114189026242 0 -0.1235766246187102 0.36259321073060258 0 -0.1039285261080321 0.34694581572222721 0 -0.1235766246187102 0.36259321073060258 0 -0.1039285261080321 0.34694581572222721 0 -0.1235766246187102 0.36259321073060258 0 -0.10864976874182521 0.36425259341105748 0 -0.1039285261080321 0.34694581572222721 0 -0.12852133512902381 0.37435556570918188 0 -0.1235766246187102 0.36259321073060258 0 -0.10864976874182521 0.36425259341105748 0 -0.12852133512902381 0.37435556570918188 0 -0.10864976874182521 0.36425259341105748 0 -0.10370735584501629 0.37926171384232887 0 -0.083515002008343706 0.35810666105094707 0 -0.10864976874182521 0.36425259341105748 0 -0.10370735584501629 0.37926171384232887 0 -0.083515002008343706 0.35810666105094707 0 -0.10864976874182521 0.36425259341105748 0 -0.1039285261080321 0.34694581572222721 0 -0.1011474869785722 0.40402354962416392 0 -0.10370735584501629 0.37926171384232887 0 -0.091475185147824309 0.39268321685418839 0 -0.1011474869785722 0.40402354962416392 0 -0.10370735584501629 0.37926171384232887 0 -0.11982339924601131 0.4017252501473918 0 -0.12852133512902381 0.37435556570918188 0 -0.10370735584501629 0.37926171384232887 0 -0.12513716185575369 0.38826139798381032 0 -0.10370735584501629 0.37926171384232887 0 -0.11982339924601131 0.4017252501473918 0 -0.12513716185575369 0.38826139798381032 0 -0.12852133512902381 0.37435556570918188 0 -0.10370735584501629 0.37926171384232887 0 -0.1011474869785722 0.40402354962416392 0 -0.11982339924601131 0.4017252501473918 0 -0.1208912272793301 0.41887585364363339 0 -0.1011474869785722 0.40402354962416392 0 -0.1208912272793301 0.41887585364363339 0 -0.13022918341305051 0.41772670390524652 0 -0.11982339924601131 0.4017252501473918 0 -0.1208912272793301 0.41887585364363339 0 -0.1208912272793301 0.41887585364363339 0 -0.1131794884617171 0.428765121277907 0 -0.1023868039123854 0.42241960484774799 0 -0.12507756614931231 0.43410096216537541 0 -0.1208912272793301 0.41887585364363339 0 -0.1131794884617171 0.428765121277907 0 -0.1131794884617171 0.428765121277907 0 -0.1050716380137173 0.43254330924557238 0 -0.11183341775938729 0.4390185048467411 0 -0.12507756614931231 0.43410096216537541 0 -0.1131794884617171 0.428765121277907 0 -0.11183341775938729 0.4390185048467411 0 -0.1023868039123854 0.42241960484774799 0 -0.095084971036634269 0.43545081864777591 0 -0.085088980640720582 0.42310172376247751 0 -0.1131794884617171 0.428765121277907 0 -0.1050716380137173 0.43254330924557238 0 -0.1023868039123854 0.42241960484774799 0 -0.1050716380137173 0.43254330924557238 0 -0.095084971036634269 0.43545081864777591 0 -0.1025544767512971 0.44393934999376072 0 -0.1050716380137173 0.43254330924557238 0 -0.1023868039123854 0.42241960484774799 0 -0.095084971036634269 0.43545081864777591 0 -0.1011474869785722 0.40402354962416392 0 -0.1023868039123854 0.42241960484774799 0 -0.093167847957078526 0.41379286492463091 0 -0.1011474869785722 0.40402354962416392 0 -0.1208912272793301 0.41887585364363339 0 -0.1023868039123854 0.42241960484774799 0 -0.093167847957078526 0.41379286492463091 0 -0.085088980640720582 0.42310172376247751 0 -0.082878589470906261 0.40494370951932179 0 -0.085088980640720582 0.42310172376247751 0 -0.070461967060286484 0.41454824271958252 0 -0.082878589470906261 0.40494370951932179 0 -0.1023868039123854 0.42241960484774799 0 -0.093167847957078526 0.41379286492463091 0 -0.085088980640720582 0.42310172376247751 0 -0.1011474869785722 0.40402354962416392 0 -0.093167847957078526 0.41379286492463091 0 -0.082878589470906261 0.40494370951932179 0 -0.095084971036634269 0.43545081864777591 0 -0.085088980640720582 0.42310172376247751 0 -0.082863860906492698 0.43856744958203731 0 -0.085088980640720582 0.42310172376247751 0 -0.072260975461805793 0.4282171941082078 0 -0.082863860906492698 0.43856744958203731 0 -0.072260975461805793 0.4282171941082078 0 -0.061510735038716853 0.43504776139549411 0 -0.071954293880908127 0.44429918488347581 0 -0.072260975461805793 0.4282171941082078 0 -0.071954293880908127 0.44429918488347581 0 -0.082863860906492698 0.43856744958203731 0 -0.085088980640720582 0.42310172376247751 0 -0.072260975461805793 0.4282171941082078 0 -0.070461967060286484 0.41454824271958252 0 -0.072260975461805793 0.4282171941082078 0 -0.060900306442238733 0.42252303969204569 0 -0.061510735038716853 0.43504776139549411 0 -0.070461967060286484 0.41454824271958252 0 -0.066245705345005498 0.40069757743055773 0 -0.082878589470906261 0.40494370951932179 0 -0.070461967060286484 0.41454824271958252 0 -0.057670333368508998 0.41143297478777169 0 -0.060900306442238733 0.42252303969204569 0 -0.072260975461805793 0.4282171941082078 0 -0.070461967060286484 0.41454824271958252 0 -0.060900306442238733 0.42252303969204569 0 -0.070461967060286484 0.41454824271958252 0 -0.066245705345005498 0.40069757743055773 0 -0.057670333368508998 0.41143297478777169 0 -0.066245705345005498 0.40069757743055773 0 -0.082878589470906261 0.40494370951932179 0 -0.078893376561008935 0.38416786197547598 0 -0.1011474869785722 0.40402354962416392 0 -0.082878589470906261 0.40494370951932179 0 -0.091475185147824309 0.39268321685418839 0 -0.082878589470906261 0.40494370951932179 0 -0.091475185147824309 0.39268321685418839 0 -0.078893376561008935 0.38416786197547598 0 -0.10370735584501629 0.37926171384232887 0 -0.078893376561008935 0.38416786197547598 0 -0.10370735584501629 0.37926171384232887 0 -0.091475185147824309 0.39268321685418839 0 -0.078893376561008935 0.38416786197547598 0 -0.066245705345005498 0.40069757743055773 0 -0.078893376561008935 0.38416786197547598 0 -0.06031897202042695 0.38652510972317922 0 -0.058594684814692932 0.37094427864665891 0 -0.078893376561008935 0.38416786197547598 0 -0.06031897202042695 0.38652510972317922 0 -0.058594684814692932 0.37094427864665891 0 -0.06031897202042695 0.38652510972317922 0 -0.045369483818479543 0.39124191647168383 0 -0.066245705345005498 0.40069757743055773 0 -0.052759708616915632 0.40055219999826908 0 -0.057670333368508998 0.41143297478777169 0 -0.066245705345005498 0.40069757743055773 0 -0.06031897202042695 0.38652510972317922 0 -0.052759708616915632 0.40055219999826908 0 -0.06031897202042695 0.38652510972317922 0 -0.052759708616915632 0.40055219999826908 0 -0.045369483818479543 0.39124191647168383 0 -0.052759708616915632 0.40055219999826908 0 -0.042198523679950743 0.40183250675187859 0 -0.045543285801455488 0.41068441002572592 0 -0.052759708616915632 0.40055219999826908 0 -0.042198523679950743 0.40183250675187859 0 -0.045369483818479543 0.39124191647168383 0 -0.042198523679950743 0.40183250675187859 0 -0.045369483818479543 0.39124191647168383 0 -0.032898332582207507 0.3975052473091612 0 -0.042198523679950743 0.40183250675187859 0 -0.032898332582207507 0.3975052473091612 0 -0.034421807580695518 0.40917875995455311 0 -0.034511911627924441 0.36831367447636332 0 -0.045369483818479543 0.39124191647168383 0 -0.034511911627924441 0.36831367447636332 0 -0.045369483818479543 0.39124191647168383 0 -0.033151553184321961 0.3830113292434934 0 -0.034511911627924441 0.36831367447636332 0 -0.058594684814692932 0.37094427864665891 0 -0.045369483818479543 0.39124191647168383 0 -0.045369483818479543 0.39124191647168383 0 -0.032898332582207507 0.3975052473091612 0 -0.033151553184321961 0.3830113292434934 0 -0.032898332582207507 0.3975052473091612 0 -0.033151553184321961 0.3830113292434934 0 -0.01737824787548433 0.37635482584546309 0 -0.032898332582207507 0.3975052473091612 0 -0.01737824787548433 0.37635482584546309 0 -0.034511911627924441 0.36831367447636332 0 -0.033151553184321961 0.3830113292434934 0 -0.01737824787548433 0.37635482584546309 0 -0.032898332582207507 0.3975052473091612 0 -0.01737824787548433 0.37635482584546309 0 -0.01622832263372179 0.39444145893104432 0 -0.032898332582207507 0.3975052473091612 0 -0.01622832263372179 0.39444145893104432 0 -0.022114615513614579 0.40633045280385938 0 -0.032898332582207507 0.3975052473091612 0 -0.022114615513614579 0.40633045280385938 0 -0.034421807580695518 0.40917875995455311 0 -0.01622832263372179 0.39444145893104432 0 -0.0076380311104497509 0.40288532747675682 0 -0.0012592731398407789 0.38926924851584688 0 -0.01622832263372179 0.39444145893104432 0 -0.0076380311104497509 0.40288532747675682 0 -0.022114615513614579 0.40633045280385938 0 -0.0076380311104497509 0.40288532747675682 0 -0.0012592731398407789 0.38926924851584688 0 0.001751226425469755 0.39891512208642832 0 -0.01737824787548433 0.37635482584546309 0 -0.0012592731398407789 0.38926924851584688 0 0.0022016208263191542 0.37487773095411731 0 -0.01737824787548433 0.37635482584546309 0 -0.01622832263372179 0.39444145893104432 0 -0.0012592731398407789 0.38926924851584688 0 -0.0052827057786810254 0.43069219639650802 0 -0.013126042789038089 0.41767862146350831 0 -0.018578042401184758 0.42757273269647328 0 -0.0052827057786810254 0.43069219639650802 0 -0.018578042401184758 0.42757273269647328 0 -0.020340798898608532 0.43936293864760517 0 -0.0052827057786810254 0.43069219639650802 0 -0.020340798898608532 0.43936293864760517 0 -0.0052827057786810254 0.43069219639650802 0 -0.00056070208299427145 0.41669415924340047 0 -0.013126042789038089 0.41767862146350831 0 -0.0076380311104497509 0.40288532747675682 0 -0.00056070208299427145 0.41669415924340047 0 0.006082570973155732 0.40748354646665719 0 -0.0076380311104497509 0.40288532747675682 0 -0.00056070208299427145 0.41669415924340047 0 -0.013126042789038089 0.41767862146350831 0 -0.0076380311104497509 0.40288532747675682 0 -0.013126042789038089 0.41767862146350831 0 -0.022114615513614579 0.40633045280385938 0 -0.013126042789038089 0.41767862146350831 0 -0.02740120244299506 0.41942010168591098 0 -0.018578042401184758 0.42757273269647328 0 -0.013126042789038089 0.41767862146350831 0 -0.022114615513614579 0.40633045280385938 0 -0.02740120244299506 0.41942010168591098 0 -0.022114615513614579 0.40633045280385938 0 -0.02740120244299506 0.41942010168591098 0 -0.034421807580695518 0.40917875995455311 0 -0.02740120244299506 0.41942010168591098 0 -0.018578042401184758 0.42757273269647328 0 -0.02677051050376035 0.43065543276015739 0 -0.02740120244299506 0.41942010168591098 0 -0.02677051050376035 0.43065543276015739 0 -0.037744763279165608 0.42851395640171192 0 -0.018578042401184758 0.42757273269647328 0 -0.02677051050376035 0.43065543276015739 0 -0.020340798898608532 0.43936293864760517 0 -0.02677051050376035 0.43065543276015739 0 -0.0337422041228463 0.4345071745043308 0 -0.029710643564658579 0.44065785538760638 0 -0.02677051050376035 0.43065543276015739 0 -0.029710643564658579 0.44065785538760638 0 -0.020340798898608532 0.43936293864760517 0 -0.0337422041228463 0.4345071745043308 0 -0.037744763279165608 0.42851395640171192 0 -0.040742899143800672 0.43820145346784739 0 -0.02677051050376035 0.43065543276015739 0 -0.0337422041228463 0.4345071745043308 0 -0.037744763279165608 0.42851395640171192 0 -0.02740120244299506 0.41942010168591098 0 -0.037744763279165608 0.42851395640171192 0 -0.039583827256313833 0.41904185366292268 0 -0.039583827256313833 0.41904185366292268 0 -0.050915435348100363 0.41858686821444679 0 -0.049000127599480248 0.42904256318509648 0 -0.037744763279165608 0.42851395640171192 0 -0.039583827256313833 0.41904185366292268 0 -0.049000127599480248 0.42904256318509648 0 -0.037744763279165608 0.42851395640171192 0 -0.049000127599480248 0.42904256318509648 0 -0.040742899143800672 0.43820145346784739 0 -0.02740120244299506 0.41942010168591098 0 -0.034421807580695518 0.40917875995455311 0 -0.039583827256313833 0.41904185366292268 0 -0.039583827256313833 0.41904185366292268 0 -0.045543285801455488 0.41068441002572592 0 -0.050915435348100363 0.41858686821444679 0 -0.042198523679950743 0.40183250675187859 0 -0.034421807580695518 0.40917875995455311 0 -0.045543285801455488 0.41068441002572592 0 -0.034421807580695518 0.40917875995455311 0 -0.039583827256313833 0.41904185366292268 0 -0.045543285801455488 0.41068441002572592 0 -0.052759708616915632 0.40055219999826908 0 -0.045543285801455488 0.41068441002572592 0 -0.057670333368508998 0.41143297478777169 0 -0.045543285801455488 0.41068441002572592 0 -0.050915435348100363 0.41858686821444679 0 -0.057670333368508998 0.41143297478777169 0 -0.050915435348100363 0.41858686821444679 0 -0.057670333368508998 0.41143297478777169 0 -0.060900306442238733 0.42252303969204569 0 -0.049000127599480248 0.42904256318509648 0 -0.061510735038716853 0.43504776139549411 0 -0.052132602622999423 0.44150053171111492 0 -0.049000127599480248 0.42904256318509648 0 -0.052132602622999423 0.44150053171111492 0 -0.040742899143800672 0.43820145346784739 0 -0.050915435348100363 0.41858686821444679 0 -0.049000127599480248 0.42904256318509648 0 -0.060900306442238733 0.42252303969204569 0 -0.049000127599480248 0.42904256318509648 0 -0.060900306442238733 0.42252303969204569 0 -0.061510735038716853 0.43504776139549411 0 -0.061510735038716853 0.43504776139549411 0 -0.061073405435549767 0.44678937223811549 0 -0.052132602622999423 0.44150053171111492 0 -0.061073405435549767 0.44678937223811549 0 -0.053830508576436703 0.44946843926993041 0 -0.052132602622999423 0.44150053171111492 0 -0.061073405435549767 0.44678937223811549 0 -0.053830508576436703 0.44946843926993041 0 -0.058918457930479007 0.45430339321082092 0 -0.053830508576436703 0.44946843926993041 0 -0.052132602622999423 0.44150053171111492 0 -0.046486119148165382 0.44711267061412541 0 -0.053830508576436703 0.44946843926993041 0 -0.051264061279549432 0.45702108448839551 0 -0.046486119148165382 0.44711267061412541 0 -0.060562187214140341 0.46347855852662079 0 -0.058918457930479007 0.45430339321082092 0 -0.067862127146718826 0.45475951153104222 0 -0.060562187214140341 0.46347855852662079 0 -0.058918457930479007 0.45430339321082092 0 -0.051264061279549432 0.45702108448839551 0 -0.053830508576436703 0.44946843926993041 0 -0.058918457930479007 0.45430339321082092 0 -0.051264061279549432 0.45702108448839551 0 -0.060562187214140341 0.46347855852662079 0 -0.051264061279549432 0.45702108448839551 0 -0.048975602243677557 0.46531953891335109 0 -0.048975602243677557 0.46531953891335109 0 -0.033675413247106649 0.46400086417563308 0 -0.035429940425695583 0.44797930837002597 0 -0.048975602243677557 0.46531953891335109 0 -0.035429940425695583 0.44797930837002597 0 -0.051264061279549432 0.45702108448839551 0 -0.048975602243677557 0.46531953891335109 0 -0.035429940425695583 0.44797930837002597 0 -0.051264061279549432 0.45702108448839551 0 -0.035429940425695583 0.44797930837002597 0 -0.051264061279549432 0.45702108448839551 0 -0.046486119148165382 0.44711267061412541 0 -0.035429940425695583 0.44797930837002597 0 -0.052132602622999423 0.44150053171111492 0 -0.040742899143800672 0.43820145346784739 0 -0.046486119148165382 0.44711267061412541 0 -0.040742899143800672 0.43820145346784739 0 -0.046486119148165382 0.44711267061412541 0 -0.035429940425695583 0.44797930837002597 0 -0.0337422041228463 0.4345071745043308 0 -0.040742899143800672 0.43820145346784739 0 -0.029710643564658579 0.44065785538760638 0 -0.040742899143800672 0.43820145346784739 0 -0.035429940425695583 0.44797930837002597 0 -0.029710643564658579 0.44065785538760638 0 -0.035429940425695583 0.44797930837002597 0 -0.029710643564658579 0.44065785538760638 0 -0.035429940425695583 0.44797930837002597 0 -0.020340798898608532 0.43936293864760517 0 -0.01809920852777357 0.46269080699192078 0 -0.020340798898608532 0.43936293864760517 0 -0.01809920852777357 0.46269080699192078 0 -0.0098246138837602467 0.45018740383035361 0 -0.035429940425695583 0.44797930837002597 0 -0.029710643564658579 0.44065785538760638 0 -0.020340798898608532 0.43936293864760517 0 -0.035429940425695583 0.44797930837002597 0 -0.020340798898608532 0.43936293864760517 0 -0.033675413247106649 0.46400086417563308 0 -0.035429940425695583 0.44797930837002597 0 -0.01809920852777357 0.46269080699192078 0 -0.00054723394969197626 0.46676005618269939 0 -0.0098246138837602467 0.45018740383035361 0 0.0051866147120248028 0.45174374884484919 0 -0.01809920852777357 0.46269080699192078 0 -0.00054723394969197626 0.46676005618269939 0 -0.0098246138837602467 0.45018740383035361 0 -0.0052827057786810254 0.43069219639650802 0 -0.0098246138837602467 0.45018740383035361 0 0.0051866147120248028 0.45174374884484919 0 -0.0052827057786810254 0.43069219639650802 0 -0.020340798898608532 0.43936293864760517 0 -0.0098246138837602467 0.45018740383035361 0 -0.0052827057786810254 0.43069219639650802 0 0.0051866147120248028 0.45174374884484919 0 -0.001052221165061246 0.48536631712071471 0 -0.015987021248587089 0.5 0 0.01437902095145943 0.49947552315392951 0 -0.01809920852777357 0.46269080699192078 0 -0.00054723394969197626 0.46676005618269939 0 -0.001052221165061246 0.48536631712071471 0 -0.01809920852777357 0.46269080699192078 0 -0.001052221165061246 0.48536631712071471 0 -0.032196901791280097 0.48001380242723402 0 -0.033675413247106649 0.46400086417563308 0 -0.01809920852777357 0.46269080699192078 0 -0.032196901791280097 0.48001380242723402 0 -0.001052221165061246 0.48536631712071471 0 -0.015987021248587089 0.5 0 -0.032196901791280097 0.48001380242723402 0 -0.015987021248587089 0.5 0 -0.046026973564114233 0.5 0 -0.032196901791280097 0.48001380242723402 0 -0.048975602243677557 0.46531953891335109 0 -0.033675413247106649 0.46400086417563308 0 -0.032196901791280097 0.48001380242723402 0 -0.060562187214140341 0.46347855852662079 0 -0.048975602243677557 0.46531953891335109 0 -0.062521264061659171 0.48265976945667638 0 -0.048975602243677557 0.46531953891335109 0 -0.032196901791280097 0.48001380242723402 0 -0.062521264061659171 0.48265976945667638 0 -0.048975602243677557 0.46531953891335109 0 -0.062521264061659171 0.48265976945667638 0 -0.046026973564114233 0.5 0 -0.076066925879641353 0.50000000000000133 0 -0.062521264061659171 0.48265976945667638 0 -0.046026973564114233 0.5 0 -0.032196901791280097 0.48001380242723402 0 -0.062521264061659171 0.48265976945667638 0 -0.076066925879641353 0.50000000000000133 0 -0.084882985137481881 0.48111147209039551 0 -0.062521264061659171 0.48265976945667638 0 -0.076066925879641353 0.50000000000000133 0 -0.062521264061659171 0.48265976945667638 0 -0.076066925879641353 0.50000000000000133 0 -0.084882985137481881 0.48111147209039551 0 -0.10298312123422169 0.5 0 -0.084882985137481881 0.48111147209039551 0 -0.089262206960197654 0.46651687783861262 0 -0.10430402727467809 0.47678085975289147 0 -0.084882985137481881 0.48111147209039551 0 -0.074159995189623268 0.46701390875519661 0 -0.089262206960197654 0.46651687783861262 0 -0.084882985137481881 0.48111147209039551 0 -0.062521264061659171 0.48265976945667638 0 -0.074159995189623268 0.46701390875519661 0 -0.060562187214140341 0.46347855852662079 0 -0.062521264061659171 0.48265976945667638 0 -0.074159995189623268 0.46701390875519661 0 -0.060562187214140341 0.46347855852662079 0 -0.067862127146718826 0.45475951153104222 0 -0.074159995189623268 0.46701390875519661 0 -0.067862127146718826 0.45475951153104222 0 -0.074159995189623268 0.46701390875519661 0 -0.080281601241705539 0.45402790576375229 0 -0.061510735038716853 0.43504776139549411 0 -0.061073405435549767 0.44678937223811549 0 -0.071954293880908127 0.44429918488347581 0 -0.061073405435549767 0.44678937223811549 0 -0.058918457930479007 0.45430339321082092 0 -0.067862127146718826 0.45475951153104222 0 -0.061073405435549767 0.44678937223811549 0 -0.067862127146718826 0.45475951153104222 0 -0.071954293880908127 0.44429918488347581 0 -0.067862127146718826 0.45475951153104222 0 -0.071954293880908127 0.44429918488347581 0 -0.080281601241705539 0.45402790576375229 0 -0.071954293880908127 0.44429918488347581 0 -0.082863860906492698 0.43856744958203731 0 -0.080281601241705539 0.45402790576375229 0 -0.082863860906492698 0.43856744958203731 0 -0.080281601241705539 0.45402790576375229 0 -0.094284649425233777 0.45095183483984042 0 -0.095084971036634269 0.43545081864777591 0 -0.082863860906492698 0.43856744958203731 0 -0.094284649425233777 0.45095183483984042 0 -0.074159995189623268 0.46701390875519661 0 -0.080281601241705539 0.45402790576375229 0 -0.089262206960197654 0.46651687783861262 0 -0.080281601241705539 0.45402790576375229 0 -0.089262206960197654 0.46651687783861262 0 -0.094284649425233777 0.45095183483984042 0 -0.089262206960197654 0.46651687783861262 0 -0.1018140528588387 0.46354042035968868 0 -0.094284649425233777 0.45095183483984042 0 -0.1018140528588387 0.46354042035968868 0 -0.094284649425233777 0.45095183483984042 0 -0.1096302509001494 0.45327690383409142 0 -0.095084971036634269 0.43545081864777591 0 -0.094284649425233777 0.45095183483984042 0 -0.1025544767512971 0.44393934999376072 0 -0.1025544767512971 0.44393934999376072 0 -0.11183341775938729 0.4390185048467411 0 -0.1096302509001494 0.45327690383409142 0 -0.094284649425233777 0.45095183483984042 0 -0.1025544767512971 0.44393934999376072 0 -0.1096302509001494 0.45327690383409142 0 -0.1050716380137173 0.43254330924557238 0 -0.1025544767512971 0.44393934999376072 0 -0.11183341775938729 0.4390185048467411 0 -0.11183341775938729 0.4390185048467411 0 -0.12178995440549591 0.44512499793160332 0 -0.1096302509001494 0.45327690383409142 0 -0.12178995440549591 0.44512499793160332 0 -0.1096302509001494 0.45327690383409142 0 -0.12448230083334889 0.45650400003295732 0 -0.12507756614931231 0.43410096216537541 0 -0.11183341775938729 0.4390185048467411 0 -0.12178995440549591 0.44512499793160332 0 -0.1018140528588387 0.46354042035968868 0 -0.1096302509001494 0.45327690383409142 0 -0.1185012435203201 0.46927925235729062 0 -0.1096302509001494 0.45327690383409142 0 -0.12448230083334889 0.45650400003295732 0 -0.1185012435203201 0.46927925235729062 0 -0.1185012435203201 0.46927925235729062 0 -0.117102535461582 0.48686981281920849 0 -0.10430402727467809 0.47678085975289147 0 -0.13035104752789081 0.47809625069986389 0 -0.1185012435203201 0.46927925235729062 0 -0.117102535461582 0.48686981281920849 0 -0.12989931658880219 0.5 0 -0.117102535461582 0.48686981281920849 0 -0.10298312123422169 0.5 0 -0.084882985137481881 0.48111147209039551 0 -0.10298312123422169 0.5 0 -0.10430402727467809 0.47678085975289147 0 -0.117102535461582 0.48686981281920849 0 -0.10298312123422169 0.5 0 -0.10430402727467809 0.47678085975289147 0 -0.1018140528588387 0.46354042035968868 0 -0.1185012435203201 0.46927925235729062 0 -0.10430402727467809 0.47678085975289147 0 -0.089262206960197654 0.46651687783861262 0 -0.1018140528588387 0.46354042035968868 0 -0.10430402727467809 0.47678085975289147 0 -0.16942655710257931 0.081313759778173456 0 -0.1632191738895005 0.069617738668654255 0 -0.15862911819412059 0.097756724901217312 0 -0.16942655710257931 0.081313759778173456 0 -0.17754332914571291 0.088636160443240367 0 -0.15862911819412059 0.097756724901217312 0 -0.1632191738895005 0.069617738668654255 0 -0.15862911819412059 0.097756724901217312 0 -0.1632191738895005 0.069617738668654255 0 -0.15862911819412059 0.097756724901217312 0 -0.14917370168858521 0.079615505367234427 0 -0.1632191738895005 0.069617738668654255 0 -0.166550299153083 0.069403824515200191 0 -0.141583805156697 0.064135708891144866 0 -0.166550299153083 0.069403824515200191 0 -0.1678897209062726 0.059410469536475469 0 -0.17517620348809759 0.061111614117072589 0 -0.16942655710257931 0.081313759778173456 0 -0.1632191738895005 0.069617738668654255 0 -0.16906265220867611 0.074103042425240156 0 -0.166550299153083 0.069403824515200191 0 -0.16906265220867611 0.074103042425240156 0 -0.17705457868954161 0.076076846738932724 0 -0.16942655710257931 0.081313759778173456 0 -0.16906265220867611 0.074103042425240156 0 -0.17705457868954161 0.076076846738932724 0 -0.1632191738895005 0.069617738668654255 0 -0.166550299153083 0.069403824515200191 0 -0.16906265220867611 0.074103042425240156 0 -0.166550299153083 0.069403824515200191 0 -0.17705457868954161 0.076076846738932724 0 -0.19151679314946909 0.074671940139255516 0 -0.166550299153083 0.069403824515200191 0 -0.19151679314946909 0.074671940139255516 0 -0.166550299153083 0.069403824515200191 0 -0.18579611961028841 0.066800872519545557 0 -0.19151679314946909 0.074671940139255516 0 -0.166550299153083 0.069403824515200191 0 -0.18579611961028841 0.066800872519545557 0 -0.17517620348809759 0.061111614117072589 0 -0.17705457868954161 0.076076846738932724 0 -0.18611910000096471 0.083584785915992443 0 -0.19151679314946909 0.074671940139255516 0 -0.17705457868954161 0.076076846738932724 0 -0.18611910000096471 0.083584785915992443 0 -0.17754332914571291 0.088636160443240367 0 -0.16942655710257931 0.081313759778173456 0 -0.17705457868954161 0.076076846738932724 0 -0.17754332914571291 0.088636160443240367 0 -0.18611910000096471 0.083584785915992443 0 -0.17754332914571291 0.088636160443240367 0 -0.19000247512989779 0.091998968561011252 0 -0.18536050813616409 0.10250509437258259 0 -0.17400146724828081 0.11545009424172691 0 -0.15862911819412059 0.097756724901217312 0 -0.17754332914571291 0.088636160443240367 0 -0.18536050813616409 0.10250509437258259 0 -0.19000247512989779 0.091998968561011252 0 -0.17754332914571291 0.088636160443240367 0 -0.18536050813616409 0.10250509437258259 0 -0.15862911819412059 0.097756724901217312 0 -0.18536050813616409 0.10250509437258259 0 -0.17400146724828081 0.11545009424172691 0 -0.19770398751383031 0.1182113675273805 0 -0.17400146724828081 0.11545009424172691 0 -0.19770398751383031 0.1182113675273805 0 -0.18589752272922219 0.13317796537110621 0 -0.17400146724828081 0.11545009424172691 0 -0.17115086886238429 0.13231723386705671 0 -0.15403906249874069 0.12589571113378031 0 -0.17400146724828081 0.11545009424172691 0 -0.15862911819412059 0.097756724901217312 0 -0.15403906249874069 0.12589571113378031 0 -0.15862911819412059 0.097756724901217312 0 -0.15403906249874069 0.12589571113378031 0 -0.15862911819412059 0.097756724901217312 0 -0.14131371824697789 0.10751838087593731 0 -0.1345911480507764 0.088812230746756912 0 -0.14131371824697789 0.10751838087593731 0 -0.13001429557831731 0.1198227941329678 0 -0.15403906249874069 0.12589571113378031 0 -0.15862911819412059 0.097756724901217312 0 -0.14131371824697789 0.10751838087593731 0 -0.15403906249874069 0.12589571113378031 0 -0.14131371824697789 0.10751838087593731 0 -0.13001429557831731 0.1198227941329678 0 -0.12122071127410169 0.1011562332252598 0 -0.14131371824697789 0.10751838087593731 0 -0.1345911480507764 0.088812230746756912 0 -0.12122071127410169 0.1011562332252598 0 -0.15862911819412059 0.097756724901217312 0 -0.1345911480507764 0.088812230746756912 0 -0.14917370168858521 0.079615505367234427 0 -0.166550299153083 0.069403824515200191 0 -0.141583805156697 0.064135708891144866 0 -0.1632191738895005 0.069617738668654255 0 -0.14917370168858521 0.079615505367234427 0 -0.141583805156697 0.064135708891144866 0 -0.1345911480507764 0.088812230746756912 0 -0.14917370168858521 0.079615505367234427 0 -0.141583805156697 0.064135708891144866 0 -0.166550299153083 0.069403824515200191 0 -0.141583805156697 0.064135708891144866 0 -0.15779303939592501 0.054928131258826937 0 -0.1345911480507764 0.088812230746756912 0 -0.141583805156697 0.064135708891144866 0 -0.122857043700085 0.065396000713886113 0 -0.141583805156697 0.064135708891144866 0 -0.1400776641808763 0.046650715488378819 0 -0.122857043700085 0.065396000713886113 0 -0.1400776641808763 0.046650715488378819 0 -0.12877269131590419 0.02891062264521364 0 -0.14822285433910279 0.03026761533821061 0 -0.1400776641808763 0.046650715488378819 0 -0.12877269131590419 0.02891062264521364 0 -0.1112017315811004 0.045741524315275547 0 -0.1400776641808763 0.046650715488378819 0 -0.15779303939592501 0.054928131258826937 0 -0.16395126528376799 0.038622125959276263 0 -0.1400776641808763 0.046650715488378819 0 -0.14822285433910279 0.03026761533821061 0 -0.16395126528376799 0.038622125959276263 0 -0.141583805156697 0.064135708891144866 0 -0.1400776641808763 0.046650715488378819 0 -0.15779303939592501 0.054928131258826937 0 -0.1328376889806758 -0.0045356249474490153 0 -0.13863083290176981 0.01319296977056263 0 -0.12124736190375469 0.01279115185984827 0 -0.13863083290176981 0.01319296977056263 0 -0.12877269131590419 0.02891062264521364 0 -0.14822285433910279 0.03026761533821061 0 -0.13863083290176981 0.01319296977056263 0 -0.12877269131590419 0.02891062264521364 0 -0.12124736190375469 0.01279115185984827 0 -0.14822285433910279 0.03026761533821061 0 -0.15609440124032559 0.0047749055323952367 0 -0.13863083290176981 0.01319296977056263 0 -0.14822285433910279 0.03026761533821061 0 -0.15609440124032559 0.0047749055323952367 0 -0.1328376889806758 -0.0045356249474490153 0 -0.13863083290176981 0.01319296977056263 0 -0.15609440124032559 0.0047749055323952367 0 -0.15609440124032559 0.0047749055323952367 0 -0.16663126521263941 0.023006490648555051 0 -0.18261243882222461 0.01005588960001042 0 -0.14822285433910279 0.03026761533821061 0 -0.16663126521263941 0.023006490648555051 0 -0.16395126528376799 0.038622125959276263 0 -0.14822285433910279 0.03026761533821061 0 -0.15609440124032559 0.0047749055323952367 0 -0.16663126521263941 0.023006490648555051 0 -0.16663126521263941 0.023006490648555051 0 -0.18261243882222461 0.01005588960001042 0 -0.181891192205658 0.037085038925054062 0 -0.1826470072517046 -0.0098753555905821966 0 -0.15609440124032559 0.0047749055323952367 0 -0.18261243882222461 0.01005588960001042 0 -0.15779303939592501 0.054928131258826937 0 -0.16395126528376799 0.038622125959276263 0 -0.1739266135637916 0.051900898692625798 0 -0.1678897209062726 0.059410469536475469 0 -0.15779303939592501 0.054928131258826937 0 -0.1739266135637916 0.051900898692625798 0 -0.166550299153083 0.069403824515200191 0 -0.1678897209062726 0.059410469536475469 0 -0.15779303939592501 0.054928131258826937 0 -0.16663126521263941 0.023006490648555051 0 -0.16395126528376799 0.038622125959276263 0 -0.181891192205658 0.037085038925054062 0 -0.16395126528376799 0.038622125959276263 0 -0.181891192205658 0.037085038925054062 0 -0.1739266135637916 0.051900898692625798 0 -0.181891192205658 0.037085038925054062 0 -0.1739266135637916 0.051900898692625798 0 -0.1898637313793827 0.051540694726928793 0 -0.1739266135637916 0.051900898692625798 0 -0.18289780919193149 0.057856124345155691 0 -0.1898637313793827 0.051540694726928793 0 -0.1678897209062726 0.059410469536475469 0 -0.1739266135637916 0.051900898692625798 0 -0.17517620348809759 0.061111614117072589 0 -0.1739266135637916 0.051900898692625798 0 -0.17517620348809759 0.061111614117072589 0 -0.18289780919193149 0.057856124345155691 0 -0.18579611961028841 0.066800872519545557 0 -0.17517620348809759 0.061111614117072589 0 -0.18289780919193149 0.057856124345155691 0 -0.18579611961028841 0.066800872519545557 0 -0.18289780919193149 0.057856124345155691 0 -0.19395589377609729 0.059130079825731041 0 -0.18289780919193149 0.057856124345155691 0 -0.19395589377609729 0.059130079825731041 0 -0.1898637313793827 0.051540694726928793 0 -0.19395589377609729 0.059130079825731041 0 -0.20543704919219219 0.054165625976995438 0 -0.20578475950669201 0.065287081560029742 0 -0.19395589377609729 0.059130079825731041 0 -0.1898637313793827 0.051540694726928793 0 -0.20543704919219219 0.054165625976995438 0 -0.1898637313793827 0.051540694726928793 0 -0.20543704919219219 0.054165625976995438 0 -0.20908497621857791 0.031098155408194609 0 -0.181891192205658 0.037085038925054062 0 -0.20908497621857791 0.031098155408194609 0 -0.181891192205658 0.037085038925054062 0 -0.1898637313793827 0.051540694726928793 0 -0.20908497621857791 0.031098155408194609 0 -0.20543704919219219 0.054165625976995438 0 -0.20908497621857791 0.031098155408194609 0 -0.21916097628352649 0.048491454104114963 0 -0.20543704919219219 0.054165625976995438 0 -0.21916097628352649 0.048491454104114963 0 -0.21777482394873721 0.062783768150244945 0 -0.20543704919219219 0.054165625976995438 0 -0.21777482394873721 0.062783768150244945 0 -0.20578475950669201 0.065287081560029742 0 -0.2043054799363804 -0.0060843420320624807 0 -0.18261243882222461 0.01005588960001042 0 -0.20175906502722349 0.01314140879446506 0 -0.18261243882222461 0.01005588960001042 0 -0.181891192205658 0.037085038925054062 0 -0.20175906502722349 0.01314140879446506 0 -0.181891192205658 0.037085038925054062 0 -0.20175906502722349 0.01314140879446506 0 -0.20908497621857791 0.031098155408194609 0 -0.20175906502722349 0.01314140879446506 0 -0.20908497621857791 0.031098155408194609 0 -0.22560710032771991 0.005678747890459441 0 -0.2043054799363804 -0.0060843420320624807 0 -0.20175906502722349 0.01314140879446506 0 -0.22560710032771991 0.005678747890459441 0 -0.20908497621857791 0.031098155408194609 0 -0.22560710032771991 0.005678747890459441 0 -0.23627876023149799 0.025111271891335121 0 -0.20908497621857791 0.031098155408194609 0 -0.23627876023149799 0.025111271891335121 0 -0.26347254424441802 0.019124388374475651 0 -0.23627876023149799 0.025111271891335121 0 -0.26347254424441802 0.019124388374475651 0 -0.23627876023149799 0.025111271891335121 0 -0.24728209233149009 0.010337292275029671 0 -0.2520988178639067 -0.0074431167796321571 0 -0.22560710032771991 0.005678747890459441 0 -0.24728209233149009 0.010337292275029671 0 -0.22560710032771991 0.005678747890459441 0 -0.23627876023149799 0.025111271891335121 0 -0.24728209233149009 0.010337292275029671 0 -0.22997177478038819 0.055406561011372771 0 -0.21916097628352649 0.048491454104114963 0 -0.23215779705171261 0.041028017622945792 0 -0.22997177478038819 0.055406561011372771 0 -0.21916097628352649 0.048491454104114963 0 -0.21777482394873721 0.062783768150244945 0 -0.20908497621857791 0.031098155408194609 0 -0.21916097628352649 0.048491454104114963 0 -0.23215779705171261 0.041028017622945792 0 -0.20908497621857791 0.031098155408194609 0 -0.23627876023149799 0.025111271891335121 0 -0.23215779705171261 0.041028017622945792 0 -0.25178836883168471 0.034885037221451053 0 -0.23627876023149799 0.025111271891335121 0 -0.247206080807887 0.04269664093361468 0 -0.23627876023149799 0.025111271891335121 0 -0.23215779705171261 0.041028017622945792 0 -0.247206080807887 0.04269664093361468 0 -0.23215779705171261 0.041028017622945792 0 -0.247206080807887 0.04269664093361468 0 -0.2433042830864994 0.055027202448312627 0 -0.2542126422301646 0.050625017747445523 0 -0.247206080807887 0.04269664093361468 0 -0.2433042830864994 0.055027202448312627 0 -0.22997177478038819 0.055406561011372771 0 -0.23215779705171261 0.041028017622945792 0 -0.2433042830864994 0.055027202448312627 0 -0.22997177478038819 0.055406561011372771 0 -0.2433042830864994 0.055027202448312627 0 -0.24227965263950299 0.067380038872434392 0 -0.25626457959536209 0.061004835420003511 0 -0.2433042830864994 0.055027202448312627 0 -0.24227965263950299 0.067380038872434392 0 -0.25276639289259578 0.074270958708192392 0 -0.24227965263950299 0.067380038872434392 0 -0.2414497811422408 0.085208171387366111 0 -0.24227965263950299 0.067380038872434392 0 -0.2414497811422408 0.085208171387366111 0 -0.22992110433993179 0.073362504259359043 0 -0.2414497811422408 0.085208171387366111 0 -0.21648328714585499 0.079940055763310827 0 -0.21672777432092799 0.093486989512891278 0 -0.2414497811422408 0.085208171387366111 0 -0.21648328714585499 0.079940055763310827 0 -0.2414497811422408 0.085208171387366111 0 -0.2136101974066007 0.076042902276791946 0 -0.2414497811422408 0.085208171387366111 0 -0.22992110433993179 0.073362504259359043 0 -0.2136101974066007 0.076042902276791946 0 -0.2414497811422408 0.085208171387366111 0 -0.2136101974066007 0.076042902276791946 0 -0.21648328714585499 0.079940055763310827 0 -0.22992110433993179 0.073362504259359043 0 -0.21881069880994869 0.070153873626380092 0 -0.2136101974066007 0.076042902276791946 0 -0.22997177478038819 0.055406561011372771 0 -0.24227965263950299 0.067380038872434392 0 -0.22992110433993179 0.073362504259359043 0 -0.22997177478038819 0.055406561011372771 0 -0.22992110433993179 0.073362504259359043 0 -0.21777482394873721 0.062783768150244945 0 -0.22992110433993179 0.073362504259359043 0 -0.21881069880994869 0.070153873626380092 0 -0.21777482394873721 0.062783768150244945 0 -0.21648328714585499 0.079940055763310827 0 -0.19151679314946909 0.074671940139255516 0 -0.21393666954452539 0.06842631981912449 0 -0.20578475950669201 0.065287081560029742 0 -0.2136101974066007 0.076042902276791946 0 -0.2136101974066007 0.076042902276791946 0 -0.21648328714585499 0.079940055763310827 0 -0.19151679314946909 0.074671940139255516 0 -0.21777482394873721 0.062783768150244945 0 -0.21393666954452539 0.06842631981912449 0 -0.20578475950669201 0.065287081560029742 0 -0.21881069880994869 0.070153873626380092 0 -0.21777482394873721 0.062783768150244945 0 -0.21393666954452539 0.06842631981912449 0 -0.21881069880994869 0.070153873626380092 0 -0.21393666954452539 0.06842631981912449 0 -0.2136101974066007 0.076042902276791946 0 -0.21648328714585499 0.079940055763310827 0 -0.2061924375007744 0.08583363902360272 0 -0.19151679314946909 0.074671940139255516 0 -0.21672777432092799 0.093486989512891278 0 -0.2061924375007744 0.08583363902360272 0 -0.2002697862603158 0.095406744638763766 0 -0.21648328714585499 0.079940055763310827 0 -0.21672777432092799 0.093486989512891278 0 -0.2061924375007744 0.08583363902360272 0 -0.2061924375007744 0.08583363902360272 0 -0.19490229711748691 0.086403260932400389 0 -0.19151679314946909 0.074671940139255516 0 -0.2061924375007744 0.08583363902360272 0 -0.19490229711748691 0.086403260932400389 0 -0.2002697862603158 0.095406744638763766 0 -0.19490229711748691 0.086403260932400389 0 -0.19000247512989779 0.091998968561011252 0 -0.2002697862603158 0.095406744638763766 0 -0.18611910000096471 0.083584785915992443 0 -0.19490229711748691 0.086403260932400389 0 -0.19000247512989779 0.091998968561011252 0 -0.18611910000096471 0.083584785915992443 0 -0.19490229711748691 0.086403260932400389 0 -0.19151679314946909 0.074671940139255516 0 -0.18579611961028841 0.066800872519545557 0 -0.2136101974066007 0.076042902276791946 0 -0.18579611961028841 0.066800872519545557 0 -0.2136101974066007 0.076042902276791946 0 -0.19151679314946909 0.074671940139255516 0 -0.18579611961028841 0.066800872519545557 0 -0.20578475950669201 0.065287081560029742 0 -0.2136101974066007 0.076042902276791946 0 -0.18579611961028841 0.066800872519545557 0 -0.19395589377609729 0.059130079825731041 0 -0.20578475950669201 0.065287081560029742 0 -0.18536050813616409 0.10250509437258259 0 -0.19770398751383031 0.1182113675273805 0 -0.2002697862603158 0.095406744638763766 0 -0.18536050813616409 0.10250509437258259 0 -0.19000247512989779 0.091998968561011252 0 -0.2002697862603158 0.095406744638763766 0 -0.21672777432092799 0.093486989512891278 0 -0.2002697862603158 0.095406744638763766 0 -0.21198322060685421 0.10683093201207659 0 -0.19770398751383031 0.1182113675273805 0 -0.2002697862603158 0.095406744638763766 0 -0.21198322060685421 0.10683093201207659 0 -0.21672777432092799 0.093486989512891278 0 -0.21198322060685421 0.10683093201207659 0 -0.22700019229553731 0.1071259431265154 0 -0.19770398751383031 0.1182113675273805 0 -0.21755613890785069 0.1193682517551819 0 -0.21507519216433121 0.13580093689008299 0 -0.19770398751383031 0.1182113675273805 0 -0.21198322060685421 0.10683093201207659 0 -0.21755613890785069 0.1193682517551819 0 -0.21755613890785069 0.1193682517551819 0 -0.22700019229553731 0.1071259431265154 0 -0.232858628026818 0.12620633442153351 0 -0.21198322060685421 0.10683093201207659 0 -0.21755613890785069 0.1193682517551819 0 -0.22700019229553731 0.1071259431265154 0 -0.2414497811422408 0.085208171387366111 0 -0.21672777432092799 0.093486989512891278 0 -0.22700019229553731 0.1071259431265154 0 -0.2414497811422408 0.085208171387366111 0 -0.22700019229553731 0.1071259431265154 0 -0.2455730396100507 0.1086139258876115 0 -0.2500144574684745 0.12364619665035551 0 -0.2455730396100507 0.1086139258876115 0 -0.232858628026818 0.12620633442153351 0 -0.22700019229553731 0.1071259431265154 0 -0.2455730396100507 0.1086139258876115 0 -0.232858628026818 0.12620633442153351 0 -0.24603781378442921 0.1363995227782519 0 -0.232858628026818 0.12620633442153351 0 -0.2291194197128717 0.1522504152874968 0 -0.2500144574684745 0.12364619665035551 0 -0.24603781378442921 0.1363995227782519 0 -0.232858628026818 0.12620633442153351 0 -0.21755613890785069 0.1193682517551819 0 -0.232858628026818 0.12620633442153351 0 -0.21507519216433121 0.13580093689008299 0 -0.232858628026818 0.12620633442153351 0 -0.2291194197128717 0.1522504152874968 0 -0.21507519216433121 0.13580093689008299 0 -0.24603781378442921 0.1363995227782519 0 -0.2291194197128717 0.1522504152874968 0 -0.24827633448406999 0.15132421157691051 0 -0.2291194197128717 0.1522504152874968 0 -0.24827633448406999 0.15132421157691051 0 -0.23686461218281701 0.16336994606674701 0 -0.24827633448406999 0.15132421157691051 0 -0.2467834871529184 0.16883907783750191 0 -0.23686461218281701 0.16336994606674701 0 -0.2467834871529184 0.16883907783750191 0 -0.23686461218281701 0.16336994606674701 0 -0.2363563083810768 0.17374780242368651 0 -0.24745606596458641 0.17710691738250969 0 -0.2341022260239666 0.18505593244963919 0 -0.24431150571590329 0.1987769656207086 0 -0.2467834871529184 0.16883907783750191 0 -0.24745606596458641 0.17710691738250969 0 -0.2363563083810768 0.17374780242368651 0 -0.24745606596458641 0.17710691738250969 0 -0.2363563083810768 0.17374780242368651 0 -0.2341022260239666 0.18505593244963919 0 -0.22380323569619351 0.17400728097569251 0 -0.21848705167951529 0.195764146663888 0 -0.2341022260239666 0.18505593244963919 0 -0.22380323569619351 0.17400728097569251 0 -0.21848705167951529 0.195764146663888 0 -0.2363563083810768 0.17374780242368651 0 -0.2341022260239666 0.18505593244963919 0 -0.22380323569619351 0.17400728097569251 0 -0.2291194197128717 0.1522504152874968 0 -0.22380323569619351 0.17400728097569251 0 -0.2291194197128717 0.1522504152874968 0 -0.23686461218281701 0.16336994606674701 0 -0.22380323569619351 0.17400728097569251 0 -0.2291194197128717 0.1522504152874968 0 -0.22380323569619351 0.17400728097569251 0 -0.20720602292451151 0.15890857987133181 0 -0.23686461218281701 0.16336994606674701 0 -0.2363563083810768 0.17374780242368651 0 -0.22380323569619351 0.17400728097569251 0 -0.20720602292451151 0.15890857987133181 0 -0.21023262166758791 0.18242650807466379 0 -0.19849654274589301 0.1737173343278732 0 -0.22380323569619351 0.17400728097569251 0 -0.20720602292451151 0.15890857987133181 0 -0.21023262166758791 0.18242650807466379 0 -0.22380323569619351 0.17400728097569251 0 -0.21023262166758791 0.18242650807466379 0 -0.21848705167951529 0.195764146663888 0 -0.21023262166758791 0.18242650807466379 0 -0.19849654274589301 0.1737173343278732 0 -0.19912958184325349 0.19350580067924 0 -0.19849654274589301 0.1737173343278732 0 -0.18934000224278991 0.1634222813401833 0 -0.18311746570184639 0.1811403883135044 0 -0.19849654274589301 0.1737173343278732 0 -0.19912958184325349 0.19350580067924 0 -0.18311746570184639 0.1811403883135044 0 -0.20720602292451151 0.15890857987133181 0 -0.19849654274589301 0.1737173343278732 0 -0.18934000224278991 0.1634222813401833 0 -0.20720602292451151 0.15890857987133181 0 -0.18934000224278991 0.1634222813401833 0 -0.19302586953964129 0.1507549710455966 0 -0.20720602292451151 0.15890857987133181 0 -0.19302586953964129 0.1507549710455966 0 -0.1997817189743073 0.13937076414109961 0 -0.19302586953964129 0.1507549710455966 0 -0.1997817189743073 0.13937076414109961 0 -0.18589752272922219 0.13317796537110621 0 -0.19770398751383031 0.1182113675273805 0 -0.1997817189743073 0.13937076414109961 0 -0.18589752272922219 0.13317796537110621 0 -0.19770398751383031 0.1182113675273805 0 -0.1997817189743073 0.13937076414109961 0 -0.21507519216433121 0.13580093689008299 0 -0.2291194197128717 0.1522504152874968 0 -0.20720602292451151 0.15890857987133181 0 -0.21507519216433121 0.13580093689008299 0 -0.20720602292451151 0.15890857987133181 0 -0.1997817189743073 0.13937076414109961 0 -0.21507519216433121 0.13580093689008299 0 -0.22664856378370191 0.25909323357475722 0 -0.22789718088095359 0.23626310744940621 0 -0.22664856378370191 0.25909323357475722 0 -0.22789718088095359 0.23626310744940621 0 -0.21874497254918079 0.24783068221235149 0 -0.2361193770373593 0.25523122618446548 0 -0.24021544137663131 0.22700409590258699 0 -0.2361193770373593 0.25523122618446548 0 -0.2474478051010339 0.2420611433304935 0 -0.24021544137663131 0.22700409590258699 0 -0.2361193770373593 0.25523122618446548 0 -0.22789718088095359 0.23626310744940621 0 -0.24021544137663131 0.22700409590258699 0 -0.2361193770373593 0.25523122618446548 0 -0.24747775448132589 0.25266819895304049 0 -0.2474478051010339 0.2420611433304935 0 -0.2561550017687102 0.23160506951541199 0 -0.2474478051010339 0.2420611433304935 0 -0.24021544137663131 0.22700409590258699 0 -0.22789718088095359 0.23626310744940621 0 -0.2242171250059537 0.2245344306545411 0 -0.20934381117943049 0.2331835164394889 0 -0.24021544137663131 0.22700409590258699 0 -0.2242171250059537 0.2245344306545411 0 -0.22971376016327999 0.21174760192953521 0 -0.22789718088095359 0.23626310744940621 0 -0.24021544137663131 0.22700409590258699 0 -0.2242171250059537 0.2245344306545411 0 -0.22971376016327999 0.21174760192953521 0 -0.21848705167951529 0.195764146663888 0 -0.213915431429473 0.21447383155168839 0 -0.2242171250059537 0.2245344306545411 0 -0.22971376016327999 0.21174760192953521 0 -0.213915431429473 0.21447383155168839 0 -0.24021544137663131 0.22700409590258699 0 -0.22971376016327999 0.21174760192953521 0 -0.24431150571590329 0.1987769656207086 0 -0.25665430688663771 0.21589195771650829 0 -0.24021544137663131 0.22700409590258699 0 -0.24431150571590329 0.1987769656207086 0 -0.24021544137663131 0.22700409590258699 0 -0.24431150571590329 0.1987769656207086 0 -0.24745606596458641 0.17710691738250969 0 -0.24431150571590329 0.1987769656207086 0 -0.25379456404049172 0.18919542510943149 0 -0.24745606596458641 0.17710691738250969 0 -0.24431150571590329 0.1987769656207086 0 -0.2341022260239666 0.18505593244963919 0 -0.24431150571590329 0.1987769656207086 0 -0.21848705167951529 0.195764146663888 0 -0.22971376016327999 0.21174760192953521 0 -0.24431150571590329 0.1987769656207086 0 -0.21848705167951529 0.195764146663888 0 -0.24431150571590329 0.1987769656207086 0 -0.21848705167951529 0.195764146663888 0 -0.21848705167951529 0.195764146663888 0 -0.19912958184325349 0.19350580067924 0 -0.21023262166758791 0.18242650807466379 0 -0.21848705167951529 0.195764146663888 0 -0.19912958184325349 0.19350580067924 0 -0.21848705167951529 0.195764146663888 0 -0.19912958184325349 0.19350580067924 0 -0.213915431429473 0.21447383155168839 0 -0.19912958184325349 0.19350580067924 0 -0.19539923079902419 0.21316351854706639 0 -0.17811602214107519 0.1993144204124469 0 -0.19912958184325349 0.19350580067924 0 -0.19539923079902419 0.21316351854706639 0 -0.213915431429473 0.21447383155168839 0 -0.21848705167951529 0.195764146663888 0 -0.213915431429473 0.21447383155168839 0 -0.2242171250059537 0.2245344306545411 0 -0.213915431429473 0.21447383155168839 0 -0.20934381117943049 0.2331835164394889 0 -0.19539923079902419 0.21316351854706639 0 -0.213915431429473 0.21447383155168839 0 -0.20934381117943049 0.2331835164394889 0 -0.213915431429473 0.21447383155168839 0 -0.20934381117943049 0.2331835164394889 0 -0.19539923079902419 0.21316351854706639 0 -0.18959340655874421 0.23119776568786041 0 -0.17964346146066251 0.2168378183798465 0 -0.19539923079902419 0.21316351854706639 0 -0.20934381117943049 0.2331835164394889 0 -0.18959340655874421 0.23119776568786041 0 -0.20934381117943049 0.2331835164394889 0 -0.18959340655874421 0.23119776568786041 0 -0.19628793804382469 0.24386246613431761 0 -0.18959340655874421 0.23119776568786041 0 -0.19628793804382469 0.24386246613431761 0 -0.1808175670532057 0.24650865715101761 0 -0.1941262486701465 0.25679149545311902 0 -0.19628793804382469 0.24386246613431761 0 -0.1808175670532057 0.24650865715101761 0 -0.20755865675759641 0.25163089594010191 0 -0.20934381117943049 0.2331835164394889 0 -0.21874497254918079 0.24783068221235149 0 -0.22789718088095359 0.23626310744940621 0 -0.20934381117943049 0.2331835164394889 0 -0.21874497254918079 0.24783068221235149 0 -0.20755865675759641 0.25163089594010191 0 -0.20934381117943049 0.2331835164394889 0 -0.19628793804382469 0.24386246613431761 0 -0.1604978674310856 0.24780485758206641 0 -0.1808175670532057 0.24650865715101761 0 -0.1701176167553799 0.23188631146694549 0 -0.1604978674310856 0.24780485758206641 0 -0.1701176167553799 0.23188631146694549 0 -0.1523342267228735 0.2270013427124786 0 -0.18959340655874421 0.23119776568786041 0 -0.1808175670532057 0.24650865715101761 0 -0.1701176167553799 0.23188631146694549 0 -0.18959340655874421 0.23119776568786041 0 -0.1701176167553799 0.23188631146694549 0 -0.17964346146066251 0.2168378183798465 0 -0.1701176167553799 0.23188631146694549 0 -0.1642046420226411 0.21325765964513699 0 -0.1523342267228735 0.2270013427124786 0 -0.1701176167553799 0.23188631146694549 0 -0.1642046420226411 0.21325765964513699 0 -0.17964346146066251 0.2168378183798465 0 -0.1642046420226411 0.21325765964513699 0 -0.17811602214107519 0.1993144204124469 0 -0.1586772749059861 0.1975591465085389 0 -0.1642046420226411 0.21325765964513699 0 -0.1586772749059861 0.1975591465085389 0 -0.14696225145681949 0.20767347379930001 0 -0.19539923079902419 0.21316351854706639 0 -0.17964346146066251 0.2168378183798465 0 -0.17811602214107519 0.1993144204124469 0 -0.1642046420226411 0.21325765964513699 0 -0.17964346146066251 0.2168378183798465 0 -0.17811602214107519 0.1993144204124469 0 -0.17811602214107519 0.1993144204124469 0 -0.18311746570184639 0.1811403883135044 0 -0.1670781764642153 0.18724697660923509 0 -0.19912958184325349 0.19350580067924 0 -0.17811602214107519 0.1993144204124469 0 -0.18311746570184639 0.1811403883135044 0 -0.17811602214107519 0.1993144204124469 0 -0.1586772749059861 0.1975591465085389 0 -0.1670781764642153 0.18724697660923509 0 -0.1586772749059861 0.1975591465085389 0 -0.1670781764642153 0.18724697660923509 0 -0.15298476598214081 0.18445967190161469 0 -0.1586772749059861 0.1975591465085389 0 -0.1427177913690246 0.19340267668349981 0 -0.15298476598214081 0.18445967190161469 0 -0.1586772749059861 0.1975591465085389 0 -0.1427177913690246 0.19340267668349981 0 -0.14696225145681949 0.20767347379930001 0 -0.1427177913690246 0.19340267668349981 0 -0.1273723576929372 0.2029076099243721 0 -0.14696225145681949 0.20767347379930001 0 -0.1427177913690246 0.19340267668349981 0 -0.1273723576929372 0.2029076099243721 0 -0.1215692290757915 0.18300867896863079 0 -0.1273723576929372 0.2029076099243721 0 -0.13670455986328889 0.22136746151504991 0 -0.1182242638113826 0.22084111735472289 0 -0.1273723576929372 0.2029076099243721 0 -0.14696225145681949 0.20767347379930001 0 -0.13670455986328889 0.22136746151504991 0 -0.1642046420226411 0.21325765964513699 0 -0.14696225145681949 0.20767347379930001 0 -0.1523342267228735 0.2270013427124786 0 -0.14696225145681949 0.20767347379930001 0 -0.1523342267228735 0.2270013427124786 0 -0.13670455986328889 0.22136746151504991 0 -0.1523342267228735 0.2270013427124786 0 -0.13670455986328889 0.22136746151504991 0 -0.1375157473462392 0.24180231514973341 0 -0.13670455986328889 0.22136746151504991 0 -0.1375157473462392 0.24180231514973341 0 -0.1182242638113826 0.22084111735472289 0 -0.1257844795481958 0.2570942398903811 0 -0.1375157473462392 0.24180231514973341 0 -0.1188694256022219 0.24656782798807839 0 -0.1604978674310856 0.24780485758206641 0 -0.1523342267228735 0.2270013427124786 0 -0.1375157473462392 0.24180231514973341 0 -0.16298642700376301 0.14467362485150451 0 -0.17115086886238429 0.13231723386705671 0 -0.17775537539207059 0.14809131127295069 0 -0.16754889737796089 0.15544721936864181 0 -0.16298642700376301 0.14467362485150451 0 -0.17775537539207059 0.14809131127295069 0 -0.16298642700376301 0.14467362485150451 0 -0.15793231614818701 0.15629603862214289 0 -0.14944900680335729 0.15403469736634279 0 -0.16754889737796089 0.15544721936864181 0 -0.16298642700376301 0.14467362485150451 0 -0.15793231614818701 0.15629603862214289 0 -0.16298642700376301 0.14467362485150451 0 -0.17115086886238429 0.13231723386705671 0 -0.15403906249874069 0.12589571113378031 0 -0.17400146724828081 0.11545009424172691 0 -0.17115086886238429 0.13231723386705671 0 -0.18589752272922219 0.13317796537110621 0 -0.17115086886238429 0.13231723386705671 0 -0.18589752272922219 0.13317796537110621 0 -0.17775537539207059 0.14809131127295069 0 -0.19302586953964129 0.1507549710455966 0 -0.18589752272922219 0.13317796537110621 0 -0.17775537539207059 0.14809131127295069 0 -0.18934000224278991 0.1634222813401833 0 -0.19302586953964129 0.1507549710455966 0 -0.17775537539207059 0.14809131127295069 0 -0.18934000224278991 0.1634222813401833 0 -0.17550477519648289 0.16525784736724919 0 -0.18311746570184639 0.1811403883135044 0 -0.16754889737796089 0.15544721936864181 0 -0.17775537539207059 0.14809131127295069 0 -0.17550477519648289 0.16525784736724919 0 -0.18934000224278991 0.1634222813401833 0 -0.17775537539207059 0.14809131127295069 0 -0.17550477519648289 0.16525784736724919 0 -0.18311746570184639 0.1811403883135044 0 -0.1670781764642153 0.18724697660923509 0 -0.1703986627455297 0.17603661607466001 0 -0.17550477519648289 0.16525784736724919 0 -0.18311746570184639 0.1811403883135044 0 -0.1703986627455297 0.17603661607466001 0 -0.1670781764642153 0.18724697660923509 0 -0.1703986627455297 0.17603661607466001 0 -0.16013896660212379 0.1742778000983071 0 -0.1670781764642153 0.18724697660923509 0 -0.16013896660212379 0.1742778000983071 0 -0.15298476598214081 0.18445967190161469 0 -0.16754889737796089 0.15544721936864181 0 -0.17550477519648289 0.16525784736724919 0 -0.16455401270939041 0.16529566223735259 0 -0.1703986627455297 0.17603661607466001 0 -0.16013896660212379 0.1742778000983071 0 -0.16455401270939041 0.16529566223735259 0 -0.17550477519648289 0.16525784736724919 0 -0.1703986627455297 0.17603661607466001 0 -0.16455401270939041 0.16529566223735259 0 -0.16013896660212379 0.1742778000983071 0 -0.16455401270939041 0.16529566223735259 0 -0.15582819312823859 0.16545779957503459 0 -0.16754889737796089 0.15544721936864181 0 -0.16455401270939041 0.16529566223735259 0 -0.15793231614818701 0.15629603862214289 0 -0.16455401270939041 0.16529566223735259 0 -0.15793231614818701 0.15629603862214289 0 -0.15582819312823859 0.16545779957503459 0 -0.15793231614818701 0.15629603862214289 0 -0.14833859665519611 0.16084198205858671 0 -0.14944900680335729 0.15403469736634279 0 -0.15793231614818701 0.15629603862214289 0 -0.15582819312823859 0.16545779957503459 0 -0.14833859665519611 0.16084198205858671 0 -0.14833859665519611 0.16084198205858671 0 -0.14944900680335729 0.15403469736634279 0 -0.16013896660212379 0.1742778000983071 0 -0.15582819312823859 0.16545779957503459 0 -0.14838493491220209 0.17216170436465361 0 -0.15582819312823859 0.16545779957503459 0 -0.14833859665519611 0.16084198205858671 0 -0.14838493491220209 0.17216170436465361 0 -0.14833859665519611 0.16084198205858671 0 -0.14838493491220209 0.17216170436465361 0 -0.13320518475680421 0.16768031909565409 0 -0.16013896660212379 0.1742778000983071 0 -0.15298476598214081 0.18445967190161469 0 -0.14838493491220209 0.17216170436465361 0 -0.15298476598214081 0.18445967190161469 0 -0.14838493491220209 0.17216170436465361 0 -0.13945244213914321 0.17970987423698839 0 -0.1427177913690246 0.19340267668349981 0 -0.15298476598214081 0.18445967190161469 0 -0.13945244213914321 0.17970987423698839 0 -0.13945244213914321 0.17970987423698839 0 -0.13320518475680421 0.16768031909565409 0 -0.1215692290757915 0.18300867896863079 0 -0.1427177913690246 0.19340267668349981 0 -0.13945244213914321 0.17970987423698839 0 -0.1215692290757915 0.18300867896863079 0 -0.14838493491220209 0.17216170436465361 0 -0.13945244213914321 0.17970987423698839 0 -0.13320518475680421 0.16768031909565409 0 -0.13320518475680421 0.16768031909565409 0 -0.12922349761901031 0.14864331335816791 0 -0.11503720570432539 0.16260486234087229 0 -0.14833859665519611 0.16084198205858671 0 -0.13320518475680421 0.16768031909565409 0 -0.12922349761901031 0.14864331335816791 0 -0.12922349761901031 0.14864331335816791 0 -0.14944900680335729 0.15403469736634279 0 -0.13862962922459629 0.13712702681153899 0 -0.12922349761901031 0.14864331335816791 0 -0.14944900680335729 0.15403469736634279 0 -0.14833859665519611 0.16084198205858671 0 -0.12922349761901031 0.14864331335816791 0 -0.14944900680335729 0.15403469736634279 0 -0.16298642700376301 0.14467362485150451 0 -0.14944900680335729 0.15403469736634279 0 -0.15403906249874069 0.12589571113378031 0 -0.15793231614818701 0.15629603862214289 0 -0.14944900680335729 0.15403469736634279 0 -0.14944900680335729 0.15403469736634279 0 -0.15403906249874069 0.12589571113378031 0 -0.13862962922459629 0.13712702681153899 0 -0.13001429557831731 0.1198227941329678 0 -0.15403906249874069 0.12589571113378031 0 -0.13862962922459629 0.13712702681153899 0 -0.14944900680335729 0.15403469736634279 0 -0.15403906249874069 0.12589571113378031 0 -0.12922349761901031 0.14864331335816791 0 -0.13862962922459629 0.13712702681153899 0 -0.1214920249778524 0.13353769620978709 0 -0.13001429557831731 0.1198227941329678 0 -0.13862962922459629 0.13712702681153899 0 -0.1214920249778524 0.13353769620978709 0 -0.1214920249778524 0.13353769620978709 0 -0.10527222096458511 0.12958579729425629 0 -0.10899798843466341 0.14325192934999259 0 -0.1214920249778524 0.13353769620978709 0 -0.10527222096458511 0.12958579729425629 0 -0.1129441648917105 0.1172891678019701 0 -0.10527222096458511 0.12958579729425629 0 -0.10899798843466341 0.14325192934999259 0 -0.088772479250315894 0.13786054534181949 0 -0.10899798843466341 0.14325192934999259 0 -0.088772479250315894 0.13786054534181949 0 -0.10527222096458511 0.12958579729425629 0 -0.088772479250315894 0.13786054534181949 0 -0.095922093164741401 0.11884570091021179 0 -0.10899798843466341 0.14325192934999259 0 -0.097610451473783902 0.15727599886301211 0 -0.088772479250315894 0.13786054534181949 0 -0.10899798843466341 0.14325192934999259 0 -0.11503720570432539 0.16260486234087229 0 -0.097610451473783902 0.15727599886301211 0 -0.12922349761901031 0.14864331335816791 0 -0.10899798843466341 0.14325192934999259 0 -0.11503720570432539 0.16260486234087229 0 -0.12922349761901031 0.14864331335816791 0 -0.10899798843466341 0.14325192934999259 0 -0.12922349761901031 0.14864331335816791 0 -0.1214920249778524 0.13353769620978709 0 -0.10899798843466341 0.14325192934999259 0 -0.13320518475680421 0.16768031909565409 0 -0.11503720570432539 0.16260486234087229 0 -0.1215692290757915 0.18300867896863079 0 -0.11503720570432539 0.16260486234087229 0 -0.1215692290757915 0.18300867896863079 0 -0.099616882865898759 0.1757689344097762 0 -0.099616882865898759 0.1757689344097762 0 -0.081789035597758589 0.1861831111723129 0 -0.10200531523243279 0.19939279210250949 0 -0.1215692290757915 0.18300867896863079 0 -0.099616882865898759 0.1757689344097762 0 -0.10200531523243279 0.19939279210250949 0 -0.11503720570432539 0.16260486234087229 0 -0.099616882865898759 0.1757689344097762 0 -0.097610451473783902 0.15727599886301211 0 -0.099616882865898759 0.1757689344097762 0 -0.097610451473783902 0.15727599886301211 0 -0.078364264299453368 0.16554184260768701 0 -0.099616882865898759 0.1757689344097762 0 -0.078364264299453368 0.16554184260768701 0 -0.081789035597758589 0.1861831111723129 0 -0.078364264299453368 0.16554184260768701 0 -0.081789035597758589 0.1861831111723129 0 -0.063113276741992907 0.17838367483169321 0 -0.081789035597758589 0.1861831111723129 0 -0.063113276741992907 0.17838367483169321 0 -0.067615305956236826 0.19353737935343221 0 -0.078364264299453368 0.16554184260768701 0 -0.068147611344729339 0.15208707448361691 0 -0.054048963989469068 0.16393744930448659 0 -0.078364264299453368 0.16554184260768701 0 -0.063113276741992907 0.17838367483169321 0 -0.054048963989469068 0.16393744930448659 0 -0.078364264299453368 0.16554184260768701 0 -0.068147611344729339 0.15208707448361691 0 -0.083647180645300342 0.13928166456112059 0 -0.068147611344729339 0.15208707448361691 0 -0.083647180645300342 0.13928166456112059 0 -0.056530036444694579 0.13958734146117349 0 -0.083647180645300342 0.13928166456112059 0 -0.056530036444694579 0.13958734146117349 0 -0.074449245059836106 0.13404249284899469 0 -0.083647180645300342 0.13928166456112059 0 -0.056530036444694579 0.13958734146117349 0 -0.074449245059836106 0.13404249284899469 0 -0.056530036444694579 0.13958734146117349 0 -0.061585451790333812 0.1241978050615055 0 -0.074449245059836106 0.13404249284899469 0 -0.061585451790333812 0.1241978050615055 0 -0.074791477983799176 0.1185837787286869 0 -0.074449245059836106 0.13404249284899469 0 -0.084429867605449738 0.12537616023750209 0 -0.074791477983799176 0.1185837787286869 0 -0.074449245059836106 0.13404249284899469 0 -0.083647180645300342 0.13928166456112059 0 -0.088772479250315894 0.13786054534181949 0 -0.088772479250315894 0.13786054534181949 0 -0.095922093164741401 0.11884570091021179 0 -0.074449245059836106 0.13404249284899469 0 -0.088772479250315894 0.13786054534181949 0 -0.084429867605449738 0.12537616023750209 0 -0.088772479250315894 0.13786054534181949 0 -0.095922093164741401 0.11884570091021179 0 -0.074449245059836106 0.13404249284899469 0 -0.084429867605449738 0.12537616023750209 0 -0.088772479250315894 0.13786054534181949 0 -0.097610451473783902 0.15727599886301211 0 -0.078364264299453368 0.16554184260768701 0 -0.088772479250315894 0.13786054534181949 0 -0.078364264299453368 0.16554184260768701 0 -0.083647180645300342 0.13928166456112059 0 -0.088772479250315894 0.13786054534181949 0 -0.078364264299453368 0.16554184260768701 0 -0.088772479250315894 0.13786054534181949 0 -0.1038179082207661 0.2447173299240448 0 -0.092956063383885582 0.2355223852921815 0 -0.092953108990414202 0.2482343684178544 0 -0.1038179082207661 0.2447173299240448 0 -0.1070574163311068 0.2330432279564616 0 -0.092956063383885582 0.2355223852921815 0 -0.104625552311968 0.25840865451950668 0 -0.1038179082207661 0.2447173299240448 0 -0.1188694256022219 0.24656782798807839 0 -0.1375157473462392 0.24180231514973341 0 -0.1188694256022219 0.24656782798807839 0 -0.1182242638113826 0.22084111735472289 0 -0.1038179082207661 0.2447173299240448 0 -0.1188694256022219 0.24656782798807839 0 -0.1070574163311068 0.2330432279564616 0 -0.1188694256022219 0.24656782798807839 0 -0.1182242638113826 0.22084111735472289 0 -0.1188694256022219 0.24656782798807839 0 -0.1182242638113826 0.22084111735472289 0 -0.1070574163311068 0.2330432279564616 0 -0.097126961238817353 0.21883952332518891 0 -0.1070574163311068 0.2330432279564616 0 -0.092956063383885582 0.2355223852921815 0 -0.1182242638113826 0.22084111735472289 0 -0.097126961238817353 0.21883952332518891 0 -0.1070574163311068 0.2330432279564616 0 -0.1182242638113826 0.22084111735472289 0 -0.097126961238817353 0.21883952332518891 0 -0.10200531523243279 0.19939279210250949 0 -0.1273723576929372 0.2029076099243721 0 -0.1182242638113826 0.22084111735472289 0 -0.10200531523243279 0.19939279210250949 0 -0.1273723576929372 0.2029076099243721 0 -0.1215692290757915 0.18300867896863079 0 -0.10200531523243279 0.19939279210250949 0 -0.081789035597758589 0.1861831111723129 0 -0.10200531523243279 0.19939279210250949 0 -0.081205698731074222 0.20559636697696029 0 -0.081789035597758589 0.1861831111723129 0 -0.067615305956236826 0.19353737935343221 0 -0.081205698731074222 0.20559636697696029 0 -0.081205698731074222 0.20559636697696029 0 -0.077541819493793906 0.22290148519514269 0 -0.061155754867405883 0.21272391071317551 0 -0.067615305956236826 0.19353737935343221 0 -0.081205698731074222 0.20559636697696029 0 -0.061155754867405883 0.21272391071317551 0 -0.097126961238817353 0.21883952332518891 0 -0.10200531523243279 0.19939279210250949 0 -0.081205698731074222 0.20559636697696029 0 -0.097126961238817353 0.21883952332518891 0 -0.081205698731074222 0.20559636697696029 0 -0.077541819493793906 0.22290148519514269 0 -0.077541819493793906 0.22290148519514269 0 -0.078488296782803058 0.24223177236244689 0 -0.092956063383885582 0.2355223852921815 0 -0.097126961238817353 0.21883952332518891 0 -0.077541819493793906 0.22290148519514269 0 -0.092956063383885582 0.2355223852921815 0 -0.077541819493793906 0.22290148519514269 0 -0.078488296782803058 0.24223177236244689 0 -0.059486499494905809 0.2319895012509692 0 -0.077541819493793906 0.22290148519514269 0 -0.059486499494905809 0.2319895012509692 0 -0.061155754867405883 0.21272391071317551 0 -0.063404290350803638 0.25053412802719932 0 -0.078488296782803058 0.24223177236244689 0 -0.059486499494905809 0.2319895012509692 0 -0.078488296782803058 0.24223177236244689 0 -0.092956063383885582 0.2355223852921815 0 -0.092953108990414202 0.2482343684178544 0 -0.031266506123036962 0.25803754002367357 0 -0.042155663524131561 0.2409184808780816 0 -0.022209461625391828 0.24127642670813079 0 -0.063404290350803638 0.25053412802719932 0 -0.042155663524131561 0.2409184808780816 0 -0.059486499494905809 0.2319895012509692 0 -0.059486499494905809 0.2319895012509692 0 -0.04078299465971718 0.21932594881547349 0 -0.061155754867405883 0.21272391071317551 0 -0.042155663524131561 0.2409184808780816 0 -0.059486499494905809 0.2319895012509692 0 -0.04078299465971718 0.21932594881547349 0 -0.042155663524131561 0.2409184808780816 0 -0.04078299465971718 0.21932594881547349 0 -0.029073273247406651 0.22888783620072439 0 -0.04078299465971718 0.21932594881547349 0 -0.043025845697648377 0.20214593388752031 0 -0.028475449885850421 0.2035157819693911 0 -0.04078299465971718 0.21932594881547349 0 -0.061155754867405883 0.21272391071317551 0 -0.043025845697648377 0.20214593388752031 0 -0.067615305956236826 0.19353737935343221 0 -0.061155754867405883 0.21272391071317551 0 -0.043025845697648377 0.20214593388752031 0 -0.067615305956236826 0.19353737935343221 0 -0.043025845697648377 0.20214593388752031 0 -0.04701204206552672 0.18371592243657359 0 -0.043025845697648377 0.20214593388752031 0 -0.028624706775940058 0.1910105974236197 0 -0.04701204206552672 0.18371592243657359 0 -0.043025845697648377 0.20214593388752031 0 -0.028624706775940058 0.1910105974236197 0 -0.028475449885850421 0.2035157819693911 0 -0.028624706775940058 0.1910105974236197 0 -0.016494608438660199 0.20253790415427381 0 -0.0089517238734856536 0.18832077130528119 0 -0.028624706775940058 0.1910105974236197 0 -0.016494608438660199 0.20253790415427381 0 -0.028475449885850421 0.2035157819693911 0 -0.0089517238734856536 0.18832077130528119 0 -0.0037120870762782131 0.20125657590245791 0 0.001436842856626886 0.19319603212864381 0 -0.016494608438660199 0.20253790415427381 0 -0.0089517238734856536 0.18832077130528119 0 -0.0037120870762782131 0.20125657590245791 0 -0.016494608438660199 0.20253790415427381 0 -0.0037120870762782131 0.20125657590245791 0 -0.010381968619891199 0.20932274140088869 0 -0.0037120870762782131 0.20125657590245791 0 -0.010381968619891199 0.20932274140088869 0 -0.001251031128110124 0.21184140745705399 0 -0.0037120870762782131 0.20125657590245791 0 -0.001251031128110124 0.21184140745705399 0 0.0041720059838486851 0.20507569813242649 0 -0.001251031128110124 0.21184140745705399 0 -0.0100146011515634 0.21798004729494549 0 -0.002628921599886327 0.22021383939074229 0 -0.010381968619891199 0.20932274140088869 0 -0.001251031128110124 0.21184140745705399 0 -0.0100146011515634 0.21798004729494549 0 -0.010381968619891199 0.20932274140088869 0 -0.0100146011515634 0.21798004729494549 0 -0.022108475900671519 0.21510019680845249 0 -0.04078299465971718 0.21932594881547349 0 -0.022108475900671519 0.21510019680845249 0 -0.028475449885850421 0.2035157819693911 0 -0.016494608438660199 0.20253790415427381 0 -0.010381968619891199 0.20932274140088869 0 -0.022108475900671519 0.21510019680845249 0 -0.016494608438660199 0.20253790415427381 0 -0.022108475900671519 0.21510019680845249 0 -0.028475449885850421 0.2035157819693911 0 -0.04078299465971718 0.21932594881547349 0 -0.022108475900671519 0.21510019680845249 0 -0.029073273247406651 0.22888783620072439 0 -0.01760281743996496 0.22565151276179041 0 -0.01198196725276241 0.23546577422982781 0 -0.022209461625391828 0.24127642670813079 0 -0.029073273247406651 0.22888783620072439 0 -0.01760281743996496 0.22565151276179041 0 -0.022209461625391828 0.24127642670813079 0 -0.0100146011515634 0.21798004729494549 0 -0.022108475900671519 0.21510019680845249 0 -0.01760281743996496 0.22565151276179041 0 -0.022108475900671519 0.21510019680845249 0 -0.029073273247406651 0.22888783620072439 0 -0.01760281743996496 0.22565151276179041 0 -0.0100146011515634 0.21798004729494549 0 -0.01760281743996496 0.22565151276179041 0 -0.0066688466443395652 0.22696136743350931 0 -0.002628921599886327 0.22021383939074229 0 -0.0066688466443395652 0.22696136743350931 0 0.001486765165363903 0.226841301675966 0 -0.0100146011515634 0.21798004729494549 0 -0.002628921599886327 0.22021383939074229 0 -0.0066688466443395652 0.22696136743350931 0 -0.0066688466443395652 0.22696136743350931 0 -0.01198196725276241 0.23546577422982781 0 -0.002222462830917453 0.2378618290474552 0 -0.0066688466443395652 0.22696136743350931 0 -0.002222462830917453 0.2378618290474552 0 0.001486765165363903 0.226841301675966 0 -0.01760281743996496 0.22565151276179041 0 -0.0066688466443395652 0.22696136743350931 0 -0.01198196725276241 0.23546577422982781 0 -0.01198196725276241 0.23546577422982781 0 -0.002222462830917453 0.2378618290474552 0 -0.01120624772319823 0.24557773519825321 0 -0.01198196725276241 0.23546577422982781 0 -0.01120624772319823 0.24557773519825321 0 -0.022209461625391828 0.24127642670813079 0 -0.001929197643986852 0.25249673890194402 0 -0.002222462830917453 0.2378618290474552 0 -0.01120624772319823 0.24557773519825321 0 -0.0154606163912278 0.25672212347018147 0 -0.01120624772319823 0.24557773519825321 0 -0.022209461625391828 0.24127642670813079 0 -0.042155663524131561 0.2409184808780816 0 -0.029073273247406651 0.22888783620072439 0 -0.022209461625391828 0.24127642670813079 0 -0.056530036444694579 0.13958734146117349 0 -0.036213891186806582 0.15687722588818129 0 -0.029412892244088801 0.13989301836122631 0 -0.056530036444694579 0.13958734146117349 0 -0.029412892244088801 0.13989301836122631 0 -0.056530036444694579 0.13958734146117349 0 -0.029412892244088801 0.13989301836122631 0 -0.03075706511623082 0.1222245539747369 0 -0.056530036444694579 0.13958734146117349 0 -0.03075706511623082 0.1222245539747369 0 -0.047979557738513548 0.1162227711907461 0 -0.056530036444694579 0.13958734146117349 0 -0.047979557738513548 0.1162227711907461 0 -0.061585451790333812 0.1241978050615055 0 -0.056530036444694579 0.13958734146117349 0 -0.054048963989469068 0.16393744930448659 0 -0.036213891186806582 0.15687722588818129 0 -0.068147611344729339 0.15208707448361691 0 -0.056530036444694579 0.13958734146117349 0 -0.054048963989469068 0.16393744930448659 0 -0.063113276741992907 0.17838367483169321 0 -0.054048963989469068 0.16393744930448659 0 -0.04701204206552672 0.18371592243657359 0 -0.063113276741992907 0.17838367483169321 0 -0.067615305956236826 0.19353737935343221 0 -0.04701204206552672 0.18371592243657359 0 -0.054048963989469068 0.16393744930448659 0 -0.04701204206552672 0.18371592243657359 0 -0.028095914719385141 0.17327281523446331 0 -0.028624706775940058 0.1910105974236197 0 -0.04701204206552672 0.18371592243657359 0 -0.028095914719385141 0.17327281523446331 0 -0.054048963989469068 0.16393744930448659 0 -0.036213891186806582 0.15687722588818129 0 -0.028095914719385141 0.17327281523446331 0 -0.036213891186806582 0.15687722588818129 0 -0.017521299030577898 0.15703913663062041 0 -0.028095914719385141 0.17327281523446331 0 -0.017521299030577898 0.15703913663062041 0 -0.028095914719385141 0.17327281523446331 0 -0.01089396761865942 0.17156180060038301 0 -0.028624706775940058 0.1910105974236197 0 -0.0089517238734856536 0.18832077130528119 0 -0.028095914719385141 0.17327281523446331 0 -0.0089517238734856536 0.18832077130528119 0 -0.028095914719385141 0.17327281523446331 0 -0.01089396761865942 0.17156180060038301 0 -0.0089517238734856536 0.18832077130528119 0 -0.01089396761865942 0.17156180060038301 0 0.0058649873013942953 0.18066383361509761 0 -0.0089517238734856536 0.18832077130528119 0 0.0058649873013942953 0.18066383361509761 0 0.001436842856626886 0.19319603212864381 0 -0.017521299030577898 0.15703913663062041 0 -0.01089396761865942 0.17156180060038301 0 0.001784619628955575 0.1604312644381887 0 -0.01089396761865942 0.17156180060038301 0 0.001784619628955575 0.1604312644381887 0 0.0058649873013942953 0.18066383361509761 0 -0.017521299030577898 0.15703913663062041 0 -0.0022957480434830329 0.1401986952612797 0 0.001784619628955575 0.1604312644381887 0 -0.0022957480434830329 0.1401986952612797 0 0.001784619628955575 0.1604312644381887 0 -0.036213891186806582 0.15687722588818129 0 -0.017521299030577898 0.15703913663062041 0 -0.029412892244088801 0.13989301836122631 0 -0.017521299030577898 0.15703913663062041 0 -0.029412892244088801 0.13989301836122631 0 -0.0022957480434830329 0.1401986952612797 0 -0.015745460848374811 0.13038875412955669 0 -0.029412892244088801 0.13989301836122631 0 -0.0022957480434830329 0.1401986952612797 0 -0.015745460848374811 0.13038875412955669 0 -0.029412892244088801 0.13989301836122631 0 -0.03075706511623082 0.1222245539747369 0 -0.029412892244088801 0.13989301836122631 0 -0.0022957480434830329 0.1401986952612797 0 -0.015745460848374811 0.13038875412955669 0 -0.0022957480434830329 0.1401986952612797 0 -0.0071492087137228167 0.11613273193613161 0 -0.0022957480434830329 0.1401986952612797 0 -0.0071492087137228167 0.11613273193613161 0 0.0083094916575321455 0.12528200001600001 0 -0.0022957480434830329 0.1401986952612797 0 -0.0071492087137228167 0.11613273193613161 0 -0.0071492087137228167 0.11613273193613161 0 -0.01200266938396247 0.092066768610983465 0 -0.01200266938396247 0.092066768610983465 0 0.002793676041261716 0.09208836803534709 0 0.005033691367288021 0.1071795390830385 0 -0.0071492087137228167 0.11613273193613161 0 -0.01200266938396247 0.092066768610983465 0 0.005033691367288021 0.1071795390830385 0 -0.0071492087137228167 0.11613273193613161 0 -0.02488395250225188 0.10550665988755099 0 -0.01200266938396247 0.092066768610983465 0 -0.02488395250225188 0.10550665988755099 0 -0.01200266938396247 0.092066768610983465 0 -0.024967471958333029 0.084676355586822211 0 -0.0071492087137228167 0.11613273193613161 0 -0.02488395250225188 0.10550665988755099 0 -0.03075706511623082 0.1222245539747369 0 -0.015745460848374811 0.13038875412955669 0 -0.0071492087137228167 0.11613273193613161 0 -0.03075706511623082 0.1222245539747369 0 -0.0095560575819312633 0.063802319615242159 0 -0.0042314667271256398 0.071296904549836781 0 -0.015857870617096419 0.072622381416746096 0 -0.0095560575819312633 0.063802319615242159 0 -0.015857870617096419 0.072622381416746096 0 -0.01647279387459237 0.058313598202677917 0 -0.0095560575819312633 0.063802319615242159 0 -0.0042314667271256398 0.071296904549836781 0 -0.00074356456090495871 0.058663613627709249 0 -0.0042314667271256398 0.071296904549836781 0 -0.0042936797531556974 0.081347281365948418 0 0.0078299319211443397 0.078661984216828643 0 -0.0042314667271256398 0.071296904549836781 0 -0.0042936797531556974 0.081347281365948418 0 -0.015857870617096419 0.072622381416746096 0 -0.0042936797531556974 0.081347281365948418 0 -0.01200266938396247 0.092066768610983465 0 -0.015857870617096419 0.072622381416746096 0 -0.0042936797531556974 0.081347281365948418 0 -0.01200266938396247 0.092066768610983465 0 0.002793676041261716 0.09208836803534709 0 -0.01200266938396247 0.092066768610983465 0 -0.024967471958333029 0.084676355586822211 0 -0.015857870617096419 0.072622381416746096 0 -0.02488395250225188 0.10550665988755099 0 -0.024967471958333029 0.084676355586822211 0 -0.043051638054983993 0.086320980159131894 0 -0.024967471958333029 0.084676355586822211 0 -0.015857870617096419 0.072622381416746096 0 -0.035882677570904277 0.070615860455687296 0 -0.015857870617096419 0.072622381416746096 0 -0.035882677570904277 0.070615860455687296 0 -0.027682793312239499 0.058546360490908042 0 -0.015857870617096419 0.072622381416746096 0 -0.01647279387459237 0.058313598202677917 0 -0.027682793312239499 0.058546360490908042 0 -0.035882677570904277 0.070615860455687296 0 -0.043051638054983993 0.086320980159131894 0 -0.061219323607716092 0.067135300430712752 0 -0.024967471958333029 0.084676355586822211 0 -0.035882677570904277 0.070615860455687296 0 -0.043051638054983993 0.086320980159131894 0 -0.043051638054983993 0.086320980159131894 0 -0.061219323607716092 0.067135300430712752 0 -0.064551473293396958 0.085944783306690226 0 -0.043051638054983993 0.086320980159131894 0 -0.052449513819874949 0.1002458210413926 0 -0.064551473293396958 0.085944783306690226 0 -0.035882677570904277 0.070615860455687296 0 -0.061219323607716092 0.067135300430712752 0 -0.043942269612042881 0.05517521644063382 0 -0.043051638054983993 0.086320980159131894 0 -0.061219323607716092 0.067135300430712752 0 -0.02488395250225188 0.10550665988755099 0 -0.03075706511623082 0.1222245539747369 0 -0.047979557738513548 0.1162227711907461 0 -0.02488395250225188 0.10550665988755099 0 -0.043051638054983993 0.086320980159131894 0 -0.02488395250225188 0.10550665988755099 0 -0.043051638054983993 0.086320980159131894 0 -0.052449513819874949 0.1002458210413926 0 -0.02488395250225188 0.10550665988755099 0 -0.052449513819874949 0.1002458210413926 0 -0.047979557738513548 0.1162227711907461 0 -0.052449513819874949 0.1002458210413926 0 -0.067199129492653206 0.1049285840649006 0 -0.064551473293396958 0.085944783306690226 0 -0.052449513819874949 0.1002458210413926 0 -0.047979557738513548 0.1162227711907461 0 -0.067199129492653206 0.1049285840649006 0 -0.047979557738513548 0.1162227711907461 0 -0.061585451790333812 0.1241978050615055 0 -0.067199129492653206 0.1049285840649006 0 -0.061585451790333812 0.1241978050615055 0 -0.074791477983799176 0.1185837787286869 0 -0.067199129492653206 0.1049285840649006 0 -0.074791477983799176 0.1185837787286869 0 -0.085276444433596291 0.1071196729416458 0 -0.067199129492653206 0.1049285840649006 0 -0.084429867605449738 0.12537616023750209 0 -0.085276444433596291 0.1071196729416458 0 -0.095922093164741401 0.11884570091021179 0 -0.084429867605449738 0.12537616023750209 0 -0.074791477983799176 0.1185837787286869 0 -0.085276444433596291 0.1071196729416458 0 -0.085276444433596291 0.1071196729416458 0 -0.067199129492653206 0.1049285840649006 0 -0.083802987586663422 0.081742928856643776 0 -0.085276444433596291 0.1071196729416458 0 -0.083802987586663422 0.081742928856643776 0 -0.1030717070791667 0.099830856478603985 0 -0.067199129492653206 0.1049285840649006 0 -0.064551473293396958 0.085944783306690226 0 -0.083802987586663422 0.081742928856643776 0 -0.061219323607716092 0.067135300430712752 0 -0.064551473293396958 0.085944783306690226 0 -0.083802987586663422 0.081742928856643776 0 -0.061219323607716092 0.067135300430712752 0 -0.083802987586663422 0.081742928856643776 0 -0.079387009160448122 0.047949620702293687 0 -0.083802987586663422 0.081742928856643776 0 -0.098984616888449811 0.064004010728858668 0 -0.079387009160448122 0.047949620702293687 0 -0.110221320993592 0.080816012046996177 0 -0.1030717070791667 0.099830856478603985 0 -0.083802987586663422 0.081742928856643776 0 -0.110221320993592 0.080816012046996177 0 -0.1030717070791667 0.099830856478603985 0 -0.083802987586663422 0.081742928856643776 0 -0.098984616888449811 0.064004010728858668 0 -0.110221320993592 0.080816012046996177 0 -0.098984616888449811 0.064004010728858668 0 -0.122857043700085 0.065396000713886113 0 -0.110221320993592 0.080816012046996177 0 -0.1345911480507764 0.088812230746756912 0 -0.122857043700085 0.065396000713886113 0 -0.110221320993592 0.080816012046996177 0 -0.1345911480507764 0.088812230746756912 0 -0.110221320993592 0.080816012046996177 0 -0.12122071127410169 0.1011562332252598 0 -0.12122071127410169 0.1011562332252598 0 -0.1129441648917105 0.1172891678019701 0 -0.1030717070791667 0.099830856478603985 0 -0.110221320993592 0.080816012046996177 0 -0.12122071127410169 0.1011562332252598 0 -0.1030717070791667 0.099830856478603985 0 -0.13001429557831731 0.1198227941329678 0 -0.1214920249778524 0.13353769620978709 0 -0.1129441648917105 0.1172891678019701 0 -0.13001429557831731 0.1198227941329678 0 -0.12122071127410169 0.1011562332252598 0 -0.1129441648917105 0.1172891678019701 0 -0.10527222096458511 0.12958579729425629 0 -0.1129441648917105 0.1172891678019701 0 -0.095922093164741401 0.11884570091021179 0 -0.1129441648917105 0.1172891678019701 0 -0.095922093164741401 0.11884570091021179 0 -0.1030717070791667 0.099830856478603985 0 -0.095922093164741401 0.11884570091021179 0 -0.1030717070791667 0.099830856478603985 0 -0.085276444433596291 0.1071196729416458 0 -0.095922093164741401 0.11884570091021179 0 -0.1030717070791667 0.099830856478603985 0 -0.10442538007832471 0.013664957110786229 0 -0.1118330840393524 0.025330504776497741 0 -0.093518255317678003 0.02554426795136502 0 -0.10442538007832471 0.013664957110786229 0 -0.093518255317678003 0.02554426795136502 0 -0.087018808590096697 0.0050938216017826022 0 -0.1092492793166108 -0.0014402969385394621 0 -0.10442538007832471 0.013664957110786229 0 -0.087018808590096697 0.0050938216017826022 0 -0.1092492793166108 -0.0014402969385394621 0 -0.10442538007832471 0.013664957110786229 0 -0.12124736190375469 0.01279115185984827 0 -0.1092492793166108 -0.0014402969385394621 0 -0.1328376889806758 -0.0045356249474490153 0 -0.12124736190375469 0.01279115185984827 0 -0.12877269131590419 0.02891062264521364 0 -0.12124736190375469 0.01279115185984827 0 -0.1118330840393524 0.025330504776497741 0 -0.10442538007832471 0.013664957110786229 0 -0.12124736190375469 0.01279115185984827 0 -0.1118330840393524 0.025330504776497741 0 -0.1112017315811004 0.045741524315275547 0 -0.079387009160448122 0.047949620702293687 0 -0.093518255317678003 0.02554426795136502 0 -0.12877269131590419 0.02891062264521364 0 -0.1118330840393524 0.025330504776497741 0 -0.1112017315811004 0.045741524315275547 0 -0.098984616888449811 0.064004010728858668 0 -0.1112017315811004 0.045741524315275547 0 -0.079387009160448122 0.047949620702293687 0 -0.098984616888449811 0.064004010728858668 0 -0.122857043700085 0.065396000713886113 0 -0.1112017315811004 0.045741524315275547 0 -0.1400776641808763 0.046650715488378819 0 -0.122857043700085 0.065396000713886113 0 -0.1112017315811004 0.045741524315275547 0 -0.1118330840393524 0.025330504776497741 0 -0.1112017315811004 0.045741524315275547 0 -0.093518255317678003 0.02554426795136502 0 -0.079387009160448122 0.047949620702293687 0 -0.066020808611355342 0.037174989138941759 0 -0.093518255317678003 0.02554426795136502 0 -0.061219323607716092 0.067135300430712752 0 -0.079387009160448122 0.047949620702293687 0 -0.059733639335795619 0.04943037620770338 0 -0.061219323607716092 0.067135300430712752 0 -0.079387009160448122 0.047949620702293687 0 -0.079387009160448122 0.047949620702293687 0 -0.066020808611355342 0.037174989138941759 0 -0.059733639335795619 0.04943037620770338 0 -0.066020808611355342 0.037174989138941759 0 -0.06643156621267475 0.020011677085683931 0 -0.093518255317678003 0.02554426795136502 0 -0.06643156621267475 0.020011677085683931 0 -0.093518255317678003 0.02554426795136502 0 -0.06643156621267475 0.020011677085683931 0 -0.093518255317678003 0.02554426795136502 0 -0.087018808590096697 0.0050938216017826022 0 -0.06643156621267475 0.020011677085683931 0 -0.087018808590096697 0.0050938216017826022 0 -0.071623562416749581 0.0045980549106218772 0 -0.072696184476927217 -0.010885102084582239 0 -0.071623562416749581 0.0045980549106218772 0 -0.057435565951508283 0.007572134026259187 0 -0.06643156621267475 0.020011677085683931 0 -0.071623562416749581 0.0045980549106218772 0 -0.057435565951508283 0.007572134026259187 0 -0.050006936188596147 -0.0071038849927689794 0 -0.057435565951508283 0.007572134026259187 0 -0.039400224383949717 0.002898592655123104 0 -0.057435565951508283 0.007572134026259187 0 -0.039344877107671261 0.014479086220003949 0 -0.06643156621267475 0.020011677085683931 0 -0.057435565951508283 0.007572134026259187 0 -0.039344877107671261 0.014479086220003949 0 -0.066020808611355342 0.037174989138941759 0 -0.06643156621267475 0.020011677085683931 0 -0.051015780849463663 0.02791884987811152 0 -0.06643156621267475 0.020011677085683931 0 -0.051015780849463663 0.02791884987811152 0 -0.039344877107671261 0.014479086220003949 0 -0.06643156621267475 0.020011677085683931 0 -0.039344877107671261 0.014479086220003949 0 -0.051015780849463663 0.02791884987811152 0 -0.035182866628201012 0.028211742619994162 0 -0.039344877107671261 0.014479086220003949 0 -0.035182866628201012 0.028211742619994162 0 -0.039344877107671261 0.014479086220003949 0 -0.03080722636256181 0.017738726914309149 0 -0.039344877107671261 0.014479086220003949 0 -0.03080722636256181 0.017738726914309149 0 -0.057435565951508283 0.007572134026259187 0 -0.039400224383949717 0.002898592655123104 0 -0.039344877107671261 0.014479086220003949 0 -0.039400224383949717 0.002898592655123104 0 -0.039344877107671261 0.014479086220003949 0 -0.021268757561334659 0.01078694896759361 0 -0.061219323607716092 0.067135300430712752 0 -0.059733639335795619 0.04943037620770338 0 -0.043942269612042881 0.05517521644063382 0 -0.059733639335795619 0.04943037620770338 0 -0.048098785687415671 0.03971675432593489 0 -0.043942269612042881 0.05517521644063382 0 -0.066020808611355342 0.037174989138941759 0 -0.059733639335795619 0.04943037620770338 0 -0.048098785687415671 0.03971675432593489 0 -0.066020808611355342 0.037174989138941759 0 -0.051015780849463663 0.02791884987811152 0 -0.048098785687415671 0.03971675432593489 0 -0.035182866628201012 0.028211742619994162 0 -0.034186452035801798 0.044523627151950212 0 -0.024418698649973359 0.037700729434609503 0 -0.035182866628201012 0.028211742619994162 0 -0.048098785687415671 0.03971675432593489 0 -0.034186452035801798 0.044523627151950212 0 -0.051015780849463663 0.02791884987811152 0 -0.035182866628201012 0.028211742619994162 0 -0.048098785687415671 0.03971675432593489 0 -0.048098785687415671 0.03971675432593489 0 -0.034186452035801798 0.044523627151950212 0 -0.043942269612042881 0.05517521644063382 0 -0.035882677570904277 0.070615860455687296 0 -0.043942269612042881 0.05517521644063382 0 -0.027682793312239499 0.058546360490908042 0 -0.034186452035801798 0.044523627151950212 0 -0.043942269612042881 0.05517521644063382 0 -0.027682793312239499 0.058546360490908042 0 -0.01647279387459237 0.058313598202677917 0 -0.027682793312239499 0.058546360490908042 0 -0.019403390483689019 0.047227613451255868 0 -0.034186452035801798 0.044523627151950212 0 -0.027682793312239499 0.058546360490908042 0 -0.019403390483689019 0.047227613451255868 0 -0.019403390483689019 0.047227613451255868 0 -0.024418698649973359 0.037700729434609503 0 -0.017481244960953161 0.035845009444621649 0 -0.034186452035801798 0.044523627151950212 0 -0.019403390483689019 0.047227613451255868 0 -0.024418698649973359 0.037700729434609503 0 -0.035182866628201012 0.028211742619994162 0 -0.024418698649973359 0.037700729434609503 0 -0.02270843485112161 0.029395728830269939 0 -0.024418698649973359 0.037700729434609503 0 -0.017481244960953161 0.035845009444621649 0 -0.02270843485112161 0.029395728830269939 0 -0.017481244960953161 0.035845009444621649 0 -0.0082551847020071022 0.041142155069823452 0 -0.015838364357571199 0.02345377818492474 0 -0.0027073961609825311 0.033990146908376963 0 -0.0082551847020071022 0.041142155069823452 0 -0.015838364357571199 0.02345377818492474 0 -0.0082551847020071022 0.041142155069823452 0 -0.015838364357571199 0.02345377818492474 0 -0.0027073961609825311 0.033990146908376963 0 -6.6238804764569897e-05 0.039216256020085258 0 -0.0082551847020071022 0.041142155069823452 0 -6.6238804764569897e-05 0.039216256020085258 0 -0.0082551847020071022 0.041142155069823452 0 0.0020167010984448982 0.045503505930856253 0 -0.019403390483689019 0.047227613451255868 0 -0.017481244960953161 0.035845009444621649 0 -0.0082551847020071022 0.041142155069823452 0 -0.0082551847020071022 0.041142155069823452 0 -0.0078711492804944411 0.053741135962823663 0 -0.00074356456090495871 0.058663613627709249 0 -0.0082551847020071022 0.041142155069823452 0 -0.00074356456090495871 0.058663613627709249 0 0.0020167010984448982 0.045503505930856253 0 -0.0082551847020071022 0.041142155069823452 0 -0.00074356456090495871 0.058663613627709249 0 -0.019403390483689019 0.047227613451255868 0 -0.0082551847020071022 0.041142155069823452 0 -0.0078711492804944411 0.053741135962823663 0 -0.01647279387459237 0.058313598202677917 0 -0.019403390483689019 0.047227613451255868 0 -0.0078711492804944411 0.053741135962823663 0 -0.0095560575819312633 0.063802319615242159 0 -0.0078711492804944411 0.053741135962823663 0 -0.00074356456090495871 0.058663613627709249 0 -0.0078711492804944411 0.053741135962823663 0 -0.00074356456090495871 0.058663613627709249 0 -0.0095560575819312633 0.063802319615242159 0 -0.01647279387459237 0.058313598202677917 0 -0.0078711492804944411 0.053741135962823663 0 -0.039344877107671261 0.014479086220003949 0 -0.021268757561334659 0.01078694896759361 0 -0.03080722636256181 0.017738726914309149 0 -0.027317687900264689 -0.0033226679009582898 0 -0.039400224383949717 0.002898592655123104 0 -0.021268757561334659 0.01078694896759361 0 -0.027317687900264689 -0.0033226679009582898 0 -0.021268757561334659 0.01078694896759361 0 -0.0066317386901698708 0.00012469464361213051 0 -0.039344877107671261 0.014479086220003949 0 -0.021268757561334659 0.01078694896759361 0 -0.027317687900264689 -0.0033226679009582898 0 -0.021268757561334659 0.01078694896759361 0 -0.03080722636256181 0.017738726914309149 0 -0.02069255917337234 0.021600466140187138 0 -0.021268757561334659 0.01078694896759361 0 -0.03080722636256181 0.017738726914309149 0 -0.02069255917337234 0.021600466140187138 0 -0.035182866628201012 0.028211742619994162 0 -0.03080722636256181 0.017738726914309149 0 -0.02069255917337234 0.021600466140187138 0 -0.035182866628201012 0.028211742619994162 0 -0.02270843485112161 0.029395728830269939 0 -0.02069255917337234 0.021600466140187138 0 -0.017481244960953161 0.035845009444621649 0 -0.02270843485112161 0.029395728830269939 0 -0.015838364357571199 0.02345377818492474 0 -0.02270843485112161 0.029395728830269939 0 -0.015838364357571199 0.02345377818492474 0 -0.02069255917337234 0.021600466140187138 0 -0.021268757561334659 0.01078694896759361 0 -0.015838364357571199 0.02345377818492474 0 -0.021268757561334659 0.01078694896759361 0 -0.015838364357571199 0.02345377818492474 0 -0.02069255917337234 0.021600466140187138 0 -0.015838364357571199 0.02345377818492474 0 -0.02069255917337234 0.021600466140187138 0 -0.015838364357571199 0.02345377818492474 0 -0.0019767954140255048 0.0242043166045007 0 0.0095721759808716812 0.033155420220222998 0 -0.0027073961609825311 0.033990146908376963 0 -0.015838364357571199 0.02345377818492474 0 0.0069781417501890812 0.032949223440163662 0 -0.021268757561334659 0.01078694896759361 0 -0.015838364357571199 0.02345377818492474 0 -0.0073834190975974384 0.017111199109181071 0 -0.015838364357571199 0.02345377818492474 0 0.0069781417501890812 0.032949223440163662 0 -0.015838364357571199 0.02345377818492474 0 0.0095721759808716812 0.033155420220222998 0 -0.015838364357571199 0.02345377818492474 0 -0.0019767954140255048 0.0242043166045007 0 -0.0073834190975974384 0.017111199109181071 0 -0.0073834190975974384 0.017111199109181071 0 -0.0002163260205225864 0.021635868093506469 0 0.0044858782003214491 0.014860262460176649 0 -0.0019767954140255048 0.0242043166045007 0 -0.0073834190975974384 0.017111199109181071 0 -0.0002163260205225864 0.021635868093506469 0 -0.021268757561334659 0.01078694896759361 0 -0.0036072735207046541 0.007179503077888119 0 -0.021268757561334659 0.01078694896759361 0 -0.0066317386901698708 0.00012469464361213051 0 -0.0036072735207046541 0.007179503077888119 0 -0.0073834190975974384 0.017111199109181071 0 -0.0036072735207046541 0.007179503077888119 0 0.0044858782003214491 0.014860262460176649 0 -0.021268757561334659 0.01078694896759361 0 -0.0073834190975974384 0.017111199109181071 0 -0.0036072735207046541 0.007179503077888119 0 -0.0066317386901698708 0.00012469464361213051 0 0.014054210519925151 0.0035720571881815949 0 -0.0036072735207046541 0.007179503077888119 0 0.014054210519925151 0.0035720571881815949 0 0.0044858782003214491 0.014860262460176649 0 -0.0036072735207046541 0.007179503077888119 0 0.014054210519925151 0.0035720571881815949 0 -0.0066317386901698708 0.00012469464361213051 0 -0.0036072735207046541 0.007179503077888119 0 0.014054210519925151 0.0035720571881815949 0 0.014054210519925151 0.0035720571881815949 0 0.01373335438641912 0.014550587214052019 0 0.0044858782003214491 0.014860262460176649 0 -0.0002163260205225864 0.021635868093506469 0 0.0039819564246929484 0.02566531741466781 0 0.0094470193063907627 0.02210238975044547 0 -0.0002163260205225864 0.021635868093506469 0 0.0044858782003214491 0.014860262460176649 0 0.0094470193063907627 0.02210238975044547 0 -0.015838364357571199 0.02345377818492474 0 0.0069781417501890812 0.032949223440163662 0 0.0095721759808716812 0.033155420220222998 0 -0.0019767954140255048 0.0242043166045007 0 0.0039819564246929484 0.02566531741466781 0 0.0095721759808716812 0.033155420220222998 0 -0.0019767954140255048 0.0242043166045007 0 -0.0002163260205225864 0.021635868093506469 0 0.0039819564246929484 0.02566531741466781 0 0.0039819564246929484 0.02566531741466781 0 0.01056602391112073 0.02768072267756419 0 0.0095721759808716812 0.033155420220222998 0 0.0039819564246929484 0.02566531741466781 0 0.01056602391112073 0.02768072267756419 0 0.0094470193063907627 0.02210238975044547 0 0.01056602391112073 0.02768072267756419 0 0.0094470193063907627 0.02210238975044547 0 0.01693963851067996 0.02709252167362378 0 0.01056602391112073 0.02768072267756419 0 0.015735785404595481 0.03084623487630039 0 0.0095721759808716812 0.033155420220222998 0 0.01056602391112073 0.02768072267756419 0 0.015735785404595481 0.03084623487630039 0 0.01693963851067996 0.02709252167362378 0 0.0094470193063907627 0.02210238975044547 0 0.019033104219668709 0.019840473217169498 0 0.01693963851067996 0.02709252167362378 0 0.01373335438641912 0.014550587214052019 0 0.0044858782003214491 0.014860262460176649 0 0.0094470193063907627 0.02210238975044547 0 0.01373335438641912 0.014550587214052019 0 0.0094470193063907627 0.02210238975044547 0 0.019033104219668709 0.019840473217169498 0 0.019033104219668709 0.019840473217169498 0 0.028808400384360069 0.015644784769761839 0 0.02103573519986519 0.01189857302527886 0 0.015735785404595481 0.03084623487630039 0 0.01693963851067996 0.02709252167362378 0 0.02586530321570955 0.035456274933790582 0 0.019033104219668709 0.019840473217169498 0 0.01693963851067996 0.02709252167362378 0 0.02580866977740932 0.02428863336069171 0 0.01693963851067996 0.02709252167362378 0 0.02580866977740932 0.02428863336069171 0 0.02586530321570955 0.035456274933790582 0 0.02580866977740932 0.02428863336069171 0 0.02586530321570955 0.035456274933790582 0 0.038033713460250029 0.021987768007108319 0 0.019033104219668709 0.019840473217169498 0 0.02580866977740932 0.02428863336069171 0 0.028808400384360069 0.015644784769761839 0 0.02580866977740932 0.02428863336069171 0 0.028808400384360069 0.015644784769761839 0 0.038033713460250029 0.021987768007108319 0 0.028808400384360069 0.015644784769761839 0 0.028704521444074631 0.0060135662837132037 0 0.02103573519986519 0.01189857302527886 0 0.014054210519925151 0.0035720571881815949 0 0.042122726037603628 -0.0021610766017879451 0 0.014054210519925151 0.0035720571881815949 0 0.028704521444074631 0.0060135662837132037 0 0.042122726037603628 -0.0021610766017879451 0 0.014054210519925151 0.0035720571881815949 0 0.028704521444074631 0.0060135662837132037 0 0.014054210519925151 0.0035720571881815949 0 0.028704521444074631 0.0060135662837132037 0 0.02103573519986519 0.01189857302527886 0 0.014054210519925151 0.0035720571881815949 0 0.01373335438641912 0.014550587214052019 0 0.02103573519986519 0.01189857302527886 0 0.01373335438641912 0.014550587214052019 0 0.019033104219668709 0.019840473217169498 0 0.02103573519986519 0.01189857302527886 0 0.01208075295182681 0.062181276128189023 0 0.01121904426817831 0.055687441460590542 0 0.017695444593257569 0.055459932957548252 0 0.01121904426817831 0.055687441460590542 0 0.0073390133129881113 0.057191818618753519 0 0.0067998205928522827 0.052234943258525249 0 0.01208075295182681 0.062181276128189023 0 0.01121904426817831 0.055687441460590542 0 0.0073390133129881113 0.057191818618753519 0 -0.00074356456090495871 0.058663613627709249 0 0.0073390133129881113 0.057191818618753519 0 0.0067998205928522827 0.052234943258525249 0 -0.00074356456090495871 0.058663613627709249 0 0.01208075295182681 0.062181276128189023 0 0.0073390133129881113 0.057191818618753519 0 -0.00074356456090495871 0.058663613627709249 0 0.0067998205928522827 0.052234943258525249 0 0.0020167010984448982 0.045503505930856253 0 0.0067998205928522827 0.052234943258525249 0 0.008914969106835301 0.045580325185865411 0 0.0020167010984448982 0.045503505930856253 0 0.0067998205928522827 0.052234943258525249 0 0.01352326651482757 0.049332000310983587 0 0.008914969106835301 0.045580325185865411 0 0.01121904426817831 0.055687441460590542 0 0.0067998205928522827 0.052234943258525249 0 0.01352326651482757 0.049332000310983587 0 0.01121904426817831 0.055687441460590542 0 0.01352326651482757 0.049332000310983587 0 0.017695444593257569 0.055459932957548252 0 0.0069781417501890812 0.032949223440163662 0 0.0095721759808716812 0.033155420220222998 0 0.029723088343488281 0.042277750368387858 0 0.015222466889502659 0.044679791477081572 0 0.01115608008593641 0.040620627340139152 0 0.008914969106835301 0.045580325185865411 0 0.01352326651482757 0.049332000310983587 0 0.015222466889502659 0.044679791477081572 0 0.008914969106835301 0.045580325185865411 0 0.01115608008593641 0.040620627340139152 0 0.01490234149394346 0.038878904105095161 0 0.01798187795759781 0.041345501841874167 0 0.015222466889502659 0.044679791477081572 0 0.01115608008593641 0.040620627340139152 0 0.01798187795759781 0.041345501841874167 0 0.01115608008593641 0.040620627340139152 0 0.008914969106835301 0.045580325185865411 0 0.0055899539790300514 0.039110242832332401 0 0.008914969106835301 0.045580325185865411 0 0.0020167010984448982 0.045503505930856253 0 0.0055899539790300514 0.039110242832332401 0 -6.6238804764569897e-05 0.039216256020085258 0 0.0020167010984448982 0.045503505930856253 0 0.0055899539790300514 0.039110242832332401 0 0.0062145781432464816 0.03625082322809503 0 0.0069781417501890812 0.032949223440163662 0 0.0086725193325056984 0.037201417534910942 0 -0.0027073961609825311 0.033990146908376963 0 0.0030247317616918352 0.036335229359037227 0 0.0069781417501890812 0.032949223440163662 0 0.0062145781432464816 0.03625082322809503 0 0.0030247317616918352 0.036335229359037227 0 0.0069781417501890812 0.032949223440163662 0 0.0055899539790300514 0.039110242832332401 0 0.0062145781432464816 0.03625082322809503 0 0.0086725193325056984 0.037201417534910942 0 0.0055899539790300514 0.039110242832332401 0 0.0062145781432464816 0.03625082322809503 0 0.0030247317616918352 0.036335229359037227 0 -6.6238804764569897e-05 0.039216256020085258 0 0.0055899539790300514 0.039110242832332401 0 0.0030247317616918352 0.036335229359037227 0 -0.0027073961609825311 0.033990146908376963 0 -6.6238804764569897e-05 0.039216256020085258 0 0.0030247317616918352 0.036335229359037227 0 0.0069781417501890812 0.032949223440163662 0 0.0086725193325056984 0.037201417534910942 0 0.01490234149394346 0.038878904105095161 0 0.01115608008593641 0.040620627340139152 0 0.0086725193325056984 0.037201417534910942 0 0.01490234149394346 0.038878904105095161 0 0.01115608008593641 0.040620627340139152 0 0.0055899539790300514 0.039110242832332401 0 0.0086725193325056984 0.037201417534910942 0 0.015735785404595481 0.03084623487630039 0 0.0095721759808716812 0.033155420220222998 0 0.02586530321570955 0.035456274933790582 0 0.0095721759808716812 0.033155420220222998 0 0.02586530321570955 0.035456274933790582 0 0.034982716319314239 0.042857062255521911 0 0.0095721759808716812 0.033155420220222998 0 0.034982716319314239 0.042857062255521911 0 0.0095721759808716812 0.033155420220222998 0 0.029723088343488281 0.042277750368387858 0 0.034982716319314239 0.042857062255521911 0 0.0069781417501890812 0.032949223440163662 0 0.029723088343488281 0.042277750368387858 0 0.0069781417501890812 0.032949223440163662 0 0.01490234149394346 0.038878904105095161 0 0.029723088343488281 0.042277750368387858 0 0.029723088343488281 0.042277750368387858 0 0.02280772752021493 0.043206423927471607 0 0.01798187795759781 0.041345501841874167 0 0.029723088343488281 0.042277750368387858 0 0.025032617151682011 0.046731383416606001 0 0.029205554817099851 0.04995346759075657 0 0.029723088343488281 0.042277750368387858 0 0.025032617151682011 0.046731383416606001 0 0.02280772752021493 0.043206423927471607 0 0.025032617151682011 0.046731383416606001 0 0.02032522722258643 0.044349149824066958 0 0.019556760258234551 0.048949064947244533 0 0.01490234149394346 0.038878904105095161 0 0.029723088343488281 0.042277750368387858 0 0.01798187795759781 0.041345501841874167 0 0.025032617151682011 0.046731383416606001 0 0.02032522722258643 0.044349149824066958 0 0.02280772752021493 0.043206423927471607 0 0.02032522722258643 0.044349149824066958 0 0.02280772752021493 0.043206423927471607 0 0.01798187795759781 0.041345501841874167 0 0.015222466889502659 0.044679791477081572 0 0.02032522722258643 0.044349149824066958 0 0.019556760258234551 0.048949064947244533 0 0.015222466889502659 0.044679791477081572 0 0.02032522722258643 0.044349149824066958 0 0.01798187795759781 0.041345501841874167 0 0.01352326651482757 0.049332000310983587 0 0.015222466889502659 0.044679791477081572 0 0.019556760258234551 0.048949064947244533 0 0.01352326651482757 0.049332000310983587 0 0.019556760258234551 0.048949064947244533 0 0.017695444593257569 0.055459932957548252 0 0.019556760258234551 0.048949064947244533 0 0.024829655516929141 0.053233727883279111 0 0.017695444593257569 0.055459932957548252 0 0.025032617151682011 0.046731383416606001 0 0.019556760258234551 0.048949064947244533 0 0.024829655516929141 0.053233727883279111 0 0.025032617151682011 0.046731383416606001 0 0.029205554817099851 0.04995346759075657 0 0.024829655516929141 0.053233727883279111 0 0.029205554817099851 0.04995346759075657 0 0.024829655516929141 0.053233727883279111 0 0.03082347108397664 0.056098845539550607 0 0.03082347108397664 0.056098845539550607 0 0.035341405588643363 0.060971878685520953 0 0.025666155431374332 0.063562696311959654 0 0.024829655516929141 0.053233727883279111 0 0.03082347108397664 0.056098845539550607 0 0.025666155431374332 0.063562696311959654 0 0.01208075295182681 0.062181276128189023 0 0.017695444593257569 0.055459932957548252 0 0.025666155431374332 0.063562696311959654 0 0.024829655516929141 0.053233727883279111 0 0.017695444593257569 0.055459932957548252 0 0.025666155431374332 0.063562696311959654 0 0.029723088343488281 0.042277750368387858 0 0.035357309488180513 0.051323660237155712 0 0.052468034936787512 0.051606277296612088 0 0.043377826892544963 0.057427189309354469 0 0.035357309488180513 0.051323660237155712 0 0.052468034936787512 0.051606277296612088 0 0.029723088343488281 0.042277750368387858 0 0.052468034936787512 0.051606277296612088 0 0.043377826892544963 0.057427189309354469 0 0.035341405588643363 0.060971878685520953 0 0.044255334199977403 0.064435313690659315 0 0.043377826892544963 0.057427189309354469 0 0.050260101865529053 0.059616374142142659 0 0.044255334199977403 0.064435313690659315 0 0.043377826892544963 0.057427189309354469 0 0.035341405588643363 0.060971878685520953 0 0.035357309488180513 0.051323660237155712 0 0.03082347108397664 0.056098845539550607 0 0.035341405588643363 0.060971878685520953 0 0.035357309488180513 0.051323660237155712 0 0.029723088343488281 0.042277750368387858 0 0.029205554817099851 0.04995346759075657 0 0.035357309488180513 0.051323660237155712 0 0.029205554817099851 0.04995346759075657 0 0.03082347108397664 0.056098845539550607 0 0.035357309488180513 0.051323660237155712 0 0.02586530321570955 0.035456274933790582 0 0.054331449004507613 0.03052882287836052 0 0.029723088343488281 0.042277750368387858 0 0.034982716319314239 0.042857062255521911 0 0.052468034936787512 0.051606277296612088 0 0.02586530321570955 0.035456274933790582 0 0.034982716319314239 0.042857062255521911 0 0.054331449004507613 0.03052882287836052 0 0.034982716319314239 0.042857062255521911 0 0.054242967259893603 0.041673864394505343 0 0.054331449004507613 0.03052882287836052 0 0.034982716319314239 0.042857062255521911 0 0.054242967259893603 0.041673864394505343 0 0.0603932566577568 0.05255870429082081 0 0.054242967259893603 0.041673864394505343 0 0.054331449004507613 0.03052882287836052 0 0.067264447057995752 0.040750868153318132 0 0.054242967259893603 0.041673864394505343 0 0.0603932566577568 0.05255870429082081 0 0.067264447057995752 0.040750868153318132 0 0.052468034936787512 0.051606277296612088 0 0.058903937643697543 0.061802522312327177 0 0.075212981530086737 0.060934804224836311 0 0.034982716319314239 0.042857062255521911 0 0.052468034936787512 0.051606277296612088 0 0.0603932566577568 0.05255870429082081 0 0.034982716319314239 0.042857062255521911 0 0.0603932566577568 0.05255870429082081 0 0.043377826892544963 0.057427189309354469 0 0.052468034936787512 0.051606277296612088 0 0.050260101865529053 0.059616374142142659 0 0.052468034936787512 0.051606277296612088 0 0.058903937643697543 0.061802522312327177 0 0.050260101865529053 0.059616374142142659 0 0.040234658204892561 0.0098396947246094397 0 0.056048105378494827 0.012161888776597379 0 0.042122726037603628 -0.0021610766017879451 0 0.040234658204892561 0.0098396947246094397 0 0.038033713460250029 0.021987768007108319 0 0.056048105378494827 0.012161888776597379 0 0.028704521444074631 0.0060135662837132037 0 0.040234658204892561 0.0098396947246094397 0 0.042122726037603628 -0.0021610766017879451 0 0.028808400384360069 0.015644784769761839 0 0.028704521444074631 0.0060135662837132037 0 0.040234658204892561 0.0098396947246094397 0 0.028808400384360069 0.015644784769761839 0 0.040234658204892561 0.0098396947246094397 0 0.038033713460250029 0.021987768007108319 0 0.02586530321570955 0.035456274933790582 0 0.038033713460250029 0.021987768007108319 0 0.054331449004507613 0.03052882287836052 0 0.038033713460250029 0.021987768007108319 0 0.054331449004507613 0.03052882287836052 0 0.056048105378494827 0.012161888776597379 0 0.056048105378494827 0.012161888776597379 0 0.042122726037603628 -0.0021610766017879451 0 0.07019124155528178 -0.0078942103917589643 0 0.056048105378494827 0.012161888776597379 0 0.081556316898992162 0.006260620949295425 0 0.082797594793305396 0.025601370822930521 0 0.056048105378494827 0.012161888776597379 0 0.081556316898992162 0.006260620949295425 0 0.07019124155528178 -0.0078942103917589643 0 0.081556316898992162 0.006260620949295425 0 0.082797594793305396 0.025601370822930521 0 0.1004896233285711 0.0052863644354491758 0 0.054331449004507613 0.03052882287836052 0 0.056048105378494827 0.012161888776597379 0 0.082797594793305396 0.025601370822930521 0 0.054331449004507613 0.03052882287836052 0 0.082797594793305396 0.025601370822930521 0 0.082797594793305396 0.025601370822930521 0 0.067264447057995752 0.040750868153318132 0 0.080607936466860652 0.042673566155068843 0 0.054331449004507613 0.03052882287836052 0 0.082797594793305396 0.025601370822930521 0 0.067264447057995752 0.040750868153318132 0 0.067264447057995752 0.040750868153318132 0 0.073533177570028765 0.050102346398573028 0 0.080607936466860652 0.042673566155068843 0 0.052468034936787512 0.051606277296612088 0 0.0603932566577568 0.05255870429082081 0 0.075212981530086737 0.060934804224836311 0 0.052468034936787512 0.051606277296612088 0 0.075212981530086737 0.060934804224836311 0 0.0603932566577568 0.05255870429082081 0 0.073533177570028765 0.050102346398573028 0 0.075212981530086737 0.060934804224836311 0 0.0603932566577568 0.05255870429082081 0 0.067264447057995752 0.040750868153318132 0 0.073533177570028765 0.050102346398573028 0 0.086813711629988952 0.052125480305940587 0 0.098079720543230303 0.041819311785582243 0 0.095342136067656749 0.063934252611722212 0 0.075212981530086737 0.060934804224836311 0 0.086813711629988952 0.052125480305940587 0 0.095342136067656749 0.063934252611722212 0 0.073533177570028765 0.050102346398573028 0 0.086813711629988952 0.052125480305940587 0 0.080607936466860652 0.042673566155068843 0 0.073533177570028765 0.050102346398573028 0 0.075212981530086737 0.060934804224836311 0 0.086813711629988952 0.052125480305940587 0 0.082797594793305396 0.025601370822930521 0 0.080607936466860652 0.042673566155068843 0 0.098079720543230303 0.041819311785582243 0 0.086813711629988952 0.052125480305940587 0 0.080607936466860652 0.042673566155068843 0 0.098079720543230303 0.041819311785582243 0 0.098079720543230303 0.041819311785582243 0 0.1223906704702877 0.062878575288907321 0 0.095342136067656749 0.063934252611722212 0 0.098079720543230303 0.041819311785582243 0 0.1223906704702877 0.062878575288907321 0 0.12607976175878219 0.03812506588504519 0 0.098079720543230303 0.041819311785582243 0 0.1112637405821032 0.020673918767500511 0 0.12607976175878219 0.03812506588504519 0 0.1112637405821032 0.020673918767500511 0 0.11940402113221719 0.0021974637424521382 0 0.1397298863709012 0.01574646671207048 0 0.1112637405821032 0.020673918767500511 0 0.11940402113221719 0.0021974637424521382 0 0.1004896233285711 0.0052863644354491758 0 0.082797594793305396 0.025601370822930521 0 0.1112637405821032 0.020673918767500511 0 0.1004896233285711 0.0052863644354491758 0 0.082797594793305396 0.025601370822930521 0 0.1112637405821032 0.020673918767500511 0 0.082797594793305396 0.025601370822930521 0 0.098079720543230303 0.041819311785582243 0 0.1112637405821032 0.020673918767500511 0 0.1038404915788492 0.1019519533287816 0 0.081878519745012673 0.1157243685148779 0 0.1025340408214919 0.1299895572366703 0 0.1038404915788492 0.1019519533287816 0 0.1237412673866992 0.1207025317472252 0 0.1025340408214919 0.1299895572366703 0 0.1038404915788492 0.1019519533287816 0 0.1237412673866992 0.1207025317472252 0 0.13461392869402219 0.096127778958814275 0 0.1106037799633014 0.081947155668722113 0 0.12885245119731209 0.078629265380086549 0 0.13461392869402219 0.096127778958814275 0 0.1038404915788492 0.1019519533287816 0 0.1106037799633014 0.081947155668722113 0 0.13461392869402219 0.096127778958814275 0 0.1106037799633014 0.081947155668722113 0 0.1223906704702877 0.062878575288907321 0 0.12885245119731209 0.078629265380086549 0 0.1106037799633014 0.081947155668722113 0 0.1223906704702877 0.062878575288907321 0 0.095342136067656749 0.063934252611722212 0 0.1106037799633014 0.081947155668722113 0 0.095342136067656749 0.063934252611722212 0 0.094638672328582946 0.080007689516086819 0 0.1223906704702877 0.062878575288907321 0 0.095342136067656749 0.063934252611722212 0 0.1038404915788492 0.1019519533287816 0 0.1106037799633014 0.081947155668722113 0 0.094638672328582946 0.080007689516086819 0 0.1038404915788492 0.1019519533287816 0 0.094638672328582946 0.080007689516086819 0 0.079593634044450259 0.09004616503995562 0 0.094638672328582946 0.080007689516086819 0 0.079593634044450259 0.09004616503995562 0 0.081435809744681578 0.074470628009781992 0 0.095342136067656749 0.063934252611722212 0 0.094638672328582946 0.080007689516086819 0 0.081435809744681578 0.074470628009781992 0 0.075212981530086737 0.060934804224836311 0 0.095342136067656749 0.063934252611722212 0 0.068293601665025766 0.064989929934537102 0 0.095342136067656749 0.063934252611722212 0 0.068293601665025766 0.064989929934537102 0 0.095342136067656749 0.063934252611722212 0 0.081435809744681578 0.074470628009781992 0 0.068293601665025766 0.064989929934537102 0 0.058903937643697543 0.061802522312327177 0 0.075212981530086737 0.060934804224836311 0 0.068293601665025766 0.064989929934537102 0 0.081435809744681578 0.074470628009781992 0 0.071044525934779931 0.076694456292050572 0 0.068293601665025766 0.064989929934537102 0 0.071044525934779931 0.076694456292050572 0 0.06505876921423244 0.082941095706876675 0 0.060840815005509627 0.071024462769101404 0 0.071044525934779931 0.076694456292050572 0 0.068293601665025766 0.064989929934537102 0 0.060840815005509627 0.071024462769101404 0 0.058903937643697543 0.061802522312327177 0 0.068293601665025766 0.064989929934537102 0 0.060840815005509627 0.071024462769101404 0 0.079593634044450259 0.09004616503995562 0 0.06505876921423244 0.082941095706876675 0 0.061222998668533403 0.1014591797930854 0 0.079593634044450259 0.09004616503995562 0 0.071044525934779931 0.076694456292050572 0 0.06505876921423244 0.082941095706876675 0 0.079593634044450259 0.09004616503995562 0 0.081435809744681578 0.074470628009781992 0 0.071044525934779931 0.076694456292050572 0 0.079593634044450259 0.09004616503995562 0 0.081878519745012673 0.1157243685148779 0 0.061222998668533403 0.1014591797930854 0 0.081878519745012673 0.1157243685148779 0 0.061222998668533403 0.1014591797930854 0 0.1038404915788492 0.1019519533287816 0 0.079593634044450259 0.09004616503995562 0 0.081878519745012673 0.1157243685148779 0 0.081878519745012673 0.1157243685148779 0 0.1025340408214919 0.1299895572366703 0 0.081878519745012673 0.1157243685148779 0 0.057786825932331663 0.1200586199335255 0 0.061222998668533403 0.1014591797930854 0 0.081878519745012673 0.1157243685148779 0 0.057786825932331663 0.1200586199335255 0 0.070796377867290691 0.12857407515426139 0 0.057786825932331663 0.1200586199335255 0 0.061222998668533403 0.1014591797930854 0 0.039785607042269903 0.1076629184791857 0 0.061222998668533403 0.1014591797930854 0 0.039785607042269903 0.1076629184791857 0 0.040567477592054167 0.087193991071292942 0 0.061222998668533403 0.1014591797930854 0 0.040567477592054167 0.087193991071292942 0 0.039785607042269903 0.1076629184791857 0 0.040567477592054167 0.087193991071292942 0 0.016403428403194739 0.098660354805947648 0 0.039785607042269903 0.1076629184791857 0 0.041067371085954603 0.1246149291029915 0 0.024976924885245149 0.11865872539506669 0 0.057786825932331663 0.1200586199335255 0 0.039785607042269903 0.1076629184791857 0 0.041067371085954603 0.1246149291029915 0 0.058903937643697543 0.061802522312327177 0 0.050260101865529053 0.059616374142142659 0 0.051220177242764918 0.068667404449359787 0 0.050260101865529053 0.059616374142142659 0 0.051220177242764918 0.068667404449359787 0 0.044255334199977403 0.064435313690659315 0 0.058903937643697543 0.061802522312327177 0 0.051220177242764918 0.068667404449359787 0 0.060840815005509627 0.071024462769101404 0 0.051220177242764918 0.068667404449359787 0 0.060840815005509627 0.071024462769101404 0 0.053331232855583208 0.081129975942772464 0 0.051220177242764918 0.068667404449359787 0 0.053331232855583208 0.081129975942772464 0 0.038613391346567473 0.071270008928723649 0 0.061222998668533403 0.1014591797930854 0 0.053331232855583208 0.081129975942772464 0 0.040567477592054167 0.087193991071292942 0 0.06505876921423244 0.082941095706876675 0 0.061222998668533403 0.1014591797930854 0 0.053331232855583208 0.081129975942772464 0 0.06505876921423244 0.082941095706876675 0 0.060840815005509627 0.071024462769101404 0 0.053331232855583208 0.081129975942772464 0 0.053331232855583208 0.081129975942772464 0 0.040567477592054167 0.087193991071292942 0 0.038613391346567473 0.071270008928723649 0 0.040567477592054167 0.087193991071292942 0 0.038613391346567473 0.071270008928723649 0 0.019911956515575001 0.072928802349500527 0 0.035341405588643363 0.060971878685520953 0 0.038613391346567473 0.071270008928723649 0 0.025666155431374332 0.063562696311959654 0 0.051220177242764918 0.068667404449359787 0 0.038613391346567473 0.071270008928723649 0 0.044255334199977403 0.064435313690659315 0 0.035341405588643363 0.060971878685520953 0 0.038613391346567473 0.071270008928723649 0 0.044255334199977403 0.064435313690659315 0 0.038613391346567473 0.071270008928723649 0 0.025666155431374332 0.063562696311959654 0 0.019911956515575001 0.072928802349500527 0 0.01208075295182681 0.062181276128189023 0 0.025666155431374332 0.063562696311959654 0 0.019911956515575001 0.072928802349500527 0 0.040567477592054167 0.087193991071292942 0 0.019911956515575001 0.072928802349500527 0 0.040567477592054167 0.087193991071292942 0 0.019911956515575001 0.072928802349500527 0 0.019306234040738661 0.085470877191357333 0 0.040567477592054167 0.087193991071292942 0 0.019306234040738661 0.085470877191357333 0 0.016403428403194739 0.098660354805947648 0 0.019911956515575001 0.072928802349500527 0 0.019306234040738661 0.085470877191357333 0 0.0078299319211443397 0.078661984216828643 0 0.0078299319211443397 0.078661984216828643 0 0.016403428403194739 0.098660354805947648 0 0.019306234040738661 0.085470877191357333 0 0.0078299319211443397 0.078661984216828643 0 0.016403428403194739 0.098660354805947648 0 0.002793676041261716 0.09208836803534709 0 0.0078299319211443397 0.078661984216828643 0 0.016403428403194739 0.098660354805947648 0 -0.0042936797531556974 0.081347281365948418 0 0.002793676041261716 0.09208836803534709 0 0.0078299319211443397 0.078661984216828643 0 -0.00074356456090495871 0.058663613627709249 0 0.019911956515575001 0.072928802349500527 0 0.0078299319211443397 0.078661984216828643 0 -0.00074356456090495871 0.058663613627709249 0 0.01208075295182681 0.062181276128189023 0 0.019911956515575001 0.072928802349500527 0 -0.00074356456090495871 0.058663613627709249 0 0.0078299319211443397 0.078661984216828643 0 -0.00074356456090495871 0.058663613627709249 0 0.019911956515575001 0.072928802349500527 0 -0.0042314667271256398 0.071296904549836781 0 -0.00074356456090495871 0.058663613627709249 0 0.0078299319211443397 0.078661984216828643 0 0.039785607042269903 0.1076629184791857 0 0.024976924885245149 0.11865872539506669 0 0.016403428403194739 0.098660354805947648 0 0.024976924885245149 0.11865872539506669 0 0.016403428403194739 0.098660354805947648 0 0.024976924885245149 0.11865872539506669 0 0.016403428403194739 0.098660354805947648 0 0.005033691367288021 0.1071795390830385 0 0.002793676041261716 0.09208836803534709 0 0.016403428403194739 0.098660354805947648 0 0.005033691367288021 0.1071795390830385 0 0.024976924885245149 0.11865872539506669 0 0.005033691367288021 0.1071795390830385 0 0.0083094916575321455 0.12528200001600001 0 -0.0071492087137228167 0.11613273193613161 0 0.005033691367288021 0.1071795390830385 0 0.0083094916575321455 0.12528200001600001 0 -0.0022957480434830329 0.1401986952612797 0 0.0083094916575321455 0.12528200001600001 0 0.022041966797239309 0.1404730411574342 0 -0.0022957480434830329 0.1401986952612797 0 0.022041966797239309 0.1404730411574342 0 0.024976924885245149 0.11865872539506669 0 0.0083094916575321455 0.12528200001600001 0 0.022041966797239309 0.1404730411574342 0 0.041067371085954603 0.1246149291029915 0 0.024976924885245149 0.11865872539506669 0 0.022041966797239309 0.1404730411574342 0 0.022041966797239309 0.1404730411574342 0 0.016486266902431601 0.1550936639340055 0 0.034697971956805213 0.15360481786007199 0 -0.0022957480434830329 0.1401986952612797 0 0.016486266902431601 0.1550936639340055 0 0.001784619628955575 0.1604312644381887 0 -0.0022957480434830329 0.1401986952612797 0 0.022041966797239309 0.1404730411574342 0 0.016486266902431601 0.1550936639340055 0 0.001784619628955575 0.1604312644381887 0 0.0058649873013942953 0.18066383361509761 0 0.001784619628955575 0.1604312644381887 0 0.0058649873013942953 0.18066383361509761 0 0.02174206513520854 0.17016375060843361 0 0.016486266902431601 0.1550936639340055 0 0.001784619628955575 0.1604312644381887 0 0.02174206513520854 0.17016375060843361 0 0.0058649873013942953 0.18066383361509761 0 0.020451407548530878 0.18587730988753731 0 0.01575020550470372 0.19348790629659271 0 0.020451407548530878 0.18587730988753731 0 0.03102243986110657 0.18315192804101371 0 0.02174206513520854 0.17016375060843361 0 0.0058649873013942953 0.18066383361509761 0 0.020451407548530878 0.18587730988753731 0 0.02174206513520854 0.17016375060843361 0 0.016486266902431601 0.1550936639340055 0 0.02174206513520854 0.17016375060843361 0 0.034697971956805213 0.15360481786007199 0 0.02174206513520854 0.17016375060843361 0 0.042696992718286232 0.17216618387806071 0 0.034697971956805213 0.15360481786007199 0 0.042696992718286232 0.17216618387806071 0 0.049961778656026523 0.15903115508566701 0 0.034697971956805213 0.15360481786007199 0 0.03102243986110657 0.18315192804101371 0 0.042696992718286232 0.17216618387806071 0 0.042389095342096228 0.19060802366445509 0 0.03102243986110657 0.18315192804101371 0 0.02174206513520854 0.17016375060843361 0 0.042696992718286232 0.17216618387806071 0 0.042696992718286232 0.17216618387806071 0 0.059370628895760592 0.18225377727499481 0 0.059990944959646457 0.16599481545559899 0 0.042696992718286232 0.17216618387806071 0 0.059370628895760592 0.18225377727499481 0 0.042389095342096228 0.19060802366445509 0 0.042696992718286232 0.17216618387806071 0 0.049961778656026523 0.15903115508566701 0 0.059990944959646457 0.16599481545559899 0 0.049961778656026523 0.15903115508566701 0 0.059990944959646457 0.16599481545559899 0 0.057766914389241503 0.154546043063505 0 0.059990944959646457 0.16599481545559899 0 0.057766914389241503 0.154546043063505 0 0.069096506275762748 0.15585045152427879 0 0.057766914389241503 0.154546043063505 0 0.049867506160303977 0.14978802221425219 0 0.057903971220557633 0.14217739675805471 0 0.057766914389241503 0.154546043063505 0 0.057903971220557633 0.14217739675805471 0 0.069096506275762748 0.15585045152427879 0 0.057903971220557633 0.14217739675805471 0 0.046379681637961703 0.14074738705358919 0 0.070717396478684025 0.14102173294974429 0 0.046379681637961703 0.14074738705358919 0 0.070717396478684025 0.14102173294974429 0 0.049961778656026523 0.15903115508566701 0 0.057766914389241503 0.154546043063505 0 0.049867506160303977 0.14978802221425219 0 0.049867506160303977 0.14978802221425219 0 0.057903971220557633 0.14217739675805471 0 0.046379681637961703 0.14074738705358919 0 0.057786825932331663 0.1200586199335255 0 0.041067371085954603 0.1246149291029915 0 0.050429193762976762 0.13049732538060441 0 0.059221895135848968 0.132179828094345 0 0.046379681637961703 0.14074738705358919 0 0.070717396478684025 0.14102173294974429 0 0.057786825932331663 0.1200586199335255 0 0.059221895135848968 0.132179828094345 0 0.050429193762976762 0.13049732538060441 0 0.059221895135848968 0.132179828094345 0 0.050429193762976762 0.13049732538060441 0 0.046379681637961703 0.14074738705358919 0 0.022041966797239309 0.1404730411574342 0 0.046379681637961703 0.14074738705358919 0 0.041067371085954603 0.1246149291029915 0 0.050429193762976762 0.13049732538060441 0 0.046379681637961703 0.14074738705358919 0 0.041067371085954603 0.1246149291029915 0 0.022041966797239309 0.1404730411574342 0 0.046379681637961703 0.14074738705358919 0 0.022041966797239309 0.1404730411574342 0 0.034697971956805213 0.15360481786007199 0 0.046379681637961703 0.14074738705358919 0 0.049961778656026523 0.15903115508566701 0 0.049867506160303977 0.14978802221425219 0 0.034697971956805213 0.15360481786007199 0 0.049867506160303977 0.14978802221425219 0 0.034697971956805213 0.15360481786007199 0 0.046379681637961703 0.14074738705358919 0 0.028416373495514648 0.24618422452601171 0 0.019057379342124099 0.24446671892160871 0 0.025117681763208961 0.25312125345048753 0 0.028416373495514648 0.24618422452601171 0 0.025946249586107941 0.2375505193352484 0 0.019057379342124099 0.24446671892160871 0 0.028416373495514648 0.24618422452601171 0 0.025946249586107941 0.2375505193352484 0 0.035624639232172899 0.23972896581925271 0 0.025946249586107941 0.2375505193352484 0 0.031260389761853302 0.22798645517037949 0 0.035624639232172899 0.23972896581925271 0 0.025946249586107941 0.2375505193352484 0 0.018179965294734889 0.23783189531001059 0 0.01633360233343965 0.23039326250211051 0 0.025946249586107941 0.2375505193352484 0 0.018179965294734889 0.23783189531001059 0 0.019057379342124099 0.24446671892160871 0 0.018179965294734889 0.23783189531001059 0 0.019057379342124099 0.24446671892160871 0 0.01230415164214676 0.23830548807059199 0 0.019057379342124099 0.24446671892160871 0 0.0070739759662896444 0.24486698688876851 0 0.01700132615621144 0.253078387367763 0 0.019057379342124099 0.24446671892160871 0 0.0070739759662896444 0.24486698688876851 0 0.01230415164214676 0.23830548807059199 0 -0.001929197643986852 0.25249673890194402 0 -0.002222462830917453 0.2378618290474552 0 0.0070739759662896444 0.24486698688876851 0 -0.002222462830917453 0.2378618290474552 0 0.0070739759662896444 0.24486698688876851 0 0.0071786552929250921 0.23235264066686101 0 0.018179965294734889 0.23783189531001059 0 0.01230415164214676 0.23830548807059199 0 0.01633360233343965 0.23039326250211051 0 0.0070739759662896444 0.24486698688876851 0 0.01230415164214676 0.23830548807059199 0 0.0071786552929250921 0.23235264066686101 0 0.0071786552929250921 0.23235264066686101 0 0.0093606803541590265 0.22527922005154821 0 0.01633360233343965 0.23039326250211051 0 0.01230415164214676 0.23830548807059199 0 0.0071786552929250921 0.23235264066686101 0 0.01633360233343965 0.23039326250211051 0 0.0071786552929250921 0.23235264066686101 0 0.001486765165363903 0.226841301675966 0 0.0093606803541590265 0.22527922005154821 0 -0.002222462830917453 0.2378618290474552 0 0.0071786552929250921 0.23235264066686101 0 0.001486765165363903 0.226841301675966 0 0.001486765165363903 0.226841301675966 0 0.0044998670812677419 0.21931275383912299 0 0.0093606803541590265 0.22527922005154821 0 -0.002628921599886327 0.22021383939074229 0 0.001486765165363903 0.226841301675966 0 0.0044998670812677419 0.21931275383912299 0 0.0093606803541590265 0.22527922005154821 0 0.019945088602245319 0.22200114201374699 0 0.01216198668933461 0.2181318589327024 0 0.0044998670812677419 0.21931275383912299 0 0.0093606803541590265 0.22527922005154821 0 0.01216198668933461 0.2181318589327024 0 0.0093606803541590265 0.22527922005154821 0 0.019945088602245319 0.22200114201374699 0 0.01633360233343965 0.23039326250211051 0 0.019945088602245319 0.22200114201374699 0 0.01633360233343965 0.23039326250211051 0 0.031260389761853302 0.22798645517037949 0 0.025946249586107941 0.2375505193352484 0 0.01633360233343965 0.23039326250211051 0 0.031260389761853302 0.22798645517037949 0 0.019945088602245319 0.22200114201374699 0 0.028158682239275409 0.21552582145382271 0 0.031260389761853302 0.22798645517037949 0 0.028158682239275409 0.21552582145382271 0 0.01465663913834948 0.2030576130217403 0 0.038169459785255627 0.21024999538924799 0 0.01465663913834948 0.2030576130217403 0 0.038169459785255627 0.21024999538924799 0 0.01465663913834948 0.2030576130217403 0 0.027832638561410949 0.19694437216658181 0 0.038169459785255627 0.21024999538924799 0 0.028158682239275409 0.21552582145382271 0 0.017932909560157771 0.21235292984048629 0 0.01465663913834948 0.2030576130217403 0 0.019945088602245319 0.22200114201374699 0 0.017932909560157771 0.21235292984048629 0 0.01216198668933461 0.2181318589327024 0 0.019945088602245319 0.22200114201374699 0 0.028158682239275409 0.21552582145382271 0 0.017932909560157771 0.21235292984048629 0 0.017932909560157771 0.21235292984048629 0 0.01216198668933461 0.2181318589327024 0 0.0090713878488432129 0.21171324891860741 0 0.0044998670812677419 0.21931275383912299 0 0.01216198668933461 0.2181318589327024 0 0.0090713878488432129 0.21171324891860741 0 -0.001251031128110124 0.21184140745705399 0 0.0044998670812677419 0.21931275383912299 0 0.0090713878488432129 0.21171324891860741 0 -0.001251031128110124 0.21184140745705399 0 -0.002628921599886327 0.22021383939074229 0 0.0044998670812677419 0.21931275383912299 0 -0.001251031128110124 0.21184140745705399 0 0.0090713878488432129 0.21171324891860741 0 0.0041720059838486851 0.20507569813242649 0 0.0041720059838486851 0.20507569813242649 0 0.010432568221963409 0.20606485682968501 0 0.0099453549738330108 0.20089640279200641 0 0.010432568221963409 0.20606485682968501 0 0.01465663913834948 0.2030576130217403 0 0.0099453549738330108 0.20089640279200641 0 0.017932909560157771 0.21235292984048629 0 0.013023376192328471 0.20829716215262981 0 0.01465663913834948 0.2030576130217403 0 0.017932909560157771 0.21235292984048629 0 0.0090713878488432129 0.21171324891860741 0 0.013023376192328471 0.20829716215262981 0 0.0090713878488432129 0.21171324891860741 0 0.010432568221963409 0.20606485682968501 0 0.013023376192328471 0.20829716215262981 0 0.0090713878488432129 0.21171324891860741 0 0.0041720059838486851 0.20507569813242649 0 0.010432568221963409 0.20606485682968501 0 0.010432568221963409 0.20606485682968501 0 0.013023376192328471 0.20829716215262981 0 0.01465663913834948 0.2030576130217403 0 0.01465663913834948 0.2030576130217403 0 0.0099453549738330108 0.20089640279200641 0 0.01575020550470372 0.19348790629659271 0 0.0058649873013942953 0.18066383361509761 0 0.0099453549738330108 0.20089640279200641 0 0.001436842856626886 0.19319603212864381 0 0.0058649873013942953 0.18066383361509761 0 0.0099453549738330108 0.20089640279200641 0 0.0058649873013942953 0.18066383361509761 0 0.0099453549738330108 0.20089640279200641 0 0.01575020550470372 0.19348790629659271 0 0.0099453549738330108 0.20089640279200641 0 0.0029605291845075919 0.2001061772388836 0 0.001436842856626886 0.19319603212864381 0 0.0041720059838486851 0.20507569813242649 0 0.0099453549738330108 0.20089640279200641 0 0.0029605291845075919 0.2001061772388836 0 -0.0037120870762782131 0.20125657590245791 0 0.0029605291845075919 0.2001061772388836 0 0.001436842856626886 0.19319603212864381 0 -0.0037120870762782131 0.20125657590245791 0 0.0041720059838486851 0.20507569813242649 0 0.0029605291845075919 0.2001061772388836 0 0.020451407548530878 0.18587730988753731 0 0.01575020550470372 0.19348790629659271 0 0.027832638561410949 0.19694437216658181 0 0.01465663913834948 0.2030576130217403 0 0.01575020550470372 0.19348790629659271 0 0.027832638561410949 0.19694437216658181 0 0.020451407548530878 0.18587730988753731 0 0.03102243986110657 0.18315192804101371 0 0.027832638561410949 0.19694437216658181 0 0.027832638561410949 0.19694437216658181 0 0.042389095342096228 0.19060802366445509 0 0.038169459785255627 0.21024999538924799 0 0.042389095342096228 0.19060802366445509 0 0.053996344205774663 0.20128652986552631 0 0.038169459785255627 0.21024999538924799 0 0.03102243986110657 0.18315192804101371 0 0.027832638561410949 0.19694437216658181 0 0.042389095342096228 0.19060802366445509 0 0.059370628895760592 0.18225377727499481 0 0.042389095342096228 0.19060802366445509 0 0.053996344205774663 0.20128652986552631 0 0.059370628895760592 0.18225377727499481 0 0.053996344205774663 0.20128652986552631 0 0.070792827869996799 0.201545556348729 0 0.053996344205774663 0.20128652986552631 0 0.061682280432161549 0.21744237775675609 0 0.070792827869996799 0.201545556348729 0 0.061682280432161549 0.21744237775675609 0 0.038169459785255627 0.21024999538924799 0 0.053996344205774663 0.20128652986552631 0 0.061682280432161549 0.21744237775675609 0 0.038169459785255627 0.21024999538924799 0 0.061682280432161549 0.21744237775675609 0 0.038169459785255627 0.21024999538924799 0 0.043881562327431803 0.22099652091076169 0 0.028158682239275409 0.21552582145382271 0 0.038169459785255627 0.21024999538924799 0 0.043881562327431803 0.22099652091076169 0 0.028158682239275409 0.21552582145382271 0 0.031260389761853302 0.22798645517037949 0 0.043881562327431803 0.22099652091076169 0 0.031260389761853302 0.22798645517037949 0 0.045885016183326861 0.2323382575741956 0 0.035624639232172899 0.23972896581925271 0 0.031260389761853302 0.22798645517037949 0 0.045885016183326861 0.2323382575741956 0 0.043881562327431803 0.22099652091076169 0 0.045885016183326861 0.2323382575741956 0 0.043881562327431803 0.22099652091076169 0 0.050358569657740979 0.22598333185728289 0 0.061682280432161549 0.21744237775675609 0 0.043881562327431803 0.22099652091076169 0 0.055090431305426867 0.22424853325224631 0 0.043881562327431803 0.22099652091076169 0 0.050358569657740979 0.22598333185728289 0 0.055090431305426867 0.22424853325224631 0 0.050358569657740979 0.22598333185728289 0 0.055090431305426867 0.22424853325224631 0 0.056577268814778078 0.226350015691928 0 0.061682280432161549 0.21744237775675609 0 0.056577268814778078 0.226350015691928 0 0.061682280432161549 0.21744237775675609 0 0.056577268814778078 0.226350015691928 0 0.068808757414390312 0.2287839857555897 0 0.061682280432161549 0.21744237775675609 0 0.055090431305426867 0.22424853325224631 0 0.056577268814778078 0.226350015691928 0 0.055090431305426867 0.22424853325224631 0 0.056577268814778078 0.226350015691928 0 0.056577268814778078 0.226350015691928 0 0.065441987278760702 0.23887932711138041 0 0.045885016183326861 0.2323382575741956 0 0.050358569657740979 0.22598333185728289 0 0.056577268814778078 0.226350015691928 0 0.046123344565263173 0.24459086981639511 0 0.065441987278760702 0.23887932711138041 0 0.057356196092491603 0.25310031756978602 0 0.056577268814778078 0.226350015691928 0 0.046123344565263173 0.24459086981639511 0 0.056577268814778078 0.226350015691928 0 0.046123344565263173 0.24459086981639511 0 0.065441987278760702 0.23887932711138041 0 0.045885016183326861 0.2323382575741956 0 0.056577268814778078 0.226350015691928 0 0.046123344565263173 0.24459086981639511 0 0.046123344565263173 0.24459086981639511 0 0.035624639232172899 0.23972896581925271 0 0.0361164618009715 0.24972346849328561 0 0.045885016183326861 0.2323382575741956 0 0.046123344565263173 0.24459086981639511 0 0.035624639232172899 0.23972896581925271 0 0.028416373495514648 0.24618422452601171 0 0.035624639232172899 0.23972896581925271 0 0.0361164618009715 0.24972346849328561 0 0.089170556236420659 0.24744925712057469 0 0.091896663598790784 0.2375823302664504 0 0.083327231600771406 0.23911566930246281 0 0.083327231600771406 0.23911566930246281 0 0.074306705742743784 0.25140863853083262 0 0.089170556236420659 0.24744925712057469 0 0.083327231600771406 0.23911566930246281 0 0.074306705742743784 0.25140863853083262 0 0.083327231600771406 0.23911566930246281 0 0.065441987278760702 0.23887932711138041 0 0.074306705742743784 0.25140863853083262 0 0.065441987278760702 0.23887932711138041 0 0.057356196092491603 0.25310031756978602 0 0.074306705742743784 0.25140863853083262 0 0.083327231600771406 0.23911566930246281 0 0.065441987278760702 0.23887932711138041 0 0.068808757414390312 0.2287839857555897 0 0.065441987278760702 0.23887932711138041 0 0.074306705742743784 0.25140863853083262 0 0.083327231600771406 0.23911566930246281 0 0.068808757414390312 0.2287839857555897 0 0.077015018945479866 0.22213253891542151 0 0.056577268814778078 0.226350015691928 0 0.065441987278760702 0.23887932711138041 0 0.068808757414390312 0.2287839857555897 0 0.061682280432161549 0.21744237775675609 0 0.068808757414390312 0.2287839857555897 0 0.077015018945479866 0.22213253891542151 0 0.061682280432161549 0.21744237775675609 0 0.077015018945479866 0.22213253891542151 0 0.077015018945479866 0.22213253891542151 0 0.093263096109875654 0.2255752972010992 0 0.083327231600771406 0.23911566930246281 0 0.077015018945479866 0.22213253891542151 0 0.093263096109875654 0.2255752972010992 0 0.091896663598790784 0.2375823302664504 0 0.093263096109875654 0.2255752972010992 0 0.093832450029105285 0.22727685556755789 0 0.091896663598790784 0.2375823302664504 0 0.083327231600771406 0.23911566930246281 0 0.093263096109875654 0.2255752972010992 0 0.083327231600771406 0.23911566930246281 0 0.093263096109875654 0.2255752972010992 0 0.093263096109875654 0.2255752972010992 0 0.093832450029105285 0.22727685556755789 0 0.077015018945479866 0.22213253891542151 0 0.093263096109875654 0.2255752972010992 0 0.0865832357088544 0.20561201607089991 0 0.077015018945479866 0.22213253891542151 0 0.0865832357088544 0.20561201607089991 0 0.070792827869996799 0.201545556348729 0 0.093263096109875654 0.2255752972010992 0 0.0865832357088544 0.20561201607089991 0 0.061682280432161549 0.21744237775675609 0 0.070792827869996799 0.201545556348729 0 0.061682280432161549 0.21744237775675609 0 0.077015018945479866 0.22213253891542151 0 0.070792827869996799 0.201545556348729 0 0.070792827869996799 0.201545556348729 0 0.079903375307831231 0.1856487349407013 0 0.059370628895760592 0.18225377727499481 0 0.070792827869996799 0.201545556348729 0 0.079903375307831231 0.1856487349407013 0 0.0865832357088544 0.20561201607089991 0 0.070792827869996799 0.201545556348729 0 0.079903375307831231 0.1856487349407013 0 0.0865832357088544 0.20561201607089991 0 0.079903375307831231 0.1856487349407013 0 0.0865832357088544 0.20561201607089991 0 0.099511319131269177 0.19420708966063971 0 0.079903375307831231 0.1856487349407013 0 0.099511319131269177 0.19420708966063971 0 0.1196111064059607 0.1896688229116458 0 0.1073727939009507 0.1797453319466864 0 0.099511319131269177 0.19420708966063971 0 0.1034184600538391 0.21173579621957159 0 0.099511319131269177 0.19420708966063971 0 0.1196111064059607 0.1896688229116458 0 0.1034184600538391 0.21173579621957159 0 0.1196111064059607 0.1896688229116458 0 0.10897084741943221 0.21088300127004059 0 0.12777839416023981 0.20429079300688421 0 0.1196111064059607 0.1896688229116458 0 0.1034184600538391 0.21173579621957159 0 0.10897084741943221 0.21088300127004059 0 0.13744963452827499 0.21856181835731969 0 0.12777839416023981 0.20429079300688421 0 0.1196111064059607 0.1896688229116458 0 0.1034184600538391 0.21173579621957159 0 0.10897084741943221 0.21088300127004059 0 0.10897084741943221 0.21088300127004059 0 0.13744963452827499 0.21856181835731969 0 0.1131621390219547 0.21734629997770161 0 0.10897084741943221 0.21088300127004059 0 0.13744963452827499 0.21856181835731969 0 0.093263096109875654 0.2255752972010992 0 0.0865832357088544 0.20561201607089991 0 0.1034184600538391 0.21173579621957159 0 0.0865832357088544 0.20561201607089991 0 0.099511319131269177 0.19420708966063971 0 0.1034184600538391 0.21173579621957159 0 0.1131621390219547 0.21734629997770161 0 0.1034184600538391 0.21173579621957159 0 0.10897084741943221 0.21088300127004059 0 0.093263096109875654 0.2255752972010992 0 0.1034184600538391 0.21173579621957159 0 0.1034184600538391 0.21173579621957159 0 0.1072609348398669 0.2289743894311147 0 0.1034184600538391 0.21173579621957159 0 0.099397407841656946 0.22897913131949979 0 0.1072609348398669 0.2289743894311147 0 0.093832450029105285 0.22727685556755789 0 0.099397407841656946 0.22897913131949979 0 0.1003621976042226 0.24679151286957099 0 0.093263096109875654 0.2255752972010992 0 0.1034184600538391 0.21173579621957159 0 0.099397407841656946 0.22897913131949979 0 0.1131621390219547 0.21734629997770161 0 0.1034184600538391 0.21173579621957159 0 0.1072609348398669 0.2289743894311147 0 0.093263096109875654 0.2255752972010992 0 0.093832450029105285 0.22727685556755789 0 0.099397407841656946 0.22897913131949979 0 0.093832450029105285 0.22727685556755789 0 0.099397407841656946 0.22897913131949979 0 0.099397407841656946 0.22897913131949979 0 0.1072609348398669 0.2289743894311147 0 0.1033949254845276 0.23624541969176971 0 0.1131621390219547 0.21734629997770161 0 0.1072609348398669 0.2289743894311147 0 0.12239132724749099 0.23244466864230051 0 0.1131621390219547 0.21734629997770161 0 0.12239132724749099 0.23244466864230051 0 0.13744963452827499 0.21856181835731969 0 0.1131621390219547 0.21734629997770161 0 0.12239132724749099 0.23244466864230051 0 0.1072609348398669 0.2289743894311147 0 0.12239132724749099 0.23244466864230051 0 0.1111034096258936 0.24621298264265809 0 0.1111034096258936 0.24621298264265809 0 0.13162051547302811 0.24754303730689889 0 0.12239132724749099 0.23244466864230051 0 0.1111034096258936 0.24621298264265809 0 0.13162051547302811 0.24754303730689889 0 0.1111034096258936 0.24621298264265809 0 0.13162051547302811 0.24754303730689889 0 0.1232137546478884 0.25477962304982538 0 0.1072609348398669 0.2289743894311147 0 0.1111034096258936 0.24621298264265809 0 0.093832450029105285 0.22727685556755789 0 0.1003621976042226 0.24679151286957099 0 0.1111034096258936 0.24621298264265809 0 0.106559161652364 0.24023664514689341 0 0.1003621976042226 0.24679151286957099 0 0.099397407841656946 0.22897913131949979 0 0.1033949254845276 0.23624541969176971 0 0.1003621976042226 0.24679151286957099 0 0.091896663598790784 0.2375823302664504 0 0.093832450029105285 0.22727685556755789 0 0.1003621976042226 0.24679151286957099 0 0.1072609348398669 0.2289743894311147 0 0.1111034096258936 0.24621298264265809 0 0.106559161652364 0.24023664514689341 0 0.1033949254845276 0.23624541969176971 0 0.106559161652364 0.24023664514689341 0 0.1003621976042226 0.24679151286957099 0 0.1072609348398669 0.2289743894311147 0 0.1033949254845276 0.23624541969176971 0 0.106559161652364 0.24023664514689341 0 0.089170556236420659 0.24744925712057469 0 0.091896663598790784 0.2375823302664504 0 0.1003621976042226 0.24679151286957099 0 0.070717396478684025 0.14102173294974429 0 0.095055111319406291 0.1412960788458994 0 0.085386288649966974 0.143727340646846 0 0.070717396478684025 0.14102173294974429 0 0.095055111319406291 0.1412960788458994 0 0.085386288649966974 0.143727340646846 0 0.087337253371491896 0.1534761891278327 0 0.076014607694239109 0.15067850199979591 0 0.087337253371491896 0.1534761891278327 0 0.076014607694239109 0.15067850199979591 0 0.080349018953416271 0.15816113194196729 0 0.085386288649966974 0.143727340646846 0 0.087337253371491896 0.1534761891278327 0 0.097326625472637859 0.15361230259975631 0 0.082997064752580424 0.13132867700650269 0 0.070717396478684025 0.14102173294974429 0 0.095055111319406291 0.1412960788458994 0 0.081878519745012673 0.1157243685148779 0 0.082997064752580424 0.13132867700650269 0 0.1025340408214919 0.1299895572366703 0 0.082997064752580424 0.13132867700650269 0 0.095055111319406291 0.1412960788458994 0 0.1025340408214919 0.1299895572366703 0 0.081878519745012673 0.1157243685148779 0 0.082997064752580424 0.13132867700650269 0 0.070796377867290691 0.12857407515426139 0 0.082997064752580424 0.13132867700650269 0 0.070796377867290691 0.12857407515426139 0 0.070717396478684025 0.14102173294974429 0 0.057786825932331663 0.1200586199335255 0 0.059221895135848968 0.132179828094345 0 0.070796377867290691 0.12857407515426139 0 0.059221895135848968 0.132179828094345 0 0.070796377867290691 0.12857407515426139 0 0.070717396478684025 0.14102173294974429 0 0.057903971220557633 0.14217739675805471 0 0.076014607694239109 0.15067850199979591 0 0.069096506275762748 0.15585045152427879 0 0.057903971220557633 0.14217739675805471 0 0.085386288649966974 0.143727340646846 0 0.076014607694239109 0.15067850199979591 0 0.057903971220557633 0.14217739675805471 0 0.085386288649966974 0.143727340646846 0 0.070717396478684025 0.14102173294974429 0 0.057903971220557633 0.14217739675805471 0 0.085386288649966974 0.143727340646846 0 0.076014607694239109 0.15067850199979591 0 0.069096506275762748 0.15585045152427879 0 0.080349018953416271 0.15816113194196729 0 0.059990944959646457 0.16599481545559899 0 0.069096506275762748 0.15585045152427879 0 0.073725346981937417 0.16718521790653801 0 0.059370628895760592 0.18225377727499481 0 0.059990944959646457 0.16599481545559899 0 0.073725346981937417 0.16718521790653801 0 0.069096506275762748 0.15585045152427879 0 0.073725346981937417 0.16718521790653801 0 0.080349018953416271 0.15816113194196729 0 0.073725346981937417 0.16718521790653801 0 0.079903375307831231 0.1856487349407013 0 0.059370628895760592 0.18225377727499481 0 0.073725346981937417 0.16718521790653801 0 0.079903375307831231 0.1856487349407013 0 0.099511319131269177 0.19420708966063971 0 0.079903375307831231 0.1856487349407013 0 0.09584576253877243 0.1805106576864012 0 0.079903375307831231 0.1856487349407013 0 0.090334867927308771 0.16744702134198761 0 0.09584576253877243 0.1805106576864012 0 0.073725346981937417 0.16718521790653801 0 0.079903375307831231 0.1856487349407013 0 0.090334867927308771 0.16744702134198761 0 0.079903375307831231 0.1856487349407013 0 0.090334867927308771 0.16744702134198761 0 0.073725346981937417 0.16718521790653801 0 0.080349018953416271 0.15816113194196729 0 0.090334867927308771 0.16744702134198761 0 0.087337253371491896 0.1534761891278327 0 0.090334867927308771 0.16744702134198761 0 0.097326625472637859 0.15361230259975631 0 0.087337253371491896 0.1534761891278327 0 0.080349018953416271 0.15816113194196729 0 0.090334867927308771 0.16744702134198761 0 0.090334867927308771 0.16744702134198761 0 0.1027574168062451 0.16813093276035099 0 0.097326625472637859 0.15361230259975631 0 0.1027574168062451 0.16813093276035099 0 0.1128686060793764 0.1452772845356364 0 0.099511319131269177 0.19420708966063971 0 0.09584576253877243 0.1805106576864012 0 0.1073727939009507 0.1797453319466864 0 0.090334867927308771 0.16744702134198761 0 0.1027574168062451 0.16813093276035099 0 0.09584576253877243 0.1805106576864012 0 0.1027574168062451 0.16813093276035099 0 0.09584576253877243 0.1805106576864012 0 0.1073727939009507 0.1797453319466864 0 0.1196111064059607 0.1896688229116458 0 0.119138364622506 0.16620915671439429 0 0.13580375275808301 0.16760184960372049 0 0.1196111064059607 0.1896688229116458 0 0.1073727939009507 0.1797453319466864 0 0.119138364622506 0.16620915671439429 0 0.1027574168062451 0.16813093276035099 0 0.1073727939009507 0.1797453319466864 0 0.119138364622506 0.16620915671439429 0 0.1027574168062451 0.16813093276035099 0 0.119138364622506 0.16620915671439429 0 0.1128686060793764 0.1452772845356364 0 0.1128686060793764 0.1452772845356364 0 0.13413773908576179 0.1464768181196523 0 0.119138364622506 0.16620915671439429 0 0.1128686060793764 0.1452772845356364 0 0.13413773908576179 0.1464768181196523 0 0.085386288649966974 0.143727340646846 0 0.1128686060793764 0.1452772845356364 0 0.097326625472637859 0.15361230259975631 0 0.1027574168062451 0.16813093276035099 0 0.1128686060793764 0.1452772845356364 0 0.097326625472637859 0.15361230259975631 0 0.085386288649966974 0.143727340646846 0 0.1128686060793764 0.1452772845356364 0 0.085386288649966974 0.143727340646846 0 0.1128686060793764 0.1452772845356364 0 0.095055111319406291 0.1412960788458994 0 0.1128686060793764 0.1452772845356364 0 0.095055111319406291 0.1412960788458994 0 0.1025340408214919 0.1299895572366703 0 0.1237412673866992 0.1207025317472252 0 0.1128686060793764 0.1452772845356364 0 0.13413773908576179 0.1464768181196523 0 0.1237412673866992 0.1207025317472252 0 0.1128686060793764 0.1452772845356364 0 0.1237412673866992 0.1207025317472252 0 0.1128686060793764 0.1452772845356364 0 0.1025340408214919 0.1299895572366703 0 0.1237412673866992 0.1207025317472252 0 0.1489754283795458 0.12744814879502581 0 0.13413773908576179 0.1464768181196523 0 0.1489754283795458 0.12744814879502581 0 0.15116242560213791 0.15326747704258631 0 0.13413773908576179 0.1464768181196523 0 0.1489754283795458 0.12744814879502581 0 0.15116242560213791 0.15326747704258631 0 0.1669477740878923 0.14261089378470271 0 0.15116242560213791 0.15326747704258631 0 0.13413773908576179 0.1464768181196523 0 0.13580375275808301 0.16760184960372049 0 0.119138364622506 0.16620915671439429 0 0.13413773908576179 0.1464768181196523 0 0.13580375275808301 0.16760184960372049 0 0.1196111064059607 0.1896688229116458 0 0.13580375275808301 0.16760184960372049 0 0.14389897383617711 0.1913082754295003 0 0.1196111064059607 0.1896688229116458 0 0.13580375275808301 0.16760184960372049 0 0.13580375275808301 0.16760184960372049 0 0.16660798993763329 0.1704874743380016 0 0.14389897383617711 0.1913082754295003 0 0.15116242560213791 0.15326747704258631 0 0.13580375275808301 0.16760184960372049 0 0.16660798993763329 0.1704874743380016 0 0.16660798993763329 0.1704874743380016 0 0.1669477740878923 0.14261089378470271 0 0.16660798993763329 0.1704874743380016 0 0.18217403682044189 0.18213051192556209 0 0.16626820578737439 0.1983640548913006 0 0.16660798993763329 0.1704874743380016 0 0.14389897383617711 0.1913082754295003 0 0.16626820578737439 0.1983640548913006 0 0.16660798993763329 0.1704874743380016 0 0.16626820578737439 0.1983640548913006 0 0.16660798993763329 0.1704874743380016 0 0.18217403682044189 0.18213051192556209 0 0.1876673790797411 0.1561009149252397 0 0.16660798993763329 0.1704874743380016 0 0.1669477740878923 0.14261089378470271 0 0.1876673790797411 0.1561009149252397 0 0.1669477740878923 0.14261089378470271 0 0.19451501675432539 0.13205691289703431 0 0.1876673790797411 0.1561009149252397 0 0.1669477740878923 0.14261089378470271 0 0.19451501675432539 0.13205691289703431 0 0.1710759479682239 0.1239243176008443 0 0.1489754283795458 0.12744814879502581 0 0.1669477740878923 0.14261089378470271 0 0.1710759479682239 0.1239243176008443 0 0.15116242560213791 0.15326747704258631 0 0.16660798993763329 0.1704874743380016 0 0.1669477740878923 0.14261089378470271 0 0.14863120117614381 0.24864578259806411 0 0.14398168735493849 0.23522233921604821 0 0.13162051547302811 0.24754303730689889 0 0.14863120117614381 0.24864578259806411 0 0.14398168735493849 0.23522233921604821 0 0.15786902406757569 0.2378980929471082 0 0.14863120117614381 0.24864578259806411 0 0.13162051547302811 0.24754303730689889 0 0.12239132724749099 0.23244466864230051 0 0.14398168735493849 0.23522233921604821 0 0.13162051547302811 0.24754303730689889 0 0.12239132724749099 0.23244466864230051 0 0.13162051547302811 0.24754303730689889 0 0.12239132724749099 0.23244466864230051 0 0.14398168735493849 0.23522233921604821 0 0.13744963452827499 0.21856181835731969 0 0.14398168735493849 0.23522233921604821 0 0.13744963452827499 0.21856181835731969 0 0.1659284216371176 0.22624063544459941 0 0.14398168735493849 0.23522233921604821 0 0.1659284216371176 0.22624063544459941 0 0.15786902406757569 0.2378980929471082 0 0.13744963452827499 0.21856181835731969 0 0.1659284216371176 0.22624063544459941 0 0.15347636185181121 0.21101212380780421 0 0.13744963452827499 0.21856181835731969 0 0.1659284216371176 0.22624063544459941 0 0.15347636185181121 0.21101212380780421 0 0.14065084109412579 0.2062932526503771 0 0.13744963452827499 0.21856181835731969 0 0.14065084109412579 0.2062932526503771 0 0.13744963452827499 0.21856181835731969 0 0.12777839416023981 0.20429079300688421 0 0.14065084109412579 0.2062932526503771 0 0.12777839416023981 0.20429079300688421 0 0.14389897383617711 0.1913082754295003 0 0.1196111064059607 0.1896688229116458 0 0.12777839416023981 0.20429079300688421 0 0.14389897383617711 0.1913082754295003 0 0.15347636185181121 0.21101212380780421 0 0.14389897383617711 0.1913082754295003 0 0.16626820578737439 0.1983640548913006 0 0.15347636185181121 0.21101212380780421 0 0.14065084109412579 0.2062932526503771 0 0.14389897383617711 0.1913082754295003 0 0.18217403682044189 0.18213051192556209 0 0.16626820578737439 0.1983640548913006 0 0.1921444794468237 0.19843505428565611 0 0.16626820578737439 0.1983640548913006 0 0.18062193390787559 0.21362356566769231 0 0.1921444794468237 0.19843505428565611 0 0.16626820578737439 0.1983640548913006 0 0.1659284216371176 0.22624063544459941 0 0.15347636185181121 0.21101212380780421 0 0.16626820578737439 0.1983640548913006 0 0.1659284216371176 0.22624063544459941 0 0.16626820578737439 0.1983640548913006 0 0.18062193390787559 0.21362356566769231 0 0.1659284216371176 0.22624063544459941 0 0.18062193390787559 0.21362356566769231 0 0.1659284216371176 0.22624063544459941 0 0.18654540031224739 0.2317996505646458 0 0.1659284216371176 0.22624063544459941 0 0.18654540031224739 0.2317996505646458 0 0.1659284216371176 0.22624063544459941 0 0.18654540031224739 0.2317996505646458 0 0.17405199691681289 0.23839635896521391 0 0.18654540031224739 0.2317996505646458 0 0.17405199691681289 0.23839635896521391 0 0.1809260299556962 0.25073934725425939 0 0.17405199691681289 0.23839635896521391 0 0.16564188687925929 0.24974852788923091 0 0.1809260299556962 0.25073934725425939 0 0.1659284216371176 0.22624063544459941 0 0.16564188687925929 0.24974852788923091 0 0.1659284216371176 0.22624063544459941 0 0.17405199691681289 0.23839635896521391 0 0.16564188687925929 0.24974852788923091 0 0.1659284216371176 0.22624063544459941 0 0.16564188687925929 0.24974852788923091 0 0.15786902406757569 0.2378980929471082 0 0.14863120117614381 0.24864578259806411 0 0.16564188687925929 0.24974852788923091 0 0.14863120117614381 0.24864578259806411 0 0.16564188687925929 0.24974852788923091 0 0.15786902406757569 0.2378980929471082 0 0.2071623789873771 0.23735866568469269 0 0.19621017303213309 0.25173016661928799 0 0.2073774026308422 0.25580268532727751 0 0.2071623789873771 0.23735866568469269 0 0.2073774026308422 0.25580268532727751 0 0.21925853352151431 0.25159648248408772 0 0.2071623789873771 0.23735866568469269 0 0.22105796523579491 0.2371577254092169 0 0.21925853352151431 0.25159648248408772 0 0.18654540031224739 0.2317996505646458 0 0.1809260299556962 0.25073934725425939 0 0.19621017303213309 0.25173016661928799 0 0.18654540031224739 0.2317996505646458 0 0.2071623789873771 0.23735866568469269 0 0.18654540031224739 0.2317996505646458 0 0.2071623789873771 0.23735866568469269 0 0.19621017303213309 0.25173016661928799 0 0.18062193390787559 0.21362356566769231 0 0.18654540031224739 0.2317996505646458 0 0.1955081852574731 0.21340438329016809 0 0.18654540031224739 0.2317996505646458 0 0.2071623789873771 0.23735866568469269 0 0.20025246406198191 0.22558198776199029 0 0.18654540031224739 0.2317996505646458 0 0.20025246406198191 0.22558198776199029 0 0.1955081852574731 0.21340438329016809 0 0.2071623789873771 0.23735866568469269 0 0.20025246406198191 0.22558198776199029 0 0.2102378824805507 0.21681288328339071 0 0.2071623789873771 0.23735866568469269 0 0.2102378824805507 0.21681288328339071 0 0.2220999059361429 0.2233295257228223 0 0.2071623789873771 0.23735866568469269 0 0.2220999059361429 0.2233295257228223 0 0.22105796523579491 0.2371577254092169 0 0.2102378824805507 0.21681288328339071 0 0.21934180219461991 0.20925566866791689 0 0.2220999059361429 0.2233295257228223 0 0.20715110336361231 0.2048876706411113 0 0.21791771719326181 0.197509825623952 0 0.21934180219461991 0.20925566866791689 0 0.20715110336361231 0.2048876706411113 0 0.2102378824805507 0.21681288328339071 0 0.21934180219461991 0.20925566866791689 0 0.20715110336361231 0.2048876706411113 0 0.2102378824805507 0.21681288328339071 0 0.1955081852574731 0.21340438329016809 0 0.20025246406198191 0.22558198776199029 0 0.2102378824805507 0.21681288328339071 0 0.1955081852574731 0.21340438329016809 0 0.18062193390787559 0.21362356566769231 0 0.1955081852574731 0.21340438329016809 0 0.1921444794468237 0.19843505428565611 0 0.20715110336361231 0.2048876706411113 0 0.1955081852574731 0.21340438329016809 0 0.1921444794468237 0.19843505428565611 0 0.18217403682044189 0.18213051192556209 0 0.1921444794468237 0.19843505428565611 0 0.19767213231280609 0.18613001183318439 0 0.20715110336361231 0.2048876706411113 0 0.1921444794468237 0.19843505428565611 0 0.20507696608366879 0.19404649020656131 0 0.1921444794468237 0.19843505428565611 0 0.20507696608366879 0.19404649020656131 0 0.19767213231280609 0.18613001183318439 0 0.20507696608366879 0.19404649020656131 0 0.19767213231280609 0.18613001183318439 0 0.2102942201489158 0.18343055922550411 0 0.20715110336361231 0.2048876706411113 0 0.20507696608366879 0.19404649020656131 0 0.21791771719326181 0.197509825623952 0 0.20507696608366879 0.19404649020656131 0 0.21791771719326181 0.197509825623952 0 0.2102942201489158 0.18343055922550411 0 0.21791771719326181 0.197509825623952 0 0.22560701614763989 0.18810621192914581 0 0.2102942201489158 0.18343055922550411 0 0.21791771719326181 0.197509825623952 0 0.235361174393144 0.1955811415501908 0 0.21791771719326181 0.197509825623952 0 0.235361174393144 0.1955811415501908 0 0.2286067157271417 0.20394472473762459 0 0.21791771719326181 0.197509825623952 0 0.22560701614763989 0.18810621192914581 0 0.235361174393144 0.1955811415501908 0 0.22560701614763989 0.18810621192914581 0 0.235361174393144 0.1955811415501908 0 0.242881991307064 0.18690680833733939 0 0.235361174393144 0.1955811415501908 0 0.2424425901990768 0.20778076280738411 0 0.25280463159302602 0.1936524574764282 0 0.235361174393144 0.1955811415501908 0 0.25280463159302602 0.1936524574764282 0 0.235361174393144 0.1955811415501908 0 0.242881991307064 0.18690680833733939 0 0.25280463159302602 0.1936524574764282 0 0.2424425901990768 0.20778076280738411 0 0.25280463159302602 0.1936524574764282 0 0.235361174393144 0.1955811415501908 0 0.2424425901990768 0.20778076280738411 0 0.2286067157271417 0.20394472473762459 0 0.23062477863026221 0.212817590853661 0 0.24899874225078231 0.2225933472544209 0 0.2424425901990768 0.20778076280738411 0 0.23062477863026221 0.212817590853661 0 0.24899874225078231 0.2225933472544209 0 0.2424425901990768 0.20778076280738411 0 0.24899874225078231 0.2225933472544209 0 0.25671888818861738 0.20909982030253341 0 0.2424425901990768 0.20778076280738411 0 0.23062477863026221 0.212817590853661 0 0.2286067157271417 0.20394472473762459 0 0.21791771719326181 0.197509825623952 0 0.2286067157271417 0.20394472473762459 0 0.21934180219461991 0.20925566866791689 0 0.23062477863026221 0.212817590853661 0 0.2286067157271417 0.20394472473762459 0 0.21934180219461991 0.20925566866791689 0 0.23062477863026221 0.212817590853661 0 0.21934180219461991 0.20925566866791689 0 0.2220999059361429 0.2233295257228223 0 0.2220999059361429 0.2233295257228223 0 0.2317953673390368 0.23277263206180959 0 0.22105796523579491 0.2371577254092169 0 0.23062477863026221 0.212817590853661 0 0.2220999059361429 0.2233295257228223 0 0.2333796985390561 0.22287827397317839 0 0.2220999059361429 0.2233295257228223 0 0.2317953673390368 0.23277263206180959 0 0.2333796985390561 0.22287827397317839 0 0.2317953673390368 0.23277263206180959 0 0.24899874225078231 0.2225933472544209 0 0.24576288521902601 0.2367514452761286 0 0.23062477863026221 0.212817590853661 0 0.2333796985390561 0.22287827397317839 0 0.24899874225078231 0.2225933472544209 0 0.2317953673390368 0.23277263206180959 0 0.2333796985390561 0.22287827397317839 0 0.24899874225078231 0.2225933472544209 0 0.24576288521902601 0.2367514452761286 0 0.2371930846548288 0.25302587335583621 0 0.25469112926727061 0.24735262204999481 0 0.24576288521902601 0.2367514452761286 0 0.22792745325535729 0.24381773352640959 0 0.2371930846548288 0.25302587335583621 0 0.2317953673390368 0.23277263206180959 0 0.24576288521902601 0.2367514452761286 0 0.22792745325535729 0.24381773352640959 0 0.22792745325535729 0.24381773352640959 0 0.21925853352151431 0.25159648248408772 0 0.2371930846548288 0.25302587335583621 0 0.2317953673390368 0.23277263206180959 0 0.22792745325535729 0.24381773352640959 0 0.22105796523579491 0.2371577254092169 0 0.22792745325535729 0.24381773352640959 0 0.22105796523579491 0.2371577254092169 0 0.21925853352151431 0.25159648248408772 0 0.20448066008190369 0.14727690197782001 0 0.20904519351127021 0.16251388506211081 0 0.2193790940645218 0.15140936808089159 0 0.20448066008190369 0.14727690197782001 0 0.2193790940645218 0.15140936808089159 0 0.22005576892068821 0.136506558369274 0 0.19451501675432539 0.13205691289703431 0 0.22005576892068821 0.136506558369274 0 0.2159347571296647 0.1182695555800497 0 0.20448066008190369 0.14727690197782001 0 0.19451501675432539 0.13205691289703431 0 0.22005576892068821 0.136506558369274 0 0.20448066008190369 0.14727690197782001 0 0.19451501675432539 0.13205691289703431 0 0.1876673790797411 0.1561009149252397 0 0.20448066008190369 0.14727690197782001 0 0.1876673790797411 0.1561009149252397 0 0.20904519351127021 0.16251388506211081 0 0.18217403682044189 0.18213051192556209 0 0.1876673790797411 0.1561009149252397 0 0.19768610489014379 0.17337866229032639 0 0.1876673790797411 0.1561009149252397 0 0.19768610489014379 0.17337866229032639 0 0.20904519351127021 0.16251388506211081 0 0.18217403682044189 0.18213051192556209 0 0.19768610489014379 0.17337866229032639 0 0.19767213231280609 0.18613001183318439 0 0.19768610489014379 0.17337866229032639 0 0.19767213231280609 0.18613001183318439 0 0.2102942201489158 0.18343055922550411 0 0.19768610489014379 0.17337866229032639 0 0.2102942201489158 0.18343055922550411 0 0.20904519351127021 0.16251388506211081 0 0.2102942201489158 0.18343055922550411 0 0.20904519351127021 0.16251388506211081 0 0.22457853726832949 0.16763035045449759 0 0.20904519351127021 0.16251388506211081 0 0.22457853726832949 0.16763035045449759 0 0.2193790940645218 0.15140936808089159 0 0.22560701614763989 0.18810621192914581 0 0.2102942201489158 0.18343055922550411 0 0.22457853726832949 0.16763035045449759 0 0.22560701614763989 0.18810621192914581 0 0.24312800656083611 0.1704664171387664 0 0.22560701614763989 0.18810621192914581 0 0.22457853726832949 0.16763035045449759 0 0.24312800656083611 0.1704664171387664 0 0.242881991307064 0.18690680833733939 0 0.24312800656083611 0.1704664171387664 0 0.25379526172670452 0.18061833659426699 0 0.22560701614763989 0.18810621192914581 0 0.242881991307064 0.18690680833733939 0 0.24312800656083611 0.1704664171387664 0 0.242881991307064 0.18690680833733939 0 0.25379526172670452 0.18061833659426699 0 0.25280463159302602 0.1936524574764282 0 0.22457853726832949 0.16763035045449759 0 0.24312800656083611 0.1704664171387664 0 0.2391354248219569 0.14958550948486241 0 0.24312800656083611 0.1704664171387664 0 0.2391354248219569 0.14958550948486241 0 0.26064899697403232 0.15282662234838679 0 0.22457853726832949 0.16763035045449759 0 0.2391354248219569 0.14958550948486241 0 0.2193790940645218 0.15140936808089159 0 0.2391354248219569 0.14958550948486241 0 0.2193790940645218 0.15140936808089159 0 0.22005576892068821 0.136506558369274 0 0.2391354248219569 0.14958550948486241 0 0.22005576892068821 0.136506558369274 0 0.23981929909650421 0.12712535337400541 0 0.22005576892068821 0.136506558369274 0 0.23981929909650421 0.12712535337400541 0 0.2159347571296647 0.1182695555800497 0 0.2391354248219569 0.14958550948486241 0 0.23981929909650421 0.12712535337400541 0 0.25190461453233132 0.14042974416662601 0 0.23981929909650421 0.12712535337400541 0 0.25027055211512 0.10653107456547579 0 0.23981929909650421 0.12712535337400541 0 0.25027055211512 0.10653107456547579 0 0.25977188912404442 0.127458514331382 0 0.23981929909650421 0.12712535337400541 0 0.2319852465490429 0.1072646702939181 0 0.25027055211512 0.10653107456547579 0 0.2370073958057326 0.089234548447235107 0 0.26072180513373577 0.085936795756946086 0 0.25027055211512 0.10653107456547579 0 0.2319852465490429 0.1072646702939181 0 0.2370073958057326 0.089234548447235107 0 0.25027055211512 0.10653107456547579 0 0.2319852465490429 0.1072646702939181 0 0.2168942285981931 0.09516281950282432 0 0.2370073958057326 0.089234548447235107 0 0.2319852465490429 0.1072646702939181 0 0.2159347571296647 0.1182695555800497 0 0.2168942285981931 0.09516281950282432 0 0.23981929909650421 0.12712535337400541 0 0.2319852465490429 0.1072646702939181 0 0.2159347571296647 0.1182695555800497 0 0.19451501675432539 0.13205691289703431 0 0.2159347571296647 0.1182695555800497 0 0.20150161452434751 0.11012390715045919 0 0.2159347571296647 0.1182695555800497 0 0.2168942285981931 0.09516281950282432 0 0.20150161452434751 0.11012390715045919 0 0.2168942285981931 0.09516281950282432 0 0.19581770013941521 0.093777739565210433 0 0.20150161452434751 0.11012390715045919 0 0.19581770013941521 0.093777739565210433 0 0.20150161452434751 0.11012390715045919 0 0.18434637000013909 0.1113525082071775 0 0.19451501675432539 0.13205691289703431 0 0.18434637000013909 0.1113525082071775 0 0.19451501675432539 0.13205691289703431 0 0.20150161452434751 0.11012390715045919 0 0.18434637000013909 0.1113525082071775 0 0.1920565134958043 0.07650882332888273 0 0.2063043214921049 0.062615532014197922 0 0.19450717271155979 0.055304124877499167 0 0.1920565134958043 0.07650882332888273 0 0.19450717271155979 0.055304124877499167 0 0.18197621555274771 0.060459811852269563 0 0.1920565134958043 0.07650882332888273 0 0.20658738245317709 0.080454303254159504 0 0.2063043214921049 0.062615532014197922 0 0.19581770013941521 0.093777739565210433 0 0.1920565134958043 0.07650882332888273 0 0.20658738245317709 0.080454303254159504 0 0.2168942285981931 0.09516281950282432 0 0.20658738245317709 0.080454303254159504 0 0.22186414854036809 0.07420660185968217 0 0.2168942285981931 0.09516281950282432 0 0.19581770013941521 0.093777739565210433 0 0.20658738245317709 0.080454303254159504 0 0.20658738245317709 0.080454303254159504 0 0.2063043214921049 0.062615532014197922 0 0.22186414854036809 0.07420660185968217 0 0.2063043214921049 0.062615532014197922 0 0.22186414854036809 0.07420660185968217 0 0.22065827241197289 0.057231387042787192 0 0.22186414854036809 0.07420660185968217 0 0.2370073958057326 0.089234548447235107 0 0.2410670791918299 0.066657374978017381 0 0.22186414854036809 0.07420660185968217 0 0.2410670791918299 0.066657374978017381 0 0.22065827241197289 0.057231387042787192 0 0.2168942285981931 0.09516281950282432 0 0.22186414854036809 0.07420660185968217 0 0.2370073958057326 0.089234548447235107 0 0.2370073958057326 0.089234548447235107 0 0.2410670791918299 0.066657374978017381 0 0.26072180513373577 0.085936795756946086 0 0.2335549293522062 0.037120766249025328 0 0.23392735815060739 0.05145053802463876 0 0.25182118552613297 0.052917828428107848 0 0.2410670791918299 0.066657374978017381 0 0.23392735815060739 0.05145053802463876 0 0.25182118552613297 0.052917828428107848 0 0.24229683167898761 0.026863171001088801 0 0.25182118552613297 0.052917828428107848 0 0.2335549293522062 0.037120766249025328 0 0.24229683167898761 0.026863171001088801 0 0.25182118552613297 0.052917828428107848 0 0.2335549293522062 0.037120766249025328 0 0.22141060848779151 0.042627489477287728 0 0.23392735815060739 0.05145053802463876 0 0.2335549293522062 0.037120766249025328 0 0.22141060848779151 0.042627489477287728 0 0.21956658621910449 0.02743956935445277 0 0.22141060848779151 0.042627489477287728 0 0.22065827241197289 0.057231387042787192 0 0.23392735815060739 0.05145053802463876 0 0.2410670791918299 0.066657374978017381 0 0.22065827241197289 0.057231387042787192 0 0.23392735815060739 0.05145053802463876 0 0.24229683167898761 0.026863171001088801 0 0.2327724778318416 0.00080851357406988567 0 0.24229683167898761 0.026863171001088801 0 0.2327724778318416 0.00080851357406988567 0 0.25766864249577431 0.016273971229392298 0 0.2327724778318416 0.00080851357406988567 0 0.25766864249577431 0.016273971229392298 0 0.24297595284734999 -0.00032384243858780282 0 0.2327724778318416 0.00080851357406988567 0 0.25766864249577431 0.016273971229392298 0 0.2335549293522062 0.037120766249025328 0 0.24229683167898761 0.026863171001088801 0 0.23023395565047691 0.020918542915729421 0 0.24229683167898761 0.026863171001088801 0 0.23023395565047691 0.020918542915729421 0 0.2327724778318416 0.00080851357406988567 0 0.2335549293522062 0.037120766249025328 0 0.21956658621910449 0.02743956935445277 0 0.23023395565047691 0.020918542915729421 0 0.21956658621910449 0.02743956935445277 0 0.23023395565047691 0.020918542915729421 0 0.22297895317024491 0.01236069440001028 0 0.23023395565047691 0.020918542915729421 0 0.22297895317024491 0.01236069440001028 0 0.2327724778318416 0.00080851357406988567 0 0.22297895317024491 0.01236069440001028 0 0.2216901033440723 0.0019520988824035101 0 0.2327724778318416 0.00080851357406988567 0 0.22297895317024491 0.01236069440001028 0 0.2216901033440723 0.0019520988824035101 0 0.2130584992776822 0.0064991310057278227 0 0.2130584992776822 0.0064991310057278227 0 0.2128063672562063 -0.0010087193959307549 0 0.20483123724834651 -0.00017065645069986779 0 0.2130584992776822 0.0064991310057278227 0 0.20126901801950209 0.01179146639325649 0 0.20483123724834651 -0.00017065645069986779 0 0.2216901033440723 0.0019520988824035101 0 0.2130584992776822 0.0064991310057278227 0 0.2128063672562063 -0.0010087193959307549 0 0.22297895317024491 0.01236069440001028 0 0.2130584992776822 0.0064991310057278227 0 0.21205218799292139 0.016527111033415611 0 0.2130584992776822 0.0064991310057278227 0 0.21205218799292139 0.016527111033415611 0 0.20126901801950209 0.01179146639325649 0 0.21956658621910449 0.02743956935445277 0 0.20338788327807339 0.0245446940136307 0 0.20823786853085649 0.036724839620522289 0 0.21956658621910449 0.02743956935445277 0 0.21205218799292139 0.016527111033415611 0 0.20338788327807339 0.0245446940136307 0 0.21205218799292139 0.016527111033415611 0 0.20338788327807339 0.0245446940136307 0 0.20126901801950209 0.01179146639325649 0 0.21956658621910449 0.02743956935445277 0 0.22297895317024491 0.01236069440001028 0 0.21205218799292139 0.016527111033415611 0 0.20338788327807339 0.0245446940136307 0 0.20823786853085649 0.036724839620522289 0 0.19140067181019821 0.031634518812069669 0 0.20338788327807339 0.0245446940136307 0 0.19391887342743841 0.019785768854086071 0 0.19140067181019821 0.031634518812069669 0 0.19391887342743841 0.019785768854086071 0 0.19140067181019821 0.031634518812069669 0 0.18436216668368841 0.019280027735249072 0 0.19391887342743841 0.019785768854086071 0 0.18917462734572971 0.011678137316224409 0 0.18436216668368841 0.019280027735249072 0 0.20338788327807339 0.0245446940136307 0 0.19391887342743841 0.019785768854086071 0 0.20126901801950209 0.01179146639325649 0 0.19391887342743841 0.019785768854086071 0 0.20126901801950209 0.01179146639325649 0 0.18917462734572971 0.011678137316224409 0 0.20126901801950209 0.01179146639325649 0 0.18917462734572971 0.011678137316224409 0 0.1933073427054901 0.001884839783417182 0 0.18917462734572971 0.011678137316224409 0 0.1933073427054901 0.001884839783417182 0 0.18476487371872691 0.0023264512215359291 0 0.20126901801950209 0.01179146639325649 0 0.1933073427054901 0.001884839783417182 0 0.20483123724834651 -0.00017065645069986779 0 0.2063043214921049 0.062615532014197922 0 0.22065827241197289 0.057231387042787192 0 0.208050482594408 0.049622361634724062 0 0.22141060848779151 0.042627489477287728 0 0.22065827241197289 0.057231387042787192 0 0.208050482594408 0.049622361634724062 0 0.22141060848779151 0.042627489477287728 0 0.208050482594408 0.049622361634724062 0 0.20823786853085649 0.036724839620522289 0 0.22141060848779151 0.042627489477287728 0 0.21956658621910449 0.02743956935445277 0 0.20823786853085649 0.036724839620522289 0 0.208050482594408 0.049622361634724062 0 0.20823786853085649 0.036724839620522289 0 0.1971846519321625 0.043230796776050087 0 0.20823786853085649 0.036724839620522289 0 0.1971846519321625 0.043230796776050087 0 0.19140067181019821 0.031634518812069669 0 0.1971846519321625 0.043230796776050087 0 0.19140067181019821 0.031634518812069669 0 0.18531973405815019 0.046489196876265147 0 0.1971846519321625 0.043230796776050087 0 0.19450717271155979 0.055304124877499167 0 0.18531973405815019 0.046489196876265147 0 0.208050482594408 0.049622361634724062 0 0.1971846519321625 0.043230796776050087 0 0.19450717271155979 0.055304124877499167 0 0.2063043214921049 0.062615532014197922 0 0.208050482594408 0.049622361634724062 0 0.19450717271155979 0.055304124877499167 0 0.18197621555274771 0.060459811852269563 0 0.171860345410176 0.061318468395994037 0 0.17037456882029359 0.048081677127667977 0 0.18197621555274771 0.060459811852269563 0 0.18531973405815019 0.046489196876265147 0 0.17037456882029359 0.048081677127667977 0 0.19450717271155979 0.055304124877499167 0 0.18197621555274771 0.060459811852269563 0 0.18531973405815019 0.046489196876265147 0 0.19140067181019821 0.031634518812069669 0 0.17819301944822391 0.036436949827214918 0 0.18013862322197541 0.027475951869370241 0 0.19140067181019821 0.031634518812069669 0 0.18531973405815019 0.046489196876265147 0 0.17819301944822391 0.036436949827214918 0 0.17819301944822391 0.036436949827214918 0 0.16695912467681209 0.035657520739454551 0 0.170611959883048 0.025162781018820812 0 0.18531973405815019 0.046489196876265147 0 0.17819301944822391 0.036436949827214918 0 0.17037456882029359 0.048081677127667977 0 0.17819301944822391 0.036436949827214918 0 0.16695912467681209 0.035657520739454551 0 0.17037456882029359 0.048081677127667977 0 0.16695912467681209 0.035657520739454551 0 0.15794296507339831 0.039358811099459858 0 0.17037456882029359 0.048081677127667977 0 0.15794296507339831 0.039358811099459858 0 0.17037456882029359 0.048081677127667977 0 0.15384042973758019 0.049239294137607047 0 0.16695912467681209 0.035657520739454551 0 0.15794296507339831 0.039358811099459858 0 0.1591354732211282 0.02932566858810675 0 0.171860345410176 0.061318468395994037 0 0.15384042973758019 0.049239294137607047 0 0.16400907649176649 0.069943698827463874 0 0.15384042973758019 0.049239294137607047 0 0.16400907649176649 0.069943698827463874 0 0.171860345410176 0.061318468395994037 0 0.17037456882029359 0.048081677127667977 0 0.15384042973758019 0.049239294137607047 0 0.17194389469659341 0.0046427798174643251 0 0.1786011239164817 0.0106129176826319 0 0.17678423811432731 -0.0040137111683443459 0 0.18476487371872691 0.0023264512215359291 0 0.1786011239164817 0.0106129176826319 0 0.17678423811432731 -0.0040137111683443459 0 0.18917462734572971 0.011678137316224409 0 0.1786011239164817 0.0106129176826319 0 0.18436216668368841 0.019280027735249072 0 0.18917462734572971 0.011678137316224409 0 0.18476487371872691 0.0023264512215359291 0 0.1786011239164817 0.0106129176826319 0 0.17194389469659341 0.0046427798174643251 0 0.1786011239164817 0.0106129176826319 0 0.168196032159699 0.010819014656640461 0 0.1786011239164817 0.0106129176826319 0 0.17402308352386969 0.017143416486653559 0 0.168196032159699 0.010819014656640461 0 0.1786011239164817 0.0106129176826319 0 0.17402308352386969 0.017143416486653559 0 0.18436216668368841 0.019280027735249072 0 0.17402308352386969 0.017143416486653559 0 0.18013862322197541 0.027475951869370241 0 0.170611959883048 0.025162781018820812 0 0.17402308352386969 0.017143416486653559 0 0.18436216668368841 0.019280027735249072 0 0.18013862322197541 0.027475951869370241 0 0.19140067181019821 0.031634518812069669 0 0.18436216668368841 0.019280027735249072 0 0.18013862322197541 0.027475951869370241 0 0.17819301944822391 0.036436949827214918 0 0.18013862322197541 0.027475951869370241 0 0.170611959883048 0.025162781018820812 0 0.170611959883048 0.025162781018820812 0 0.1591354732211282 0.02932566858810675 0 0.16272947657852599 0.020020095540895459 0 0.16695912467681209 0.035657520739454551 0 0.170611959883048 0.025162781018820812 0 0.1591354732211282 0.02932566858810675 0 0.1591354732211282 0.02932566858810675 0 0.16272947657852599 0.020020095540895459 0 0.15287875628496209 0.02165362601569434 0 0.16272947657852599 0.020020095540895459 0 0.168196032159699 0.010819014656640461 0 0.15287875628496209 0.02165362601569434 0 0.17402308352386969 0.017143416486653559 0 0.170611959883048 0.025162781018820812 0 0.16889013803628569 0.01828632692575257 0 0.16272947657852599 0.020020095540895459 0 0.16889013803628569 0.01828632692575257 0 0.168196032159699 0.010819014656640461 0 0.170611959883048 0.025162781018820812 0 0.16272947657852599 0.020020095540895459 0 0.16889013803628569 0.01828632692575257 0 0.17194389469659341 0.0046427798174643251 0 0.16500663457783829 0.0066594038351828963 0 0.16394258331322331 -0.010299091428861359 0 0.168196032159699 0.010819014656640461 0 0.16500663457783829 0.0066594038351828963 0 0.1397298863709012 0.01574646671207048 0 0.17402308352386969 0.017143416486653559 0 0.16889013803628569 0.01828632692575257 0 0.168196032159699 0.010819014656640461 0 0.17194389469659341 0.0046427798174643251 0 0.168196032159699 0.010819014656640461 0 0.16500663457783829 0.0066594038351828963 0 0.168196032159699 0.010819014656640461 0 0.1397298863709012 0.01574646671207048 0 0.14865092338076161 0.0029196368863995291 0 0.1397298863709012 0.01574646671207048 0 0.13534696994241319 -0.0012545724301827831 0 0.16500663457783829 0.0066594038351828963 0 0.14865092338076161 0.0029196368863995291 0 0.1397298863709012 0.01574646671207048 0 0.168196032159699 0.010819014656640461 0 0.15287875628496209 0.02165362601569434 0 0.1397298863709012 0.01574646671207048 0 0.15287875628496209 0.02165362601569434 0 0.1397298863709012 0.01574646671207048 0 0.14642457160892891 0.034865657931651091 0 0.1591354732211282 0.02932566858810675 0 0.15287875628496209 0.02165362601569434 0 0.14642457160892891 0.034865657931651091 0 0.1397298863709012 0.01574646671207048 0 0.14642457160892891 0.034865657931651091 0 0.12607976175878219 0.03812506588504519 0 0.1112637405821032 0.020673918767500511 0 0.1397298863709012 0.01574646671207048 0 0.12607976175878219 0.03812506588504519 0 0.1112637405821032 0.020673918767500511 0 0.1397298863709012 0.01574646671207048 0 0.11940402113221719 0.0021974637424521382 0 0.1397298863709012 0.01574646671207048 0 0.13534696994241319 -0.0012545724301827831 0 0.1494392048729187 0.06182289796609243 0 0.15384042973758019 0.049239294137607047 0 0.16400907649176649 0.069943698827463874 0 0.1494392048729187 0.06182289796609243 0 0.15384042973758019 0.049239294137607047 0 0.13963492768969951 0.049386298241860617 0 0.15794296507339831 0.039358811099459858 0 0.15384042973758019 0.049239294137607047 0 0.14642457160892891 0.034865657931651091 0 0.15794296507339831 0.039358811099459858 0 0.1591354732211282 0.02932566858810675 0 0.14642457160892891 0.034865657931651091 0 0.15384042973758019 0.049239294137607047 0 0.14642457160892891 0.034865657931651091 0 0.13963492768969951 0.049386298241860617 0 0.14642457160892891 0.034865657931651091 0 0.12607976175878219 0.03812506588504519 0 0.13963492768969951 0.049386298241860617 0 0.1223906704702877 0.062878575288907321 0 0.12607976175878219 0.03812506588504519 0 0.13963492768969951 0.049386298241860617 0 0.1223906704702877 0.062878575288907321 0 0.1494392048729187 0.06182289796609243 0 0.1223906704702877 0.062878575288907321 0 0.1494392048729187 0.06182289796609243 0 0.13963492768969951 0.049386298241860617 0 0.1223906704702877 0.062878575288907321 0 0.1494392048729187 0.06182289796609243 0 0.14548659000134531 0.071553026170403253 0 0.1223906704702877 0.062878575288907321 0 0.14548659000134531 0.071553026170403253 0 0.12885245119731209 0.078629265380086549 0 0.1494392048729187 0.06182289796609243 0 0.14548659000134531 0.071553026170403253 0 0.16400907649176649 0.069943698827463874 0 0.14548659000134531 0.071553026170403253 0 0.1557764938104608 0.086885146358856677 0 0.16400907649176649 0.069943698827463874 0 0.14548659000134531 0.071553026170403253 0 0.1557764938104608 0.086885146358856677 0 0.13461392869402219 0.096127778958814275 0 0.14548659000134531 0.071553026170403253 0 0.12885245119731209 0.078629265380086549 0 0.13461392869402219 0.096127778958814275 0 0.14548659000134531 0.071553026170403253 0 0.13461392869402219 0.096127778958814275 0 0.1489754283795458 0.12744814879502581 0 0.13461392869402219 0.096127778958814275 0 0.160595150619217 0.1061531243202813 0 0.1237412673866992 0.1207025317472252 0 0.1489754283795458 0.12744814879502581 0 0.13461392869402219 0.096127778958814275 0 0.1237412673866992 0.1207025317472252 0 0.13461392869402219 0.096127778958814275 0 0.1557764938104608 0.086885146358856677 0 0.13461392869402219 0.096127778958814275 0 0.160595150619217 0.1061531243202813 0 0.1557764938104608 0.086885146358856677 0 0.160595150619217 0.1061531243202813 0 0.17417772324595279 0.090648103517320666 0 0.1489754283795458 0.12744814879502581 0 0.160595150619217 0.1061531243202813 0 0.1710759479682239 0.1239243176008443 0 0.19451501675432539 0.13205691289703431 0 0.1710759479682239 0.1239243176008443 0 0.18434637000013909 0.1113525082071775 0 0.160595150619217 0.1061531243202813 0 0.1710759479682239 0.1239243176008443 0 0.18434637000013909 0.1113525082071775 0 0.18434637000013909 0.1113525082071775 0 0.17417772324595279 0.090648103517320666 0 0.160595150619217 0.1061531243202813 0 0.18434637000013909 0.1113525082071775 0 0.17417772324595279 0.090648103517320666 0 0.19581770013941521 0.093777739565210433 0 0.18434637000013909 0.1113525082071775 0 0.17417772324595279 0.090648103517320666 0 0.19581770013941521 0.093777739565210433 0 0.1920565134958043 0.07650882332888273 0 0.17417772324595279 0.090648103517320666 0 0.1920565134958043 0.07650882332888273 0 0.17417772324595279 0.090648103517320666 0 0.178169411527523 0.072357808904897292 0 0.1920565134958043 0.07650882332888273 0 0.18197621555274771 0.060459811852269563 0 0.178169411527523 0.072357808904897292 0 0.17417772324595279 0.090648103517320666 0 0.178169411527523 0.072357808904897292 0 0.16400907649176649 0.069943698827463874 0 0.18197621555274771 0.060459811852269563 0 0.171860345410176 0.061318468395994037 0 0.178169411527523 0.072357808904897292 0 0.171860345410176 0.061318468395994037 0 0.178169411527523 0.072357808904897292 0 0.16400907649176649 0.069943698827463874 0 0.1557764938104608 0.086885146358856677 0 0.17417772324595279 0.090648103517320666 0 0.16400907649176649 0.069943698827463874 0 0.17417772324595279 0.090648103517320666 0 0.16400907649176649 0.069943698827463874 0 0.094867698081550447 0.48088595445029958 0 0.1174862751349369 0.48299076978920769 0 0.1082700490887219 0.46833573557879649 0 0.094867698081550447 0.48088595445029958 0 0.1082700490887219 0.46833573557879649 0 0.093200474236568895 0.46081904744354968 0 0.094867698081550447 0.48088595445029958 0 0.10140934024091269 0.5 0 0.1174862751349369 0.48299076978920769 0 0.10140934024091269 0.5 0 0.1174862751349369 0.48299076978920769 0 0.13042781381703469 0.5 0 0.1174862751349369 0.48299076978920769 0 0.1082700490887219 0.46833573557879649 0 0.1264519596290487 0.46600733397067817 0 0.111174885940482 0.44787847442397949 0 0.1082700490887219 0.46833573557879649 0 0.1264519596290487 0.46600733397067817 0 0.111174885940482 0.44787847442397949 0 0.1307920793393513 0.44899231966976122 0 0.1264519596290487 0.46600733397067817 0 0.111174885940482 0.44787847442397949 0 0.12581458238117599 0.43558451542114701 0 0.1307920793393513 0.44899231966976122 0 0.111174885940482 0.44787847442397949 0 0.088376757121350513 0.44410381578626162 0 0.099073729424092261 0.43416708990787062 0 0.111174885940482 0.44787847442397949 0 0.093200474236568895 0.46081904744354968 0 0.088376757121350513 0.44410381578626162 0 0.111174885940482 0.44787847442397949 0 0.1082700490887219 0.46833573557879649 0 0.093200474236568895 0.46081904744354968 0 0.093200474236568895 0.46081904744354968 0 0.077032561875206546 0.45444964245676628 0 0.076449183123371733 0.47317017389024352 0 0.088376757121350513 0.44410381578626162 0 0.078385588630658892 0.43453041977814583 0 0.099073729424092261 0.43416708990787062 0 0.093200474236568895 0.46081904744354968 0 0.088376757121350513 0.44410381578626162 0 0.077032561875206546 0.45444964245676628 0 0.088376757121350513 0.44410381578626162 0 0.077032561875206546 0.45444964245676628 0 0.078385588630658892 0.43453041977814583 0 0.077032561875206546 0.45444964245676628 0 0.061686043415868849 0.44922877092356689 0 0.078385588630658892 0.43453041977814583 0 0.061686043415868849 0.44922877092356689 0 0.061053491803744683 0.43139368598685601 0 0.078385588630658892 0.43453041977814583 0 0.077032561875206546 0.45444964245676628 0 0.064097324723420529 0.4648456269188308 0 0.076449183123371733 0.47317017389024352 0 0.077032561875206546 0.45444964245676628 0 0.064097324723420529 0.4648456269188308 0 0.061686043415868849 0.44922877092356689 0 0.076449183123371733 0.47317017389024352 0 0.072390866664790665 0.5 0 0.056799601741266442 0.47864002737115913 0 0.064097324723420529 0.4648456269188308 0 0.076449183123371733 0.47317017389024352 0 0.056799601741266442 0.47864002737115913 0 0.094867698081550447 0.48088595445029958 0 0.093200474236568895 0.46081904744354968 0 0.076449183123371733 0.47317017389024352 0 0.094867698081550447 0.48088595445029958 0 0.076449183123371733 0.47317017389024352 0 0.072390866664790665 0.5 0 0.094867698081550447 0.48088595445029958 0 0.10140934024091269 0.5 0 0.072390866664790665 0.5 0 0.072390866664790665 0.5 0 0.050213059405039402 0.48952140430777707 0 0.056799601741266442 0.47864002737115913 0 0.050213059405039402 0.48952140430777707 0 0.056799601741266442 0.47864002737115913 0 0.039846119550708992 0.48509751393944123 0 0.072390866664790665 0.5 0 0.050213059405039402 0.48952140430777707 0 0.043372393088668693 0.5 0 0.039846119550708992 0.48509751393944123 0 0.022460391137727961 0.48647759911998978 0 0.038175432401479623 0.46120182189057141 0 0.056799601741266442 0.47864002737115913 0 0.039846119550708992 0.48509751393944123 0 0.038175432401479623 0.46120182189057141 0 0.050213059405039402 0.48952140430777707 0 0.043372393088668693 0.5 0 0.039846119550708992 0.48509751393944123 0 0.043372393088668693 0.5 0 0.039846119550708992 0.48509751393944123 0 0.028950657829746981 0.4997391174028441 0 0.028950657829746981 0.4997391174028441 0 0.022460391137727961 0.48647759911998978 0 0.022460391137727961 0.48647759911998978 0 0.015655935202729829 0.47279530129319092 0 0.01437902095145943 0.49947552315392951 0 0.039846119550708992 0.48509751393944123 0 0.028950657829746981 0.4997391174028441 0 0.022460391137727961 0.48647759911998978 0 0.022460391137727961 0.48647759911998978 0 0.01437902095145943 0.49947552315392951 0 0.028950657829746981 0.4997391174028441 0 0.022460391137727961 0.48647759911998978 0 0.01437902095145943 0.49947552315392951 0 0.022460391137727961 0.48647759911998978 0 0.023987842402680828 0.46423433360116001 0 0.038175432401479623 0.46120182189057141 0 0.022460391137727961 0.48647759911998978 0 0.038175432401479623 0.46120182189057141 0 0.022460391137727961 0.48647759911998978 0 0.015655935202729829 0.47279530129319092 0 0.023987842402680828 0.46423433360116001 0 0.022460391137727961 0.48647759911998978 0 0.015655935202729829 0.47279530129319092 0 -0.00054723394969197626 0.46676005618269939 0 -0.001052221165061246 0.48536631712071471 0 0.015655935202729829 0.47279530129319092 0 -0.001052221165061246 0.48536631712071471 0 0.015655935202729829 0.47279530129319092 0 0.01437902095145943 0.49947552315392951 0 0.015655935202729829 0.47279530129319092 0 0.01437902095145943 0.49947552315392951 0 0.0098077210910302737 0.43921130403008918 0 0.016716128659398949 0.45064330744464443 0 0.01777632211606887 0.42849131359609788 0 -0.0052827057786810254 0.43069219639650802 0 0.0098077210910302737 0.43921130403008918 0 0.0051866147120248028 0.45174374884484919 0 0.0098077210910302737 0.43921130403008918 0 0.0051866147120248028 0.45174374884484919 0 0.016716128659398949 0.45064330744464443 0 0.015655935202729829 0.47279530129319092 0 0.0051866147120248028 0.45174374884484919 0 0.015655935202729829 0.47279530129319092 0 0.0051866147120248028 0.45174374884484919 0 0.016716128659398949 0.45064330744464443 0 -0.00054723394969197626 0.46676005618269939 0 0.015655935202729829 0.47279530129319092 0 0.0051866147120248028 0.45174374884484919 0 0.015655935202729829 0.47279530129319092 0 0.016716128659398949 0.45064330744464443 0 0.015655935202729829 0.47279530129319092 0 0.023987842402680828 0.46423433360116001 0 0.016716128659398949 0.45064330744464443 0 0.023987842402680828 0.46423433360116001 0 0.028161155852698981 0.45247874812862787 0 0.016716128659398949 0.45064330744464443 0 0.023987842402680828 0.46423433360116001 0 0.028161155852698981 0.45247874812862787 0 0.038175432401479623 0.46120182189057141 0 0.016716128659398949 0.45064330744464443 0 0.01777632211606887 0.42849131359609788 0 0.028161155852698981 0.45247874812862787 0 0.02587186285020638 0.44009083425668749 0 0.036054512949729139 0.44622344345007608 0 0.028161155852698981 0.45247874812862787 0 0.016716128659398949 0.45064330744464443 0 0.02587186285020638 0.44009083425668749 0 0.016716128659398949 0.45064330744464443 0 0.02587186285020638 0.44009083425668749 0 0.01777632211606887 0.42849131359609788 0 0.036054512949729139 0.44622344345007608 0 0.038175432401479623 0.46120182189057141 0 0.048599498976414503 0.44193922754055781 0 0.02587186285020638 0.44009083425668749 0 0.036054512949729139 0.44622344345007608 0 0.037466339947393117 0.43363885587584933 0 0.036054512949729139 0.44622344345007608 0 0.048599498976414503 0.44193922754055781 0 0.037466339947393117 0.43363885587584933 0 0.028161155852698981 0.45247874812862787 0 0.036054512949729139 0.44622344345007608 0 0.038175432401479623 0.46120182189057141 0 0.064097324723420529 0.4648456269188308 0 0.056799601741266442 0.47864002737115913 0 0.038175432401479623 0.46120182189057141 0 0.064097324723420529 0.4648456269188308 0 0.038175432401479623 0.46120182189057141 0 0.061686043415868849 0.44922877092356689 0 0.038175432401479623 0.46120182189057141 0 0.048599498976414503 0.44193922754055781 0 0.061686043415868849 0.44922877092356689 0 0.048599498976414503 0.44193922754055781 0 0.061686043415868849 0.44922877092356689 0 0.061053491803744683 0.43139368598685601 0 0.061053491803744683 0.43139368598685601 0 0.060080189917441573 0.41651103129495443 0 0.046125333464130253 0.42792226756130047 0 0.048599498976414503 0.44193922754055781 0 0.061053491803744683 0.43139368598685601 0 0.046125333464130253 0.42792226756130047 0 0.060080189917441573 0.41651103129495443 0 0.046125333464130253 0.42792226756130047 0 0.052234607732921642 0.39950221197148972 0 0.046125333464130253 0.42792226756130047 0 0.052234607732921642 0.39950221197148972 0 0.060080189917441573 0.41651103129495443 0 0.052234607732921642 0.39950221197148972 0 0.068627421694469004 0.4035904612393284 0 0.038112366655082802 0.40929901971107568 0 0.037466339947393117 0.43363885587584933 0 0.038112366655082802 0.40929901971107568 0 0.046125333464130253 0.42792226756130047 0 0.052234607732921642 0.39950221197148972 0 0.038112366655082802 0.40929901971107568 0 0.037466339947393117 0.43363885587584933 0 0.029245612433218129 0.42375002047639138 0 0.038112366655082802 0.40929901971107568 0 0.046125333464130253 0.42792226756130047 0 0.037466339947393117 0.43363885587584933 0 0.048599498976414503 0.44193922754055781 0 0.046125333464130253 0.42792226756130047 0 0.037466339947393117 0.43363885587584933 0 0.037466339947393117 0.43363885587584933 0 0.027590034336721619 0.43149275605125648 0 0.029245612433218129 0.42375002047639138 0 0.02587186285020638 0.44009083425668749 0 0.027590034336721619 0.43149275605125648 0 0.01777632211606887 0.42849131359609788 0 0.02587186285020638 0.44009083425668749 0 0.037466339947393117 0.43363885587584933 0 0.027590034336721619 0.43149275605125648 0 0.027590034336721619 0.43149275605125648 0 0.01777632211606887 0.42849131359609788 0 0.029245612433218129 0.42375002047639138 0 0.01777632211606887 0.42849131359609788 0 0.029245612433218129 0.42375002047639138 0 0.023472495749296021 0.41434418295722741 0 0.038112366655082802 0.40929901971107568 0 0.029245612433218129 0.42375002047639138 0 0.023472495749296021 0.41434418295722741 0 0.038112366655082802 0.40929901971107568 0 0.023472495749296021 0.41434418295722741 0 0.027451596253749828 0.3965636295443915 0 0.023472495749296021 0.41434418295722741 0 0.01093466137855514 0.4133358899672479 0 0.01656852306443108 0.40561218522774878 0 0.01777632211606887 0.42849131359609788 0 0.023472495749296021 0.41434418295722741 0 0.0091104191888871262 0.42254537594120578 0 0.023472495749296021 0.41434418295722741 0 0.0091104191888871262 0.42254537594120578 0 0.023472495749296021 0.41434418295722741 0 0.01093466137855514 0.4133358899672479 0 0.0091104191888871262 0.42254537594120578 0 0.01093466137855514 0.4133358899672479 0 0.006082570973155732 0.40748354646665719 0 0.01656852306443108 0.40561218522774878 0 -0.00056070208299427145 0.41669415924340047 0 0.01093466137855514 0.4133358899672479 0 0.006082570973155732 0.40748354646665719 0 -0.00056070208299427145 0.41669415924340047 0 0.01093466137855514 0.4133358899672479 0 0.0091104191888871262 0.42254537594120578 0 -0.0052827057786810254 0.43069219639650802 0 0.0092765291324470277 0.43070465329062402 0 0.0091104191888871262 0.42254537594120578 0 -0.0052827057786810254 0.43069219639650802 0 -0.00056070208299427145 0.41669415924340047 0 0.0091104191888871262 0.42254537594120578 0 -0.0052827057786810254 0.43069219639650802 0 0.0091104191888871262 0.42254537594120578 0 -0.0052827057786810254 0.43069219639650802 0 0.0098077210910302737 0.43921130403008918 0 0.0092765291324470277 0.43070465329062402 0 0.0098077210910302737 0.43921130403008918 0 0.01777632211606887 0.42849131359609788 0 0.0092765291324470277 0.43070465329062402 0 0.01777632211606887 0.42849131359609788 0 0.0092765291324470277 0.43070465329062402 0 0.0091104191888871262 0.42254537594120578 0 -0.0012592731398407789 0.38926924851584688 0 0.01445674872800521 0.38347817486037439 0 0.012467467502573999 0.39552460631214681 0 -0.0012592731398407789 0.38926924851584688 0 0.01445674872800521 0.38347817486037439 0 0.0022016208263191542 0.37487773095411731 0 0.01445674872800521 0.38347817486037439 0 0.0022016208263191542 0.37487773095411731 0 0.014832313671166081 0.37034218927776141 0 -0.0012592731398407789 0.38926924851584688 0 0.001751226425469755 0.39891512208642832 0 0.012467467502573999 0.39552460631214681 0 -0.0076380311104497509 0.40288532747675682 0 0.006082570973155732 0.40748354646665719 0 0.001751226425469755 0.39891512208642832 0 0.006082570973155732 0.40748354646665719 0 0.001751226425469755 0.39891512208642832 0 0.012467467502573999 0.39552460631214681 0 0.006082570973155732 0.40748354646665719 0 0.012467467502573999 0.39552460631214681 0 0.01656852306443108 0.40561218522774878 0 0.023472495749296021 0.41434418295722741 0 0.01656852306443108 0.40561218522774878 0 0.027451596253749828 0.3965636295443915 0 0.01445674872800521 0.38347817486037439 0 0.012467467502573999 0.39552460631214681 0 0.027451596253749828 0.3965636295443915 0 0.012467467502573999 0.39552460631214681 0 0.01656852306443108 0.40561218522774878 0 0.027451596253749828 0.3965636295443915 0 0.027451596253749828 0.3965636295443915 0 0.02628693341788237 0.37758628847012388 0 0.038758393362772467 0.38495918354630221 0 0.01445674872800521 0.38347817486037439 0 0.027451596253749828 0.3965636295443915 0 0.02628693341788237 0.37758628847012388 0 0.01445674872800521 0.38347817486037439 0 0.02628693341788237 0.37758628847012388 0 0.014832313671166081 0.37034218927776141 0 0.038112366655082802 0.40929901971107568 0 0.038758393362772467 0.38495918354630221 0 0.052234607732921642 0.39950221197148972 0 0.038112366655082802 0.40929901971107568 0 0.038758393362772467 0.38495918354630221 0 0.038112366655082802 0.40929901971107568 0 0.027451596253749828 0.3965636295443915 0 0.038758393362772467 0.38495918354630221 0 0.052234607732921642 0.39950221197148972 0 0.066059736325524337 0.38728617407708121 0 0.068627421694469004 0.4035904612393284 0 0.038758393362772467 0.38495918354630221 0 0.052234607732921642 0.39950221197148972 0 0.058343882001713067 0.37108215638167868 0 0.052234607732921642 0.39950221197148972 0 0.058343882001713067 0.37108215638167868 0 0.052234607732921642 0.39950221197148972 0 0.066059736325524337 0.38728617407708121 0 0.058343882001713067 0.37108215638167868 0 0.066059736325524337 0.38728617407708121 0 0.078352576029653689 0.39168622917414292 0 0.078660311933750643 0.37119987576667851 0 0.066059736325524337 0.38728617407708121 0 0.078660311933750643 0.37119987576667851 0 0.058343882001713067 0.37108215638167868 0 0.092384725440017162 0.38638943832234129 0 0.078352576029653689 0.39168622917414292 0 0.078660311933750643 0.37119987576667851 0 0.092384725440017162 0.38638943832234129 0 0.086017530883827853 0.40448706080732522 0 0.078352576029653689 0.39168622917414292 0 0.066059736325524337 0.38728617407708121 0 0.078352576029653689 0.39168622917414292 0 0.068627421694469004 0.4035904612393284 0 0.086017530883827853 0.40448706080732522 0 0.078352576029653689 0.39168622917414292 0 0.068627421694469004 0.4035904612393284 0 0.086017530883827853 0.40448706080732522 0 0.068627421694469004 0.4035904612393284 0 0.074379081651587756 0.41877698418077042 0 0.060080189917441573 0.41651103129495443 0 0.068627421694469004 0.4035904612393284 0 0.074379081651587756 0.41877698418077042 0 0.061053491803744683 0.43139368598685601 0 0.074379081651587756 0.41877698418077042 0 0.078385588630658892 0.43453041977814583 0 0.061053491803744683 0.43139368598685601 0 0.060080189917441573 0.41651103129495443 0 0.074379081651587756 0.41877698418077042 0 0.074379081651587756 0.41877698418077042 0 0.078385588630658892 0.43453041977814583 0 0.095180316321774899 0.41953215873143002 0 0.078385588630658892 0.43453041977814583 0 0.095180316321774899 0.41953215873143002 0 0.099073729424092261 0.43416708990787062 0 0.086017530883827853 0.40448706080732522 0 0.074379081651587756 0.41877698418077042 0 0.095180316321774899 0.41953215873143002 0 0.086017530883827853 0.40448706080732522 0 0.095180316321774899 0.41953215873143002 0 0.10463529938414599 0.4028446697191479 0 0.095180316321774899 0.41953215873143002 0 0.1127063874622533 0.41324842338834977 0 0.10463529938414599 0.4028446697191479 0 0.095180316321774899 0.41953215873143002 0 0.1139301498233308 0.42702554980275631 0 0.1127063874622533 0.41324842338834977 0 0.095180316321774899 0.41953215873143002 0 0.099073729424092261 0.43416708990787062 0 0.1139301498233308 0.42702554980275631 0 0.111174885940482 0.44787847442397949 0 0.099073729424092261 0.43416708990787062 0 0.1139301498233308 0.42702554980275631 0 0.111174885940482 0.44787847442397949 0 0.1139301498233308 0.42702554980275631 0 0.12581458238117599 0.43558451542114701 0 0.1139301498233308 0.42702554980275631 0 0.12581458238117599 0.43558451542114701 0 0.1347633494099347 0.42456093513989779 0 0.1127063874622533 0.41324842338834977 0 0.12084623516827479 0.4028724230229937 0 0.10463529938414599 0.4028446697191479 0 0.1139301498233308 0.42702554980275631 0 0.1127063874622533 0.41324842338834977 0 0.12693079159237619 0.41356755043673088 0 0.1127063874622533 0.41324842338834977 0 0.12084623516827479 0.4028724230229937 0 0.12693079159237619 0.41356755043673088 0 0.12084623516827479 0.4028724230229937 0 0.1084401194737083 0.38247531005546848 0 0.10463529938414599 0.4028446697191479 0 0.12084623516827479 0.4028724230229937 0 0.1084401194737083 0.38247531005546848 0 0.12760868922718199 0.39497300920620049 0 0.12084623516827479 0.4028724230229937 0 0.1084401194737083 0.38247531005546848 0 0.1084401194737083 0.38247531005546848 0 0.12881436557845349 0.38480192854135092 0 0.12760868922718199 0.39497300920620049 0 0.1084401194737083 0.38247531005546848 0 0.1205101049768115 0.37459865494383021 0 0.12881436557845349 0.38480192854135092 0 0.092384725440017162 0.38638943832234129 0 0.1084401194737083 0.38247531005546848 0 0.098202514935016902 0.36564348441128469 0 0.092384725440017162 0.38638943832234129 0 0.1084401194737083 0.38247531005546848 0 0.10463529938414599 0.4028446697191479 0 0.092384725440017162 0.38638943832234129 0 0.086017530883827853 0.40448706080732522 0 0.10463529938414599 0.4028446697191479 0 0.1084401194737083 0.38247531005546848 0 0.10463529938414599 0.4028446697191479 0 0.10447805614653929 0.35313071325368428 0 0.098202514935016902 0.36564348441128469 0 0.087964910396324231 0.34881165876710168 0 0.10447805614653929 0.35313071325368428 0 0.087964910396324231 0.34881165876710168 0 0.10447805614653929 0.35313071325368428 0 0.099519430049570118 0.33467381241480909 0 0.087964910396324231 0.34881165876710168 0 0.10447805614653929 0.35313071325368428 0 0.098202514935016902 0.36564348441128469 0 0.1130670362201513 0.35770480077417188 0 0.1084401194737083 0.38247531005546848 0 0.098202514935016902 0.36564348441128469 0 0.1084401194737083 0.38247531005546848 0 0.098202514935016902 0.36564348441128469 0 0.1130670362201513 0.35770480077417188 0 0.1205101049768115 0.37459865494383021 0 0.1130670362201513 0.35770480077417188 0 0.12763192434187659 0.36588202031585071 0 0.1084401194737083 0.38247531005546848 0 0.1205101049768115 0.37459865494383021 0 0.1130670362201513 0.35770480077417188 0 0.1084401194737083 0.38247531005546848 0 0.1130670362201513 0.35770480077417188 0 0.10447805614653929 0.35313071325368428 0 0.1130670362201513 0.35770480077417188 0 0.1176939529665936 0.33293429149287512 0 0.1130670362201513 0.35770480077417188 0 0.1176939529665936 0.33293429149287512 0 0.1130670362201513 0.35770480077417188 0 0.1176939529665936 0.33293429149287512 0 0.12974583980004989 0.34021453573736099 0 0.1176939529665936 0.33293429149287512 0 0.10918138164236441 0.31598583178952522 0 0.12232086971303591 0.30816378221157842 0 0.1176939529665936 0.33293429149287512 0 0.12232086971303591 0.30816378221157842 0 0.1176939529665936 0.33293429149287512 0 0.10918138164236441 0.31598583178952522 0 0.099519430049570118 0.33467381241480909 0 0.10918138164236441 0.31598583178952522 0 0.095696383109489427 0.31846146073028669 0 0.099519430049570118 0.33467381241480909 0 0.10447805614653929 0.35313071325368428 0 0.1176939529665936 0.33293429149287512 0 0.099519430049570118 0.33467381241480909 0 0.099519430049570118 0.33467381241480909 0 0.075103790402318751 0.32766646522988879 0 0.087964910396324231 0.34881165876710168 0 0.075103790402318751 0.32766646522988879 0 0.087964910396324231 0.34881165876710168 0 0.095696383109489427 0.31846146073028669 0 0.075103790402318751 0.32766646522988879 0 0.08472897645723311 0.29986555526701048 0 0.095696383109489427 0.31846146073028669 0 0.099519430049570118 0.33467381241480909 0 0.075103790402318751 0.32766646522988879 0 0.075103790402318751 0.32766646522988879 0 0.068415825140639291 0.32422795221409839 0 0.062242670408311558 0.30652127169267701 0 0.075103790402318751 0.32766646522988879 0 0.062242670408311558 0.30652127169267701 0 0.068415825140639291 0.32422795221409839 0 0.064453156270504477 0.34266210079186782 0 0.059502212215842482 0.32670849982642258 0 0.068415825140639291 0.32422795221409839 0 0.064453156270504477 0.34266210079186782 0 0.075103790402318751 0.32766646522988879 0 0.064453156270504477 0.34266210079186782 0 0.087964910396324231 0.34881165876710168 0 0.075103790402318751 0.32766646522988879 0 0.068415825140639291 0.32422795221409839 0 0.064453156270504477 0.34266210079186782 0 0.064453156270504477 0.34266210079186782 0 0.072355565150573523 0.35843894792683129 0 0.058343882001713067 0.37108215638167868 0 0.064453156270504477 0.34266210079186782 0 0.087964910396324231 0.34881165876710168 0 0.064453156270504477 0.34266210079186782 0 0.072355565150573523 0.35843894792683129 0 0.087964910396324231 0.34881165876710168 0 0.098202514935016902 0.36564348441128469 0 0.087964910396324231 0.34881165876710168 0 0.098202514935016902 0.36564348441128469 0 0.087964910396324231 0.34881165876710168 0 0.078660311933750643 0.37119987576667851 0 0.072355565150573523 0.35843894792683129 0 0.087964910396324231 0.34881165876710168 0 0.078660311933750643 0.37119987576667851 0 0.092384725440017162 0.38638943832234129 0 0.098202514935016902 0.36564348441128469 0 0.078660311933750643 0.37119987576667851 0 0.072355565150573523 0.35843894792683129 0 0.078660311933750643 0.37119987576667851 0 0.058343882001713067 0.37108215638167868 0 0.064453156270504477 0.34266210079186782 0 0.058343882001713067 0.37108215638167868 0 0.064453156270504477 0.34266210079186782 0 0.039404420070462153 0.3606193473815289 0 0.040050446778153698 0.33627951121675559 0 0.064453156270504477 0.34266210079186782 0 0.058343882001713067 0.37108215638167868 0 0.039404420070462153 0.3606193473815289 0 0.039404420070462153 0.3606193473815289 0 0.040050446778153698 0.33627951121675559 0 0.039404420070462153 0.3606193473815289 0 0.026415305199116581 0.34039433529568058 0 0.040050446778153698 0.33627951121675559 0 0.038758393362772467 0.38495918354630221 0 0.039404420070462153 0.3606193473815289 0 0.038758393362772467 0.38495918354630221 0 0.058343882001713067 0.37108215638167868 0 0.039404420070462153 0.3606193473815289 0 0.02628693341788237 0.37758628847012388 0 0.038758393362772467 0.38495918354630221 0 0.039404420070462153 0.3606193473815289 0 0.02628693341788237 0.37758628847012388 0 0.019974427477922441 0.35582013569409582 0 0.02628693341788237 0.37758628847012388 0 0.039404420070462153 0.3606193473815289 0 0.019974427477922441 0.35582013569409582 0 0.02628693341788237 0.37758628847012388 0 0.019974427477922441 0.35582013569409582 0 0.014832313671166081 0.37034218927776141 0 0.039404420070462153 0.3606193473815289 0 0.019974427477922441 0.35582013569409582 0 0.026415305199116581 0.34039433529568058 0 0.019974427477922441 0.35582013569409582 0 0.0136619215379622 0.33405398291806759 0 -0.0018581631687612751 0.3552044043817652 0 0.0136619215379622 0.33405398291806759 0 -0.0018581631687612751 0.3552044043817652 0 0.019974427477922441 0.35582013569409582 0 0.0136619215379622 0.33405398291806759 0 -0.0018581631687612751 0.3552044043817652 0 0.019974427477922441 0.35582013569409582 0 0.014832313671166081 0.37034218927776141 0 -0.0018581631687612751 0.3552044043817652 0 0.0022016208263191542 0.37487773095411731 0 0.014832313671166081 0.37034218927776141 0 0.0079414334181218387 0.31432916688554641 0 0.01219435951576551 0.32899368206650981 0 0.016540927957094959 0.33013053789105767 0 -0.01046290093808098 0.32306761904393072 0 0.0011833167759787489 0.32212892083165617 0 0.01219435951576551 0.32899368206650981 0 -0.01046290093808098 0.32306761904393072 0 0.01219435951576551 0.32899368206650981 0 0.0079414334181218387 0.31432916688554641 0 0.01219435951576551 0.32899368206650981 0 -0.00031144100700618749 0.31417227031794248 0 0.0079414334181218387 0.31432916688554641 0 0.0011833167759787489 0.32212892083165617 0 0.0079414334181218387 0.31432916688554641 0 0.0011833167759787489 0.32212892083165617 0 0.01219435951576551 0.32899368206650981 0 -0.0094592222341694544 0.32477240676708169 0 0.002312440597944485 0.33608895260951682 0 0.01219435951576551 0.32899368206650981 0 -0.0018581631687612751 0.3552044043817652 0 0.002312440597944485 0.33608895260951682 0 0.0136619215379622 0.33405398291806759 0 0.002312440597944485 0.33608895260951682 0 0.0136619215379622 0.33405398291806759 0 0.01219435951576551 0.32899368206650981 0 0.0136619215379622 0.33405398291806759 0 0.016540927957094959 0.33013053789105767 0 0.0136619215379622 0.33405398291806759 0 0.01219435951576551 0.32899368206650981 0 0.01219435951576551 0.32899368206650981 0 0.016540927957094959 0.33013053789105767 0 0.0136619215379622 0.33405398291806759 0 0.01219435951576551 0.32899368206650981 0 0.016540927957094959 0.33013053789105767 0 0.016540927957094959 0.33013053789105767 0 0.026415305199116581 0.34039433529568058 0 0.040050446778153698 0.33627951121675559 0 0.016540927957094959 0.33013053789105767 0 0.040050446778153698 0.33627951121675559 0 0.019974427477922441 0.35582013569409582 0 0.0136619215379622 0.33405398291806759 0 0.026415305199116581 0.34039433529568058 0 0.0136619215379622 0.33405398291806759 0 0.016540927957094959 0.33013053789105767 0 0.026415305199116581 0.34039433529568058 0 0.0079414334181218387 0.31432916688554641 0 0.016540927957094959 0.33013053789105767 0 0.032961239185697107 0.30775330802326051 0 0.016540927957094959 0.33013053789105767 0 0.032961239185697107 0.30775330802326051 0 0.016540927957094959 0.33013053789105767 0 0.040308757239835742 0.32654735271278579 0 0.032961239185697107 0.30775330802326051 0 0.040308757239835742 0.32654735271278579 0 0.043881177370588248 0.31517752164340918 0 0.032961239185697107 0.30775330802326051 0 0.040308757239835742 0.32654735271278579 0 0.043881177370588248 0.31517752164340918 0 0.053865809022049412 0.31937115896837892 0 0.016540927957094959 0.33013053789105767 0 0.040308757239835742 0.32654735271278579 0 0.040050446778153698 0.33627951121675559 0 0.040308757239835742 0.32654735271278579 0 0.040050446778153698 0.33627951121675559 0 0.040308757239835742 0.32654735271278579 0 0.040050446778153698 0.33627951121675559 0 0.051636076305277188 0.33031372470324211 0 0.064453156270504477 0.34266210079186782 0 0.051636076305277188 0.33031372470324211 0 0.059502212215842482 0.32670849982642258 0 0.064453156270504477 0.34266210079186782 0 0.040050446778153698 0.33627951121675559 0 0.064453156270504477 0.34266210079186782 0 0.040050446778153698 0.33627951121675559 0 0.051636076305277188 0.33031372470324211 0 0.068415825140639291 0.32422795221409839 0 0.053865809022049412 0.31937115896837892 0 0.062242670408311558 0.30652127169267701 0 0.043881177370588248 0.31517752164340918 0 0.053865809022049412 0.31937115896837892 0 0.048388904034770731 0.3070382668692116 0 0.040308757239835742 0.32654735271278579 0 0.051636076305277188 0.33031372470324211 0 0.053865809022049412 0.31937115896837892 0 0.068415825140639291 0.32422795221409839 0 0.053865809022049412 0.31937115896837892 0 0.059502212215842482 0.32670849982642258 0 0.051636076305277188 0.33031372470324211 0 0.053865809022049412 0.31937115896837892 0 0.059502212215842482 0.32670849982642258 0 0.062242670408311558 0.30652127169267701 0 0.048388904034770731 0.3070382668692116 0 0.049381550414302859 0.28537607815546612 0 0.053865809022049412 0.31937115896837892 0 0.062242670408311558 0.30652127169267701 0 0.048388904034770731 0.3070382668692116 0 0.062242670408311558 0.30652127169267701 0 0.049381550414302859 0.28537607815546612 0 0.062242670408311558 0.30652127169267701 0 0.049381550414302859 0.28537607815546612 0 0.06994167638231738 0.28717607458928313 0 0.049381550414302859 0.28537607815546612 0 0.032961239185697107 0.30775330802326051 0 0.049381550414302859 0.28537607815546612 0 0.032961239185697107 0.30775330802326051 0 0.028839847800519781 0.28995615011682241 0 0.049381550414302859 0.28537607815546612 0 0.028839847800519781 0.28995615011682241 0 0.02805818628156017 0.28005270364183421 0 0.048388904034770731 0.3070382668692116 0 0.049381550414302859 0.28537607815546612 0 0.032961239185697107 0.30775330802326051 0 0.043881177370588248 0.31517752164340918 0 0.048388904034770731 0.3070382668692116 0 0.032961239185697107 0.30775330802326051 0 0.0079414334181218387 0.31432916688554641 0 0.032961239185697107 0.30775330802326051 0 0.01664302798518371 0.2958862000612118 0 0.032961239185697107 0.30775330802326051 0 0.028839847800519781 0.28995615011682241 0 0.01664302798518371 0.2958862000612118 0 0.028839847800519781 0.28995615011682241 0 0.0164440827235392 0.28118111050916439 0 0.02805818628156017 0.28005270364183421 0 0.028839847800519781 0.28995615011682241 0 0.01664302798518371 0.2958862000612118 0 0.0164440827235392 0.28118111050916439 0 0.01664302798518371 0.2958862000612118 0 0.0036218862169032778 0.28727876264082469 0 0.003688507320478407 0.29966465170458301 0 0.01664302798518371 0.2958862000612118 0 0.0036218862169032778 0.28727876264082469 0 0.0164440827235392 0.28118111050916439 0 0.0079414334181218387 0.31432916688554641 0 0.01664302798518371 0.2958862000612118 0 0.003688507320478407 0.29966465170458301 0 -0.00031144100700618749 0.31417227031794248 0 0.0079414334181218387 0.31432916688554641 0 0.003688507320478407 0.29966465170458301 0 0.0079414334181218387 0.31432916688554641 0 0.003688507320478407 0.29966465170458301 0 0.01385583597743691 0.26000412871736622 0 0.0053505978239543383 0.2623879654846023 0 0.014372815305107711 0.26780257104636063 0 0.01385583597743691 0.26000412871736622 0 0.0086394546720443104 0.2545630395502107 0 0.0053505978239543383 0.2623879654846023 0 0.01385583597743691 0.26000412871736622 0 0.0086394546720443104 0.2545630395502107 0 0.01700132615621144 0.253078387367763 0 0.0070739759662896444 0.24486698688876851 0 0.0086394546720443104 0.2545630395502107 0 0.01700132615621144 0.253078387367763 0 -0.001929197643986852 0.25249673890194402 0 0.0086394546720443104 0.2545630395502107 0 0.0053505978239543383 0.2623879654846023 0 -0.001929197643986852 0.25249673890194402 0 0.0070739759662896444 0.24486698688876851 0 0.0086394546720443104 0.2545630395502107 0 -0.006782571146791443 0.26609624414014699 0 0.0053505978239543383 0.2623879654846023 0 0.0039862574867759772 0.27390840501826019 0 0.0036218862169032778 0.28727876264082469 0 0.0039862574867759772 0.27390840501826019 0 0.0164440827235392 0.28118111050916439 0 0.0039862574867759772 0.27390840501826019 0 0.014372815305107711 0.26780257104636063 0 0.0164440827235392 0.28118111050916439 0 0.0053505978239543383 0.2623879654846023 0 0.0039862574867759772 0.27390840501826019 0 0.014372815305107711 0.26780257104636063 0 0.014372815305107711 0.26780257104636063 0 0.022731467198907611 0.2723254786871766 0 0.023914985929866739 0.26218868013789431 0 0.022731467198907611 0.2723254786871766 0 0.0164440827235392 0.28118111050916439 0 0.02805818628156017 0.28005270364183421 0 0.014372815305107711 0.26780257104636063 0 0.022731467198907611 0.2723254786871766 0 0.0164440827235392 0.28118111050916439 0 0.022731467198907611 0.2723254786871766 0 0.02805818628156017 0.28005270364183421 0 0.031047987313156 0.27089557472399611 0 0.022731467198907611 0.2723254786871766 0 0.031047987313156 0.27089557472399611 0 0.023914985929866739 0.26218868013789431 0 0.031047987313156 0.27089557472399611 0 0.023914985929866739 0.26218868013789431 0 0.035669420315747637 0.26283172394086202 0 0.023914985929866739 0.26218868013789431 0 0.031831492748056169 0.25652171973917132 0 0.035669420315747637 0.26283172394086202 0 0.01385583597743691 0.26000412871736622 0 0.023914985929866739 0.26218868013789431 0 0.01700132615621144 0.253078387367763 0 0.01385583597743691 0.26000412871736622 0 0.014372815305107711 0.26780257104636063 0 0.023914985929866739 0.26218868013789431 0 0.023914985929866739 0.26218868013789431 0 0.01700132615621144 0.253078387367763 0 0.025117681763208961 0.25312125345048753 0 0.019057379342124099 0.24446671892160871 0 0.01700132615621144 0.253078387367763 0 0.025117681763208961 0.25312125345048753 0 0.028416373495514648 0.24618422452601171 0 0.025117681763208961 0.25312125345048753 0 0.031831492748056169 0.25652171973917132 0 0.023914985929866739 0.26218868013789431 0 0.025117681763208961 0.25312125345048753 0 0.031831492748056169 0.25652171973917132 0 0.046123344565263173 0.24459086981639511 0 0.035669420315747637 0.26283172394086202 0 0.057356196092491603 0.25310031756978602 0 0.028416373495514648 0.24618422452601171 0 0.0361164618009715 0.24972346849328561 0 0.031831492748056169 0.25652171973917132 0 0.046123344565263173 0.24459086981639511 0 0.0361164618009715 0.24972346849328561 0 0.035669420315747637 0.26283172394086202 0 0.0361164618009715 0.24972346849328561 0 0.031831492748056169 0.25652171973917132 0 0.035669420315747637 0.26283172394086202 0 0.046123344565263173 0.24459086981639511 0 0.035669420315747637 0.26283172394086202 0 0.031831492748056169 0.25652171973917132 0 0.035669420315747637 0.26283172394086202 0 0.049381550414302859 0.28537607815546612 0 0.02805818628156017 0.28005270364183421 0 0.031047987313156 0.27089557472399611 0 0.049381550414302859 0.28537607815546612 0 0.031047987313156 0.27089557472399611 0 0.035669420315747637 0.26283172394086202 0 0.049381550414302859 0.28537607815546612 0 0.035669420315747637 0.26283172394086202 0 0.031047987313156 0.27089557472399611 0 0.035669420315747637 0.26283172394086202 0 0.049381550414302859 0.28537607815546612 0 0.061844128078521993 0.26839235834314829 0 0.049381550414302859 0.28537607815546612 0 0.061844128078521993 0.26839235834314829 0 0.06994167638231738 0.28717607458928313 0 0.049381550414302859 0.28537607815546612 0 0.035669420315747637 0.26283172394086202 0 0.061844128078521993 0.26839235834314829 0 0.035669420315747637 0.26283172394086202 0 0.061844128078521993 0.26839235834314829 0 0.057356196092491603 0.25310031756978602 0 0.061844128078521993 0.26839235834314829 0 0.057356196092491603 0.25310031756978602 0 0.074306705742743784 0.25140863853083262 0 0.061844128078521993 0.26839235834314829 0 0.074306705742743784 0.25140863853083262 0 0.091511056553215883 0.27572510948811457 0 0.061844128078521993 0.26839235834314829 0 0.074306705742743784 0.25140863853083262 0 0.074306705742743784 0.25140863853083262 0 0.091511056553215883 0.27572510948811457 0 0.093832982325318254 0.26016098392317599 0 0.074306705742743784 0.25140863853083262 0 0.091511056553215883 0.27572510948811457 0 0.089170556236420659 0.24744925712057469 0 0.074306705742743784 0.25140863853083262 0 0.093832982325318254 0.26016098392317599 0 0.061844128078521993 0.26839235834314829 0 0.091511056553215883 0.27572510948811457 0 0.06994167638231738 0.28717607458928313 0 0.075103790402318751 0.32766646522988879 0 0.062242670408311558 0.30652127169267701 0 0.08472897645723311 0.29986555526701048 0 0.062242670408311558 0.30652127169267701 0 0.06994167638231738 0.28717607458928313 0 0.08472897645723311 0.29986555526701048 0 0.091511056553215883 0.27572510948811457 0 0.06994167638231738 0.28717607458928313 0 0.08472897645723311 0.29986555526701048 0 0.091511056553215883 0.27572510948811457 0 0.1087154073636884 0.30004158044539642 0 0.091511056553215883 0.27572510948811457 0 0.08472897645723311 0.29986555526701048 0 0.1087154073636884 0.30004158044539642 0 0.091511056553215883 0.27572510948811457 0 0.10727958178184439 0.28244123756662609 0 0.1087154073636884 0.30004158044539642 0 0.095696383109489427 0.31846146073028669 0 0.08472897645723311 0.29986555526701048 0 0.1087154073636884 0.30004158044539642 0 0.10918138164236441 0.31598583178952522 0 0.095696383109489427 0.31846146073028669 0 0.1087154073636884 0.30004158044539642 0 0.1087154073636884 0.30004158044539642 0 0.12232086971303591 0.30816378221157842 0 0.11671361279439491 0.29056654206792282 0 0.10918138164236441 0.31598583178952522 0 0.1087154073636884 0.30004158044539642 0 0.12232086971303591 0.30816378221157842 0 0.12232086971303591 0.30816378221157842 0 0.11671361279439491 0.29056654206792282 0 0.12694778645947821 0.28339327293028171 0 0.10727958178184439 0.28244123756662609 0 0.1087154073636884 0.30004158044539642 0 0.11671361279439491 0.29056654206792282 0 0.12232086971303591 0.30816378221157842 0 0.12694778645947821 0.28339327293028171 0 0.10727958178184439 0.28244123756662609 0 0.11671361279439491 0.29056654206792282 0 0.1177216667190614 0.27853458490720429 0 0.11671361279439491 0.29056654206792282 0 0.1177216667190614 0.27853458490720429 0 0.12694778645947821 0.28339327293028171 0 0.1177216667190614 0.27853458490720429 0 0.1232546068507976 0.26896233434811567 0 0.12694778645947821 0.28339327293028171 0 0.10727958178184439 0.28244123756662609 0 0.1177216667190614 0.27853458490720429 0 0.10980412489464229 0.27391859576201588 0 0.1177216667190614 0.27853458490720429 0 0.10980412489464229 0.27391859576201588 0 0.11623237128677 0.26922317492575509 0 0.10980412489464229 0.27391859576201588 0 0.11623237128677 0.26922317492575509 0 0.10689194517933839 0.26630617017158459 0 0.1177216667190614 0.27853458490720429 0 0.11623237128677 0.26922317492575509 0 0.1232546068507976 0.26896233434811567 0 0.1111034096258936 0.24621298264265809 0 0.11623237128677 0.26922317492575509 0 0.1232137546478884 0.25477962304982538 0 0.1111034096258936 0.24621298264265809 0 0.11623237128677 0.26922317492575509 0 0.10689194517933839 0.26630617017158459 0 0.11623237128677 0.26922317492575509 0 0.1232546068507976 0.26896233434811567 0 0.1232137546478884 0.25477962304982538 0 0.1111034096258936 0.24621298264265809 0 0.11623237128677 0.26922317492575509 0 0.1003621976042226 0.24679151286957099 0 0.093832982325318254 0.26016098392317599 0 0.10689194517933839 0.26630617017158459 0 0.1111034096258936 0.24621298264265809 0 0.1003621976042226 0.24679151286957099 0 0.10689194517933839 0.26630617017158459 0 0.1003621976042226 0.24679151286957099 0 0.10689194517933839 0.26630617017158459 0 0.089170556236420659 0.24744925712057469 0 0.1003621976042226 0.24679151286957099 0 0.093832982325318254 0.26016098392317599 0 0.091511056553215883 0.27572510948811457 0 0.10727958178184439 0.28244123756662609 0 0.1008777706090644 0.27242170925991632 0 0.091511056553215883 0.27572510948811457 0 0.093832982325318254 0.26016098392317599 0 0.1008777706090644 0.27242170925991632 0 0.093832982325318254 0.26016098392317599 0 0.1008777706090644 0.27242170925991632 0 0.10689194517933839 0.26630617017158459 0 0.10727958178184439 0.28244123756662609 0 0.10980412489464229 0.27391859576201588 0 0.1008777706090644 0.27242170925991632 0 0.10980412489464229 0.27391859576201588 0 0.1008777706090644 0.27242170925991632 0 0.10689194517933839 0.26630617017158459 0 0.1410576855902782 0.26298165120216699 0 0.16450261275174641 0.27375819776182669 0 0.1410576855902782 0.26298165120216699 0 0.1415246231243025 0.28371217799897908 0 0.15649196408171481 0.28823115538835309 0 0.15510015736462759 0.26032775948284231 0 0.1410576855902782 0.26298165120216699 0 0.16450261275174641 0.27375819776182669 0 0.1410576855902782 0.26298165120216699 0 0.15649196408171481 0.28823115538835309 0 0.16450261275174641 0.27375819776182669 0 0.1410576855902782 0.26298165120216699 0 0.15649196408171481 0.28823115538835309 0 0.14863120117614381 0.24864578259806411 0 0.15510015736462759 0.26032775948284231 0 0.1587190639708872 0.25496607513995811 0 0.14863120117614381 0.24864578259806411 0 0.15510015736462759 0.26032775948284231 0 0.1410576855902782 0.26298165120216699 0 0.1410576855902782 0.26298165120216699 0 0.13157470320592329 0.25862276364898551 0 0.14863120117614381 0.24864578259806411 0 0.13162051547302811 0.24754303730689889 0 0.1410576855902782 0.26298165120216699 0 0.13162051547302811 0.24754303730689889 0 0.1410576855902782 0.26298165120216699 0 0.13157470320592329 0.25862276364898551 0 0.13162051547302811 0.24754303730689889 0 0.1410576855902782 0.26298165120216699 0 0.1232137546478884 0.25477962304982538 0 0.13157470320592329 0.25862276364898551 0 0.13162051547302811 0.24754303730689889 0 0.1232137546478884 0.25477962304982538 0 0.13157470320592329 0.25862276364898551 0 0.1232546068507976 0.26896233434811567 0 0.1232137546478884 0.25477962304982538 0 0.13157470320592329 0.25862276364898551 0 0.13157470320592329 0.25862276364898551 0 0.12694778645947821 0.28339327293028171 0 0.1410576855902782 0.26298165120216699 0 0.13157470320592329 0.25862276364898551 0 0.12694778645947821 0.28339327293028171 0 0.1232546068507976 0.26896233434811567 0 0.13157470320592329 0.25862276364898551 0 0.12694778645947821 0.28339327293028171 0 0.1410576855902782 0.26298165120216699 0 0.12694778645947821 0.28339327293028171 0 0.1415246231243025 0.28371217799897908 0 0.12694778645947821 0.28339327293028171 0 0.14160105636573819 0.30024263247511501 0 0.1415246231243025 0.28371217799897908 0 0.12232086971303591 0.30816378221157842 0 0.12694778645947821 0.28339327293028171 0 0.14160105636573819 0.30024263247511501 0 0.12232086971303591 0.30816378221157842 0 0.14160105636573819 0.30024263247511501 0 0.13530190868676431 0.32197135992560272 0 0.14160105636573819 0.30024263247511501 0 0.1554285632369577 0.30382330335007912 0 0.15152291285096539 0.3183527036398533 0 0.14160105636573819 0.30024263247511501 0 0.1554285632369577 0.30382330335007912 0 0.15649196408171481 0.28823115538835309 0 0.14160105636573819 0.30024263247511501 0 0.1415246231243025 0.28371217799897908 0 0.15649196408171481 0.28823115538835309 0 0.15649196408171481 0.28823115538835309 0 0.16952752852246211 0.30439524918130351 0 0.17235800801597889 0.28755947557023059 0 0.15649196408171481 0.28823115538835309 0 0.17235800801597889 0.28755947557023059 0 0.16450261275174641 0.27375819776182669 0 0.1554285632369577 0.30382330335007912 0 0.15649196408171481 0.28823115538835309 0 0.16952752852246211 0.30439524918130351 0 0.1554285632369577 0.30382330335007912 0 0.16952752852246211 0.30439524918130351 0 0.16596553202552719 0.31679345887357052 0 0.16952752852246211 0.30439524918130351 0 0.17235800801597889 0.28755947557023059 0 0.1914357063753582 0.30452563591776971 0 0.16952752852246211 0.30439524918130351 0 0.1914357063753582 0.30452563591776971 0 0.18334611501726189 0.31989526646264532 0 0.17235800801597889 0.28755947557023059 0 0.187947539913215 0.28453474432148529 0 0.1914357063753582 0.30452563591776971 0 0.17235800801597889 0.28755947557023059 0 0.16450261275174641 0.27375819776182669 0 0.187947539913215 0.28453474432148529 0 0.16450261275174641 0.27375819776182669 0 0.187947539913215 0.28453474432148529 0 0.1813390079709182 0.26779091606937511 0 0.16450261275174641 0.27375819776182669 0 0.187947539913215 0.28453474432148529 0 0.1813390079709182 0.26779091606937511 0 0.16450261275174641 0.27375819776182669 0 0.16550301046351809 0.26114223058969499 0 0.14863120117614381 0.24864578259806411 0 0.16564188687925929 0.24974852788923091 0 0.1587190639708872 0.25496607513995811 0 0.16564188687925929 0.24974852788923091 0 0.1587190639708872 0.25496607513995811 0 0.16550301046351809 0.26114223058969499 0 0.15510015736462759 0.26032775948284231 0 0.1587190639708872 0.25496607513995811 0 0.16550301046351809 0.26114223058969499 0 0.15510015736462759 0.26032775948284231 0 0.16450261275174641 0.27375819776182669 0 0.16550301046351809 0.26114223058969499 0 0.16564188687925929 0.24974852788923091 0 0.16550301046351809 0.26114223058969499 0 0.16564188687925929 0.24974852788923091 0 0.16550301046351809 0.26114223058969499 0 0.1809260299556962 0.25073934725425939 0 0.1813390079709182 0.26779091606937511 0 0.1809260299556962 0.25073934725425939 0 0.19621017303213309 0.25173016661928799 0 0.16564188687925929 0.24974852788923091 0 0.1809260299556962 0.25073934725425939 0 0.1813390079709182 0.26779091606937511 0 0.16550301046351809 0.26114223058969499 0 0.1809260299556962 0.25073934725425939 0 0.1813390079709182 0.26779091606937511 0 0.19621017303213309 0.25173016661928799 0 0.19842481760027669 0.26899818385252772 0 0.1809260299556962 0.25073934725425939 0 0.19621017303213309 0.25173016661928799 0 0.19621017303213309 0.25173016661928799 0 0.19842481760027669 0.26899818385252772 0 0.2073774026308422 0.25580268532727751 0 0.1813390079709182 0.26779091606937511 0 0.19842481760027669 0.26899818385252772 0 0.187947539913215 0.28453474432148529 0 0.19842481760027669 0.26899818385252772 0 0.21583111001290969 0.26932992799579109 0 0.2113924670746837 0.29531129088114388 0 0.19842481760027669 0.26899818385252772 0 0.21583111001290969 0.26932992799579109 0 0.2073774026308422 0.25580268532727751 0 0.21583111001290969 0.26932992799579109 0 0.2073774026308422 0.25580268532727751 0 0.21925853352151431 0.25159648248408772 0 0.21583111001290969 0.26932992799579109 0 0.22787890001526401 0.26316977676526998 0 0.21925853352151431 0.25159648248408772 0 0.22787890001526401 0.26316977676526998 0 0.21925853352151431 0.25159648248408772 0 0.2371930846548288 0.25302587335583621 0 0.21583111001290969 0.26932992799579109 0 0.22787890001526401 0.26316977676526998 0 0.22774183438851439 0.27992538809349332 0 0.22787890001526401 0.26316977676526998 0 0.22774183438851439 0.27992538809349332 0 0.2400297057305916 0.26987079876185838 0 0.2400297057305916 0.26987079876185838 0 0.25399566878284502 0.26074565356189189 0 0.25488008865455442 0.27870182215812211 0 0.22774183438851439 0.27992538809349332 0 0.2400297057305916 0.26987079876185838 0 0.24201714875905131 0.28702077599381037 0 0.2400297057305916 0.26987079876185838 0 0.24201714875905131 0.28702077599381037 0 0.25488008865455442 0.27870182215812211 0 0.2371930846548288 0.25302587335583621 0 0.25399566878284502 0.26074565356189189 0 0.25469112926727061 0.24735262204999481 0 0.2400297057305916 0.26987079876185838 0 0.2371930846548288 0.25302587335583621 0 0.25399566878284502 0.26074565356189189 0 0.22787890001526401 0.26316977676526998 0 0.2400297057305916 0.26987079876185838 0 0.2371930846548288 0.25302587335583621 0 0.23483739423615249 0.30608783744080259 0 0.25828232139762097 0.31686438400046169 0 0.25030669222164897 0.3017866639727268 0 0.23483739423615249 0.30608783744080259 0 0.24201714875905131 0.28702077599381037 0 0.25030669222164897 0.3017866639727268 0 0.23483739423615249 0.30608783744080259 0 0.25828232139762097 0.31686438400046169 0 0.24201714875905131 0.28702077599381037 0 0.25030669222164897 0.3017866639727268 0 0.23483739423615249 0.30608783744080259 0 0.24201714875905131 0.28702077599381037 0 0.2292728614488555 0.29245213953669702 0 0.22774183438851439 0.27992538809349332 0 0.2292728614488555 0.29245213953669702 0 0.2113924670746837 0.29531129088114388 0 0.22774183438851439 0.27992538809349332 0 0.24201714875905131 0.28702077599381037 0 0.2292728614488555 0.29245213953669702 0 0.23483739423615249 0.30608783744080259 0 0.2292728614488555 0.29245213953669702 0 0.2113924670746837 0.29531129088114388 0 0.23483739423615249 0.30608783744080259 0 0.2113924670746837 0.29531129088114388 0 0.23483739423615249 0.30608783744080259 0 0.2113924670746837 0.29531129088114388 0 0.2149561442222693 0.31483702987298001 0 0.2113924670746837 0.29531129088114388 0 0.1914357063753582 0.30452563591776971 0 0.2149561442222693 0.31483702987298001 0 0.21583111001290969 0.26932992799579109 0 0.22774183438851439 0.27992538809349332 0 0.2113924670746837 0.29531129088114388 0 0.19842481760027669 0.26899818385252772 0 0.2113924670746837 0.29531129088114388 0 0.187947539913215 0.28453474432148529 0 0.2113924670746837 0.29531129088114388 0 0.187947539913215 0.28453474432148529 0 0.2113924670746837 0.29531129088114388 0 0.187947539913215 0.28453474432148529 0 0.1914357063753582 0.30452563591776971 0 0.1914357063753582 0.30452563591776971 0 0.20052214186163689 0.32514639513459992 0 0.2149561442222693 0.31483702987298001 0 0.1914357063753582 0.30452563591776971 0 0.20052214186163689 0.32514639513459992 0 0.18334611501726189 0.31989526646264532 0 0.20052214186163689 0.32514639513459992 0 0.19285237421355311 0.34138723608303978 0 0.18334611501726189 0.31989526646264532 0 0.19285237421355311 0.34138723608303978 0 0.21727742459120819 0.33736074502450603 0 0.19285237421355311 0.34138723608303978 0 0.21727742459120819 0.33736074502450603 0 0.20917671850630579 0.34826638639035989 0 0.20052214186163689 0.32514639513459992 0 0.19285237421355311 0.34138723608303978 0 0.21727742459120819 0.33736074502450603 0 0.20052214186163689 0.32514639513459992 0 0.21727742459120819 0.33736074502450603 0 0.2149561442222693 0.31483702987298001 0 0.23483739423615249 0.30608783744080259 0 0.2149561442222693 0.31483702987298001 0 0.2298574406061889 0.32115673772680881 0 0.21727742459120819 0.33736074502450603 0 0.2149561442222693 0.31483702987298001 0 0.2298574406061889 0.32115673772680881 0 0.21727742459120819 0.33736074502450603 0 0.23156264962097961 0.34340682042008192 0 0.24170247496886341 0.33333425396597199 0 0.21727742459120819 0.33736074502450603 0 0.2298574406061889 0.32115673772680881 0 0.24170247496886341 0.33333425396597199 0 0.21727742459120819 0.33736074502450603 0 0.24170247496886341 0.33333425396597199 0 0.21727742459120819 0.33736074502450603 0 0.23156264962097961 0.34340682042008192 0 0.2218225336819819 0.34981958701669869 0 0.23156264962097961 0.34340682042008192 0 0.24170247496886341 0.33333425396597199 0 0.23156264962097961 0.34340682042008192 0 0.24170247496886341 0.33333425396597199 0 0.24566457739029471 0.34357471280060048 0 0.24170247496886341 0.33333425396597199 0 0.24566457739029471 0.34357471280060048 0 0.24882522992865611 0.33728654714727518 0 0.24170247496886341 0.33333425396597199 0 0.24622102445129401 0.33258936710566928 0 0.24170247496886341 0.33333425396597199 0 0.24882522992865611 0.33728654714727518 0 0.24622102445129401 0.33258936710566928 0 0.24882522992865611 0.33728654714727518 0 0.24622102445129401 0.33258936710566928 0 0.2536313303106485 0.33467873756621669 0 0.24170247496886341 0.33333425396597199 0 0.25828232139762097 0.31686438400046169 0 0.24170247496886341 0.33333425396597199 0 0.24622102445129401 0.33258936710566928 0 0.25828232139762097 0.31686438400046169 0 0.24170247496886341 0.33333425396597199 0 0.2410970030477895 0.31878336095531962 0 0.25828232139762097 0.31686438400046169 0 0.23483739423615249 0.30608783744080259 0 0.2410970030477895 0.31878336095531962 0 0.25828232139762097 0.31686438400046169 0 0.23483739423615249 0.30608783744080259 0 0.2298574406061889 0.32115673772680881 0 0.2410970030477895 0.31878336095531962 0 0.2298574406061889 0.32115673772680881 0 0.24170247496886341 0.33333425396597199 0 0.2410970030477895 0.31878336095531962 0 0.24546206847462301 0.36438275394215741 0 0.23206138149565611 0.37409198760985601 0 0.25223887686111818 0.37750785406457837 0 0.24546206847462301 0.36438275394215741 0 0.23244793130022581 0.35867414449465751 0 0.23206138149565611 0.37409198760985601 0 0.24546206847462301 0.36438275394215741 0 0.24088888734160729 0.35237248352937373 0 0.25181430083604889 0.35338203205652841 0 0.24566457739029471 0.34357471280060048 0 0.24088888734160729 0.35237248352937373 0 0.25181430083604889 0.35338203205652841 0 0.23156264962097961 0.34340682042008192 0 0.24088888734160729 0.35237248352937373 0 0.23244793130022581 0.35867414449465751 0 0.23156264962097961 0.34340682042008192 0 0.24566457739029471 0.34357471280060048 0 0.24088888734160729 0.35237248352937373 0 0.24546206847462301 0.36438275394215741 0 0.24088888734160729 0.35237248352937373 0 0.23244793130022581 0.35867414449465751 0 0.23156264962097961 0.34340682042008192 0 0.23244793130022581 0.35867414449465751 0 0.2218225336819819 0.34981958701669869 0 0.23244793130022581 0.35867414449465751 0 0.2218225336819819 0.34981958701669869 0 0.21864794439118981 0.36138983875388803 0 0.23206138149565611 0.37409198760985601 0 0.2122193945134026 0.37465247833536047 0 0.21864794439118981 0.36138983875388803 0 0.23244793130022581 0.35867414449465751 0 0.23206138149565611 0.37409198760985601 0 0.21864794439118981 0.36138983875388803 0 0.2122193945134026 0.37465247833536047 0 0.21864794439118981 0.36138983875388803 0 0.20476953787160129 0.36174116702821302 0 0.21727742459120819 0.33736074502450603 0 0.2218225336819819 0.34981958701669869 0 0.20917671850630579 0.34826638639035989 0 0.2218225336819819 0.34981958701669869 0 0.21864794439118981 0.36138983875388803 0 0.20917671850630579 0.34826638639035989 0 0.21864794439118981 0.36138983875388803 0 0.20476953787160129 0.36174116702821302 0 0.20917671850630579 0.34826638639035989 0 0.20476953787160129 0.36174116702821302 0 0.20917671850630579 0.34826638639035989 0 0.19573614769115499 0.35024262241814569 0 0.19285237421355311 0.34138723608303978 0 0.20917671850630579 0.34826638639035989 0 0.19573614769115499 0.35024262241814569 0 0.19285237421355311 0.34138723608303978 0 0.19573614769115499 0.35024262241814569 0 0.17958785514339359 0.35757996918888529 0 0.2122193945134026 0.37465247833536047 0 0.20476953787160129 0.36174116702821302 0 0.19098457909878491 0.37438556613100271 0 0.19573614769115499 0.35024262241814569 0 0.19098457909878491 0.37438556613100271 0 0.19573614769115499 0.35024262241814569 0 0.19098457909878491 0.37438556613100271 0 0.17958785514339359 0.35757996918888529 0 0.20476953787160129 0.36174116702821302 0 0.19573614769115499 0.35024262241814569 0 0.19098457909878491 0.37438556613100271 0 0.19098457909878491 0.37438556613100271 0 0.16939049476252421 0.37188576852536759 0 0.17958785514339359 0.35757996918888529 0 0.16939049476252421 0.37188576852536759 0 0.15897613001777161 0.36157991077434581 0 0.17958785514339359 0.35757996918888529 0 0.16939049476252421 0.37188576852536759 0 0.15897613001777161 0.36157991077434581 0 0.14952493619964169 0.37774609440711482 0 0.15897613001777161 0.36157991077434581 0 0.15704843230868759 0.35317831443446462 0 0.16842732383589809 0.34541372714157481 0 0.15897613001777161 0.36157991077434581 0 0.16842732383589809 0.34541372714157481 0 0.17958785514339359 0.35757996918888529 0 0.15897613001777161 0.36157991077434581 0 0.16842732383589809 0.34541372714157481 0 0.1610362419162151 0.34663215350313059 0 0.15704843230868759 0.35317831443446462 0 0.16842732383589809 0.34541372714157481 0 0.1610362419162151 0.34663215350313059 0 0.16842732383589809 0.34541372714157481 0 0.16103079657952499 0.33995035812837099 0 0.1610362419162151 0.34663215350313059 0 0.16842732383589809 0.34541372714157481 0 0.19285237421355311 0.34138723608303978 0 0.16842732383589809 0.34541372714157481 0 0.17958785514339359 0.35757996918888529 0 0.19285237421355311 0.34138723608303978 0 0.16842732383589809 0.34541372714157481 0 0.19285237421355311 0.34138723608303978 0 0.16842732383589809 0.34541372714157481 0 0.18334611501726189 0.31989526646264532 0 0.16842732383589809 0.34541372714157481 0 0.18334611501726189 0.31989526646264532 0 0.16952752852246211 0.30439524918130351 0 0.18334611501726189 0.31989526646264532 0 0.16596553202552719 0.31679345887357052 0 0.18334611501726189 0.31989526646264532 0 0.16596553202552719 0.31679345887357052 0 0.1622523677059399 0.33098258892034832 0 0.16596553202552719 0.31679345887357052 0 0.1622523677059399 0.33098258892034832 0 0.15152291285096539 0.3183527036398533 0 0.1554285632369577 0.30382330335007912 0 0.16596553202552719 0.31679345887357052 0 0.15152291285096539 0.3183527036398533 0 0.16842732383589809 0.34541372714157481 0 0.18334611501726189 0.31989526646264532 0 0.1622523677059399 0.33098258892034832 0 0.1622523677059399 0.33098258892034832 0 0.16103079657952499 0.33995035812837099 0 0.1533561394310495 0.34141884507073827 0 0.16842732383589809 0.34541372714157481 0 0.1622523677059399 0.33098258892034832 0 0.16103079657952499 0.33995035812837099 0 0.1610362419162151 0.34663215350313059 0 0.16103079657952499 0.33995035812837099 0 0.1533561394310495 0.34141884507073827 0 0.1533561394310495 0.34141884507073827 0 0.14670066884681079 0.33494835279454888 0 0.149475180920877 0.34985096936039461 0 0.1622523677059399 0.33098258892034832 0 0.1533561394310495 0.34141884507073827 0 0.14670066884681079 0.33494835279454888 0 0.14670066884681079 0.33494835279454888 0 0.15152291285096539 0.3183527036398533 0 0.13530190868676431 0.32197135992560272 0 0.14160105636573819 0.30024263247511501 0 0.15152291285096539 0.3183527036398533 0 0.13530190868676431 0.32197135992560272 0 0.1622523677059399 0.33098258892034832 0 0.14670066884681079 0.33494835279454888 0 0.15152291285096539 0.3183527036398533 0 0.1176939529665936 0.33293429149287512 0 0.12232086971303591 0.30816378221157842 0 0.13530190868676431 0.32197135992560272 0 0.1176939529665936 0.33293429149287512 0 0.13530190868676431 0.32197135992560272 0 0.12974583980004989 0.34021453573736099 0 0.14670066884681079 0.33494835279454888 0 0.13530190868676431 0.32197135992560272 0 0.12974583980004989 0.34021453573736099 0 0.14670066884681079 0.33494835279454888 0 0.12974583980004989 0.34021453573736099 0 0.13596563227992939 0.35351387369960641 0 0.1130670362201513 0.35770480077417188 0 0.13596563227992939 0.35351387369960641 0 0.12763192434187659 0.36588202031585071 0 0.1130670362201513 0.35770480077417188 0 0.12974583980004989 0.34021453573736099 0 0.13596563227992939 0.35351387369960641 0 0.12763192434187659 0.36588202031585071 0 0.13746012479787331 0.36639926710766729 0 0.13308830268679511 0.37597089529514077 0 0.1205101049768115 0.37459865494383021 0 0.12763192434187659 0.36588202031585071 0 0.13308830268679511 0.37597089529514077 0 0.13746012479787331 0.36639926710766729 0 0.14328747982809081 0.37421473483486267 0 0.13308830268679511 0.37597089529514077 0 0.13596563227992939 0.35351387369960641 0 0.13746012479787331 0.36639926710766729 0 0.14732728485267449 0.3624148113928759 0 0.13596563227992939 0.35351387369960641 0 0.12763192434187659 0.36588202031585071 0 0.13746012479787331 0.36639926710766729 0 0.15897613001777161 0.36157991077434581 0 0.14952493619964169 0.37774609440711482 0 0.15897613001777161 0.36157991077434581 0 0.14732728485267449 0.3624148113928759 0 0.14952493619964169 0.37774609440711482 0 0.13746012479787331 0.36639926710766729 0 0.14732728485267449 0.3624148113928759 0 0.14328747982809081 0.37421473483486267 0 0.14732728485267449 0.3624148113928759 0 0.14328747982809081 0.37421473483486267 0 0.14952493619964169 0.37774609440711482 0 0.14670066884681079 0.33494835279454888 0 0.13596563227992939 0.35351387369960641 0 0.149475180920877 0.34985096936039461 0 0.15897613001777161 0.36157991077434581 0 0.15704843230868759 0.35317831443446462 0 0.14732728485267449 0.3624148113928759 0 0.15704843230868759 0.35317831443446462 0 0.14732728485267449 0.3624148113928759 0 0.149475180920877 0.34985096936039461 0 0.1610362419162151 0.34663215350313059 0 0.15704843230868759 0.35317831443446462 0 0.149475180920877 0.34985096936039461 0 0.1610362419162151 0.34663215350313059 0 0.1533561394310495 0.34141884507073827 0 0.149475180920877 0.34985096936039461 0 0.13596563227992939 0.35351387369960641 0 0.14732728485267449 0.3624148113928759 0 0.149475180920877 0.34985096936039461 0 0.15044407407775329 0.39667646592546069 0 0.14952493619964169 0.37774609440711482 0 0.13548304578510789 0.40176462406177232 0 0.15044407407775329 0.39667646592546069 0 0.13548304578510789 0.40176462406177232 0 0.14385558190535561 0.41193334720461522 0 0.15044407407775329 0.39667646592546069 0 0.14385558190535561 0.41193334720461522 0 0.1572013833131311 0.40807442409328237 0 0.15044407407775329 0.39667646592546069 0 0.14952493619964169 0.37774609440711482 0 0.16787897335302709 0.3881373021254883 0 0.14952493619964169 0.37774609440711482 0 0.13548304578510789 0.40176462406177232 0 0.14328747982809081 0.37421473483486267 0 0.14952493619964169 0.37774609440711482 0 0.13308830268679511 0.37597089529514077 0 0.14328747982809081 0.37421473483486267 0 0.14952493619964169 0.37774609440711482 0 0.14952493619964169 0.37774609440711482 0 0.12881436557845349 0.38480192854135092 0 0.13548304578510789 0.40176462406177232 0 0.14952493619964169 0.37774609440711482 0 0.13308830268679511 0.37597089529514077 0 0.12881436557845349 0.38480192854135092 0 0.1205101049768115 0.37459865494383021 0 0.13308830268679511 0.37597089529514077 0 0.12881436557845349 0.38480192854135092 0 0.12881436557845349 0.38480192854135092 0 0.12760868922718199 0.39497300920620049 0 0.13548304578510789 0.40176462406177232 0 0.12084623516827479 0.4028724230229937 0 0.12760868922718199 0.39497300920620049 0 0.13548304578510789 0.40176462406177232 0 0.12084623516827479 0.4028724230229937 0 0.13548304578510789 0.40176462406177232 0 0.12693079159237619 0.41356755043673088 0 0.13548304578510789 0.40176462406177232 0 0.12693079159237619 0.41356755043673088 0 0.14385558190535561 0.41193334720461522 0 0.1139301498233308 0.42702554980275631 0 0.12693079159237619 0.41356755043673088 0 0.1347633494099347 0.42456093513989779 0 0.12693079159237619 0.41356755043673088 0 0.1347633494099347 0.42456093513989779 0 0.14385558190535561 0.41193334720461522 0 0.12581458238117599 0.43558451542114701 0 0.1347633494099347 0.42456093513989779 0 0.14408138095432169 0.44103631186414188 0 0.1347633494099347 0.42456093513989779 0 0.1561811452275168 0.42516931775454819 0 0.14408138095432169 0.44103631186414188 0 0.1561811452275168 0.42516931775454819 0 0.1635583473125006 0.4410329550276722 0 0.14408138095432169 0.44103631186414188 0 0.1347633494099347 0.42456093513989779 0 0.1561811452275168 0.42516931775454819 0 0.14385558190535561 0.41193334720461522 0 0.1561811452275168 0.42516931775454819 0 0.14385558190535561 0.41193334720461522 0 0.1572013833131311 0.40807442409328237 0 0.1561811452275168 0.42516931775454819 0 0.1814011624546821 0.42307935726914558 0 0.17254442835069611 0.40873026564062159 0 0.1561811452275168 0.42516931775454819 0 0.1572013833131311 0.40807442409328237 0 0.17254442835069611 0.40873026564062159 0 0.1561811452275168 0.42516931775454819 0 0.1814011624546821 0.42307935726914558 0 0.1635583473125006 0.4410329550276722 0 0.1814011624546821 0.42307935726914558 0 0.1765693144029494 0.44763020469443132 0 0.1635583473125006 0.4410329550276722 0 0.1814011624546821 0.42307935726914558 0 0.1884343592946249 0.43798852850804071 0 0.1765693144029494 0.44763020469443132 0 0.1814011624546821 0.42307935726914558 0 0.1765693144029494 0.44763020469443132 0 0.1814011624546821 0.42307935726914558 0 0.17254442835069611 0.40873026564062159 0 0.18623301050641389 0.39852850984385968 0 0.1814011624546821 0.42307935726914558 0 0.18623301050641389 0.39852850984385968 0 0.18623301050641389 0.39852850984385968 0 0.16787897335302709 0.3881373021254883 0 0.17254442835069611 0.40873026564062159 0 0.18623301050641389 0.39852850984385968 0 0.16787897335302709 0.3881373021254883 0 0.1572013833131311 0.40807442409328237 0 0.17254442835069611 0.40873026564062159 0 0.16787897335302709 0.3881373021254883 0 0.15044407407775329 0.39667646592546069 0 0.1572013833131311 0.40807442409328237 0 0.16787897335302709 0.3881373021254883 0 0.14952493619964169 0.37774609440711482 0 0.16787897335302709 0.3881373021254883 0 0.16939049476252421 0.37188576852536759 0 0.14952493619964169 0.37774609440711482 0 0.16787897335302709 0.3881373021254883 0 0.19098457909878491 0.37438556613100271 0 0.18623301050641389 0.39852850984385968 0 0.16787897335302709 0.3881373021254883 0 0.19098457909878491 0.37438556613100271 0 0.16939049476252421 0.37188576852536759 0 0.16787897335302709 0.3881373021254883 0 0.19098457909878491 0.37438556613100271 0 0.18623301050641389 0.39852850984385968 0 0.2122193945134026 0.37465247833536047 0 0.19098457909878491 0.37438556613100271 0 0.203123840938054 0.3888341547217728 0 0.19098457909878491 0.37438556613100271 0 0.18623301050641389 0.39852850984385968 0 0.203123840938054 0.3888341547217728 0 0.18623301050641389 0.39852850984385968 0 0.203123840938054 0.3888341547217728 0 0.20537023212937189 0.40936312041890022 0 0.18623301050641389 0.39852850984385968 0 0.20537023212937189 0.40936312041890022 0 0.203123840938054 0.3888341547217728 0 0.22372908328512961 0.38747215576743083 0 0.20537023212937189 0.40936312041890022 0 0.2122193945134026 0.37465247833536047 0 0.203123840938054 0.3888341547217728 0 0.22372908328512961 0.38747215576743083 0 0.23206138149565611 0.37409198760985601 0 0.2122193945134026 0.37465247833536047 0 0.22372908328512961 0.38747215576743083 0 0.23206138149565611 0.37409198760985601 0 0.22372908328512961 0.38747215576743083 0 0.24260146648673531 0.39479574479861163 0 0.22372908328512961 0.38747215576743083 0 0.22745736027980831 0.40543321475488697 0 0.24260146648673531 0.39479574479861163 0 0.22372908328512961 0.38747215576743083 0 0.22745736027980831 0.40543321475488697 0 0.20537023212937189 0.40936312041890022 0 0.22745736027980831 0.40543321475488697 0 0.24260146648673531 0.39479574479861163 0 0.24107856574547351 0.41533732179555338 0 0.23206138149565611 0.37409198760985601 0 0.24260146648673531 0.39479574479861163 0 0.25223887686111818 0.37750785406457837 0 0.23447749575838869 0.43101575796981911 0 0.24364467537528961 0.43103234156897829 0 0.22741591616094281 0.44080065621479531 0 0.24364467537528961 0.43103234156897829 0 0.22741591616094281 0.44080065621479531 0 0.25092690418392649 0.43634294896236231 0 0.24364467537528961 0.43103234156897829 0 0.24107856574547351 0.41533732179555338 0 0.25184460097933559 0.43104717538756387 0 0.24364467537528961 0.43103234156897829 0 0.24107856574547351 0.41533732179555338 0 0.22450745375233111 0.42019773099393859 0 0.23447749575838869 0.43101575796981911 0 0.24364467537528961 0.43103234156897829 0 0.24364467537528961 0.43103234156897829 0 0.25184460097933559 0.43104717538756387 0 0.24364467537528961 0.43103234156897829 0 0.25249850641679078 0.43604497157984801 0 0.24364467537528961 0.43103234156897829 0 0.25184460097933559 0.43104717538756387 0 0.25249850641679078 0.43604497157984801 0 0.24364467537528961 0.43103234156897829 0 0.25092690418392649 0.43634294896236231 0 0.25249850641679078 0.43604497157984801 0 0.24107856574547351 0.41533732179555338 0 0.25520197612629758 0.411672694978785 0 0.25184460097933559 0.43104717538756387 0 0.24260146648673531 0.39479574479861163 0 0.24107856574547351 0.41533732179555338 0 0.25520197612629758 0.411672694978785 0 0.22745736027980831 0.40543321475488697 0 0.22450745375233111 0.42019773099393859 0 0.20537023212937189 0.40936312041890022 0 0.22745736027980831 0.40543321475488697 0 0.24107856574547351 0.41533732179555338 0 0.22450745375233111 0.42019773099393859 0 0.23447749575838869 0.43101575796981911 0 0.24364467537528961 0.43103234156897829 0 0.22450745375233111 0.42019773099393859 0 0.24364467537528961 0.43103234156897829 0 0.22450745375233111 0.42019773099393859 0 0.22450745375233111 0.42019773099393859 0 0.2240032996372342 0.43089727951843831 0 0.21361512324094181 0.43224212623363051 0 0.23447749575838869 0.43101575796981911 0 0.22450745375233111 0.42019773099393859 0 0.2240032996372342 0.43089727951843831 0 0.23447749575838869 0.43101575796981911 0 0.2240032996372342 0.43089727951843831 0 0.22741591616094281 0.44080065621479531 0 0.2240032996372342 0.43089727951843831 0 0.21361512324094181 0.43224212623363051 0 0.22741591616094281 0.44080065621479531 0 0.21361512324094181 0.43224212623363051 0 0.20537023212937189 0.40936312041890022 0 0.19940781203637739 0.42620021081745568 0 0.21361512324094181 0.43224212623363051 0 0.19940781203637739 0.42620021081745568 0 0.2039049281379588 0.4452583634672268 0 0.22450745375233111 0.42019773099393859 0 0.20537023212937189 0.40936312041890022 0 0.22450745375233111 0.42019773099393859 0 0.21361512324094181 0.43224212623363051 0 0.20537023212937189 0.40936312041890022 0 0.1814011624546821 0.42307935726914558 0 0.20537023212937189 0.40936312041890022 0 0.19940781203637739 0.42620021081745568 0 0.1814011624546821 0.42307935726914558 0 0.18623301050641389 0.39852850984385968 0 0.20537023212937189 0.40936312041890022 0 0.1814011624546821 0.42307935726914558 0 0.19940781203637739 0.42620021081745568 0 0.1884343592946249 0.43798852850804071 0 0.19940781203637739 0.42620021081745568 0 0.1884343592946249 0.43798852850804071 0 0.2039049281379588 0.4452583634672268 0 0.1884343592946249 0.43798852850804071 0 0.2039049281379588 0.4452583634672268 0 0.1803939401149747 0.4497160707196583 0 0.19501877181059921 0.45784145798690001 0 0.2039049281379588 0.4452583634672268 0 0.1803939401149747 0.4497160707196583 0 0.2039049281379588 0.4452583634672268 0 0.1803939401149747 0.4497160707196583 0 0.19501877181059921 0.45784145798690001 0 0.1978276357097806 0.47038004391505978 0 0.18261067064624961 0.46347054608941313 0 0.19501877181059921 0.45784145798690001 0 0.21035668444403241 0.46038226574314173 0 0.2039049281379588 0.4452583634672268 0 0.19501877181059921 0.45784145798690001 0 0.21035668444403241 0.46038226574314173 0 0.1978276357097806 0.47038004391505978 0 0.21035668444403241 0.46038226574314173 0 0.22196881814815339 0.474207908837669 0 0.1978276357097806 0.47038004391505978 0 0.2039049281379588 0.4452583634672268 0 0.22741591616094281 0.44080065621479531 0 0.21035668444403241 0.46038226574314173 0 0.2039049281379588 0.4452583634672268 0 0.22741591616094281 0.44080065621479531 0 0.21361512324094181 0.43224212623363051 0 0.2039049281379588 0.4452583634672268 0 0.22741591616094281 0.44080065621479531 0 0.21035668444403241 0.46038226574314173 0 0.22741591616094281 0.44080065621479531 0 0.2281168862034679 0.45784043840904498 0 0.22741591616094281 0.44080065621479531 0 0.2281168862034679 0.45784043840904498 0 0.23776440703460081 0.44976418296539872 0 0.21035668444403241 0.46038226574314173 0 0.2281168862034679 0.45784043840904498 0 0.22196881814815339 0.474207908837669 0 0.2281168862034679 0.45784043840904498 0 0.24611723795052981 0.46409819826656612 0 0.22196881814815339 0.474207908837669 0 0.2281168862034679 0.45784043840904498 0 0.24611723795052981 0.46409819826656612 0 0.23776440703460081 0.44976418296539872 0 0.24611723795052981 0.46409819826656612 0 0.25092690418392649 0.43634294896236231 0 0.22741591616094281 0.44080065621479531 0 0.25092690418392649 0.43634294896236231 0 0.22741591616094281 0.44080065621479531 0 0.23776440703460081 0.44976418296539872 0 0.25092690418392649 0.43634294896236231 0 0.24611723795052981 0.46409819826656612 0 0.23776440703460081 0.44976418296539872 0 0.25092690418392649 0.43634294896236231 0 0.24130757171713721 0.49185344757077049 0 0.24650170812152331 0.5 0 0.21748323454540119 0.5 0 0.24130757171713721 0.49185344757077049 0 0.24650170812152331 0.5 0 0.26051913939495219 0.48464270054171998 0 0.24611723795052981 0.46409819826656612 0 0.24130757171713721 0.49185344757077049 0 0.22196881814815339 0.474207908837669 0 0.24611723795052981 0.46409819826656612 0 0.24130757171713721 0.49185344757077049 0 0.26051913939495219 0.48464270054171998 0 0.24611723795052981 0.46409819826656612 0 0.24130757171713721 0.49185344757077049 0 0.24130757171713721 0.49185344757077049 0 0.22404401316344669 0.48823904153515851 0 0.21748323454540119 0.5 0 0.24130757171713721 0.49185344757077049 0 0.22196881814815339 0.474207908837669 0 0.22404401316344669 0.48823904153515851 0 0.2048367018488495 0.48652992493782449 0 0.21748323454540119 0.5 0 0.188464760969279 0.5 0 0.22404401316344669 0.48823904153515851 0 0.2048367018488495 0.48652992493782449 0 0.21748323454540119 0.5 0 0.22196881814815339 0.474207908837669 0 0.22404401316344669 0.48823904153515851 0 0.2048367018488495 0.48652992493782449 0 0.22196881814815339 0.474207908837669 0 0.2048367018488495 0.48652992493782449 0 0.1978276357097806 0.47038004391505978 0 0.2048367018488495 0.48652992493782449 0 0.1978276357097806 0.47038004391505978 0 0.1809471012948238 0.4851991026201718 0 0.2048367018488495 0.48652992493782449 0 0.188464760969279 0.5 0 0.1809471012948238 0.4851991026201718 0 0.188464760969279 0.5 0 0.1809471012948238 0.4851991026201718 0 0.16690561829948411 0.49673189954500291 0 0.1809471012948238 0.4851991026201718 0 0.16690561829948411 0.49673189954500291 0 0.17173746635121681 0.47218105211971712 0 0.16690561829948411 0.49673189954500291 0 0.17173746635121681 0.47218105211971712 0 0.16690561829948411 0.49673189954500291 0 0.17173746635121681 0.47218105211971712 0 0.15470851890430981 0.48553049373325269 0 0.188464760969279 0.5 0 0.16690561829948411 0.49673189954500291 0 0.1594462873931568 0.5 0 0.16690561829948411 0.49673189954500291 0 0.1594462873931568 0.5 0 0.15470851890430981 0.48553049373325269 0 0.17173746635121681 0.47218105211971712 0 0.15740286745276211 0.46724641707472198 0 0.15470851890430981 0.48553049373325269 0 0.1978276357097806 0.47038004391505978 0 0.1809471012948238 0.4851991026201718 0 0.18261067064624961 0.46347054608941313 0 0.1809471012948238 0.4851991026201718 0 0.17173746635121681 0.47218105211971712 0 0.18261067064624961 0.46347054608941313 0 0.17173746635121681 0.47218105211971712 0 0.1765693144029494 0.44763020469443132 0 0.17173746635121681 0.47218105211971712 0 0.18261067064624961 0.46347054608941313 0 0.1765693144029494 0.44763020469443132 0 0.18261067064624961 0.46347054608941313 0 0.1803939401149747 0.4497160707196583 0 0.1765693144029494 0.44763020469443132 0 0.19501877181059921 0.45784145798690001 0 0.18261067064624961 0.46347054608941313 0 0.1803939401149747 0.4497160707196583 0 0.1884343592946249 0.43798852850804071 0 0.1803939401149747 0.4497160707196583 0 0.1765693144029494 0.44763020469443132 0 0.1765693144029494 0.44763020469443132 0 0.1635583473125006 0.4410329550276722 0 0.1654371882087291 0.45615961783251591 0 0.1635583473125006 0.4410329550276722 0 0.1654371882087291 0.45615961783251591 0 0.15551871745558091 0.45384624444178301 0 0.17173746635121681 0.47218105211971712 0 0.1654371882087291 0.45615961783251591 0 0.15740286745276211 0.46724641707472198 0 0.17173746635121681 0.47218105211971712 0 0.1765693144029494 0.44763020469443132 0 0.1654371882087291 0.45615961783251591 0 0.1654371882087291 0.45615961783251591 0 0.15740286745276211 0.46724641707472198 0 0.15551871745558091 0.45384624444178301 0 0.15740286745276211 0.46724641707472198 0 0.14259155261400111 0.45939484671744152 0 0.13993183204356829 0.47816237785582022 0 0.15740286745276211 0.46724641707472198 0 0.15551871745558091 0.45384624444178301 0 0.14259155261400111 0.45939484671744152 0 0.1635583473125006 0.4410329550276722 0 0.15551871745558091 0.45384624444178301 0 0.14408138095432169 0.44103631186414188 0 0.15551871745558091 0.45384624444178301 0 0.14259155261400111 0.45939484671744152 0 0.14408138095432169 0.44103631186414188 0 0.12581458238117599 0.43558451542114701 0 0.14408138095432169 0.44103631186414188 0 0.1307920793393513 0.44899231966976122 0 0.14259155261400111 0.45939484671744152 0 0.14408138095432169 0.44103631186414188 0 0.1307920793393513 0.44899231966976122 0 0.14259155261400111 0.45939484671744152 0 0.1264519596290487 0.46600733397067817 0 0.13993183204356829 0.47816237785582022 0 0.14259155261400111 0.45939484671744152 0 0.1307920793393513 0.44899231966976122 0 0.1264519596290487 0.46600733397067817 0 0.1174862751349369 0.48299076978920769 0 0.1264519596290487 0.46600733397067817 0 0.13993183204356829 0.47816237785582022 0 0.1174862751349369 0.48299076978920769 0 0.13993183204356829 0.47816237785582022 0 0.13042781381703469 0.5 0 0.13993183204356829 0.47816237785582022 0 0.13042781381703469 0.5 0 0.15470851890430981 0.48553049373325269 0 0.1594462873931568 0.5 0 0.13042781381703469 0.5 0 0.15470851890430981 0.48553049373325269 0 0.15740286745276211 0.46724641707472198 0 0.13993183204356829 0.47816237785582022 0 0.15470851890430981 0.48553049373325269 0 0.34406334019035573 0.48138993548232589 0 0.36336743938769273 0.46446500356666559 0 0.34406334019035573 0.48138993548232589 0 0.36302555917851992 0.5 0 0.33385710001822849 0.5 0 0.34406334019035573 0.48138993548232589 0 0.36302555917851992 0.5 0 0.37231271511160657 0.48183561470949499 0 0.34406334019035573 0.48138993548232589 0 0.37231271511160657 0.48183561470949499 0 0.36336743938769273 0.46446500356666559 0 0.37231271511160657 0.48183561470949499 0 0.36336743938769273 0.46446500356666559 0 0.38139011217877611 0.46554983394391802 0 0.36336743938769273 0.46446500356666559 0 0.38267153858502978 0.44754007165100518 0 0.36093901280877527 0.4458329203651944 0 0.38229372058655747 0.43229115045649208 0 0.36336743938769273 0.46446500356666559 0 0.36093901280877527 0.4458329203651944 0 0.38267153858502978 0.44754007165100518 0 0.36093901280877527 0.4458329203651944 0 0.34035917950317962 0.44303347685907141 0 0.34891640266930468 0.4312227800900239 0 0.36093901280877527 0.4458329203651944 0 0.33958430503099313 0.4593746902738966 0 0.34035917950317962 0.44303347685907141 0 0.36093901280877527 0.4458329203651944 0 0.33958430503099313 0.4593746902738966 0 0.36336743938769273 0.46446500356666559 0 0.36093901280877527 0.4458329203651944 0 0.33958430503099313 0.4593746902738966 0 0.34406334019035573 0.48138993548232589 0 0.36336743938769273 0.46446500356666559 0 0.33958430503099313 0.4593746902738966 0 0.33958430503099313 0.4593746902738966 0 0.31822959725321082 0.47291646018259881 0 0.33958430503099313 0.4593746902738966 0 0.32687766020540981 0.44755661304954869 0 0.3215312626592956 0.45998413224013818 0 0.34035917950317962 0.44303347685907141 0 0.32687766020540981 0.44755661304954869 0 0.32547851680141499 0.43118038051669288 0 0.33958430503099313 0.4593746902738966 0 0.34035917950317962 0.44303347685907141 0 0.32687766020540981 0.44755661304954869 0 0.32687766020540981 0.44755661304954869 0 0.31908273917124008 0.44001272556169629 0 0.32547851680141499 0.43118038051669288 0 0.32687766020540981 0.44755661304954869 0 0.3183672438638035 0.44646599080147648 0 0.31908273917124008 0.44001272556169629 0 0.32687766020540981 0.44755661304954869 0 0.31850387730580509 0.45249251870555052 0 0.3183672438638035 0.44646599080147648 0 0.31850387730580509 0.45249251870555052 0 0.31261904507714522 0.44948368507170039 0 0.3183672438638035 0.44646599080147648 0 0.31261904507714522 0.44948368507170039 0 0.3183672438638035 0.44646599080147648 0 0.31320937201370441 0.44275346896966428 0 0.3183672438638035 0.44646599080147648 0 0.31320937201370441 0.44275346896966428 0 0.31908273917124008 0.44001272556169629 0 0.31320937201370441 0.44275346896966428 0 0.31908273917124008 0.44001272556169629 0 0.31324466556825681 0.43678633578690912 0 0.33958430503099313 0.4593746902738966 0 0.3215312626592956 0.45998413224013818 0 0.31822959725321082 0.47291646018259881 0 0.32687766020540981 0.44755661304954869 0 0.31850387730580509 0.45249251870555052 0 0.3215312626592956 0.45998413224013818 0 0.31850387730580509 0.45249251870555052 0 0.31261904507714522 0.44948368507170039 0 0.31003712363194619 0.45891028706644382 0 0.31850387730580509 0.45249251870555052 0 0.3215312626592956 0.45998413224013818 0 0.31003712363194619 0.45891028706644382 0 0.3215312626592956 0.45998413224013818 0 0.31185130582221959 0.46964778398207302 0 0.31003712363194619 0.45891028706644382 0 0.3215312626592956 0.45998413224013818 0 0.31822959725321082 0.47291646018259881 0 0.31185130582221959 0.46964778398207302 0 0.34406334019035573 0.48138993548232589 0 0.31822959725321082 0.47291646018259881 0 0.31941054549979159 0.48923632723851451 0 0.34406334019035573 0.48138993548232589 0 0.33958430503099313 0.4593746902738966 0 0.31822959725321082 0.47291646018259881 0 0.34406334019035573 0.48138993548232589 0 0.33385710001822849 0.5 0 0.31941054549979159 0.48923632723851451 0 0.33385710001822849 0.5 0 0.31941054549979159 0.48923632723851451 0 0.30468864085793701 0.5 0 0.31941054549979159 0.48923632723851451 0 0.30468864085793701 0.5 0 0.29687488947542862 0.48645823009130112 0 0.31185130582221959 0.46964778398207302 0 0.29272999176814729 0.47282173874392658 0 0.29687488947542862 0.48645823009130112 0 0.31822959725321082 0.47291646018259881 0 0.29687488947542862 0.48645823009130112 0 0.31822959725321082 0.47291646018259881 0 0.31941054549979159 0.48923632723851451 0 0.29687488947542862 0.48645823009130112 0 0.31822959725321082 0.47291646018259881 0 0.31185130582221959 0.46964778398207302 0 0.29687488947542862 0.48645823009130112 0 0.29272999176814729 0.47282173874392658 0 0.29687488947542862 0.48645823009130112 0 0.27975995482745353 0.48230536330754392 0 0.29272999176814729 0.47282173874392658 0 0.27975995482745353 0.48230536330754392 0 0.2731555718010934 0.4676041471607687 0 0.29687488947542862 0.48645823009130112 0 0.27552018169764553 0.50000000000000189 0 0.30468864085793701 0.5 0 0.29687488947542862 0.48645823009130112 0 0.27552018169764553 0.50000000000000189 0 0.29687488947542862 0.48645823009130112 0 0.27552018169764553 0.50000000000000189 0 0.27975995482745353 0.48230536330754392 0 0.27552018169764553 0.50000000000000189 0 0.27975995482745353 0.48230536330754392 0 0.26051913939495219 0.48464270054171998 0 0.27975995482745353 0.48230536330754392 0 0.26051913939495219 0.48464270054171998 0 0.2731555718010934 0.4676041471607687 0 0.24611723795052981 0.46409819826656612 0 0.26051913939495219 0.48464270054171998 0 0.2731555718010934 0.4676041471607687 0 0.24650170812152331 0.5 0 0.27552018169764553 0.50000000000000189 0 0.26051913939495219 0.48464270054171998 0 0.24611723795052981 0.46409819826656612 0 0.2575188823944155 0.45120750920064362 0 0.25092690418392649 0.43634294896236231 0 0.27228277288526842 0.44724590904725392 0 0.25249850641679078 0.43604497157984801 0 0.2575188823944155 0.45120750920064362 0 0.27228277288526842 0.44724590904725392 0 0.25249850641679078 0.43604497157984801 0 0.2575188823944155 0.45120750920064362 0 0.25092690418392649 0.43634294896236231 0 0.25249850641679078 0.43604497157984801 0 0.24611723795052981 0.46409819826656612 0 0.2575188823944155 0.45120750920064362 0 0.2731555718010934 0.4676041471607687 0 0.2731555718010934 0.4676041471607687 0 0.27228277288526842 0.44724590904725392 0 0.29206703935374401 0.4584468465146635 0 0.2575188823944155 0.45120750920064362 0 0.2731555718010934 0.4676041471607687 0 0.27228277288526842 0.44724590904725392 0 0.27228277288526842 0.44724590904725392 0 0.27860274506563543 0.43109558137003079 0 0.25249850641679078 0.43604497157984801 0 0.27228277288526842 0.44724590904725392 0 0.29051069650435052 0.4384536317036668 0 0.27860274506563543 0.43109558137003079 0 0.27228277288526842 0.44724590904725392 0 0.29206703935374401 0.4584468465146635 0 0.29051069650435052 0.4384536317036668 0 0.29206703935374401 0.4584468465146635 0 0.29931248417204809 0.4456173049304667 0 0.27228277288526842 0.44724590904725392 0 0.29051069650435052 0.4384536317036668 0 0.29206703935374401 0.4584468465146635 0 0.29272999176814729 0.47282173874392658 0 0.2731555718010934 0.4676041471607687 0 0.29206703935374401 0.4584468465146635 0 0.31185130582221959 0.46964778398207302 0 0.29206703935374401 0.4584468465146635 0 0.31185130582221959 0.46964778398207302 0 0.29272999176814729 0.47282173874392658 0 0.29206703935374401 0.4584468465146635 0 0.29206703935374401 0.4584468465146635 0 0.31003712363194619 0.45891028706644382 0 0.30444721470855218 0.45167876596002388 0 0.31185130582221959 0.46964778398207302 0 0.29206703935374401 0.4584468465146635 0 0.31003712363194619 0.45891028706644382 0 0.31261904507714522 0.44948368507170039 0 0.31003712363194619 0.45891028706644382 0 0.30444721470855218 0.45167876596002388 0 0.29051069650435052 0.4384536317036668 0 0.30083677019091259 0.43840782967700198 0 0.29931248417204809 0.4456173049304667 0 0.30083677019091259 0.43840782967700198 0 0.29931248417204809 0.4456173049304667 0 0.30807820470834768 0.43977223703087992 0 0.29206703935374401 0.4584468465146635 0 0.30444721470855218 0.45167876596002388 0 0.29931248417204809 0.4456173049304667 0 0.30444721470855218 0.45167876596002388 0 0.29931248417204809 0.4456173049304667 0 0.30820038130787758 0.4459357062168447 0 0.31261904507714522 0.44948368507170039 0 0.30444721470855218 0.45167876596002388 0 0.30820038130787758 0.4459357062168447 0 0.31261904507714522 0.44948368507170039 0 0.31320937201370441 0.44275346896966428 0 0.30820038130787758 0.4459357062168447 0 0.29931248417204809 0.4456173049304667 0 0.30820038130787758 0.4459357062168447 0 0.30807820470834768 0.43977223703087992 0 0.31320937201370441 0.44275346896966428 0 0.30820038130787758 0.4459357062168447 0 0.30807820470834768 0.43977223703087992 0 0.30083677019091259 0.43840782967700198 0 0.30807820470834768 0.43977223703087992 0 0.30605006785026062 0.43652609585953822 0 0.31320937201370441 0.44275346896966428 0 0.30807820470834768 0.43977223703087992 0 0.31324466556825681 0.43678633578690912 0 0.30807820470834768 0.43977223703087992 0 0.30605006785026062 0.43652609585953822 0 0.31324466556825681 0.43678633578690912 0 0.30605006785026062 0.43652609585953822 0 0.30204063093352518 0.43113798094336192 0 0.31324466556825681 0.43678633578690912 0 0.30394105125383908 0.42629141273411192 0 0.30204063093352518 0.43113798094336192 0 0.32547851680141499 0.43118038051669288 0 0.29051069650435052 0.4384536317036668 0 0.30083677019091259 0.43840782967700198 0 0.30204063093352518 0.43113798094336192 0 0.30083677019091259 0.43840782967700198 0 0.30605006785026062 0.43652609585953822 0 0.30204063093352518 0.43113798094336192 0 0.30394105125383908 0.42629141273411192 0 0.30150245566600897 0.40195192802791613 0 0.32321050462535661 0.400542360012558 0 0.30394105125383908 0.42629141273411192 0 0.28035562260843111 0.40870179276135488 0 0.30150245566600897 0.40195192802791613 0 0.30394105125383908 0.42629141273411192 0 0.30204063093352518 0.43113798094336192 0 0.27860274506563543 0.43109558137003079 0 0.30394105125383908 0.42629141273411192 0 0.27860274506563543 0.43109558137003079 0 0.30204063093352518 0.43113798094336192 0 0.27860274506563543 0.43109558137003079 0 0.29051069650435052 0.4384536317036668 0 0.30204063093352518 0.43113798094336192 0 0.27860274506563543 0.43109558137003079 0 0.30394105125383908 0.42629141273411192 0 0.27860274506563543 0.43109558137003079 0 0.28035562260843111 0.40870179276135488 0 0.27860274506563543 0.43109558137003079 0 0.28035562260843111 0.40870179276135488 0 0.25520197612629758 0.411672694978785 0 0.25520197612629758 0.411672694978785 0 0.25184460097933559 0.43104717538756387 0 0.27860274506563543 0.43109558137003079 0 0.25184460097933559 0.43104717538756387 0 0.27860274506563543 0.43109558137003079 0 0.25184460097933559 0.43104717538756387 0 0.25249850641679078 0.43604497157984801 0 0.27860274506563543 0.43109558137003079 0 0.25520197612629758 0.411672694978785 0 0.25184460097933559 0.43104717538756387 0 0.27860274506563543 0.43109558137003079 0 0.25249850641679078 0.43604497157984801 0 0.25184460097933559 0.43104717538756387 0 0.25249850641679078 0.43604497157984801 0 0.25092690418392649 0.43634294896236231 0 0.25249850641679078 0.43604497157984801 0 0.25223887686111818 0.37750785406457837 0 0.26224589938522752 0.39201822775060169 0 0.27043467926948622 0.37873019681974002 0 0.24260146648673531 0.39479574479861163 0 0.25223887686111818 0.37750785406457837 0 0.26224589938522752 0.39201822775060169 0 0.24260146648673531 0.39479574479861163 0 0.25520197612629758 0.411672694978785 0 0.26224589938522752 0.39201822775060169 0 0.28035562260843111 0.40870179276135488 0 0.25520197612629758 0.411672694978785 0 0.26224589938522752 0.39201822775060169 0 0.28035562260843111 0.40870179276135488 0 0.26224589938522752 0.39201822775060169 0 0.28063960815357819 0.38918091170668428 0 0.26224589938522752 0.39201822775060169 0 0.28063960815357819 0.38918091170668428 0 0.27043467926948622 0.37873019681974002 0 0.28063960815357819 0.38918091170668428 0 0.27043467926948622 0.37873019681974002 0 0.28982628431938279 0.37211285263153548 0 0.28063960815357819 0.38918091170668428 0 0.29649372476375191 0.38670785988481948 0 0.28982628431938279 0.37211285263153548 0 0.28035562260843111 0.40870179276135488 0 0.28063960815357819 0.38918091170668428 0 0.30150245566600897 0.40195192802791613 0 0.28063960815357819 0.38918091170668428 0 0.29649372476375191 0.38670785988481948 0 0.30150245566600897 0.40195192802791613 0 0.30150245566600897 0.40195192802791613 0 0.31107440996379732 0.37962288396052979 0 0.32321050462535661 0.400542360012558 0 0.29649372476375191 0.38670785988481948 0 0.31107440996379732 0.37962288396052979 0 0.28982628431938279 0.37211285263153548 0 0.29649372476375191 0.38670785988481948 0 0.30150245566600897 0.40195192802791613 0 0.31107440996379732 0.37962288396052979 0 0.31107440996379732 0.37962288396052979 0 0.33101820253604253 0.37756117691693958 0 0.32321050462535661 0.400542360012558 0 0.34288352952666279 0.38989078233011609 0 0.33101820253604253 0.37756117691693958 0 0.34957797697354759 0.37590218617732829 0 0.34288352952666279 0.38989078233011609 0 0.33101820253604253 0.37756117691693958 0 0.32321050462535661 0.400542360012558 0 0.34288352952666279 0.38989078233011609 0 0.34101651790393561 0.40607338453887931 0 0.32321050462535661 0.400542360012558 0 0.30394105125383908 0.42629141273411192 0 0.32321050462535661 0.400542360012558 0 0.32927935744204262 0.42148724409819288 0 0.30204063093352518 0.43113798094336192 0 0.31324466556825681 0.43678633578690912 0 0.32547851680141499 0.43118038051669288 0 0.30394105125383908 0.42629141273411192 0 0.32547851680141499 0.43118038051669288 0 0.32927935744204262 0.42148724409819288 0 0.30204063093352518 0.43113798094336192 0 0.32547851680141499 0.43118038051669288 0 0.30394105125383908 0.42629141273411192 0 0.32927935744204262 0.42148724409819288 0 0.31908273917124008 0.44001272556169629 0 0.31324466556825681 0.43678633578690912 0 0.32547851680141499 0.43118038051669288 0 0.34035917950317962 0.44303347685907141 0 0.32547851680141499 0.43118038051669288 0 0.34891640266930468 0.4312227800900239 0 0.32547851680141499 0.43118038051669288 0 0.34891640266930468 0.4312227800900239 0 0.32547851680141499 0.43118038051669288 0 0.32927935744204262 0.42148724409819288 0 0.34891640266930468 0.4312227800900239 0 0.34101651790393561 0.40607338453887931 0 0.32927935744204262 0.42148724409819288 0 0.35461766363024622 0.41668307546227401 0 0.32927935744204262 0.42148724409819288 0 0.35461766363024622 0.41668307546227401 0 0.34101651790393561 0.40607338453887931 0 0.32321050462535661 0.400542360012558 0 0.32927935744204262 0.42148724409819288 0 0.32927935744204262 0.42148724409819288 0 0.35461766363024622 0.41668307546227401 0 0.34891640266930468 0.4312227800900239 0 0.36093901280877527 0.4458329203651944 0 0.34891640266930468 0.4312227800900239 0 0.36568023253862642 0.42940852557186038 0 0.35461766363024622 0.41668307546227401 0 0.34891640266930468 0.4312227800900239 0 0.36568023253862642 0.42940852557186038 0 0.36093901280877527 0.4458329203651944 0 0.36568023253862642 0.42940852557186038 0 0.38229372058655747 0.43229115045649208 0 0.35461766363024622 0.41668307546227401 0 0.36231076125818051 0.39336258276968578 0 0.37995596981844992 0.41187890682635497 0 0.35461766363024622 0.41668307546227401 0 0.36568023253862642 0.42940852557186038 0 0.37995596981844992 0.41187890682635497 0 0.35461766363024622 0.41668307546227401 0 0.37995596981844992 0.41187890682635497 0 0.36231076125818051 0.39336258276968578 0 0.36537856512772232 0.37105754052093382 0 0.3764668726657 0.38117041745600011 0 0.36231076125818051 0.39336258276968578 0 0.34957797697354759 0.37590218617732829 0 0.36537856512772232 0.37105754052093382 0 0.34288352952666279 0.38989078233011609 0 0.36231076125818051 0.39336258276968578 0 0.34957797697354759 0.37590218617732829 0 0.34288352952666279 0.38989078233011609 0 0.34101651790393561 0.40607338453887931 0 0.36231076125818051 0.39336258276968578 0 0.34101651790393561 0.40607338453887931 0 0.35461766363024622 0.41668307546227401 0 0.36231076125818051 0.39336258276968578 0 0.35787467094982728 0.34626364313268632 0 0.34379570720196878 0.3477067768967651 0 0.35045442574035918 0.34065895126866741 0 0.35787467094982728 0.34626364313268632 0 0.34379570720196878 0.3477067768967651 0 0.35220243833007192 0.36031300172404263 0 0.34379570720196878 0.3477067768967651 0 0.35220243833007192 0.36031300172404263 0 0.33717495727728802 0.36073463694560981 0 0.34957797697354759 0.37590218617732829 0 0.35220243833007192 0.36031300172404263 0 0.36537856512772232 0.37105754052093382 0 0.34957797697354759 0.37590218617732829 0 0.35220243833007192 0.36031300172404263 0 0.33717495727728802 0.36073463694560981 0 0.35220243833007192 0.36031300172404263 0 0.36537856512772232 0.37105754052093382 0 0.37203753533867912 0.35485031491787372 0 0.35787467094982728 0.34626364313268632 0 0.35220243833007192 0.36031300172404263 0 0.37203753533867912 0.35485031491787372 0 0.35787467094982728 0.34626364313268632 0 0.37203753533867912 0.35485031491787372 0 0.37069762144115292 0.33982204165680741 0 0.37069762144115292 0.33982204165680741 0 0.36757076937482408 0.32623181450980288 0 0.38201645205652018 0.33218132276933099 0 0.37069762144115292 0.33982204165680741 0 0.36757076937482408 0.32623181450980288 0 0.35799114506107821 0.33637319627958218 0 0.35787467094982728 0.34626364313268632 0 0.37069762144115292 0.33982204165680741 0 0.35799114506107821 0.33637319627958218 0 0.36724135121771312 0.3127044829703266 0 0.36757076937482408 0.32623181450980288 0 0.37973294640935801 0.31921225452171692 0 0.36724135121771312 0.3127044829703266 0 0.36757076937482408 0.32623181450980288 0 0.35984494692297259 0.31821827086620491 0 0.36724135121771312 0.3127044829703266 0 0.35984494692297259 0.31821827086620491 0 0.35440991977585012 0.31110090371365839 0 0.36757076937482408 0.32623181450980288 0 0.35015774732350341 0.32283588227103172 0 0.34215617974856261 0.33229218876563588 0 0.36757076937482408 0.32623181450980288 0 0.35984494692297259 0.31821827086620491 0 0.35015774732350341 0.32283588227103172 0 0.35984494692297259 0.31821827086620491 0 0.35015774732350341 0.32283588227103172 0 0.35440991977585012 0.31110090371365839 0 0.35015774732350341 0.32283588227103172 0 0.34552658790968399 0.3125197247455262 0 0.35015774732350341 0.32283588227103172 0 0.34552658790968399 0.3125197247455262 0 0.35440991977585012 0.31110090371365839 0 0.35799114506107821 0.33637319627958218 0 0.35045442574035918 0.34065895126866741 0 0.34215617974856261 0.33229218876563588 0 0.36757076937482408 0.32623181450980288 0 0.35799114506107821 0.33637319627958218 0 0.34215617974856261 0.33229218876563588 0 0.36757076937482408 0.32623181450980288 0 0.34215617974856261 0.33229218876563588 0 0.35787467094982728 0.34626364313268632 0 0.35799114506107821 0.33637319627958218 0 0.35045442574035918 0.34065895126866741 0 0.34379570720196878 0.3477067768967651 0 0.35045442574035918 0.34065895126866741 0 0.34215617974856261 0.33229218876563588 0 0.34379570720196878 0.3477067768967651 0 0.34215617974856261 0.33229218876563588 0 0.33162259497429641 0.34647972203649702 0 0.34215617974856261 0.33229218876563588 0 0.31674159012230102 0.33835256302146882 0 0.34215617974856261 0.33229218876563588 0 0.33523765770149272 0.32446811679110499 0 0.31674159012230102 0.33835256302146882 0 0.34215617974856261 0.33229218876563588 0 0.31674159012230102 0.33835256302146882 0 0.33162259497429641 0.34647972203649702 0 0.34552658790968399 0.3125197247455262 0 0.33523765770149272 0.32446811679110499 0 0.32160618340341213 0.31634022515186172 0 0.34552658790968399 0.3125197247455262 0 0.32160618340341213 0.31634022515186172 0 0.35015774732350341 0.32283588227103172 0 0.34552658790968399 0.3125197247455262 0 0.33523765770149272 0.32446811679110499 0 0.35015774732350341 0.32283588227103172 0 0.34215617974856261 0.33229218876563588 0 0.33523765770149272 0.32446811679110499 0 0.33523765770149272 0.32446811679110499 0 0.32160618340341213 0.31634022515186172 0 0.31674159012230102 0.33835256302146882 0 0.31674159012230102 0.33835256302146882 0 0.3215667160750118 0.3584359288323154 0 0.33162259497429641 0.34647972203649702 0 0.31674159012230102 0.33835256302146882 0 0.3215667160750118 0.3584359288323154 0 0.30535889430643409 0.35894974941670937 0 0.3215667160750118 0.3584359288323154 0 0.33162259497429641 0.34647972203649702 0 0.33717495727728802 0.36073463694560981 0 0.34379570720196878 0.3477067768967651 0 0.33162259497429641 0.34647972203649702 0 0.33717495727728802 0.36073463694560981 0 0.33101820253604253 0.37756117691693958 0 0.34957797697354759 0.37590218617732829 0 0.33717495727728802 0.36073463694560981 0 0.33101820253604253 0.37756117691693958 0 0.3215667160750118 0.3584359288323154 0 0.33717495727728802 0.36073463694560981 0 0.31107440996379732 0.37962288396052979 0 0.33101820253604253 0.37756117691693958 0 0.3215667160750118 0.3584359288323154 0 0.31107440996379732 0.37962288396052979 0 0.3215667160750118 0.3584359288323154 0 0.30535889430643409 0.35894974941670937 0 0.31107440996379732 0.37962288396052979 0 0.30535889430643409 0.35894974941670937 0 0.28982628431938279 0.37211285263153548 0 0.31674159012230102 0.33835256302146882 0 0.30535889430643409 0.35894974941670937 0 0.29432405686268071 0.34950876572276718 0 0.29432405686268071 0.34950876572276718 0 0.28982628431938279 0.37211285263153548 0 0.28030820522054162 0.35522736093492441 0 0.29432405686268071 0.34950876572276718 0 0.28030820522054162 0.35522736093492441 0 0.2883622798051787 0.33475784582485441 0 0.28982628431938279 0.37211285263153548 0 0.27757688401952979 0.36789230222665742 0 0.28030820522054162 0.35522736093492441 0 0.30535889430643409 0.35894974941670937 0 0.29432405686268071 0.34950876572276718 0 0.28982628431938279 0.37211285263153548 0 0.27043467926948622 0.37873019681974002 0 0.28982628431938279 0.37211285263153548 0 0.27757688401952979 0.36789230222665742 0 0.27757688401952979 0.36789230222665742 0 0.28030820522054162 0.35522736093492441 0 0.2644111445087507 0.36495642625555741 0 0.27043467926948622 0.37873019681974002 0 0.27757688401952979 0.36789230222665742 0 0.2644111445087507 0.36495642625555741 0 0.28030820522054162 0.35522736093492441 0 0.26508607181122462 0.35124636832921657 0 0.2644111445087507 0.36495642625555741 0 0.28030820522054162 0.35522736093492441 0 0.2719899659686022 0.34041035810115527 0 0.28030820522054162 0.35522736093492441 0 0.26508607181122462 0.35124636832921657 0 0.2719899659686022 0.34041035810115527 0 0.26508607181122462 0.35124636832921657 0 0.25181430083604889 0.35338203205652841 0 0.2644111445087507 0.36495642625555741 0 0.26508607181122462 0.35124636832921657 0 0.25690674252217988 0.34225566429791782 0 0.2719899659686022 0.34041035810115527 0 0.26508607181122462 0.35124636832921657 0 0.25181430083604889 0.35338203205652841 0 0.25690674252217988 0.34225566429791782 0 0.24566457739029471 0.34357471280060048 0 0.25181430083604889 0.35338203205652841 0 0.25690674252217988 0.34225566429791782 0 0.24546206847462301 0.36438275394215741 0 0.25223887686111818 0.37750785406457837 0 0.2644111445087507 0.36495642625555741 0 0.25223887686111818 0.37750785406457837 0 0.27043467926948622 0.37873019681974002 0 0.2644111445087507 0.36495642625555741 0 0.24546206847462301 0.36438275394215741 0 0.25181430083604889 0.35338203205652841 0 0.2644111445087507 0.36495642625555741 0 0.24622102445129401 0.33258936710566928 0 0.25828232139762097 0.31686438400046169 0 0.25451558262271368 0.32705574910868718 0 0.26367172671666272 0.32559335526738642 0 0.25828232139762097 0.31686438400046169 0 0.26367172671666272 0.32559335526738642 0 0.25828232139762097 0.31686438400046169 0 0.25451558262271368 0.32705574910868718 0 0.26367172671666272 0.32559335526738642 0 0.25451558262271368 0.32705574910868718 0 0.26367172671666272 0.32559335526738642 0 0.25828232139762097 0.31686438400046169 0 0.26776170709257341 0.32122161832220059 0 0.25828232139762097 0.31686438400046169 0 0.26776170709257341 0.32122161832220059 0 0.24622102445129401 0.33258936710566928 0 0.25451558262271368 0.32705574910868718 0 0.2536313303106485 0.33467873756621669 0 0.25451558262271368 0.32705574910868718 0 0.2536313303106485 0.33467873756621669 0 0.26014306962816142 0.33399877286827268 0 0.24566457739029471 0.34357471280060048 0 0.24882522992865611 0.33728654714727518 0 0.25690674252217988 0.34225566429791782 0 0.24882522992865611 0.33728654714727518 0 0.2536313303106485 0.33467873756621669 0 0.25690674252217988 0.34225566429791782 0 0.2536313303106485 0.33467873756621669 0 0.25690674252217988 0.34225566429791782 0 0.26014306962816142 0.33399877286827268 0 0.25690674252217988 0.34225566429791782 0 0.26014306962816142 0.33399877286827268 0 0.2719899659686022 0.34041035810115527 0 0.26367172671666272 0.32559335526738642 0 0.26014306962816142 0.33399877286827268 0 0.2719899659686022 0.34041035810115527 0 0.26367172671666272 0.32559335526738642 0 0.25451558262271368 0.32705574910868718 0 0.26014306962816142 0.33399877286827268 0 0.2719899659686022 0.34041035810115527 0 0.27716198763350391 0.33087056766743173 0 0.27376537439086818 0.32398122596453321 0 0.26367172671666272 0.32559335526738642 0 0.2719899659686022 0.34041035810115527 0 0.27376537439086818 0.32398122596453321 0 0.2719899659686022 0.34041035810115527 0 0.27716198763350391 0.33087056766743173 0 0.2883622798051787 0.33475784582485441 0 0.26367172671666272 0.32559335526738642 0 0.2719899659686022 0.34041035810115527 0 0.28030820522054162 0.35522736093492441 0 0.2719899659686022 0.34041035810115527 0 0.2883622798051787 0.33475784582485441 0 0.27716198763350391 0.33087056766743173 0 0.27376537439086818 0.32398122596453321 0 0.2883622798051787 0.33475784582485441 0 0.27376537439086818 0.32398122596453321 0 0.26776170709257341 0.32122161832220059 0 0.28448350971902681 0.31429431299226052 0 0.25828232139762097 0.31686438400046169 0 0.26776170709257341 0.32122161832220059 0 0.27223736305537499 0.30300190810516331 0 0.26367172671666272 0.32559335526738642 0 0.27376537439086818 0.32398122596453321 0 0.26367172671666272 0.32559335526738642 0 0.27376537439086818 0.32398122596453321 0 0.26776170709257341 0.32122161832220059 0 0.27376537439086818 0.32398122596453321 0 0.26776170709257341 0.32122161832220059 0 0.27376537439086818 0.32398122596453321 0 0.2883622798051787 0.33475784582485441 0 0.2976857788971401 0.32016072555819658 0 0.27376537439086818 0.32398122596453321 0 0.2976857788971401 0.32016072555819658 0 0.27376537439086818 0.32398122596453321 0 0.28448350971902681 0.31429431299226052 0 0.2976857788971401 0.32016072555819658 0 0.31674159012230102 0.33835256302146882 0 0.29432405686268071 0.34950876572276718 0 0.2883622798051787 0.33475784582485441 0 0.31674159012230102 0.33835256302146882 0 0.2883622798051787 0.33475784582485441 0 0.2976857788971401 0.32016072555819658 0 0.32160618340341213 0.31634022515186172 0 0.2976857788971401 0.32016072555819658 0 0.32160618340341213 0.31634022515186172 0 0.31674159012230102 0.33835256302146882 0 0.2976857788971401 0.32016072555819658 0 0.32160618340341213 0.31634022515186172 0 0.2976857788971401 0.32016072555819658 0 0.30811995401356618 0.30024129033251618 0 0.30811995401356618 0.30024129033251618 0 0.29869480838945128 0.27858235547982357 0 0.31663317510761102 0.28848271051310981 0 0.28322825774101251 0.29990198690101211 0 0.29869480838945128 0.27858235547982357 0 0.30811995401356618 0.30024129033251618 0 0.28322825774101251 0.29990198690101211 0 0.29869480838945128 0.27858235547982357 0 0.28587849042650398 0.28945126425868378 0 0.28322825774101251 0.29990198690101211 0 0.29869480838945128 0.27858235547982357 0 0.28587849042650398 0.28945126425868378 0 0.28808842269694951 0.27790402242299689 0 0.29869480838945128 0.27858235547982357 0 0.28448350971902681 0.31429431299226052 0 0.30811995401356618 0.30024129033251618 0 0.28322825774101251 0.29990198690101211 0 0.28448350971902681 0.31429431299226052 0 0.2976857788971401 0.32016072555819658 0 0.30811995401356618 0.30024129033251618 0 0.26776170709257341 0.32122161832220059 0 0.28322825774101251 0.29990198690101211 0 0.26776170709257341 0.32122161832220059 0 0.28322825774101251 0.29990198690101211 0 0.27223736305537499 0.30300190810516331 0 0.26776170709257341 0.32122161832220059 0 0.28448350971902681 0.31429431299226052 0 0.28322825774101251 0.29990198690101211 0 0.28587849042650398 0.28945126425868378 0 0.28322825774101251 0.29990198690101211 0 0.27223736305537499 0.30300190810516331 0 0.28587849042650398 0.28945126425868378 0 0.27223736305537499 0.30300190810516331 0 0.27046862864258958 0.28765643470515739 0 0.28587849042650398 0.28945126425868378 0 0.27223736305537499 0.30300190810516331 0 0.28587849042650398 0.28945126425868378 0 0.27046862864258958 0.28765643470515739 0 0.2780193994738866 0.27471161415232542 0 0.27223736305537499 0.30300190810516331 0 0.27046862864258958 0.28765643470515739 0 0.25919111998886057 0.29329488952416849 0 0.24201714875905131 0.28702077599381037 0 0.25919111998886057 0.29329488952416849 0 0.25488008865455442 0.27870182215812211 0 0.24201714875905131 0.28702077599381037 0 0.25919111998886057 0.29329488952416849 0 0.25030669222164897 0.3017866639727268 0 0.27046862864258958 0.28765643470515739 0 0.25919111998886057 0.29329488952416849 0 0.25488008865455442 0.27870182215812211 0 0.25919111998886057 0.29329488952416849 0 0.25030669222164897 0.3017866639727268 0 0.26037447312340328 0.30416647474525788 0 0.25828232139762097 0.31686438400046169 0 0.25030669222164897 0.3017866639727268 0 0.26037447312340328 0.30416647474525788 0 0.25828232139762097 0.31686438400046169 0 0.25030669222164897 0.3017866639727268 0 0.25828232139762097 0.31686438400046169 0 0.27223736305537499 0.30300190810516331 0 0.26037447312340328 0.30416647474525788 0 0.25828232139762097 0.31686438400046169 0 0.27223736305537499 0.30300190810516331 0 0.27223736305537499 0.30300190810516331 0 0.25919111998886057 0.29329488952416849 0 0.26037447312340328 0.30416647474525788 0 0.25399566878284502 0.26074565356189189 0 0.2703081024252923 0.26042648260146672 0 0.2669353122202206 0.24907042731734361 0 0.25399566878284502 0.26074565356189189 0 0.2669353122202206 0.24907042731734361 0 0.25469112926727061 0.24735262204999481 0 0.25399566878284502 0.26074565356189189 0 0.25488008865455442 0.27870182215812211 0 0.2703081024252923 0.26042648260146672 0 0.25488008865455442 0.27870182215812211 0 0.2703081024252923 0.26042648260146672 0 0.25488008865455442 0.27870182215812211 0 0.2780193994738866 0.27471161415232542 0 0.2703081024252923 0.26042648260146672 0 0.27046862864258958 0.28765643470515739 0 0.25488008865455442 0.27870182215812211 0 0.2780193994738866 0.27471161415232542 0 0.2703081024252923 0.26042648260146672 0 0.28628686012270538 0.25826067836103489 0 0.28574109184797331 0.24215534348259041 0 0.2780193994738866 0.27471161415232542 0 0.2703081024252923 0.26042648260146672 0 0.28628686012270538 0.25826067836103489 0 0.2703081024252923 0.26042648260146672 0 0.28574109184797331 0.24215534348259041 0 0.2703081024252923 0.26042648260146672 0 0.27823915624892809 0.24552658539675279 0 0.2669353122202206 0.24907042731734361 0 0.28628686012270538 0.25826067836103489 0 0.29995401426485557 0.2497037920572899 0 0.28574109184797331 0.24215534348259041 0 0.28628686012270538 0.25826067836103489 0 0.28976672056487279 0.2696504958585012 0 0.2977716068625717 0.26253608115158761 0 0.28628686012270538 0.25826067836103489 0 0.2977716068625717 0.26253608115158761 0 0.29995401426485557 0.2497037920572899 0 0.2780193994738866 0.27471161415232542 0 0.28628686012270538 0.25826067836103489 0 0.28976672056487279 0.2696504958585012 0 0.28976672056487279 0.2696504958585012 0 0.29869480838945128 0.27858235547982357 0 0.2977716068625717 0.26253608115158761 0 0.28587849042650398 0.28945126425868378 0 0.2780193994738866 0.27471161415232542 0 0.28808842269694951 0.27790402242299689 0 0.2780193994738866 0.27471161415232542 0 0.28808842269694951 0.27790402242299689 0 0.28976672056487279 0.2696504958585012 0 0.28808842269694951 0.27790402242299689 0 0.28976672056487279 0.2696504958585012 0 0.29869480838945128 0.27858235547982357 0 0.29869480838945128 0.27858235547982357 0 0.31416135903789072 0.25726272405863537 0 0.29869480838945128 0.27858235547982357 0 0.2977716068625717 0.26253608115158761 0 0.31416135903789072 0.25726272405863537 0 0.29869480838945128 0.27858235547982357 0 0.31755340403883081 0.27487781946581352 0 0.31663317510761102 0.28848271051310981 0 0.29869480838945128 0.27858235547982357 0 0.31416135903789072 0.25726272405863537 0 0.31755340403883081 0.27487781946581352 0 0.2977716068625717 0.26253608115158761 0 0.31416135903789072 0.25726272405863537 0 0.29995401426485557 0.2497037920572899 0 0.31416135903789072 0.25726272405863537 0 0.29995401426485557 0.2497037920572899 0 0.31124097988072691 0.25013535213493993 0 0.31416135903789072 0.25726272405863537 0 0.29995401426485557 0.2497037920572899 0 0.31416135903789072 0.25726272405863537 0 0.32277867139561062 0.26184751306650672 0 0.31755340403883081 0.27487781946581352 0 0.31416135903789072 0.25726272405863537 0 0.31821315740023343 0.25167758425328141 0 0.32277867139561062 0.26184751306650672 0 0.31821315740023343 0.25167758425328141 0 0.32765878468273468 0.25504289580986411 0 0.33612538188821528 0.24889966137315681 0 0.31124097988072691 0.25013535213493993 0 0.31416135903789072 0.25726272405863537 0 0.31821315740023343 0.25167758425328141 0 0.31416135903789072 0.25726272405863537 0 0.31821315740023343 0.25167758425328141 0 0.31416135903789072 0.25726272405863537 0 0.32277867139561062 0.26184751306650672 0 0.31821315740023343 0.25167758425328141 0 0.32277867139561062 0.26184751306650672 0 0.31821315740023343 0.25167758425328141 0 0.32277867139561062 0.26184751306650672 0 0.32765878468273468 0.25504289580986411 0 0.32277867139561062 0.26184751306650672 0 0.32765878468273468 0.25504289580986411 0 0.34084623047913198 0.27146024878345459 0 0.32765878468273468 0.25504289580986411 0 0.34084623047913198 0.27146024878345459 0 0.33612538188821528 0.24889966137315681 0 0.34084623047913198 0.27146024878345459 0 0.35375279146260019 0.25317428802075892 0 0.33612538188821528 0.24889966137315681 0 0.32277867139561062 0.26184751306650672 0 0.34084623047913198 0.27146024878345459 0 0.33306353389361493 0.28475759932719519 0 0.32277867139561062 0.26184751306650672 0 0.34084623047913198 0.27146024878345459 0 0.34084623047913198 0.27146024878345459 0 0.33306353389361493 0.28475759932719519 0 0.34492619044888417 0.28220671539937198 0 0.32277867139561062 0.26184751306650672 0 0.33306353389361493 0.28475759932719519 0 0.32277867139561062 0.26184751306650672 0 0.31755340403883081 0.27487781946581352 0 0.33306353389361493 0.28475759932719519 0 0.31755340403883081 0.27487781946581352 0 0.31663317510761102 0.28848271051310981 0 0.33306353389361493 0.28475759932719519 0 0.31663317510761102 0.28848271051310981 0 0.32573417520259151 0.30395448796020058 0 0.33306353389361493 0.28475759932719519 0 0.32160618340341213 0.31634022515186172 0 0.30811995401356618 0.30024129033251618 0 0.32573417520259151 0.30395448796020058 0 0.30811995401356618 0.30024129033251618 0 0.31663317510761102 0.28848271051310981 0 0.32573417520259151 0.30395448796020058 0 0.30811995401356618 0.30024129033251618 0 0.32573417520259151 0.30395448796020058 0 0.32573417520259151 0.30395448796020058 0 0.34334839639161691 0.30766768558788482 0 0.33306353389361493 0.28475759932719519 0 0.32573417520259151 0.30395448796020058 0 0.34334839639161691 0.30766768558788482 0 0.32160618340341213 0.31634022515186172 0 0.32573417520259151 0.30395448796020058 0 0.34334839639161691 0.30766768558788482 0 0.34552658790968399 0.3125197247455262 0 0.32160618340341213 0.31634022515186172 0 0.34334839639161691 0.30766768558788482 0 0.34334839639161691 0.30766768558788482 0 0.33306353389361493 0.28475759932719519 0 0.34688120786013571 0.29153602898643732 0 0.34334839639161691 0.30766768558788482 0 0.33306353389361493 0.28475759932719519 0 0.33306353389361493 0.28475759932719519 0 0.34492619044888417 0.28220671539937198 0 0.34688120786013571 0.29153602898643732 0 0.34688120786013571 0.29153602898643732 0 0.36008145318468499 0.29814798859093949 0 0.35891378956265418 0.28107298450040108 0 0.34492619044888417 0.28220671539937198 0 0.34688120786013571 0.29153602898643732 0 0.35891378956265418 0.28107298450040108 0 0.36724135121771312 0.3127044829703266 0 0.34334839639161691 0.30766768558788482 0 0.36724135121771312 0.3127044829703266 0 0.34334839639161691 0.30766768558788482 0 0.35440991977585012 0.31110090371365839 0 0.36724135121771312 0.3127044829703266 0 0.34334839639161691 0.30766768558788482 0 0.36008145318468499 0.29814798859093949 0 0.34334839639161691 0.30766768558788482 0 0.34688120786013571 0.29153602898643732 0 0.36008145318468499 0.29814798859093949 0 0.34552658790968399 0.3125197247455262 0 0.35440991977585012 0.31110090371365839 0 0.34552658790968399 0.3125197247455262 0 0.34334839639161691 0.30766768558788482 0 0.35440991977585012 0.31110090371365839 0 0.34552658790968399 0.3125197247455262 0 0.34334839639161691 0.30766768558788482 0 0.36008145318468499 0.29814798859093949 0 0.37281612264816122 0.3020847061123606 0 0.37698134864617577 0.29068572021734879 0 0.36724135121771312 0.3127044829703266 0 0.36008145318468499 0.29814798859093949 0 0.37281612264816122 0.3020847061123606 0 0.35891378956265418 0.28107298450040108 0 0.37698134864617577 0.29068572021734879 0 0.36008145318468499 0.29814798859093949 0 0.35891378956265418 0.28107298450040108 0 0.37698134864617577 0.29068572021734879 0 0.36536707005438751 0.27193000411905421 0 0.37698134864617577 0.29068572021734879 0 0.36536707005438751 0.27193000411905421 0 0.38158475690038268 0.27451273104133461 0 0.37698134864617577 0.29068572021734879 0 0.36536707005438751 0.27193000411905421 0 0.35891378956265418 0.28107298450040108 0 0.37698134864617577 0.29068572021734879 0 0.36536707005438751 0.27193000411905421 0 0.37017485774649572 0.26270180193783321 0 0.38158475690038268 0.27451273104133461 0 0.37017485774649572 0.26270180193783321 0 0.35375279146260019 0.25317428802075892 0 0.36602873626671428 0.24753889456754241 0 0.36536707005438751 0.27193000411905421 0 0.37017485774649572 0.26270180193783321 0 0.35375279146260019 0.25317428802075892 0 0.37017485774649572 0.26270180193783321 0 0.36602873626671428 0.24753889456754241 0 0.38302269682145762 0.2407745680815867 0 0.36536707005438751 0.27193000411905421 0 0.35375279146260019 0.25317428802075892 0 0.36536707005438751 0.27193000411905421 0 0.35375279146260019 0.25317428802075892 0 0.35313632301990833 0.27014623330501381 0 0.34084623047913198 0.27146024878345459 0 0.35375279146260019 0.25317428802075892 0 0.35313632301990833 0.27014623330501381 0 0.34084623047913198 0.27146024878345459 0 0.35891378956265418 0.28107298450040108 0 0.35313632301990833 0.27014623330501381 0 0.34084623047913198 0.27146024878345459 0 0.34492619044888417 0.28220671539937198 0 0.35891378956265418 0.28107298450040108 0 0.34084623047913198 0.27146024878345459 0 0.35891378956265418 0.28107298450040108 0 0.36536707005438751 0.27193000411905421 0 0.35891378956265418 0.28107298450040108 0 0.35313632301990833 0.27014623330501381 0 0.40259262485812197 0.26780448228131132 0 0.38800042801244777 0.25834820960113319 0 0.38158475690038268 0.27451273104133461 0 0.40259262485812197 0.26780448228131132 0 0.38158475690038268 0.27451273104133461 0 0.39629213075573921 0.28392796121430319 0 0.40259262485812197 0.26780448228131132 0 0.38800042801244777 0.25834820960113319 0 0.40597266594897641 0.24236965432817781 0 0.37017485774649572 0.26270180193783321 0 0.38800042801244777 0.25834820960113319 0 0.38302269682145762 0.2407745680815867 0 0.37017485774649572 0.26270180193783321 0 0.38800042801244777 0.25834820960113319 0 0.38158475690038268 0.27451273104133461 0 0.37017485774649572 0.26270180193783321 0 0.38302269682145762 0.2407745680815867 0 0.37698134864617577 0.29068572021734879 0 0.39778171423435099 0.30175242913417882 0 0.39629213075573921 0.28392796121430319 0 0.37698134864617577 0.29068572021734879 0 0.39778171423435099 0.30175242913417882 0 0.38158475690038268 0.27451273104133461 0 0.37698134864617577 0.29068572021734879 0 0.39629213075573921 0.28392796121430319 0 0.36724135121771312 0.3127044829703266 0 0.38696033754407039 0.30680063267082902 0 0.39113430604380928 0.31774128035276822 0 0.37698134864617577 0.29068572021734879 0 0.38696033754407039 0.30680063267082902 0 0.37698134864617577 0.29068572021734879 0 0.38696033754407039 0.30680063267082902 0 0.39778171423435099 0.30175242913417882 0 0.36724135121771312 0.3127044829703266 0 0.37281612264816122 0.3020847061123606 0 0.38696033754407039 0.30680063267082902 0 0.37281612264816122 0.3020847061123606 0 0.37698134864617577 0.29068572021734879 0 0.38696033754407039 0.30680063267082902 0 0.38696033754407039 0.30680063267082902 0 0.39569952705840239 0.30972125039471682 0 0.39778171423435099 0.30175242913417882 0 0.38696033754407039 0.30680063267082902 0 0.39569952705840239 0.30972125039471682 0 0.39113430604380928 0.31774128035276822 0 0.39569952705840239 0.30972125039471682 0 0.39778171423435099 0.30175242913417882 0 0.40507181037160528 0.3105766565380611 0 0.39569952705840239 0.30972125039471682 0 0.40507181037160528 0.3105766565380611 0 0.40037557902751519 0.31421624003209447 0 0.39778171423435099 0.30175242913417882 0 0.39629213075573921 0.28392796121430319 0 0.42252020913966509 0.28488444339734159 0 0.39778171423435099 0.30175242913417882 0 0.41858207982252221 0.31281913805101669 0 0.39778171423435099 0.30175242913417882 0 0.40507181037160528 0.3105766565380611 0 0.41858207982252221 0.31281913805101669 0 0.39778171423435099 0.30175242913417882 0 0.42252020913966509 0.28488444339734159 0 0.41858207982252221 0.31281913805101669 0 0.42252020913966509 0.28488444339734159 0 0.41858207982252221 0.31281913805101669 0 0.43205616648139689 0.30103996830563712 0 0.42252020913966509 0.28488444339734159 0 0.41858207982252221 0.31281913805101669 0 0.42675028208217669 0.31211984179812158 0 0.43205616648139689 0.30103996830563712 0 0.41858207982252221 0.31281913805101669 0 0.42675028208217669 0.31211984179812158 0 0.43205616648139689 0.30103996830563712 0 0.43701609536514902 0.30818875062458989 0 0.43205616648139689 0.30103996830563712 0 0.42252020913966509 0.28488444339734159 0 0.43969418724738918 0.28474814911606777 0 0.42252020913966509 0.28488444339734159 0 0.42645833845681058 0.25694974874366722 0 0.43969418724738918 0.28474814911606777 0 0.42252020913966509 0.28488444339734159 0 0.42645833845681058 0.25694974874366722 0 0.40259262485812197 0.26780448228131132 0 0.39629213075573921 0.28392796121430319 0 0.42252020913966509 0.28488444339734159 0 0.40259262485812197 0.26780448228131132 0 0.42252020913966509 0.28488444339734159 0 0.42645833845681058 0.25694974874366722 0 0.40259262485812197 0.26780448228131132 0 0.42645833845681058 0.25694974874366722 0 0.40597266594897641 0.24236965432817781 0 0.42645833845681058 0.25694974874366722 0 0.45340131521648308 0.26352742615763308 0 0.44793440932526851 0.24372790195292879 0 0.45340131521648308 0.26352742615763308 0 0.45979612483159421 0.28630245135949373 0 0.43969418724738918 0.28474814911606777 0 0.42645833845681058 0.25694974874366722 0 0.45340131521648308 0.26352742615763308 0 0.43969418724738918 0.28474814911606777 0 0.45340131521648308 0.26352742615763308 0 0.47381925033194822 0.26606967870208048 0 0.45979612483159421 0.28630245135949373 0 0.45340131521648308 0.26352742615763308 0 0.44793440932526851 0.24372790195292879 0 0.47647197505969702 0.2436065613626649 0 0.45340131521648308 0.26352742615763308 0 0.47381925033194822 0.26606967870208048 0 0.47647197505969702 0.2436065613626649 0 0.47381925033194822 0.26606967870208048 0 0.49999999999999889 0.26167240331464331 0 0.47647197505969702 0.2436065613626649 0 0.47381925033194822 0.26606967870208048 0 0.47989806241579919 0.28785675360291968 0 0.45979612483159421 0.28630245135949373 0 0.47381925033194822 0.26606967870208048 0 0.48846672198772539 0.27552272818609508 0 0.47989806241579919 0.28785675360291968 0 0.47381925033194822 0.26606967870208048 0 0.48846672198772539 0.27552272818609508 0 0.49999999999999889 0.26167240331464331 0 0.48846672198772539 0.27552272818609508 0 0.49999999999999889 0.26167240331464331 0 0.50000000000000411 0.28941105584634602 0 0.49999999999999889 0.26167240331464331 0 0.47647197505969702 0.2436065613626649 0 0.48579564706955608 0.3032799574916003 0 0.50000000000000411 0.28941105584634602 0 0.5 0.31778029876343339 0 0.50000000000000411 0.28941105584634602 0 0.47989806241579919 0.28785675360291968 0 0.48846672198772539 0.27552272818609508 0 0.50000000000000411 0.28941105584634602 0 0.47989806241579919 0.28785675360291968 0 0.48579564706955608 0.3032799574916003 0 0.50000000000000411 0.28941105584634602 0 0.47989806241579919 0.28785675360291968 0 0.47989806241579919 0.28785675360291968 0 0.45979612483159421 0.28630245135949373 0 0.47989806241579919 0.28785675360291968 0 0.46909298787511561 0.30002195372545892 0 0.45979612483159421 0.28630245135949373 0 0.48579564706955608 0.3032799574916003 0 0.47989806241579919 0.28785675360291968 0 0.46909298787511561 0.30002195372545892 0 0.48579564706955608 0.3032799574916003 0 0.46909298787511561 0.30002195372545892 0 0.47183416337797601 0.31813856782640371 0 0.46909298787511561 0.30002195372545892 0 0.44814094168065238 0.30453203834687681 0 0.47183416337797601 0.31813856782640371 0 0.46909298787511561 0.30002195372545892 0 0.45979612483159421 0.28630245135949373 0 0.44814094168065238 0.30453203834687681 0 0.45979612483159421 0.28630245135949373 0 0.43969418724738918 0.28474814911606777 0 0.44814094168065238 0.30453203834687681 0 0.43205616648139689 0.30103996830563712 0 0.43969418724738918 0.28474814911606777 0 0.44814094168065238 0.30453203834687681 0 0.45979612483159421 0.28630245135949373 0 0.43969418724738918 0.28474814911606777 0 0.43205616648139689 0.30103996830563712 0 0.43701609536514902 0.30818875062458989 0 0.44814094168065238 0.30453203834687681 0 0.43701609536514902 0.30818875062458989 0 0.44814094168065238 0.30453203834687681 0 0.44528614637622299 0.32702687541950459 0 0.44528614637622299 0.32702687541950459 0 0.44982332054562768 0.34699795590419857 0 0.43160021912057861 0.34412196323253719 0 0.44528614637622299 0.32702687541950459 0 0.47036984988349062 0.34037250841303462 0 0.44982332054562768 0.34699795590419857 0 0.44528614637622299 0.32702687541950459 0 0.47036984988349062 0.34037250841303462 0 0.44528614637622299 0.32702687541950459 0 0.47183416337797601 0.31813856782640371 0 0.47036984988349062 0.34037250841303462 0 0.44814094168065238 0.30453203834687681 0 0.44528614637622299 0.32702687541950459 0 0.47183416337797601 0.31813856782640371 0 0.47183416337797601 0.31813856782640371 0 0.47036984988349062 0.34037250841303462 0 0.48753151333044492 0.33523181161799143 0 0.47036984988349062 0.34037250841303462 0 0.48753151333044492 0.33523181161799143 0 0.49545355339075797 0.35371814140656449 0 0.48753151333044492 0.33523181161799143 0 0.5 0.31778029876343339 0 0.5 0.34614954168052081 0 0.48579564706955608 0.3032799574916003 0 0.47183416337797601 0.31813856782640371 0 0.5 0.31778029876343339 0 0.47183416337797601 0.31813856782640371 0 0.48753151333044492 0.33523181161799143 0 0.5 0.31778029876343339 0 0.5 0.37451878459760818 0 0.49545355339075797 0.35371814140656449 0 0.48374204154260653 0.3679592085584017 0 0.48753151333044492 0.33523181161799143 0 0.5 0.34614954168052081 0 0.49545355339075797 0.35371814140656449 0 0.5 0.37451878459760818 0 0.5 0.34614954168052081 0 0.49545355339075797 0.35371814140656449 0 0.47036984988349062 0.34037250841303462 0 0.49545355339075797 0.35371814140656449 0 0.47036984988349062 0.34037250841303462 0 0.49545355339075797 0.35371814140656449 0 0.48374204154260653 0.3679592085584017 0 0.47036984988349062 0.34037250841303462 0 0.48374204154260653 0.3679592085584017 0 0.46025610165948161 0.36166988080622031 0 0.48374204154260653 0.3679592085584017 0 0.46025610165948161 0.36166988080622031 0 0.46556439291418061 0.37948629372242748 0 0.48374204154260653 0.3679592085584017 0 0.46556439291418061 0.37948629372242748 0 0.46025610165948161 0.36166988080622031 0 0.45015679188583452 0.37528543496302658 0 0.46556439291418061 0.37948629372242748 0 0.47036984988349062 0.34037250841303462 0 0.46025610165948161 0.36166988080622031 0 0.44982332054562768 0.34699795590419857 0 0.46025610165948161 0.36166988080622031 0 0.44982332054562768 0.34699795590419857 0 0.44160428568836479 0.36179855164969621 0 0.44982332054562768 0.34699795590419857 0 0.44160428568836479 0.36179855164969621 0 0.43160021912057861 0.34412196323253719 0 0.46025610165948161 0.36166988080622031 0 0.44160428568836479 0.36179855164969621 0 0.45015679188583452 0.37528543496302658 0 0.44160428568836479 0.36179855164969621 0 0.43024145145636472 0.38059251978062691 0 0.45015679188583452 0.37528543496302658 0 0.44160428568836479 0.36179855164969621 0 0.41184711231699772 0.36059290209428208 0 0.43024145145636472 0.38059251978062691 0 0.41184711231699772 0.36059290209428208 0 0.40857069416182512 0.38383382014235801 0 0.41184711231699772 0.36059290209428208 0 0.43160021912057861 0.34412196323253719 0 0.41512353047217032 0.33735198404620609 0 0.41184711231699772 0.36059290209428208 0 0.41512353047217032 0.33735198404620609 0 0.41184711231699772 0.36059290209428208 0 0.41512353047217032 0.33735198404620609 0 0.40067674085149468 0.34978701555526459 0 0.44160428568836479 0.36179855164969621 0 0.41184711231699772 0.36059290209428208 0 0.43160021912057861 0.34412196323253719 0 0.43160021912057861 0.34412196323253719 0 0.42608542167261149 0.32768828410372708 0 0.41512353047217032 0.33735198404620609 0 0.44528614637622299 0.32702687541950459 0 0.43160021912057861 0.34412196323253719 0 0.42608542167261149 0.32768828410372708 0 0.44528614637622299 0.32702687541950459 0 0.42608542167261149 0.32768828410372708 0 0.4202024428689547 0.31368124242597623 0 0.42675028208217669 0.31211984179812158 0 0.44528614637622299 0.32702687541950459 0 0.4202024428689547 0.31368124242597623 0 0.44528614637622299 0.32702687541950459 0 0.4202024428689547 0.31368124242597623 0 0.42675028208217669 0.31211984179812158 0 0.43701609536514902 0.30818875062458989 0 0.44528614637622299 0.32702687541950459 0 0.42675028208217669 0.31211984179812158 0 0.4202024428689547 0.31368124242597623 0 0.41858207982252221 0.31281913805101669 0 0.40727453339062492 0.32377497219610513 0 0.41512353047217032 0.33735198404620609 0 0.42608542167261149 0.32768828410372708 0 0.41858207982252221 0.31281913805101669 0 0.41512353047217032 0.33735198404620609 0 0.41858207982252221 0.31281913805101669 0 0.40727453339062492 0.32377497219610513 0 0.39298535900108561 0.32017144025396987 0 0.40507181037160528 0.3105766565380611 0 0.41858207982252221 0.31281913805101669 0 0.40037557902751519 0.31421624003209447 0 0.41858207982252221 0.31281913805101669 0 0.41512353047217032 0.33735198404620609 0 0.42675028208217669 0.31211984179812158 0 0.41858207982252221 0.31281913805101669 0 0.4202024428689547 0.31368124242597623 0 0.42608542167261149 0.32768828410372708 0 0.41858207982252221 0.31281913805101669 0 0.4202024428689547 0.31368124242597623 0 0.41858207982252221 0.31281913805101669 0 0.4202024428689547 0.31368124242597623 0 0.40727453339062492 0.32377497219610513 0 0.41512353047217032 0.33735198404620609 0 0.40006164249417658 0.33532515060101331 0 0.41512353047217032 0.33735198404620609 0 0.40006164249417658 0.33532515060101331 0 0.40067674085149468 0.34978701555526459 0 0.40727453339062492 0.32377497219610513 0 0.40006164249417658 0.33532515060101331 0 0.39801244116108758 0.32739690091070639 0 0.40006164249417658 0.33532515060101331 0 0.39172822975846339 0.33031604059173753 0 0.39801244116108758 0.32739690091070639 0 0.40006164249417658 0.33532515060101331 0 0.38645969875443631 0.34488537444165851 0 0.40067674085149468 0.34978701555526459 0 0.40006164249417658 0.33532515060101331 0 0.39172822975846339 0.33031604059173753 0 0.38645969875443631 0.34488537444165851 0 0.41858207982252221 0.31281913805101669 0 0.40037557902751519 0.31421624003209447 0 0.39298535900108561 0.32017144025396987 0 0.41858207982252221 0.31281913805101669 0 0.39298535900108561 0.32017144025396987 0 0.40727453339062492 0.32377497219610513 0 0.39801244116108758 0.32739690091070639 0 0.39298535900108561 0.32017144025396987 0 0.39172822975846339 0.33031604059173753 0 0.39801244116108758 0.32739690091070639 0 0.39298535900108561 0.32017144025396987 0 0.40037557902751519 0.31421624003209447 0 0.39298535900108561 0.32017144025396987 0 0.39113430604380928 0.31774128035276822 0 0.39569952705840239 0.30972125039471682 0 0.40037557902751519 0.31421624003209447 0 0.39113430604380928 0.31774128035276822 0 0.36724135121771312 0.3127044829703266 0 0.39113430604380928 0.31774128035276822 0 0.37973294640935801 0.31921225452171692 0 0.36724135121771312 0.3127044829703266 0 0.39113430604380928 0.31774128035276822 0 0.36757076937482408 0.32623181450980288 0 0.39298535900108561 0.32017144025396987 0 0.38201645205652018 0.33218132276933099 0 0.36757076937482408 0.32623181450980288 0 0.39298535900108561 0.32017144025396987 0 0.36757076937482408 0.32623181450980288 0 0.39298535900108561 0.32017144025396987 0 0.37973294640935801 0.31921225452171692 0 0.39298535900108561 0.32017144025396987 0 0.39113430604380928 0.31774128035276822 0 0.37973294640935801 0.31921225452171692 0 0.39172822975846339 0.33031604059173753 0 0.39298535900108561 0.32017144025396987 0 0.38201645205652018 0.33218132276933099 0 0.37069762144115292 0.33982204165680741 0 0.38201645205652018 0.33218132276933099 0 0.38645969875443631 0.34488537444165851 0 0.39172822975846339 0.33031604059173753 0 0.38201645205652018 0.33218132276933099 0 0.38645969875443631 0.34488537444165851 0 0.37203753533867912 0.35485031491787372 0 0.37069762144115292 0.33982204165680741 0 0.38645969875443631 0.34488537444165851 0 0.37203753533867912 0.35485031491787372 0 0.38645969875443631 0.34488537444165851 0 0.38888953171271989 0.36748092606130123 0 0.36537856512772232 0.37105754052093382 0 0.37203753533867912 0.35485031491787372 0 0.38888953171271989 0.36748092606130123 0 0.36537856512772232 0.37105754052093382 0 0.38888953171271989 0.36748092606130123 0 0.3764668726657 0.38117041745600011 0 0.41184711231699772 0.36059290209428208 0 0.38888953171271989 0.36748092606130123 0 0.40857069416182512 0.38383382014235801 0 0.38645969875443631 0.34488537444165851 0 0.38888953171271989 0.36748092606130123 0 0.40067674085149468 0.34978701555526459 0 0.41184711231699772 0.36059290209428208 0 0.38888953171271989 0.36748092606130123 0 0.40067674085149468 0.34978701555526459 0 0.38928863256417751 0.39278062047207962 0 0.37995596981844992 0.41187890682635497 0 0.40529427600665308 0.40707473819043388 0 0.38928863256417751 0.39278062047207962 0 0.40529427600665308 0.40707473819043388 0 0.40857069416182512 0.38383382014235801 0 0.38888953171271989 0.36748092606130123 0 0.38928863256417751 0.39278062047207962 0 0.40857069416182512 0.38383382014235801 0 0.36231076125818051 0.39336258276968578 0 0.3764668726657 0.38117041745600011 0 0.38928863256417751 0.39278062047207962 0 0.38888953171271989 0.36748092606130123 0 0.3764668726657 0.38117041745600011 0 0.38928863256417751 0.39278062047207962 0 0.36231076125818051 0.39336258276968578 0 0.38928863256417751 0.39278062047207962 0 0.37995596981844992 0.41187890682635497 0 0.37995596981844992 0.41187890682635497 0 0.38229372058655747 0.43229115045649208 0 0.40364842836433662 0.41874938054778499 0 0.38229372058655747 0.43229115045649208 0 0.40197563778236739 0.4306151397353456 0 0.38267153858502978 0.44754007165100518 0 0.36568023253862642 0.42940852557186038 0 0.37995596981844992 0.41187890682635497 0 0.38229372058655747 0.43229115045649208 0 0.38229372058655747 0.43229115045649208 0 0.40197563778236739 0.4306151397353456 0 0.40364842836433662 0.41874938054778499 0 0.38229372058655747 0.43229115045649208 0 0.40364842836433662 0.41874938054778499 0 0.40197563778236739 0.4306151397353456 0 0.40364842836433662 0.41874938054778499 0 0.37995596981844992 0.41187890682635497 0 0.40529427600665308 0.40707473819043388 0 0.37995596981844992 0.41187890682635497 0 0.40364842836433662 0.41874938054778499 0 0.40529427600665308 0.40707473819043388 0 0.40364842836433662 0.41874938054778499 0 0.40529427600665308 0.40707473819043388 0 0.40364842836433662 0.41874938054778499 0 0.41658839364271372 0.41780335838733701 0 0.42920909565732962 0.40254046405047988 0 0.40364842836433662 0.41874938054778499 0 0.40529427600665308 0.40707473819043388 0 0.42920909565732962 0.40254046405047988 0 0.40364842836433662 0.41874938054778499 0 0.42920909565732962 0.40254046405047988 0 0.40197563778236739 0.4306151397353456 0 0.41464478005298899 0.43154761084323567 0 0.40965168246842221 0.44281131253502359 0 0.40197563778236739 0.4306151397353456 0 0.41658839364271372 0.41780335838733701 0 0.41464478005298899 0.43154761084323567 0 0.40197563778236739 0.4306151397353456 0 0.41658839364271372 0.41780335838733701 0 0.40197563778236739 0.4306151397353456 0 0.40364842836433662 0.41874938054778499 0 0.41658839364271372 0.41780335838733701 0 0.41658839364271372 0.41780335838733701 0 0.41464478005298899 0.43154761084323567 0 0.42374344448656431 0.42685134825409438 0 0.41464478005298899 0.43154761084323567 0 0.42374344448656431 0.42685134825409438 0 0.42185625058091791 0.44032097903512601 0 0.42374344448656431 0.42685134825409438 0 0.43421620114112303 0.43507582088741348 0 0.42185625058091791 0.44032097903512601 0 0.42374344448656431 0.42685134825409438 0 0.43338117113269242 0.42307809724704021 0 0.42772097482353022 0.41712794947061549 0 0.42374344448656431 0.42685134825409438 0 0.43338117113269242 0.42307809724704021 0 0.43421620114112303 0.43507582088741348 0 0.41658839364271372 0.41780335838733701 0 0.43120114950306049 0.40499157703932909 0 0.42920909565732962 0.40254046405047988 0 0.41658839364271372 0.41780335838733701 0 0.43120114950306049 0.40499157703932909 0 0.41658839364271372 0.41780335838733701 0 0.42772097482353022 0.41712794947061549 0 0.43120114950306049 0.40499157703932909 0 0.41658839364271372 0.41780335838733701 0 0.42374344448656431 0.42685134825409438 0 0.42772097482353022 0.41712794947061549 0 0.43338117113269242 0.42307809724704021 0 0.43369071535261988 0.41291536642527688 0 0.44278805018751949 0.41854150159261011 0 0.43338117113269242 0.42307809724704021 0 0.42772097482353022 0.41712794947061549 0 0.43369071535261988 0.41291536642527688 0 0.43369071535261988 0.41291536642527688 0 0.436442040365566 0.40590226622026498 0 0.43120114950306049 0.40499157703932909 0 0.43369071535261988 0.41291536642527688 0 0.436442040365566 0.40590226622026498 0 0.44154960743607991 0.40868163964819082 0 0.42772097482353022 0.41712794947061549 0 0.43369071535261988 0.41291536642527688 0 0.43120114950306049 0.40499157703932909 0 0.43354408375822018 0.40171854589554618 0 0.42920909565732962 0.40254046405047988 0 0.44738674428575481 0.39101337888645321 0 0.42920909565732962 0.40254046405047988 0 0.43024145145636472 0.38059251978062691 0 0.44738674428575481 0.39101337888645321 0 0.436442040365566 0.40590226622026498 0 0.43354408375822018 0.40171854589554618 0 0.44193959002428462 0.40229693711507369 0 0.436442040365566 0.40590226622026498 0 0.43354408375822018 0.40171854589554618 0 0.43120114950306049 0.40499157703932909 0 0.43354408375822018 0.40171854589554618 0 0.42920909565732962 0.40254046405047988 0 0.43354408375822018 0.40171854589554618 0 0.43120114950306049 0.40499157703932909 0 0.42920909565732962 0.40254046405047988 0 0.40529427600665308 0.40707473819043388 0 0.42920909565732962 0.40254046405047988 0 0.40857069416182512 0.38383382014235801 0 0.40529427600665308 0.40707473819043388 0 0.40857069416182512 0.38383382014235801 0 0.40529427600665308 0.40707473819043388 0 0.42920909565732962 0.40254046405047988 0 0.41184711231699772 0.36059290209428208 0 0.40857069416182512 0.38383382014235801 0 0.43024145145636472 0.38059251978062691 0 0.42920909565732962 0.40254046405047988 0 0.40857069416182512 0.38383382014235801 0 0.43024145145636472 0.38059251978062691 0 0.43024145145636472 0.38059251978062691 0 0.45015679188583452 0.37528543496302658 0 0.44738674428575481 0.39101337888645321 0 0.42920909565732962 0.40254046405047988 0 0.44738674428575481 0.39101337888645321 0 0.44193959002428462 0.40229693711507369 0 0.45077547427580172 0.40416885492491328 0 0.44154960743607991 0.40868163964819082 0 0.436442040365566 0.40590226622026498 0 0.44193959002428462 0.40229693711507369 0 0.44154960743607991 0.40868163964819082 0 0.43354408375822018 0.40171854589554618 0 0.44193959002428462 0.40229693711507369 0 0.44738674428575481 0.39101337888645321 0 0.44193959002428462 0.40229693711507369 0 0.44738674428575481 0.39101337888645321 0 0.45077547427580172 0.40416885492491328 0 0.44738674428575481 0.39101337888645321 0 0.45077547427580172 0.40416885492491328 0 0.46512394536637242 0.39866832111088002 0 0.45077547427580172 0.40416885492491328 0 0.46512394536637242 0.39866832111088002 0 0.4599206958743744 0.41273624169713008 0 0.45015679188583452 0.37528543496302658 0 0.44738674428575481 0.39101337888645321 0 0.46556439291418061 0.37948629372242748 0 0.44738674428575481 0.39101337888645321 0 0.46556439291418061 0.37948629372242748 0 0.44738674428575481 0.39101337888645321 0 0.46512394536637242 0.39866832111088002 0 0.46556439291418061 0.37948629372242748 0 0.46512394536637242 0.39866832111088002 0 0.46556439291418061 0.37948629372242748 0 0.48387210684197202 0.38902596270610512 0 0.48374204154260653 0.3679592085584017 0 0.46556439291418061 0.37948629372242748 0 0.48387210684197202 0.38902596270610512 0 0.46512394536637242 0.39866832111088002 0 0.48387210684197202 0.38902596270610512 0 0.47883453983207402 0.41401037351773212 0 0.48387210684197202 0.38902596270610512 0 0.5 0.40288802751469571 0 0.47883453983207402 0.41401037351773212 0 0.5 0.37451878459760818 0 0.48374204154260653 0.3679592085584017 0 0.48387210684197202 0.38902596270610512 0 0.5 0.37451878459760818 0 0.48387210684197202 0.38902596270610512 0 0.5 0.40288802751469571 0 0.5 0.43125727043178319 0 0.47883453983207402 0.41401037351773212 0 0.47830650290725019 0.436153432658416 0 0.5 0.40288802751469571 0 0.5 0.43125727043178319 0 0.47883453983207402 0.41401037351773212 0 0.47883453983207402 0.41401037351773212 0 0.47830650290725019 0.436153432658416 0 0.46366595507111341 0.42766591515506902 0 0.46366595507111341 0.42766591515506902 0 0.44705288400500959 0.43091083881267622 0 0.46116288414391582 0.44506538369413828 0 0.46366595507111341 0.42766591515506902 0 0.4523749584104792 0.42051276867426579 0 0.44705288400500959 0.43091083881267622 0 0.47830650290725019 0.436153432658416 0 0.46366595507111341 0.42766591515506902 0 0.46116288414391582 0.44506538369413828 0 0.47883453983207402 0.41401037351773212 0 0.46366595507111341 0.42766591515506902 0 0.4599206958743744 0.41273624169713008 0 0.46512394536637242 0.39866832111088002 0 0.47883453983207402 0.41401037351773212 0 0.4599206958743744 0.41273624169713008 0 0.4599206958743744 0.41273624169713008 0 0.44844720691437889 0.41270934611384358 0 0.4523749584104792 0.42051276867426579 0 0.46366595507111341 0.42766591515506902 0 0.4599206958743744 0.41273624169713008 0 0.4523749584104792 0.42051276867426579 0 0.45077547427580172 0.40416885492491328 0 0.44844720691437889 0.41270934611384358 0 0.44154960743607991 0.40868163964819082 0 0.45077547427580172 0.40416885492491328 0 0.4599206958743744 0.41273624169713008 0 0.44844720691437889 0.41270934611384358 0 0.44844720691437889 0.41270934611384358 0 0.4523749584104792 0.42051276867426579 0 0.44278805018751949 0.41854150159261011 0 0.43369071535261988 0.41291536642527688 0 0.44278805018751949 0.41854150159261011 0 0.44154960743607991 0.40868163964819082 0 0.44844720691437889 0.41270934611384358 0 0.44278805018751949 0.41854150159261011 0 0.44154960743607991 0.40868163964819082 0 0.4523749584104792 0.42051276867426579 0 0.44278805018751949 0.41854150159261011 0 0.44705288400500959 0.43091083881267622 0 0.43338117113269242 0.42307809724704021 0 0.44278805018751949 0.41854150159261011 0 0.44705288400500959 0.43091083881267622 0 0.43338117113269242 0.42307809724704021 0 0.43421620114112303 0.43507582088741348 0 0.44705288400500959 0.43091083881267622 0 0.43421620114112303 0.43507582088741348 0 0.44705288400500959 0.43091083881267622 0 0.4476980995236759 0.44403549919921897 0 0.43421620114112303 0.43507582088741348 0 0.4476980995236759 0.44403549919921897 0 0.43542368458675212 0.44787957123825389 0 0.4476980995236759 0.44403549919921897 0 0.45003972958078831 0.45945261823967659 0 0.43542368458675212 0.44787957123825389 0 0.4476980995236759 0.44403549919921897 0 0.45003972958078831 0.45945261823967659 0 0.46116288414391582 0.44506538369413828 0 0.44705288400500959 0.43091083881267622 0 0.4476980995236759 0.44403549919921897 0 0.46116288414391582 0.44506538369413828 0 0.45003972958078831 0.45945261823967659 0 0.43523664704459991 0.47490036341564779 0 0.43542368458675212 0.44787957123825389 0 0.45003972958078831 0.45945261823967659 0 0.46496033530244202 0.46552475016542672 0 0.45449806799291848 0.4790002954677639 0 0.45003972958078831 0.45945261823967659 0 0.46496033530244202 0.46552475016542672 0 0.46116288414391582 0.44506538369413828 0 0.46496033530244202 0.46552475016542672 0 0.46116288414391582 0.44506538369413828 0 0.4774729323040286 0.4560761887905817 0 0.47830650290725019 0.436153432658416 0 0.46116288414391582 0.44506538369413828 0 0.4774729323040286 0.4560761887905817 0 0.46496033530244202 0.46552475016542672 0 0.4774729323040286 0.4560761887905817 0 0.48293493916653518 0.4740108640860568 0 0.4774729323040286 0.4560761887905817 0 0.5 0.45962651334887072 0 0.48293493916653518 0.4740108640860568 0 0.5 0.43125727043178319 0 0.47830650290725019 0.436153432658416 0 0.5 0.45962651334887072 0 0.47830650290725019 0.436153432658416 0 0.4774729323040286 0.4560761887905817 0 0.5 0.45962651334887072 0 0.4850830589683699 0.49399787813297752 0 0.5 0.5 0 0.47016611793674151 0.49999999999999839 0 0.4850830589683699 0.49399787813297752 0 0.49999999999999889 0.48799575626595831 0 0.48293493916653518 0.4740108640860568 0 0.4850830589683699 0.49399787813297752 0 0.5 0.5 0 0.49999999999999889 0.48799575626595831 0 0.4850830589683699 0.49399787813297752 0 0.49999999999999889 0.48799575626595831 0 0.5 0.45962651334887072 0 0.49999999999999889 0.48799575626595831 0 0.48293493916653518 0.4740108640860568 0 0.46496033530244202 0.46552475016542672 0 0.48293493916653518 0.4740108640860568 0 0.47096222736365029 0.48382258407943368 0 0.4850830589683699 0.49399787813297752 0 0.48293493916653518 0.4740108640860568 0 0.47096222736365029 0.48382258407943368 0 0.4850830589683699 0.49399787813297752 0 0.47096222736365029 0.48382258407943368 0 0.47016611793674151 0.49999999999999839 0 0.4850830589683699 0.49399787813297752 0 0.47016611793674151 0.49999999999999839 0 0.47096222736365029 0.48382258407943368 0 0.47016611793674151 0.49999999999999839 0 0.45995045784101868 0.4907057198867994 0 0.47016611793674151 0.49999999999999839 0 0.45995045784101868 0.4907057198867994 0 0.44417541807076483 0.5 0 0.47096222736365029 0.48382258407943368 0 0.45995045784101868 0.4907057198867994 0 0.45449806799291848 0.4790002954677639 0 0.46496033530244202 0.46552475016542672 0 0.47096222736365029 0.48382258407943368 0 0.45449806799291848 0.4790002954677639 0 0.45003972958078831 0.45945261823967659 0 0.45449806799291848 0.4790002954677639 0 0.43523664704459991 0.47490036341564779 0 0.45995045784101868 0.4907057198867994 0 0.45449806799291848 0.4790002954677639 0 0.44417541807076483 0.5 0 0.45449806799291848 0.4790002954677639 0 0.44417541807076483 0.5 0 0.43523664704459991 0.47490036341564779 0 0.44417541807076483 0.5 0 0.41818471820478809 0.5 0 0.43523664704459991 0.47490036341564779 0 0.41818471820478809 0.5 0 0.41436964748118099 0.48101581199728882 0 0.43523664704459991 0.47490036341564779 0 0.41818471820478809 0.5 0 0.41436964748118099 0.48101581199728882 0 0.39219401833881118 0.49999999999999151 0 0.41436964748118099 0.48101581199728882 0 0.41668882052398792 0.46046401620365263 0 0.39545455815332942 0.47687171324510952 0 0.41436964748118099 0.48101581199728882 0 0.43523664704459991 0.47490036341564779 0 0.41668882052398792 0.46046401620365263 0 0.43523664704459991 0.47490036341564779 0 0.43542368458675212 0.44787957123825389 0 0.41668882052398792 0.46046401620365263 0 0.43542368458675212 0.44787957123825389 0 0.42185625058091791 0.44032097903512601 0 0.41668882052398792 0.46046401620365263 0 0.43421620114112303 0.43507582088741348 0 0.43542368458675212 0.44787957123825389 0 0.42185625058091791 0.44032097903512601 0 0.40965168246842221 0.44281131253502359 0 0.41668882052398792 0.46046401620365263 0 0.39871509796784882 0.45374342649022759 0 0.42185625058091791 0.44032097903512601 0 0.40965168246842221 0.44281131253502359 0 0.41668882052398792 0.46046401620365263 0 0.41464478005298899 0.43154761084323567 0 0.42185625058091791 0.44032097903512601 0 0.40965168246842221 0.44281131253502359 0 0.39871509796784882 0.45374342649022759 0 0.38139011217877611 0.46554983394391802 0 0.39545455815332942 0.47687171324510952 0 0.39871509796784882 0.45374342649022759 0 0.39545455815332942 0.47687171324510952 0 0.41668882052398792 0.46046401620365263 0 0.39871509796784882 0.45374342649022759 0 0.39545455815332942 0.47687171324510952 0 0.40197563778236739 0.4306151397353456 0 0.38267153858502978 0.44754007165100518 0 0.40197563778236739 0.4306151397353456 0 0.39871509796784882 0.45374342649022759 0 0.38267153858502978 0.44754007165100518 0 0.40197563778236739 0.4306151397353456 0 0.40965168246842221 0.44281131253502359 0 0.39871509796784882 0.45374342649022759 0 0.40197563778236739 0.4306151397353456 0 0.39871509796784882 0.45374342649022759 0 0.36093901280877527 0.4458329203651944 0 0.38229372058655747 0.43229115045649208 0 0.38267153858502978 0.44754007165100518 0 0.39871509796784882 0.45374342649022759 0 0.38267153858502978 0.44754007165100518 0 0.38139011217877611 0.46554983394391802 0 0.36336743938769273 0.46446500356666559 0 0.38267153858502978 0.44754007165100518 0 0.38139011217877611 0.46554983394391802 0 0.37231271511160657 0.48183561470949499 0 0.38139011217877611 0.46554983394391802 0 0.39545455815332942 0.47687171324510952 0 0.37231271511160657 0.48183561470949499 0 0.39219401833881118 0.49999999999999151 0 0.39545455815332942 0.47687171324510952 0 0.36302555917851992 0.5 0 0.37231271511160657 0.48183561470949499 0 0.39219401833881118 0.49999999999999151 0 0.41436964748118099 0.48101581199728882 0 0.39219401833881118 0.49999999999999151 0 0.39545455815332942 0.47687171324510952 0 0.39219401833881118 0.49999999999999151 0 0.39545455815332942 0.47687171324510952 0 0.33434525985227692 0.085223886848625724 0 0.33295678237235837 0.074893155024705782 0 0.32602880821617569 0.083645774024160707 0 0.33434525985227692 0.085223886848625724 0 0.32602880821617569 0.083645774024160707 0 0.33041479664506218 0.094181855435424067 0 0.33434525985227692 0.085223886848625724 0 0.34071241049088308 0.092130631414454905 0 0.33041479664506218 0.094181855435424067 0 0.33434525985227692 0.085223886848625724 0 0.34071241049088308 0.092130631414454905 0 0.34161350153690478 0.081268018344383103 0 0.34071241049088308 0.092130631414454905 0 0.34161350153690478 0.081268018344383103 0 0.34657148655642123 0.086647532759032087 0 0.33434525985227692 0.085223886848625724 0 0.34161350153690478 0.081268018344383103 0 0.33295678237235837 0.074893155024705782 0 0.34161350153690478 0.081268018344383103 0 0.34232160884578589 0.068860258481103484 0 0.33295678237235837 0.074893155024705782 0 0.34232160884578589 0.068860258481103484 0 0.34865566537940218 0.067553398393598155 0 0.33656383503670528 0.062486619514863027 0 0.34232160884578589 0.068860258481103484 0 0.33235713648757398 0.062670344195356747 0 0.33656383503670528 0.062486619514863027 0 0.34232160884578589 0.068860258481103484 0 0.33235713648757398 0.062670344195356747 0 0.34232160884578589 0.068860258481103484 0 0.33656383503670528 0.062486619514863027 0 0.33235713648757398 0.062670344195356747 0 0.33295678237235837 0.074893155024705782 0 0.32356636207862999 0.07263450921363096 0 0.34232160884578589 0.068860258481103484 0 0.33235713648757398 0.062670344195356747 0 0.33295678237235837 0.074893155024705782 0 0.33235713648757398 0.062670344195356747 0 0.33656383503670528 0.062486619514863027 0 0.33295678237235837 0.074893155024705782 0 0.32356636207862999 0.07263450921363096 0 0.32602880821617569 0.083645774024160707 0 0.33235713648757398 0.062670344195356747 0 0.31196244370916693 0.063561068446377017 0 0.33235713648757398 0.062670344195356747 0 0.32356636207862999 0.07263450921363096 0 0.31196244370916693 0.063561068446377017 0 0.32356636207862999 0.07263450921363096 0 0.31441924175684671 0.078804472958115254 0 0.31196244370916693 0.063561068446377017 0 0.31441924175684671 0.078804472958115254 0 0.32602880821617569 0.083645774024160707 0 0.31737223579994472 0.10312874901782761 0 0.32602880821617569 0.083645774024160707 0 0.31737223579994472 0.10312874901782761 0 0.33041479664506218 0.094181855435424067 0 0.32356636207862999 0.07263450921363096 0 0.31441924175684671 0.078804472958115254 0 0.32602880821617569 0.083645774024160707 0 0.31737223579994472 0.10312874901782761 0 0.33041479664506218 0.094181855435424067 0 0.33330470471333618 0.10494316204185181 0 0.31456226573870572 0.1188145171696544 0 0.33123347744569942 0.1212212529499641 0 0.31588783824187888 0.12963869222719099 0 0.31737223579994472 0.10312874901782761 0 0.31456226573870572 0.1188145171696544 0 0.33123347744569942 0.1212212529499641 0 0.31737223579994472 0.10312874901782761 0 0.31456226573870572 0.1188145171696544 0 0.30624020578140893 0.11367679579694361 0 0.31737223579994472 0.10312874901782761 0 0.33123347744569942 0.1212212529499641 0 0.33330470471333618 0.10494316204185181 0 0.31737223579994472 0.10312874901782761 0 0.33123347744569942 0.1212212529499641 0 0.33123347744569942 0.1212212529499641 0 0.33330470471333618 0.10494316204185181 0 0.34544726938425913 0.1109786392591034 0 0.33123347744569942 0.1212212529499641 0 0.34773068287978609 0.1245784996473145 0 0.34544726938425913 0.1109786392591034 0 0.34071241049088308 0.092130631414454905 0 0.33041479664506218 0.094181855435424067 0 0.33330470471333618 0.10494316204185181 0 0.33330470471333618 0.10494316204185181 0 0.34811428724040611 0.1004277981593413 0 0.34544726938425913 0.1109786392591034 0 0.34071241049088308 0.092130631414454905 0 0.33330470471333618 0.10494316204185181 0 0.34811428724040611 0.1004277981593413 0 0.34071241049088308 0.092130631414454905 0 0.34811428724040611 0.1004277981593413 0 0.34993085205738322 0.091371379664849428 0 0.34811428724040611 0.1004277981593413 0 0.35486742081066841 0.106063808358349 0 0.34544726938425913 0.1109786392591034 0 0.35486742081066841 0.106063808358349 0 0.35813617926949909 0.097580332816774584 0 0.36320319731235018 0.1016970897903782 0 0.34811428724040611 0.1004277981593413 0 0.35486742081066841 0.106063808358349 0 0.35813617926949909 0.097580332816774584 0 0.34811428724040611 0.1004277981593413 0 0.35813617926949909 0.097580332816774584 0 0.34993085205738322 0.091371379664849428 0 0.34773068287978609 0.1245784996473145 0 0.34544726938425913 0.1109786392591034 0 0.35212396698882892 0.1166423822157673 0 0.35486742081066841 0.106063808358349 0 0.34544726938425913 0.1109786392591034 0 0.35212396698882892 0.1166423822157673 0 0.35212396698882892 0.1166423822157673 0 0.36114027346562888 0.11824685649907329 0 0.36217962466866749 0.1090566079087292 0 0.35486742081066841 0.106063808358349 0 0.35212396698882892 0.1166423822157673 0 0.36217962466866749 0.1090566079087292 0 0.34773068287978609 0.1245784996473145 0 0.35212396698882892 0.1166423822157673 0 0.36114027346562888 0.11824685649907329 0 0.34773068287978609 0.1245784996473145 0 0.36114027346562888 0.11824685649907329 0 0.36075382445134618 0.1280917515473739 0 0.36114027346562888 0.11824685649907329 0 0.37120354339752631 0.11933077434222621 0 0.36075382445134618 0.1280917515473739 0 0.36114027346562888 0.11824685649907329 0 0.36217962466866749 0.1090566079087292 0 0.37283881518866352 0.1092023578701464 0 0.36114027346562888 0.11824685649907329 0 0.37120354339752631 0.11933077434222621 0 0.37283881518866352 0.1092023578701464 0 0.36573675543524009 0.094779944743779626 0 0.36320319731235018 0.1016970897903782 0 0.36982684613364503 0.099307521254285991 0 0.35813617926949909 0.097580332816774584 0 0.36573675543524009 0.094779944743779626 0 0.35813617926949909 0.097580332816774584 0 0.36573675543524009 0.094779944743779626 0 0.36320319731235018 0.1016970897903782 0 0.35486742081066841 0.106063808358349 0 0.36320319731235018 0.1016970897903782 0 0.36217962466866749 0.1090566079087292 0 0.36320319731235018 0.1016970897903782 0 0.36701212082583151 0.1048158942058849 0 0.36982684613364503 0.099307521254285991 0 0.36320319731235018 0.1016970897903782 0 0.36217962466866749 0.1090566079087292 0 0.36701212082583151 0.1048158942058849 0 0.36701212082583151 0.1048158942058849 0 0.37283881518866352 0.1092023578701464 0 0.36982684613364503 0.099307521254285991 0 0.36217962466866749 0.1090566079087292 0 0.36701212082583151 0.1048158942058849 0 0.37283881518866352 0.1092023578701464 0 0.36573675543524009 0.094779944743779626 0 0.36982684613364503 0.099307521254285991 0 0.36573675543524009 0.094779944743779626 0 0.37449503421231478 0.081860185604329117 0 0.36425719543108898 0.084348464620327995 0 0.36573675543524009 0.094779944743779626 0 0.36982684613364503 0.099307521254285991 0 0.38739311114497182 0.086800786465305049 0 0.37449503421231478 0.081860185604329117 0 0.36425719543108898 0.084348464620327995 0 0.36458221102563088 0.072899006778559497 0 0.36573675543524009 0.094779944743779626 0 0.35402918214051371 0.081820101612440924 0 0.36573675543524009 0.094779944743779626 0 0.36425719543108898 0.084348464620327995 0 0.35402918214051371 0.081820101612440924 0 0.35813617926949909 0.097580332816774584 0 0.35402918214051371 0.081820101612440924 0 0.34993085205738322 0.091371379664849428 0 0.35813617926949909 0.097580332816774584 0 0.36573675543524009 0.094779944743779626 0 0.35402918214051371 0.081820101612440924 0 0.36425719543108898 0.084348464620327995 0 0.35402918214051371 0.081820101612440924 0 0.35620223234105808 0.073627892518187993 0 0.34161350153690478 0.081268018344383103 0 0.35402918214051371 0.081820101612440924 0 0.34657148655642123 0.086647532759032087 0 0.35402918214051371 0.081820101612440924 0 0.34993085205738322 0.091371379664849428 0 0.34657148655642123 0.086647532759032087 0 0.34071241049088308 0.092130631414454905 0 0.34993085205738322 0.091371379664849428 0 0.34657148655642123 0.086647532759032087 0 0.34865566537940218 0.067553398393598155 0 0.35434537534549282 0.061710022909774523 0 0.33656383503670528 0.062486619514863027 0 0.34232160884578589 0.068860258481103484 0 0.34865566537940218 0.067553398393598155 0 0.35068547246007609 0.074055877176102125 0 0.34232160884578589 0.068860258481103484 0 0.35068547246007609 0.074055877176102125 0 0.34232160884578589 0.068860258481103484 0 0.35402918214051371 0.081820101612440924 0 0.34161350153690478 0.081268018344383103 0 0.34232160884578589 0.068860258481103484 0 0.35402918214051371 0.081820101612440924 0 0.34232160884578589 0.068860258481103484 0 0.35402918214051371 0.081820101612440924 0 0.35068547246007609 0.074055877176102125 0 0.35402918214051371 0.081820101612440924 0 0.35068547246007609 0.074055877176102125 0 0.35620223234105808 0.073627892518187993 0 0.34865566537940218 0.067553398393598155 0 0.35068547246007609 0.074055877176102125 0 0.35620223234105808 0.073627892518187993 0 0.34865566537940218 0.067553398393598155 0 0.35620223234105808 0.073627892518187993 0 0.35434537534549282 0.061710022909774523 0 0.35620223234105808 0.073627892518187993 0 0.36458221102563088 0.072899006778559497 0 0.35434537534549282 0.061710022909774523 0 0.36458221102563088 0.072899006778559497 0 0.37212691565428019 0.06093342630468538 0 0.35434537534549282 0.061710022909774523 0 0.37449503421231478 0.081860185604329117 0 0.37212691565428019 0.06093342630468538 0 0.37449503421231478 0.081860185604329117 0 0.36458221102563088 0.072899006778559497 0 0.37212691565428019 0.06093342630468538 0 0.36425719543108898 0.084348464620327995 0 0.35620223234105808 0.073627892518187993 0 0.36458221102563088 0.072899006778559497 0 0.37212691565428019 0.06093342630468538 0 0.36919054831138548 0.034985125535885932 0 0.380293339954552 0.051151997288722093 0 0.37212691565428019 0.06093342630468538 0 0.36919054831138548 0.034985125535885932 0 0.37212691565428019 0.06093342630468538 0 0.36173455356601553 0.049106415544006063 0 0.35434537534549282 0.061710022909774523 0 0.37212691565428019 0.06093342630468538 0 0.35434537534549282 0.061710022909774523 0 0.37212691565428019 0.06093342630468538 0 0.36173455356601553 0.049106415544006063 0 0.36919054831138548 0.034985125535885932 0 0.36919054831138548 0.034985125535885932 0 0.35796885987439342 0.040027147951826179 0 0.35659641833881178 0.031235829446382139 0 0.36173455356601553 0.049106415544006063 0 0.36919054831138548 0.034985125535885932 0 0.35796885987439342 0.040027147951826179 0 0.36173455356601553 0.049106415544006063 0 0.35796885987439342 0.040027147951826179 0 0.35301299584274942 0.047536057305405187 0 0.35796885987439342 0.040027147951826179 0 0.34930978331300472 0.037272311927451549 0 0.35301299584274942 0.047536057305405187 0 0.35796885987439342 0.040027147951826179 0 0.34930978331300472 0.037272311927451549 0 0.35659641833881178 0.031235829446382139 0 0.34930978331300472 0.037272311927451549 0 0.35659641833881178 0.031235829446382139 0 0.34983165429550023 0.028368671678766218 0 0.34930978331300472 0.037272311927451549 0 0.34428485728400271 0.030005401355308711 0 0.34138554356790868 0.034687097574719723 0 0.34930978331300472 0.037272311927451549 0 0.34983165429550023 0.028368671678766218 0 0.34428485728400271 0.030005401355308711 0 0.34930978331300472 0.037272311927451549 0 0.34126215607840221 0.040750250202241461 0 0.34138554356790868 0.034687097574719723 0 0.34930978331300472 0.037272311927451549 0 0.34614202918886172 0.04495084918918707 0 0.34126215607840221 0.040750250202241461 0 0.34930978331300472 0.037272311927451549 0 0.34614202918886172 0.04495084918918707 0 0.35301299584274942 0.047536057305405187 0 0.34677892346112132 0.052289896261448143 0 0.35434537534549282 0.061710022909774523 0 0.35301299584274942 0.047536057305405187 0 0.35434537534549282 0.061710022909774523 0 0.33656383503670528 0.062486619514863027 0 0.34196216895507758 0.05603592695369191 0 0.34614202918886172 0.04495084918918707 0 0.34677892346112132 0.052289896261448143 0 0.34026427424152977 0.048466856868302197 0 0.35434537534549282 0.061710022909774523 0 0.33656383503670528 0.062486619514863027 0 0.34614202918886172 0.04495084918918707 0 0.34677892346112132 0.052289896261448143 0 0.35301299584274942 0.047536057305405187 0 0.34677892346112132 0.052289896261448143 0 0.35434537534549282 0.061710022909774523 0 0.34196216895507758 0.05603592695369191 0 0.36173455356601553 0.049106415544006063 0 0.35434537534549282 0.061710022909774523 0 0.35301299584274942 0.047536057305405187 0 0.36550899953369981 0.0024517522133788799 0 0.36745106585583581 0.0096593148345833872 0 0.37089158385951743 0.0034932803020960969 0 0.37956009188044232 0.0054639270967038961 0 0.37335478626556751 -0.0010199995163838169 0 0.37089158385951743 0.0034932803020960969 0 0.36745106585583581 0.0096593148345833872 0 0.37956009188044232 0.0054639270967038961 0 0.36550899953369981 0.0024517522133788799 0 0.37089158385951743 0.0034932803020960969 0 0.37335478626556751 -0.0010199995163838169 0 0.36550899953369981 0.0024517522133788799 0 0.37089158385951743 0.0034932803020960969 0 0.36745106585583581 0.0096593148345833872 0 0.36745106585583581 0.0096593148345833872 0 0.36021524735595539 0.010233273742162379 0 0.35850969402454402 0.0088072403270883903 0 0.36745106585583581 0.0096593148345833872 0 0.36222173146214581 0.01250586891256893 0 0.36237142560905727 0.01777768451344203 0 0.36745106585583581 0.0096593148345833872 0 0.35850969402454402 0.0088072403270883903 0 0.3525825563107593 0.005303006154672248 0 0.36745106585583581 0.0096593148345833872 0 0.36021524735595539 0.010233273742162379 0 0.36222173146214581 0.01250586891256893 0 0.36237142560905727 0.01777768451344203 0 0.35689925508096138 0.01520074180235689 0 0.35933889019421789 0.01327468512299256 0 0.36222173146214581 0.01250586891256893 0 0.36237142560905727 0.01777768451344203 0 0.35933889019421789 0.01327468512299256 0 0.36021524735595539 0.010233273742162379 0 0.36222173146214581 0.01250586891256893 0 0.35933889019421789 0.01327468512299256 0 0.36919054831138548 0.034985125535885932 0 0.36745106585583581 0.0096593148345833872 0 0.36237142560905727 0.01777768451344203 0 0.36919054831138548 0.034985125535885932 0 0.36745106585583581 0.0096593148345833872 0 0.37089736354892361 0.022449509562283719 0 0.36919054831138548 0.034985125535885932 0 0.36745106585583581 0.0096593148345833872 0 0.36919054831138548 0.034985125535885932 0 0.36237142560905727 0.01777768451344203 0 0.35853498599235478 0.023050639323253439 0 0.36745106585583581 0.0096593148345833872 0 0.37089736354892361 0.022449509562283719 0 0.36919054831138548 0.034985125535885932 0 0.37089736354892361 0.022449509562283719 0 0.38109424490894372 0.031302638199904267 0 0.36919054831138548 0.034985125535885932 0 0.35659641833881178 0.031235829446382139 0 0.35853498599235478 0.023050639323253439 0 0.35659641833881178 0.031235829446382139 0 0.35294422793862601 0.023851380212371869 0 0.35853498599235478 0.023050639323253439 0 0.35659641833881178 0.031235829446382139 0 0.35294422793862601 0.023851380212371869 0 0.34983165429550023 0.028368671678766218 0 0.34983165429550023 0.028368671678766218 0 0.34839312609445638 0.019747637033799861 0 0.34231291710592582 0.023914615526936009 0 0.35294422793862601 0.023851380212371869 0 0.34983165429550023 0.028368671678766218 0 0.34839312609445638 0.019747637033799861 0 0.34983165429550023 0.028368671678766218 0 0.34428485728400271 0.030005401355308711 0 0.34231291710592582 0.023914615526936009 0 0.34839312609445638 0.019747637033799861 0 0.34058208040281768 0.014824466778771349 0 0.34231291710592582 0.023914615526936009 0 0.34839312609445638 0.019747637033799861 0 0.34689066124018592 0.013720245915012899 0 0.34058208040281768 0.014824466778771349 0 0.34839312609445638 0.019747637033799861 0 0.35157848766937322 0.01463989357766558 0 0.34689066124018592 0.013720245915012899 0 0.34839312609445638 0.019747637033799861 0 0.35367001655515429 0.01929805838988953 0 0.35157848766937322 0.01463989357766558 0 0.35367001655515429 0.01929805838988953 0 0.35853498599235478 0.023050639323253439 0 0.35689925508096138 0.01520074180235689 0 0.35367001655515429 0.01929805838988953 0 0.35689925508096138 0.01520074180235689 0 0.35157848766937322 0.01463989357766558 0 0.36237142560905727 0.01777768451344203 0 0.35853498599235478 0.023050639323253439 0 0.35689925508096138 0.01520074180235689 0 0.35294422793862601 0.023851380212371869 0 0.34839312609445638 0.019747637033799861 0 0.35367001655515429 0.01929805838988953 0 0.35294422793862601 0.023851380212371869 0 0.35367001655515429 0.01929805838988953 0 0.35853498599235478 0.023050639323253439 0 0.36550899953369981 0.0024517522133788799 0 0.36745106585583581 0.0096593148345833872 0 0.34048390649112098 -0.004366084792897738 0 0.36745106585583581 0.0096593148345833872 0 0.34048390649112098 -0.004366084792897738 0 0.36745106585583581 0.0096593148345833872 0 0.3525825563107593 0.005303006154672248 0 0.34048390649112098 -0.004366084792897738 0 0.35689925508096138 0.01520074180235689 0 0.35933889019421789 0.01327468512299256 0 0.35498679146296958 0.010655856644432559 0 0.36021524735595539 0.010233273742162379 0 0.35850969402454402 0.0088072403270883903 0 0.35498679146296958 0.010655856644432559 0 0.36021524735595539 0.010233273742162379 0 0.35933889019421789 0.01327468512299256 0 0.35498679146296958 0.010655856644432559 0 0.35498679146296958 0.010655856644432559 0 0.34967236977288868 0.010048493035362019 0 0.3525825563107593 0.005303006154672248 0 0.35850969402454402 0.0088072403270883903 0 0.35498679146296958 0.010655856644432559 0 0.3525825563107593 0.005303006154672248 0 0.35689925508096138 0.01520074180235689 0 0.35498679146296958 0.010655856644432559 0 0.35157848766937322 0.01463989357766558 0 0.35498679146296958 0.010655856644432559 0 0.35157848766937322 0.01463989357766558 0 0.34967236977288868 0.010048493035362019 0 0.35157848766937322 0.01463989357766558 0 0.34689066124018592 0.013720245915012899 0 0.34967236977288868 0.010048493035362019 0 0.34689066124018592 0.013720245915012899 0 0.34555775455485188 0.0090199269618207907 0 0.34058208040281768 0.014824466778771349 0 0.34689066124018592 0.013720245915012899 0 0.34555775455485188 0.0090199269618207907 0 0.34967236977288868 0.010048493035362019 0 0.34555775455485188 0.0090199269618207907 0 0.34967236977288868 0.010048493035362019 0 0.34874324465030648 0.0067332563582576527 0 0.34874324465030648 0.0067332563582576527 0 0.34661422612040882 0.0032960273972630801 0 0.3525825563107593 0.005303006154672248 0 0.34967236977288868 0.010048493035362019 0 0.34874324465030648 0.0067332563582576527 0 0.3525825563107593 0.005303006154672248 0 0.34661422612040882 0.0032960273972630801 0 0.3525825563107593 0.005303006154672248 0 0.34048390649112098 -0.004366084792897738 0 0.34555775455485188 0.0090199269618207907 0 0.34661422612040882 0.0032960273972630801 0 0.33958905890479751 0.0062575172292186308 0 0.34555775455485188 0.0090199269618207907 0 0.34874324465030648 0.0067332563582576527 0 0.34661422612040882 0.0032960273972630801 0 0.33231672106315707 0.00076736276325971243 0 0.32927132637571033 0.0091537903724042483 0 0.3237582470597658 -0.0036832242047534821 0 0.33231672106315707 0.00076736276325971243 0 0.33958905890479751 0.0062575172292186308 0 0.32927132637571033 0.0091537903724042483 0 0.33231672106315707 0.00076736276325971243 0 0.34063004757963988 0.0011895600491483281 0 0.33958905890479751 0.0062575172292186308 0 0.34661422612040882 0.0032960273972630801 0 0.34063004757963988 0.0011895600491483281 0 0.34048390649112098 -0.004366084792897738 0 0.34661422612040882 0.0032960273972630801 0 0.34063004757963988 0.0011895600491483281 0 0.33958905890479751 0.0062575172292186308 0 0.34555775455485188 0.0090199269618207907 0 0.33958905890479751 0.0062575172292186308 0 0.34058208040281768 0.014824466778771349 0 0.33958905890479751 0.0062575172292186308 0 0.34058208040281768 0.014824466778771349 0 0.32927132637571033 0.0091537903724042483 0 0.34058208040281768 0.014824466778771349 0 0.32927132637571033 0.0091537903724042483 0 0.33259179226175811 0.02124494498093614 0 0.34058208040281768 0.014824466778771349 0 0.33259179226175811 0.02124494498093614 0 0.34231291710592582 0.023914615526936009 0 0.33259179226175811 0.02124494498093614 0 0.34231291710592582 0.023914615526936009 0 0.33701607703249692 0.0298701225898034 0 0.34428485728400271 0.030005401355308711 0 0.34231291710592582 0.023914615526936009 0 0.33701607703249692 0.0298701225898034 0 0.33259179226175811 0.02124494498093614 0 0.33701607703249692 0.0298701225898034 0 0.32817092864320679 0.030804032229243241 0 0.33259179226175811 0.02124494498093614 0 0.32817092864320679 0.030804032229243241 0 0.32049330478588373 0.018989680506113261 0 0.32817092864320679 0.030804032229243241 0 0.31729285203700458 0.030715300411105088 0 0.32049330478588373 0.018989680506113261 0 0.31729285203700458 0.030715300411105088 0 0.32049330478588373 0.018989680506113261 0 0.30565777065165689 0.017187559291614821 0 0.32927132637571033 0.0091537903724042483 0 0.33259179226175811 0.02124494498093614 0 0.32049330478588373 0.018989680506113261 0 0.32927132637571033 0.0091537903724042483 0 0.32049330478588373 0.018989680506113261 0 0.31505504448721611 0.0068383069611849916 0 0.32049330478588373 0.018989680506113261 0 0.31505504448721611 0.0068383069611849916 0 0.30565777065165689 0.017187559291614821 0 0.32927132637571033 0.0091537903724042483 0 0.31505504448721611 0.0068383069611849916 0 0.3237582470597658 -0.0036832242047534821 0 0.33235713648757398 0.062670344195356747 0 0.33656383503670528 0.062486619514863027 0 0.31800271709620059 0.041940160330230729 0 0.33545387579140629 0.052532674854295643 0 0.329754536179657 0.047339616089383058 0 0.33656383503670528 0.062486619514863027 0 0.33545387579140629 0.052532674854295643 0 0.329754536179657 0.047339616089383058 0 0.33453276772620782 0.046578197002638079 0 0.33545387579140629 0.052532674854295643 0 0.33656383503670528 0.062486619514863027 0 0.34196216895507758 0.05603592695369191 0 0.34677892346112132 0.052289896261448143 0 0.34196216895507758 0.05603592695369191 0 0.34026427424152977 0.048466856868302197 0 0.33545387579140629 0.052532674854295643 0 0.34196216895507758 0.05603592695369191 0 0.34026427424152977 0.048466856868302197 0 0.33545387579140629 0.052532674854295643 0 0.34026427424152977 0.048466856868302197 0 0.33453276772620782 0.046578197002638079 0 0.34614202918886172 0.04495084918918707 0 0.34026427424152977 0.048466856868302197 0 0.34126215607840221 0.040750250202241461 0 0.34126215607840221 0.040750250202241461 0 0.33612307176769429 0.042924799851400963 0 0.33434823439141431 0.036199585802387309 0 0.34026427424152977 0.048466856868302197 0 0.33612307176769429 0.042924799851400963 0 0.33453276772620782 0.046578197002638079 0 0.34026427424152977 0.048466856868302197 0 0.34126215607840221 0.040750250202241461 0 0.33612307176769429 0.042924799851400963 0 0.34428485728400271 0.030005401355308711 0 0.33701607703249692 0.0298701225898034 0 0.34138554356790868 0.034687097574719723 0 0.34126215607840221 0.040750250202241461 0 0.34138554356790868 0.034687097574719723 0 0.33434823439141431 0.036199585802387309 0 0.33701607703249692 0.0298701225898034 0 0.34138554356790868 0.034687097574719723 0 0.33434823439141431 0.036199585802387309 0 0.33434823439141431 0.036199585802387309 0 0.33106808065075138 0.041627037349808563 0 0.32586879358179099 0.03804064066389571 0 0.33701607703249692 0.0298701225898034 0 0.32817092864320679 0.030804032229243241 0 0.33434823439141431 0.036199585802387309 0 0.32817092864320679 0.030804032229243241 0 0.33434823439141431 0.036199585802387309 0 0.32586879358179099 0.03804064066389571 0 0.329754536179657 0.047339616089383058 0 0.33106808065075138 0.041627037349808563 0 0.32586879358179099 0.03804064066389571 0 0.33612307176769429 0.042924799851400963 0 0.33453276772620782 0.046578197002638079 0 0.33106808065075138 0.041627037349808563 0 0.33612307176769429 0.042924799851400963 0 0.33434823439141431 0.036199585802387309 0 0.33106808065075138 0.041627037349808563 0 0.329754536179657 0.047339616089383058 0 0.33453276772620782 0.046578197002638079 0 0.33106808065075138 0.041627037349808563 0 0.329754536179657 0.047339616089383058 0 0.32586879358179099 0.03804064066389571 0 0.31800271709620059 0.041940160330230729 0 0.32817092864320679 0.030804032229243241 0 0.31729285203700458 0.030715300411105088 0 0.32586879358179099 0.03804064066389571 0 0.31729285203700458 0.030715300411105088 0 0.32586879358179099 0.03804064066389571 0 0.31800271709620059 0.041940160330230729 0 0.31729285203700458 0.030715300411105088 0 0.31800271709620059 0.041940160330230729 0 0.30430888894076069 0.032396547794509983 0 0.33235713648757398 0.062670344195356747 0 0.30746097182364029 0.047204886540035899 0 0.33235713648757398 0.062670344195356747 0 0.30746097182364029 0.047204886540035899 0 0.31196244370916693 0.063561068446377017 0 0.33235713648757398 0.062670344195356747 0 0.31800271709620059 0.041940160330230729 0 0.30746097182364029 0.047204886540035899 0 0.33656383503670528 0.062486619514863027 0 0.31800271709620059 0.041940160330230729 0 0.329754536179657 0.047339616089383058 0 0.33656383503670528 0.062486619514863027 0 0.31800271709620059 0.041940160330230729 0 0.30037374277061518 0.057171553561993042 0 0.30746097182364029 0.047204886540035899 0 0.29162395104825473 0.050372783329083598 0 0.30037374277061518 0.057171553561993042 0 0.30746097182364029 0.047204886540035899 0 0.31196244370916693 0.063561068446377017 0 0.30037374277061518 0.057171553561993042 0 0.29156775093075987 0.064451792697398216 0 0.31196244370916693 0.063561068446377017 0 0.31800271709620059 0.041940160330230729 0 0.30746097182364029 0.047204886540035899 0 0.30430888894076069 0.032396547794509983 0 0.30746097182364029 0.047204886540035899 0 0.30430888894076069 0.032396547794509983 0 0.28256480715970728 0.031739428884714087 0 0.30746097182364029 0.047204886540035899 0 0.28256480715970728 0.031739428884714087 0 0.29162395104825473 0.050372783329083598 0 0.30746097182364029 0.047204886540035899 0 0.28256480715970728 0.031739428884714087 0 0.28256480715970728 0.031739428884714087 0 0.29162395104825473 0.050372783329083598 0 0.27807602661496489 0.051740161625822317 0 0.28627399927090991 0.056554752876118553 0 0.29162395104825473 0.050372783329083598 0 0.27807602661496489 0.051740161625822317 0 0.28627399927090991 0.056554752876118553 0 0.27117305815235271 0.065342516948417001 0 0.29156775093075987 0.064451792697398216 0 0.28627399927090991 0.056554752876118553 0 0.29315213512213811 0.057160125427339427 0 0.29156775093075987 0.064451792697398216 0 0.28627399927090991 0.056554752876118553 0 0.29315213512213811 0.057160125427339427 0 0.29162395104825473 0.050372783329083598 0 0.30037374277061518 0.057171553561993042 0 0.29315213512213811 0.057160125427339427 0 0.29156775093075987 0.064451792697398216 0 0.30037374277061518 0.057171553561993042 0 0.29315213512213811 0.057160125427339427 0 0.29162395104825473 0.050372783329083598 0 0.30565777065165689 0.017187559291614821 0 0.29000131310831129 0.01212208907156186 0 0.30332321409842661 -0.0035271610948642922 0 0.31505504448721611 0.0068383069611849916 0 0.30565777065165689 0.017187559291614821 0 0.30332321409842661 -0.0035271610948642922 0 0.30565777065165689 0.017187559291614821 0 0.29563319496510909 0.023361406260600188 0 0.29000131310831129 0.01212208907156186 0 0.31729285203700458 0.030715300411105088 0 0.30430888894076069 0.032396547794509983 0 0.30565777065165689 0.017187559291614821 0 0.30430888894076069 0.032396547794509983 0 0.30565777065165689 0.017187559291614821 0 0.29563319496510909 0.023361406260600188 0 0.28256480715970728 0.031739428884714087 0 0.29000131310831129 0.01212208907156186 0 0.27385935584050519 0.0059842219239403492 0 0.30430888894076069 0.032396547794509983 0 0.28256480715970728 0.031739428884714087 0 0.29563319496510909 0.023361406260600188 0 0.28256480715970728 0.031739428884714087 0 0.29563319496510909 0.023361406260600188 0 0.29000131310831129 0.01212208907156186 0 0.29000131310831129 0.01212208907156186 0 0.28513605537496112 -0.0059817668724007544 0 0.30332321409842661 -0.0035271610948642922 0 0.29000131310831129 0.01212208907156186 0 0.27385935584050519 0.0059842219239403492 0 0.28513605537496112 -0.0059817668724007544 0 0.28256480715970728 0.031739428884714087 0 0.25766864249577431 0.016273971229392298 0 0.26394178344579589 0.038232396156398493 0 0.28256480715970728 0.031739428884714087 0 0.25766864249577431 0.016273971229392298 0 0.28256480715970728 0.031739428884714087 0 0.27385935584050519 0.0059842219239403492 0 0.25766864249577431 0.016273971229392298 0 0.24229683167898761 0.026863171001088801 0 0.25766864249577431 0.016273971229392298 0 0.26394178344579589 0.038232396156398493 0 0.27385935584050519 0.0059842219239403492 0 0.25766864249577431 0.016273971229392298 0 0.25772642959595549 -0.002976658867858078 0 0.25766864249577431 0.016273971229392298 0 0.25772642959595549 -0.002976658867858078 0 0.24297595284734999 -0.00032384243858780282 0 0.26625301343481173 0.052058225789686413 0 0.27807602661496489 0.051740161625822317 0 0.26394178344579589 0.038232396156398493 0 0.26625301343481173 0.052058225789686413 0 0.27807602661496489 0.051740161625822317 0 0.27117305815235271 0.065342516948417001 0 0.28627399927090991 0.056554752876118553 0 0.27807602661496489 0.051740161625822317 0 0.27117305815235271 0.065342516948417001 0 0.27807602661496489 0.051740161625822317 0 0.27117305815235271 0.065342516948417001 0 0.28256480715970728 0.031739428884714087 0 0.27807602661496489 0.051740161625822317 0 0.26394178344579589 0.038232396156398493 0 0.24229683167898761 0.026863171001088801 0 0.26394178344579589 0.038232396156398493 0 0.25182118552613297 0.052917828428107848 0 0.2410670791918299 0.066657374978017381 0 0.25182118552613297 0.052917828428107848 0 0.27117305815235271 0.065342516948417001 0 0.26625301343481173 0.052058225789686413 0 0.25182118552613297 0.052917828428107848 0 0.27117305815235271 0.065342516948417001 0 0.26625301343481173 0.052058225789686413 0 0.26394178344579589 0.038232396156398493 0 0.25182118552613297 0.052917828428107848 0 0.2410670791918299 0.066657374978017381 0 0.26072180513373577 0.085936795756946086 0 0.27117305815235271 0.065342516948417001 0 0.2410670791918299 0.066657374978017381 0 0.27117305815235271 0.065342516948417001 0 0.26072180513373577 0.085936795756946086 0 0.27725340110454971 0.083162132562700469 0 0.27220310585693469 0.098309572479642407 0 0.27725340110454971 0.083162132562700469 0 0.28885029006970409 0.093276108479906222 0 0.27220310585693469 0.098309572479642407 0 0.26072180513373577 0.085936795756946086 0 0.27725340110454971 0.083162132562700469 0 0.27117305815235271 0.065342516948417001 0 0.27117305815235271 0.065342516948417001 0 0.28072632105441681 0.072734423530977893 0 0.28964975250843522 0.066943741153554726 0 0.26072180513373577 0.085936795756946086 0 0.27117305815235271 0.065342516948417001 0 0.27725340110454971 0.083162132562700469 0 0.27117305815235271 0.065342516948417001 0 0.28072632105441681 0.072734423530977893 0 0.28964975250843522 0.066943741153554726 0 0.28784126666311421 0.079995815969332112 0 0.30351099415418997 0.085036245085691187 0 0.27117305815235271 0.065342516948417001 0 0.29156775093075987 0.064451792697398216 0 0.28964975250843522 0.066943741153554726 0 0.30351099415418997 0.085036245085691187 0 0.27117305815235271 0.065342516948417001 0 0.29156775093075987 0.064451792697398216 0 0.28964975250843522 0.066943741153554726 0 0.29156775093075987 0.064451792697398216 0 0.28964975250843522 0.066943741153554726 0 0.30224351618208528 0.071679010352115324 0 0.28072632105441681 0.072734423530977893 0 0.28964975250843522 0.066943741153554726 0 0.28784126666311421 0.079995815969332112 0 0.27725340110454971 0.083162132562700469 0 0.28784126666311421 0.079995815969332112 0 0.28885029006970409 0.093276108479906222 0 0.27725340110454971 0.083162132562700469 0 0.28072632105441681 0.072734423530977893 0 0.28784126666311421 0.079995815969332112 0 0.28784126666311421 0.079995815969332112 0 0.28885029006970409 0.093276108479906222 0 0.30351099415418997 0.085036245085691187 0 0.31441924175684671 0.078804472958115254 0 0.31737223579994472 0.10312874901782761 0 0.30351099415418997 0.085036245085691187 0 0.31441924175684671 0.078804472958115254 0 0.30351099415418997 0.085036245085691187 0 0.30224351618208528 0.071679010352115324 0 0.28964975250843522 0.066943741153554726 0 0.30351099415418997 0.085036245085691187 0 0.30224351618208528 0.071679010352115324 0 0.31441924175684671 0.078804472958115254 0 0.31196244370916693 0.063561068446377017 0 0.30224351618208528 0.071679010352115324 0 0.29156775093075987 0.064451792697398216 0 0.31196244370916693 0.063561068446377017 0 0.30224351618208528 0.071679010352115324 0 0.29156775093075987 0.064451792697398216 0 0.31196244370916693 0.063561068446377017 0 0.30624020578140893 0.11367679579694361 0 0.3002303182879893 0.104151681104711 0 0.29569097780042503 0.1175470327676276 0 0.30334523127997998 0.12474199892489719 0 0.29569097780042503 0.1175470327676276 0 0.29199113398189969 0.129844918616564 0 0.30334523127997998 0.12474199892489719 0 0.30624020578140893 0.11367679579694361 0 0.29569097780042503 0.1175470327676276 0 0.31456226573870572 0.1188145171696544 0 0.30334523127997998 0.12474199892489719 0 0.30624020578140893 0.11367679579694361 0 0.31456226573870572 0.1188145171696544 0 0.30334523127997998 0.12474199892489719 0 0.31588783824187888 0.12963869222719099 0 0.31737223579994472 0.10312874901782761 0 0.30624020578140893 0.11367679579694361 0 0.3002303182879893 0.104151681104711 0 0.31737223579994472 0.10312874901782761 0 0.30351099415418997 0.085036245085691187 0 0.3002303182879893 0.104151681104711 0 0.28885029006970409 0.093276108479906222 0 0.30351099415418997 0.085036245085691187 0 0.3002303182879893 0.104151681104711 0 0.31737223579994472 0.10312874901782761 0 0.30351099415418997 0.085036245085691187 0 0.28885029006970409 0.093276108479906222 0 0.3002303182879893 0.104151681104711 0 0.28557265862698028 0.1099644670429365 0 0.28885029006970409 0.093276108479906222 0 0.28557265862698028 0.1099644670429365 0 0.27220310585693469 0.098309572479642407 0 0.28557265862698028 0.1099644670429365 0 0.29569097780042503 0.1175470327676276 0 0.28035700577734191 0.1208679653546077 0 0.29569097780042503 0.1175470327676276 0 0.28035700577734191 0.1208679653546077 0 0.2781699873872287 0.13518682755800721 0 0.3002303182879893 0.104151681104711 0 0.28557265862698028 0.1099644670429365 0 0.29569097780042503 0.1175470327676276 0 0.28035700577734191 0.1208679653546077 0 0.2704150330379923 0.1149160643801431 0 0.2721784788316518 0.12460734290603501 0 0.28557265862698028 0.1099644670429365 0 0.28035700577734191 0.1208679653546077 0 0.2704150330379923 0.1149160643801431 0 0.2704150330379923 0.1149160643801431 0 0.2721784788316518 0.12460734290603501 0 0.25977188912404442 0.127458514331382 0 0.28557265862698028 0.1099644670429365 0 0.2704150330379923 0.1149160643801431 0 0.27220310585693469 0.098309572479642407 0 0.26072180513373577 0.085936795756946086 0 0.25027055211512 0.10653107456547579 0 0.2704150330379923 0.1149160643801431 0 0.27220310585693469 0.098309572479642407 0 0.25027055211512 0.10653107456547579 0 0.26072180513373577 0.085936795756946086 0 0.27220310585693469 0.098309572479642407 0 0.25027055211512 0.10653107456547579 0 0.2704150330379923 0.1149160643801431 0 0.25027055211512 0.10653107456547579 0 0.25977188912404442 0.127458514331382 0 0.23981929909650421 0.12712535337400541 0 0.25190461453233132 0.14042974416662601 0 0.25977188912404442 0.127458514331382 0 0.25190461453233132 0.14042974416662601 0 0.25977188912404442 0.127458514331382 0 0.2781699873872287 0.13518682755800721 0 0.2721784788316518 0.12460734290603501 0 0.25977188912404442 0.127458514331382 0 0.2781699873872287 0.13518682755800721 0 0.28035700577734191 0.1208679653546077 0 0.2721784788316518 0.12460734290603501 0 0.2781699873872287 0.13518682755800721 0 0.2781699873872287 0.13518682755800721 0 0.26064899697403232 0.15282662234838679 0 0.2781699873872287 0.13518682755800721 0 0.26064899697403232 0.15282662234838679 0 0.27817144763994989 0.1590656315065512 0 0.25190461453233132 0.14042974416662601 0 0.2781699873872287 0.13518682755800721 0 0.26064899697403232 0.15282662234838679 0 0.2391354248219569 0.14958550948486241 0 0.25190461453233132 0.14042974416662601 0 0.26064899697403232 0.15282662234838679 0 0.24312800656083611 0.1704664171387664 0 0.26452018327415799 0.16505387358409651 0 0.26415122127537188 0.17513792412533399 0 0.24312800656083611 0.1704664171387664 0 0.26064899697403232 0.15282662234838679 0 0.24312800656083611 0.1704664171387664 0 0.26064899697403232 0.15282662234838679 0 0.26452018327415799 0.16505387358409651 0 0.25379526172670452 0.18061833659426699 0 0.2655845558199349 0.1762274477973782 0 0.25280463159302602 0.1936524574764282 0 0.24312800656083611 0.1704664171387664 0 0.25379526172670452 0.18061833659426699 0 0.26415122127537188 0.17513792412533399 0 0.2655845558199349 0.1762274477973782 0 0.25280463159302602 0.1936524574764282 0 0.26838947342952268 0.19192927634910451 0 0.2655845558199349 0.1762274477973782 0 0.25280463159302602 0.1936524574764282 0 0.25379526172670452 0.18061833659426699 0 0.26415122127537188 0.17513792412533399 0 0.2655845558199349 0.1762274477973782 0 0.26452018327415799 0.16505387358409651 0 0.26415122127537188 0.17513792412533399 0 0.2655845558199349 0.1762274477973782 0 0.26415122127537188 0.17513792412533399 0 0.2655845558199349 0.1762274477973782 0 0.2655845558199349 0.1762274477973782 0 0.28397431526601952 0.1902060952217817 0 0.2655845558199349 0.1762274477973782 0 0.26838947342952268 0.19192927634910451 0 0.28397431526601952 0.1902060952217817 0 0.2655845558199349 0.1762274477973782 0 0.28160729615982699 0.17709381942700039 0 0.28397431526601952 0.1902060952217817 0 0.26452018327415799 0.16505387358409651 0 0.2655845558199349 0.1762274477973782 0 0.27817144763994989 0.1590656315065512 0 0.26064899697403232 0.15282662234838679 0 0.26452018327415799 0.16505387358409651 0 0.27817144763994989 0.1590656315065512 0 0.2655845558199349 0.1762274477973782 0 0.27817144763994989 0.1590656315065512 0 0.28160729615982699 0.17709381942700039 0 0.2655845558199349 0.1762274477973782 0 0.27817144763994989 0.1590656315065512 0 0.27817144763994989 0.1590656315065512 0 0.29285077824744599 0.16989413434348061 0 0.29321317337315911 0.1558940049872565 0 0.27817144763994989 0.1590656315065512 0 0.29285077824744599 0.16989413434348061 0 0.28160729615982699 0.17709381942700039 0 0.29285077824744599 0.16989413434348061 0 0.30238860720380489 0.159953170666119 0 0.29321317337315911 0.1558940049872565 0 0.30509596617710433 0.17708477247384641 0 0.28552832603060763 0.19003427172499421 0 0.29285077824744599 0.16989413434348061 0 0.28160729615982699 0.17709381942700039 0 0.28552832603060763 0.19003427172499421 0 0.29285077824744599 0.16989413434348061 0 0.30509596617710433 0.17708477247384641 0 0.28552832603060763 0.19003427172499421 0 0.28160729615982699 0.17709381942700039 0 0.28552832603060763 0.19003427172499421 0 0.28397431526601952 0.1902060952217817 0 0.30509596617710433 0.17708477247384641 0 0.28552832603060763 0.19003427172499421 0 0.3067712299162022 0.18768549132354551 0 0.30509596617710433 0.17708477247384641 0 0.3067712299162022 0.18768549132354551 0 0.31898170251104568 0.17716368752596071 0 0.30509596617710433 0.17708477247384641 0 0.3067712299162022 0.18768549132354551 0 0.29285077824744599 0.16989413434348061 0 0.30509596617710433 0.17708477247384641 0 0.30238860720380489 0.159953170666119 0 0.30509596617710433 0.17708477247384641 0 0.30238860720380489 0.159953170666119 0 0.30509596617710433 0.17708477247384641 0 0.30238860720380489 0.159953170666119 0 0.31491051914611462 0.15519412691148751 0 0.30238860720380489 0.159953170666119 0 0.30363072739965458 0.14793496631437819 0 0.31491051914611462 0.15519412691148751 0 0.30238860720380489 0.159953170666119 0 0.30363072739965458 0.14793496631437819 0 0.29321317337315911 0.1558940049872565 0 0.30363072739965458 0.14793496631437819 0 0.30538859960393638 0.13710004223225669 0 0.29075833945996499 0.14190381521572409 0 0.30363072739965458 0.14793496631437819 0 0.3133208616382035 0.14128073847909309 0 0.31491051914611462 0.15519412691148751 0 0.30363072739965458 0.14793496631437819 0 0.30538859960393638 0.13710004223225669 0 0.3133208616382035 0.14128073847909309 0 0.30334523127997998 0.12474199892489719 0 0.29075833945996499 0.14190381521572409 0 0.30538859960393638 0.13710004223225669 0 0.31588783824187888 0.12963869222719099 0 0.3133208616382035 0.14128073847909309 0 0.30334523127997998 0.12474199892489719 0 0.30538859960393638 0.13710004223225669 0 0.29075833945996499 0.14190381521572409 0 0.30334523127997998 0.12474199892489719 0 0.30538859960393638 0.13710004223225669 0 0.31588783824187888 0.12963869222719099 0 0.29569097780042503 0.1175470327676276 0 0.2781699873872287 0.13518682755800721 0 0.29569097780042503 0.1175470327676276 0 0.2781699873872287 0.13518682755800721 0 0.29199113398189969 0.129844918616564 0 0.30334523127997998 0.12474199892489719 0 0.29199113398189969 0.129844918616564 0 0.29075833945996499 0.14190381521572409 0 0.2781699873872287 0.13518682755800721 0 0.29199113398189969 0.129844918616564 0 0.29075833945996499 0.14190381521572409 0 0.27817144763994989 0.1590656315065512 0 0.29075833945996499 0.14190381521572409 0 0.2781699873872287 0.13518682755800721 0 0.27817144763994989 0.1590656315065512 0 0.29075833945996499 0.14190381521572409 0 0.27817144763994989 0.1590656315065512 0 0.29321317337315911 0.1558940049872565 0 0.29075833945996499 0.14190381521572409 0 0.30363072739965458 0.14793496631437819 0 0.29321317337315911 0.1558940049872565 0 0.29075833945996499 0.14190381521572409 0 0.26737270587130241 0.23236910365518071 0 0.28079618337662338 0.23333799818769069 0 0.28574109184797331 0.24215534348259041 0 0.27823915624892809 0.24552658539675279 0 0.26737270587130241 0.23236910365518071 0 0.28574109184797331 0.24215534348259041 0 0.2703081024252923 0.26042648260146672 0 0.27823915624892809 0.24552658539675279 0 0.28574109184797331 0.24215534348259041 0 0.27823915624892809 0.24552658539675279 0 0.2669353122202206 0.24907042731734361 0 0.26737270587130241 0.23236910365518071 0 0.26737270587130241 0.23236910365518071 0 0.28574109184797331 0.24215534348259041 0 0.2669353122202206 0.24907042731734361 0 0.25469112926727061 0.24735262204999481 0 0.26737270587130241 0.23236910365518071 0 0.24576288521902601 0.2367514452761286 0 0.25469112926727061 0.24735262204999481 0 0.26737270587130241 0.23236910365518071 0 0.24899874225078231 0.2225933472544209 0 0.24576288521902601 0.2367514452761286 0 0.26737270587130241 0.23236910365518071 0 0.24899874225078231 0.2225933472544209 0 0.26737270587130241 0.23236910365518071 0 0.24899874225078231 0.2225933472544209 0 0.2623955021598039 0.2196326924212644 0 0.26737270587130241 0.23236910365518071 0 0.2623955021598039 0.2196326924212644 0 0.26737270587130241 0.23236910365518071 0 0.27511983106222032 0.22005176739878321 0 0.26737270587130241 0.23236910365518071 0 0.27511983106222032 0.22005176739878321 0 0.28185499529242641 0.22742931065624719 0 0.26737270587130241 0.23236910365518071 0 0.28079618337662338 0.23333799818769069 0 0.28185499529242641 0.22742931065624719 0 0.27511983106222032 0.22005176739878321 0 0.28371887378016619 0.22118149885169611 0 0.28185499529242641 0.22742931065624719 0 0.27511983106222032 0.22005176739878321 0 0.27702998138370161 0.2091610942093306 0 0.28374707245340192 0.21445660914503559 0 0.27511983106222032 0.22005176739878321 0 0.28374707245340192 0.21445660914503559 0 0.28371887378016619 0.22118149885169611 0 0.27702998138370161 0.2091610942093306 0 0.27736242369158259 0.2019260455529876 0 0.28420181614487788 0.20308234698808059 0 0.27702998138370161 0.2091610942093306 0 0.27035577107718678 0.20684085319389869 0 0.27736242369158259 0.2019260455529876 0 0.27702998138370161 0.2091610942093306 0 0.27035577107718678 0.20684085319389869 0 0.26815385046657297 0.21321874094785279 0 0.27035577107718678 0.20684085319389869 0 0.25671888818861738 0.20909982030253341 0 0.27064781268025351 0.19988191789205689 0 0.27511983106222032 0.22005176739878321 0 0.27702998138370161 0.2091610942093306 0 0.26815385046657297 0.21321874094785279 0 0.2623955021598039 0.2196326924212644 0 0.27511983106222032 0.22005176739878321 0 0.26815385046657297 0.21321874094785279 0 0.2623955021598039 0.2196326924212644 0 0.26815385046657297 0.21321874094785279 0 0.25671888818861738 0.20909982030253341 0 0.24899874225078231 0.2225933472544209 0 0.2623955021598039 0.2196326924212644 0 0.25671888818861738 0.20909982030253341 0 0.2424425901990768 0.20778076280738411 0 0.25671888818861738 0.20909982030253341 0 0.25280463159302602 0.1936524574764282 0 0.25671888818861738 0.20909982030253341 0 0.27064781268025351 0.19988191789205689 0 0.27035577107718678 0.20684085319389869 0 0.26815385046657297 0.21321874094785279 0 0.25671888818861738 0.20909982030253341 0 0.25671888818861738 0.20909982030253341 0 0.26120255247795582 0.1982671462563099 0 0.27064781268025351 0.19988191789205689 0 0.25671888818861738 0.20909982030253341 0 0.26120255247795582 0.1982671462563099 0 0.25280463159302602 0.1936524574764282 0 0.26120255247795582 0.1982671462563099 0 0.25280463159302602 0.1936524574764282 0 0.26838947342952268 0.19192927634910451 0 0.25280463159302602 0.1936524574764282 0 0.26838947342952268 0.19192927634910451 0 0.26120255247795582 0.1982671462563099 0 0.26838947342952268 0.19192927634910451 0 0.27064781268025351 0.19988191789205689 0 0.27035577107718678 0.20684085319389869 0 0.27064781268025351 0.19988191789205689 0 0.27736242369158259 0.2019260455529876 0 0.27064781268025351 0.19988191789205689 0 0.27736242369158259 0.2019260455529876 0 0.28552832603060763 0.19003427172499421 0 0.26838947342952268 0.19192927634910451 0 0.28397431526601952 0.1902060952217817 0 0.27064781268025351 0.19988191789205689 0 0.28552832603060763 0.19003427172499421 0 0.28397431526601952 0.1902060952217817 0 0.27064781268025351 0.19988191789205689 0 0.28552832603060763 0.19003427172499421 0 0.26838947342952268 0.19192927634910451 0 0.27064781268025351 0.19988191789205689 0 0.28397431526601952 0.1902060952217817 0 0.28552832603060763 0.19003427172499421 0 0.3067712299162022 0.18768549132354551 0 0.28552832603060763 0.19003427172499421 0 0.3067712299162022 0.18768549132354551 0 0.29745653453650778 0.20045436357098659 0 0.28552832603060763 0.19003427172499421 0 0.28397431526601952 0.1902060952217817 0 0.27736242369158259 0.2019260455529876 0 0.28552832603060763 0.19003427172499421 0 0.28420181614487788 0.20308234698808059 0 0.28552832603060763 0.19003427172499421 0 0.28420181614487788 0.20308234698808059 0 0.29745653453650778 0.20045436357098659 0 0.28552832603060763 0.19003427172499421 0 0.29745653453650778 0.20045436357098659 0 0.3067712299162022 0.18768549132354551 0 0.29745653453650778 0.20045436357098659 0 0.31033633190112309 0.21024471166040121 0 0.3067712299162022 0.18768549132354551 0 0.31033633190112309 0.21024471166040121 0 0.3067712299162022 0.18768549132354551 0 0.31033633190112309 0.21024471166040121 0 0.31700194550752459 0.19967060378525561 0 0.29745653453650778 0.20045436357098659 0 0.31033633190112309 0.21024471166040121 0 0.31033633190112309 0.21024471166040121 0 0.30767912338270831 0.21615843178658911 0 0.31341799873595733 0.2297448553942458 0 0.29745653453650778 0.20045436357098659 0 0.30087771464145319 0.21049822606172269 0 0.31033633190112309 0.21024471166040121 0 0.30087771464145319 0.21049822606172269 0 0.31033633190112309 0.21024471166040121 0 0.30767912338270831 0.21615843178658911 0 0.30767912338270831 0.21615843178658911 0 0.30156740539807297 0.2157565878813876 0 0.29829981230656588 0.2203681910213037 0 0.30087771464145319 0.21049822606172269 0 0.30767912338270831 0.21615843178658911 0 0.30156740539807297 0.2157565878813876 0 0.30087771464145319 0.21049822606172269 0 0.30156740539807297 0.2157565878813876 0 0.29558708481026302 0.21707959238435659 0 0.30156740539807297 0.2157565878813876 0 0.29558708481026302 0.21707959238435659 0 0.29829981230656588 0.2203681910213037 0 0.29558708481026302 0.21707959238435659 0 0.28929922869792019 0.21742855657611851 0 0.29134698553312549 0.2081850868241141 0 0.30087771464145319 0.21049822606172269 0 0.29558708481026302 0.21707959238435659 0 0.29134698553312549 0.2081850868241141 0 0.29745653453650778 0.20045436357098659 0 0.30087771464145319 0.21049822606172269 0 0.29134698553312549 0.2081850868241141 0 0.28420181614487788 0.20308234698808059 0 0.29745653453650778 0.20045436357098659 0 0.29134698553312549 0.2081850868241141 0 0.29134698553312549 0.2081850868241141 0 0.28377512175051001 0.2086536536496246 0 0.28374707245340192 0.21445660914503559 0 0.28420181614487788 0.20308234698808059 0 0.29134698553312549 0.2081850868241141 0 0.28377512175051001 0.2086536536496246 0 0.27702998138370161 0.2091610942093306 0 0.28420181614487788 0.20308234698808059 0 0.28377512175051001 0.2086536536496246 0 0.27702998138370161 0.2091610942093306 0 0.28377512175051001 0.2086536536496246 0 0.28374707245340192 0.21445660914503559 0 0.28929922869792019 0.21742855657611851 0 0.29134698553312549 0.2081850868241141 0 0.28374707245340192 0.21445660914503559 0 0.28929922869792019 0.21742855657611851 0 0.28374707245340192 0.21445660914503559 0 0.28371887378016619 0.22118149885169611 0 0.28371887378016619 0.22118149885169611 0 0.28185499529242641 0.22742931065624719 0 0.28995782815241611 0.2236915556384847 0 0.28929922869792019 0.21742855657611851 0 0.28371887378016619 0.22118149885169611 0 0.28995782815241611 0.2236915556384847 0 0.28185499529242641 0.22742931065624719 0 0.28821036285094198 0.2314087183833943 0 0.28995782815241611 0.2236915556384847 0 0.28079618337662338 0.23333799818769069 0 0.28185499529242641 0.22742931065624719 0 0.28821036285094198 0.2314087183833943 0 0.28821036285094198 0.2314087183833943 0 0.29670761978936933 0.2291547874157002 0 0.28574109184797331 0.24215534348259041 0 0.28821036285094198 0.2314087183833943 0 0.29670761978936933 0.2291547874157002 0 0.28995782815241611 0.2236915556384847 0 0.29670761978936933 0.2291547874157002 0 0.28995782815241611 0.2236915556384847 0 0.29829981230656588 0.2203681910213037 0 0.29558708481026302 0.21707959238435659 0 0.28995782815241611 0.2236915556384847 0 0.29829981230656588 0.2203681910213037 0 0.29558708481026302 0.21707959238435659 0 0.28929922869792019 0.21742855657611851 0 0.28995782815241611 0.2236915556384847 0 0.30767912338270831 0.21615843178658911 0 0.29670761978936933 0.2291547874157002 0 0.29829981230656588 0.2203681910213037 0 0.30767912338270831 0.21615843178658911 0 0.29670761978936933 0.2291547874157002 0 0.30767912338270831 0.21615843178658911 0 0.29670761978936933 0.2291547874157002 0 0.30521268222532261 0.22520550703621539 0 0.31033633190112309 0.21024471166040121 0 0.31341799873595733 0.2297448553942458 0 0.30767912338270831 0.21615843178658911 0 0.30521268222532261 0.22520550703621539 0 0.31341799873595733 0.2297448553942458 0 0.29958062209438568 0.23595249972423801 0 0.310353192110847 0.23716776251637001 0 0.31341799873595733 0.2297448553942458 0 0.30521268222532261 0.22520550703621539 0 0.29958062209438568 0.23595249972423801 0 0.31341799873595733 0.2297448553942458 0 0.29958062209438568 0.23595249972423801 0 0.31341799873595733 0.2297448553942458 0 0.29670761978936933 0.2291547874157002 0 0.30521268222532261 0.22520550703621539 0 0.29958062209438568 0.23595249972423801 0 0.29958062209438568 0.23595249972423801 0 0.310353192110847 0.23716776251637001 0 0.30690223216298279 0.24441920825023791 0 0.31108813176625888 0.24181473984910781 0 0.310353192110847 0.23716776251637001 0 0.31555760856208481 0.24328385924509191 0 0.31108813176625888 0.24181473984910781 0 0.310353192110847 0.23716776251637001 0 0.30690223216298279 0.24441920825023791 0 0.31124097988072691 0.25013535213493993 0 0.30690223216298279 0.24441920825023791 0 0.29995401426485557 0.2497037920572899 0 0.31124097988072691 0.25013535213493993 0 0.31206486838379588 0.2450731742654956 0 0.30690223216298279 0.24441920825023791 0 0.31108813176625888 0.24181473984910781 0 0.31206486838379588 0.2450731742654956 0 0.30690223216298279 0.24441920825023791 0 0.29958062209438568 0.23595249972423801 0 0.30690223216298279 0.24441920825023791 0 0.29995401426485557 0.2497037920572899 0 0.29958062209438568 0.23595249972423801 0 0.29995401426485557 0.2497037920572899 0 0.28574109184797331 0.24215534348259041 0 0.29995401426485557 0.2497037920572899 0 0.28574109184797331 0.24215534348259041 0 0.29958062209438568 0.23595249972423801 0 0.28574109184797331 0.24215534348259041 0 0.29670761978936933 0.2291547874157002 0 0.28574109184797331 0.24215534348259041 0 0.29670761978936933 0.2291547874157002 0 0.29958062209438568 0.23595249972423801 0 0.28574109184797331 0.24215534348259041 0 0.28079618337662338 0.23333799818769069 0 0.28821036285094198 0.2314087183833943 0 0.28574109184797331 0.24215534348259041 0 0.27823915624892809 0.24552658539675279 0 0.28574109184797331 0.24215534348259041 0 0.31821315740023343 0.25167758425328141 0 0.33612538188821528 0.24889966137315681 0 0.3347875482485535 0.2288308673641091 0 0.33612538188821528 0.24889966137315681 0 0.34213851287081321 0.23441857192246329 0 0.3347875482485535 0.2288308673641091 0 0.31821315740023343 0.25167758425328141 0 0.3347875482485535 0.2288308673641091 0 0.31821315740023343 0.25167758425328141 0 0.32085404993273009 0.23710447240219201 0 0.3347875482485535 0.2288308673641091 0 0.31821315740023343 0.25167758425328141 0 0.31553538954692589 0.24571271184810051 0 0.31821315740023343 0.25167758425328141 0 0.31553538954692589 0.24571271184810051 0 0.32085404993273009 0.23710447240219201 0 0.31108813176625888 0.24181473984910781 0 0.31206486838379588 0.2450731742654956 0 0.31555760856208481 0.24328385924509191 0 0.31206486838379588 0.2450731742654956 0 0.31553538954692589 0.24571271184810051 0 0.31555760856208481 0.24328385924509191 0 0.31124097988072691 0.25013535213493993 0 0.31821315740023343 0.25167758425328141 0 0.31553538954692589 0.24571271184810051 0 0.31124097988072691 0.25013535213493993 0 0.31206486838379588 0.2450731742654956 0 0.31553538954692589 0.24571271184810051 0 0.31553538954692589 0.24571271184810051 0 0.31555760856208481 0.24328385924509191 0 0.32085404993273009 0.23710447240219201 0 0.310353192110847 0.23716776251637001 0 0.31555760856208481 0.24328385924509191 0 0.31341799873595733 0.2297448553942458 0 0.31555760856208481 0.24328385924509191 0 0.31341799873595733 0.2297448553942458 0 0.31555760856208481 0.24328385924509191 0 0.32085404993273009 0.23710447240219201 0 0.31341799873595733 0.2297448553942458 0 0.32085404993273009 0.23710447240219201 0 0.31341799873595733 0.2297448553942458 0 0.32761259710262469 0.22337695630832499 0 0.32085404993273009 0.23710447240219201 0 0.32761259710262469 0.22337695630832499 0 0.3347875482485535 0.2288308673641091 0 0.31033633190112309 0.21024471166040121 0 0.31341799873595733 0.2297448553942458 0 0.31406124164951038 0.21845372777261199 0 0.32761259710262469 0.22337695630832499 0 0.31661326282418739 0.21501600867155629 0 0.31406124164951038 0.21845372777261199 0 0.31341799873595733 0.2297448553942458 0 0.32761259710262469 0.22337695630832499 0 0.31406124164951038 0.21845372777261199 0 0.32761259710262469 0.22337695630832499 0 0.31661326282418739 0.21501600867155629 0 0.31341799873595733 0.2297448553942458 0 0.32761259710262469 0.22337695630832499 0 0.32761259710262469 0.22337695630832499 0 0.3347875482485535 0.2288308673641091 0 0.33903800568073511 0.22297188898648959 0 0.32761259710262469 0.22337695630832499 0 0.33903800568073511 0.22297188898648959 0 0.35416838806748441 0.21146365008840681 0 0.32761259710262469 0.22337695630832499 0 0.3347875482485535 0.2288308673641091 0 0.34213851287081321 0.23441857192246329 0 0.33905206701900581 0.2294343189883046 0 0.34987588119774699 0.22617953759315779 0 0.3347875482485535 0.2288308673641091 0 0.33905206701900581 0.2294343189883046 0 0.33903800568073511 0.22297188898648959 0 0.34213851287081321 0.23441857192246329 0 0.3347875482485535 0.2288308673641091 0 0.34213851287081321 0.23441857192246329 0 0.3347875482485535 0.2288308673641091 0 0.33905206701900581 0.2294343189883046 0 0.34213851287081321 0.23441857192246329 0 0.33905206701900581 0.2294343189883046 0 0.33905206701900581 0.2294343189883046 0 0.33903800568073511 0.22297188898648959 0 0.34987588119774699 0.22617953759315779 0 0.3347875482485535 0.2288308673641091 0 0.33903800568073511 0.22297188898648959 0 0.32761259710262469 0.22337695630832499 0 0.35416838806748441 0.21146365008840681 0 0.32761259710262469 0.22337695630832499 0 0.33665214806656057 0.20898602666537511 0 0.35416838806748441 0.21146365008840681 0 0.33665214806656057 0.20898602666537511 0 0.32731068880038627 0.2123585151409717 0 0.32810495967505132 0.19953603297239031 0 0.32761259710262469 0.22337695630832499 0 0.33665214806656057 0.20898602666537511 0 0.32731068880038627 0.2123585151409717 0 0.32761259710262469 0.22337695630832499 0 0.32731068880038627 0.2123585151409717 0 0.31661326282418739 0.21501600867155629 0 0.31033633190112309 0.21024471166040121 0 0.31661326282418739 0.21501600867155629 0 0.31406124164951038 0.21845372777261199 0 0.31033633190112309 0.21024471166040121 0 0.31661326282418739 0.21501600867155629 0 0.31661326282418739 0.21501600867155629 0 0.31406124164951038 0.21845372777261199 0 0.31033633190112309 0.21024471166040121 0 0.31661326282418739 0.21501600867155629 0 0.31700194550752459 0.19967060378525561 0 0.32731068880038627 0.2123585151409717 0 0.31661326282418739 0.21501600867155629 0 0.32810495967505132 0.19953603297239031 0 0.31661326282418739 0.21501600867155629 0 0.32810495967505132 0.19953603297239031 0 0.31700194550752459 0.19967060378525561 0 0.31661326282418739 0.21501600867155629 0 0.32810495967505132 0.19953603297239031 0 0.3067712299162022 0.18768549132354551 0 0.31700194550752459 0.19967060378525561 0 0.32318394322105859 0.18587077429838489 0 0.32810495967505132 0.19953603297239031 0 0.31700194550752459 0.19967060378525561 0 0.32318394322105859 0.18587077429838489 0 0.32810495967505132 0.19953603297239031 0 0.34412750730809732 0.20030844207406359 0 0.33959665652591509 0.18405605727322441 0 0.32810495967505132 0.19953603297239031 0 0.32318394322105859 0.18587077429838489 0 0.33959665652591509 0.18405605727322441 0 0.33665214806656057 0.20898602666537511 0 0.32810495967505132 0.19953603297239031 0 0.34412750730809732 0.20030844207406359 0 0.32810495967505132 0.19953603297239031 0 0.33959665652591509 0.18405605727322441 0 0.34412750730809732 0.20030844207406359 0 0.35802557617453151 0.19643804349817701 0 0.33959665652591509 0.18405605727322441 0 0.34412750730809732 0.20030844207406359 0 0.35802557617453151 0.19643804349817701 0 0.35416838806748441 0.21146365008840681 0 0.35802557617453151 0.19643804349817701 0 0.36691984236605929 0.18103499368643369 0 0.37713587054321468 0.20320227462326801 0 0.35416838806748441 0.21146365008840681 0 0.36760042821346761 0.2308626972882008 0 0.37713587054321468 0.20320227462326801 0 0.35802557617453151 0.19643804349817701 0 0.35416838806748441 0.21146365008840681 0 0.37713587054321468 0.20320227462326801 0 0.33665214806656057 0.20898602666537511 0 0.34412750730809732 0.20030844207406359 0 0.35416838806748441 0.21146365008840681 0 0.34987588119774699 0.22617953759315779 0 0.36760042821346761 0.2308626972882008 0 0.35153852976624822 0.23549359054628671 0 0.35416838806748441 0.21146365008840681 0 0.34987588119774699 0.22617953759315779 0 0.36760042821346761 0.2308626972882008 0 0.33903800568073511 0.22297188898648959 0 0.35416838806748441 0.21146365008840681 0 0.34987588119774699 0.22617953759315779 0 0.34213851287081321 0.23441857192246329 0 0.34987588119774699 0.22617953759315779 0 0.35153852976624822 0.23549359054628671 0 0.36760042821346761 0.2308626972882008 0 0.36602873626671428 0.24753889456754241 0 0.38302269682145762 0.2407745680815867 0 0.36760042821346761 0.2308626972882008 0 0.36602873626671428 0.24753889456754241 0 0.35508966936836822 0.24426316238317231 0 0.35375279146260019 0.25317428802075892 0 0.33612538188821528 0.24889966137315681 0 0.34213851287081321 0.23441857192246329 0 0.35375279146260019 0.25317428802075892 0 0.36602873626671428 0.24753889456754241 0 0.35508966936836822 0.24426316238317231 0 0.35375279146260019 0.25317428802075892 0 0.34213851287081321 0.23441857192246329 0 0.35375279146260019 0.25317428802075892 0 0.34213851287081321 0.23441857192246329 0 0.35508966936836822 0.24426316238317231 0 0.36760042821346761 0.2308626972882008 0 0.35508966936836822 0.24426316238317231 0 0.35153852976624822 0.23549359054628671 0 0.34213851287081321 0.23441857192246329 0 0.35508966936836822 0.24426316238317231 0 0.34213851287081321 0.23441857192246329 0 0.35508966936836822 0.24426316238317231 0 0.35153852976624822 0.23549359054628671 0 0.32580266228605748 0.14062533981134101 0 0.32964203892920979 0.16084063938767629 0 0.34509471909145412 0.1393137568821006 0 0.32964203892920979 0.16084063938767629 0 0.35418811168131492 0.14459650630150539 0 0.32964203892920979 0.16084063938767629 0 0.35418811168131492 0.14459650630150539 0 0.34509471909145412 0.1393137568821006 0 0.33123347744569942 0.1212212529499641 0 0.34773068287978609 0.1245784996473145 0 0.34509471909145412 0.1393137568821006 0 0.33123347744569942 0.1212212529499641 0 0.34509471909145412 0.1393137568821006 0 0.33123347744569942 0.1212212529499641 0 0.32580266228605748 0.14062533981134101 0 0.34509471909145412 0.1393137568821006 0 0.33123347744569942 0.1212212529499641 0 0.31588783824187888 0.12963869222719099 0 0.32580266228605748 0.14062533981134101 0 0.31588783824187888 0.12963869222719099 0 0.3133208616382035 0.14128073847909309 0 0.32580266228605748 0.14062533981134101 0 0.32580266228605748 0.14062533981134101 0 0.31491051914611462 0.15519412691148751 0 0.32964203892920979 0.16084063938767629 0 0.3133208616382035 0.14128073847909309 0 0.32580266228605748 0.14062533981134101 0 0.31491051914611462 0.15519412691148751 0 0.30509596617710433 0.17708477247384641 0 0.32964203892920979 0.16084063938767629 0 0.30509596617710433 0.17708477247384641 0 0.31898170251104568 0.17716368752596071 0 0.32964203892920979 0.16084063938767629 0 0.30509596617710433 0.17708477247384641 0 0.31491051914611462 0.15519412691148751 0 0.32964203892920979 0.16084063938767629 0 0.31898170251104568 0.17716368752596071 0 0.33087639626975879 0.17449799381532929 0 0.32964203892920979 0.16084063938767629 0 0.3067712299162022 0.18768549132354551 0 0.32318394322105859 0.18587077429838489 0 0.3067712299162022 0.18768549132354551 0 0.31898170251104568 0.17716368752596071 0 0.32318394322105859 0.18587077429838489 0 0.31898170251104568 0.17716368752596071 0 0.32318394322105859 0.18587077429838489 0 0.33087639626975879 0.17449799381532929 0 0.33087639626975879 0.17449799381532929 0 0.33959665652591509 0.18405605727322441 0 0.35237000846231792 0.1668496185602554 0 0.32318394322105859 0.18587077429838489 0 0.33959665652591509 0.18405605727322441 0 0.32318394322105859 0.18587077429838489 0 0.33087639626975879 0.17449799381532929 0 0.33959665652591509 0.18405605727322441 0 0.33087639626975879 0.17449799381532929 0 0.32964203892920979 0.16084063938767629 0 0.35237000846231792 0.1668496185602554 0 0.32964203892920979 0.16084063938767629 0 0.35237000846231792 0.1668496185602554 0 0.35418811168131492 0.14459650630150539 0 0.35237000846231792 0.1668496185602554 0 0.36514336039872058 0.14964317984728651 0 0.33959665652591509 0.18405605727322441 0 0.36691984236605929 0.18103499368643369 0 0.33959665652591509 0.18405605727322441 0 0.35237000846231792 0.1668496185602554 0 0.36691984236605929 0.18103499368643369 0 0.35802557617453151 0.19643804349817701 0 0.33959665652591509 0.18405605727322441 0 0.36691984236605929 0.18103499368643369 0 0.33959665652591509 0.18405605727322441 0 0.35237000846231792 0.1668496185602554 0 0.35237000846231792 0.1668496185602554 0 0.36691984236605929 0.18103499368643369 0 0.37453262066430792 0.16441069273100409 0 0.35237000846231792 0.1668496185602554 0 0.37453262066430792 0.16441069273100409 0 0.36514336039872058 0.14964317984728651 0 0.36514336039872058 0.14964317984728651 0 0.37791671233512342 0.1324367411343175 0 0.37584595869444087 0.14411102853080179 0 0.36514336039872058 0.14964317984728651 0 0.35418811168131492 0.14459650630150539 0 0.37791671233512342 0.1324367411343175 0 0.37458497022856041 0.15303940812565789 0 0.36514336039872058 0.14964317984728651 0 0.37584595869444087 0.14411102853080179 0 0.37453262066430792 0.16441069273100409 0 0.37458497022856041 0.15303940812565789 0 0.36514336039872058 0.14964317984728651 0 0.36514336039872058 0.14964317984728651 0 0.37791671233512342 0.1324367411343175 0 0.35237000846231792 0.1668496185602554 0 0.36514336039872058 0.14964317984728651 0 0.35418811168131492 0.14459650630150539 0 0.35418811168131492 0.14459650630150539 0 0.35194183452597527 0.13414512859457359 0 0.36075382445134618 0.1280917515473739 0 0.34773068287978609 0.1245784996473145 0 0.34509471909145412 0.1393137568821006 0 0.35194183452597527 0.13414512859457359 0 0.35418811168131492 0.14459650630150539 0 0.34509471909145412 0.1393137568821006 0 0.35194183452597527 0.13414512859457359 0 0.34773068287978609 0.1245784996473145 0 0.35194183452597527 0.13414512859457359 0 0.36075382445134618 0.1280917515473739 0 0.35418811168131492 0.14459650630150539 0 0.37873418443342 0.12835237321533449 0 0.35418811168131492 0.14459650630150539 0 0.37791671233512342 0.1324367411343175 0 0.37873418443342 0.12835237321533449 0 0.37120354339752631 0.11933077434222621 0 0.36075382445134618 0.1280917515473739 0 0.37873418443342 0.12835237321533449 0 0.35418811168131492 0.14459650630150539 0 0.36075382445134618 0.1280917515473739 0 0.37873418443342 0.12835237321533449 0 0.37873418443342 0.12835237321533449 0 0.38520123005928258 0.13849860636324121 0 0.39770831430295561 0.1348776670413192 0 0.37791671233512342 0.1324367411343175 0 0.37584595869444087 0.14411102853080179 0 0.38066964716674018 0.14132237318053389 0 0.37791671233512342 0.1324367411343175 0 0.37873418443342 0.12835237321533449 0 0.38520123005928258 0.13849860636324121 0 0.37791671233512342 0.1324367411343175 0 0.38520123005928258 0.13849860636324121 0 0.38066964716674018 0.14132237318053389 0 0.37873418443342 0.12835237321533449 0 0.39770831430295561 0.1348776670413192 0 0.40328025718552513 0.11210824012916359 0 0.38520123005928258 0.13849860636324121 0 0.39770831430295561 0.1348776670413192 0 0.39287246788057562 0.14645017295584939 0 0.39770831430295561 0.1348776670413192 0 0.40309868305912461 0.14912898523550799 0 0.41689700284805781 0.14499144509544429 0 0.39770831430295561 0.1348776670413192 0 0.40309868305912461 0.14912898523550799 0 0.39287246788057562 0.14645017295584939 0 0.40309868305912461 0.14912898523550799 0 0.39287246788057562 0.14645017295584939 0 0.39358563390189888 0.15937673483244461 0 0.39287246788057562 0.14645017295584939 0 0.38371468757811389 0.15024311669377499 0 0.39358563390189888 0.15937673483244461 0 0.38520123005928258 0.13849860636324121 0 0.39287246788057562 0.14645017295584939 0 0.38371468757811389 0.15024311669377499 0 0.38520123005928258 0.13849860636324121 0 0.38371468757811389 0.15024311669377499 0 0.38066964716674018 0.14132237318053389 0 0.38371468757811389 0.15024311669377499 0 0.37584595869444087 0.14411102853080179 0 0.38066964716674018 0.14132237318053389 0 0.37453262066430792 0.16441069273100409 0 0.37458497022856041 0.15303940812565789 0 0.38371468757811389 0.15024311669377499 0 0.37458497022856041 0.15303940812565789 0 0.38371468757811389 0.15024311669377499 0 0.37584595869444087 0.14411102853080179 0 0.37453262066430792 0.16441069273100409 0 0.39424302820620372 0.17801393009964309 0 0.39358563390189888 0.15937673483244461 0 0.37453262066430792 0.16441069273100409 0 0.38371468757811389 0.15024311669377499 0 0.39358563390189888 0.15937673483244461 0 0.36691984236605929 0.18103499368643369 0 0.39424302820620372 0.17801393009964309 0 0.37713587054321468 0.20320227462326801 0 0.36691984236605929 0.18103499368643369 0 0.39424302820620372 0.17801393009964309 0 0.36691984236605929 0.18103499368643369 0 0.37453262066430792 0.16441069273100409 0 0.39424302820620372 0.17801393009964309 0 0.39424302820620372 0.17801393009964309 0 0.39358563390189888 0.15937673483244461 0 0.41044219526397568 0.16098632736270141 0 0.40309868305912461 0.14912898523550799 0 0.39358563390189888 0.15937673483244461 0 0.41044219526397568 0.16098632736270141 0 0.41044219526397568 0.16098632736270141 0 0.42156621404634759 0.1749928665128497 0 0.4323945988937461 0.15651220797960419 0 0.39424302820620372 0.17801393009964309 0 0.41044219526397568 0.16098632736270141 0 0.42156621404634759 0.1749928665128497 0 0.39424302820620372 0.17801393009964309 0 0.42156621404634759 0.1749928665128497 0 0.40871837497138158 0.1969201003690938 0 0.39424302820620372 0.17801393009964309 0 0.42156621404634759 0.1749928665128497 0 0.42156621404634759 0.1749928665128497 0 0.40871837497138158 0.1969201003690938 0 0.4343345970911015 0.20108035943631811 0 0.43827272640824638 0.1731456647826434 0 0.42156621404634759 0.1749928665128497 0 0.4343345970911015 0.20108035943631811 0 0.43827272640824638 0.1731456647826434 0 0.42156621404634759 0.1749928665128497 0 0.43827272640824638 0.1731456647826434 0 0.4323945988937461 0.15651220797960419 0 0.44074785507469311 0.15558860711450059 0 0.43827272640824638 0.1731456647826434 0 0.42156621404634759 0.1749928665128497 0 0.4323945988937461 0.15651220797960419 0 0.42156621404634759 0.1749928665128497 0 0.4323945988937461 0.15651220797960419 0 0.43827272640824638 0.1731456647826434 0 0.4323945988937461 0.15651220797960419 0 0.41689700284805781 0.14499144509544429 0 0.44322298374114399 0.1380315494463584 0 0.41782818697981883 0.1288743616201482 0 0.44322298374114399 0.1380315494463584 0 0.42803237682141598 0.1143629063884561 0 0.41782818697981883 0.1288743616201482 0 0.41689700284805781 0.14499144509544429 0 0.44322298374114399 0.1380315494463584 0 0.39770831430295561 0.1348776670413192 0 0.41782818697981883 0.1288743616201482 0 0.40328025718552513 0.11210824012916359 0 0.39770831430295561 0.1348776670413192 0 0.41782818697981883 0.1288743616201482 0 0.41689700284805781 0.14499144509544429 0 0.40309868305912461 0.14912898523550799 0 0.41044219526397568 0.16098632736270141 0 0.41689700284805781 0.14499144509544429 0 0.41044219526397568 0.16098632736270141 0 0.4323945988937461 0.15651220797960419 0 0.41689700284805781 0.14499144509544429 0 0.38800042801244777 0.25834820960113319 0 0.40597266594897641 0.24236965432817781 0 0.38302269682145762 0.2407745680815867 0 0.38302269682145762 0.2407745680815867 0 0.39587053589641957 0.2188473342253402 0 0.36760042821346761 0.2308626972882008 0 0.38302269682145762 0.2407745680815867 0 0.39587053589641957 0.2188473342253402 0 0.40597266594897641 0.24236965432817781 0 0.39587053589641957 0.2188473342253402 0 0.4155688581447699 0.2156615971229891 0 0.40597266594897641 0.24236965432817781 0 0.38302269682145762 0.2407745680815867 0 0.39587053589641957 0.2188473342253402 0 0.39587053589641957 0.2188473342253402 0 0.37713587054321468 0.20320227462326801 0 0.40871837497138158 0.1969201003690938 0 0.39424302820620372 0.17801393009964309 0 0.37713587054321468 0.20320227462326801 0 0.40871837497138158 0.1969201003690938 0 0.39587053589641957 0.2188473342253402 0 0.40871837497138158 0.1969201003690938 0 0.36760042821346761 0.2308626972882008 0 0.39587053589641957 0.2188473342253402 0 0.37713587054321468 0.20320227462326801 0 0.42156621404634759 0.1749928665128497 0 0.40871837497138158 0.1969201003690938 0 0.4343345970911015 0.20108035943631811 0 0.4343345970911015 0.20108035943631811 0 0.4155688581447699 0.2156615971229891 0 0.43039646777395602 0.22901505408999259 0 0.4343345970911015 0.20108035943631811 0 0.43039646777395602 0.22901505408999259 0 0.40871837497138158 0.1969201003690938 0 0.4343345970911015 0.20108035943631811 0 0.4155688581447699 0.2156615971229891 0 0.39587053589641957 0.2188473342253402 0 0.40871837497138158 0.1969201003690938 0 0.4155688581447699 0.2156615971229891 0 0.40597266594897641 0.24236965432817781 0 0.4155688581447699 0.2156615971229891 0 0.43039646777395602 0.22901505408999259 0 0.42645833845681058 0.25694974874366722 0 0.43039646777395602 0.22901505408999259 0 0.44793440932526851 0.24372790195292879 0 0.42645833845681058 0.25694974874366722 0 0.43039646777395602 0.22901505408999259 0 0.42645833845681058 0.25694974874366722 0 0.40597266594897641 0.24236965432817781 0 0.43039646777395602 0.22901505408999259 0 0.44793440932526851 0.24372790195292879 0 0.45294395011939559 0.2255407194106861 0 0.47647197505969702 0.2436065613626649 0 0.45294395011939559 0.2255407194106861 0 0.47647197505969702 0.2436065613626649 0 0.43039646777395602 0.22901505408999259 0 0.44793440932526851 0.24372790195292879 0 0.45294395011939559 0.2255407194106861 0 0.45294395011939559 0.2255407194106861 0 0.46815723348552829 0.21726004421367881 0 0.47647197505969702 0.2436065613626649 0 0.45294395011939559 0.2255407194106861 0 0.45740011967776201 0.2047481246935621 0 0.46815723348552829 0.21726004421367881 0 0.45740011967776201 0.2047481246935621 0 0.46815723348552829 0.21726004421367881 0 0.47308281565031279 0.2038727917624012 0 0.4343345970911015 0.20108035943631811 0 0.43039646777395602 0.22901505408999259 0 0.45294395011939559 0.2255407194106861 0 0.4343345970911015 0.20108035943631811 0 0.45294395011939559 0.2255407194106861 0 0.45740011967776201 0.2047481246935621 0 0.4343345970911015 0.20108035943631811 0 0.45740011967776201 0.2047481246935621 0 0.45094905321609352 0.18906762675600419 0 0.4343345970911015 0.20108035943631811 0 0.45094905321609352 0.18906762675600419 0 0.43827272640824638 0.1731456647826434 0 0.45740011967776201 0.2047481246935621 0 0.45094905321609352 0.18906762675600419 0 0.46493306850413968 0.19166720658228439 0 0.45740011967776201 0.2047481246935621 0 0.46493306850413968 0.19166720658228439 0 0.47308281565031279 0.2038727917624012 0 0.4779936982208805 0.1893357260847377 0 0.48905156392465171 0.19884056269914879 0 0.47308281565031279 0.2038727917624012 0 0.46493306850413968 0.19166720658228439 0 0.4779936982208805 0.1893357260847377 0 0.47308281565031279 0.2038727917624012 0 0.46493306850413968 0.19166720658228439 0 0.4779936982208805 0.1893357260847377 0 0.47011545318329878 0.18343310582079089 0 0.4779936982208805 0.1893357260847377 0 0.48604207499166019 0.1888046259166126 0 0.48905156392465171 0.19884056269914879 0 0.48604207499166019 0.1888046259166126 0 0.48905156392465171 0.19884056269914879 0 0.49337046438884252 0.18393837622522249 0 0.48905156392465171 0.19884056269914879 0 0.5 0.20983418859906369 0 0.5 0.18391508124127379 0 0.48905156392465171 0.19884056269914879 0 0.5 0.18391508124127379 0 0.49337046438884252 0.18393837622522249 0 0.48905156392465171 0.19884056269914879 0 0.5 0.20983418859906369 0 0.48446059802003161 0.21819457409896839 0 0.48905156392465171 0.19884056269914879 0 0.48446059802003161 0.21819457409896839 0 0.47308281565031279 0.2038727917624012 0 0.46815723348552829 0.21726004421367881 0 0.48446059802003161 0.21819457409896839 0 0.47308281565031279 0.2038727917624012 0 0.46815723348552829 0.21726004421367881 0 0.48446059802003161 0.21819457409896839 0 0.47647197505969702 0.2436065613626649 0 0.5 0.20983418859906369 0 0.48446059802003161 0.21819457409896839 0 0.5 0.23575329595685349 0 0.48446059802003161 0.21819457409896839 0 0.5 0.23575329595685349 0 0.47647197505969702 0.2436065613626649 0 0.49999999999999889 0.26167240331464331 0 0.5 0.23575329595685349 0 0.47647197505969702 0.2436065613626649 0 0.45409629882283958 0.1520430851848287 0 0.46679310183632522 0.14981280346883119 0 0.45967577606076798 0.13578464151422601 0 0.46679310183632522 0.14981280346883119 0 0.46318328566065198 0.1586622205761565 0 0.47201563473457941 0.16018214894838531 0 0.45409629882283958 0.1520430851848287 0 0.46679310183632522 0.14981280346883119 0 0.46318328566065198 0.1586622205761565 0 0.46679310183632522 0.14981280346883119 0 0.45967577606076798 0.13578464151422601 0 0.47202352267599568 0.13909158024863411 0 0.45967577606076798 0.13578464151422601 0 0.47110372261474409 0.12601310397760959 0 0.47202352267599568 0.13909158024863411 0 0.45967577606076798 0.13578464151422601 0 0.47110372261474409 0.12601310397760959 0 0.46130924483096142 0.1216814360572691 0 0.45967577606076798 0.13578464151422601 0 0.46130924483096142 0.1216814360572691 0 0.45112314084540428 0.1245484577516892 0 0.44322298374114399 0.1380315494463584 0 0.44653122055070271 0.1145649292125176 0 0.45112314084540428 0.1245484577516892 0 0.45967577606076798 0.13578464151422601 0 0.44322298374114399 0.1380315494463584 0 0.45112314084540428 0.1245484577516892 0 0.44322298374114399 0.1380315494463584 0 0.44653122055070271 0.1145649292125176 0 0.44322298374114399 0.1380315494463584 0 0.45112314084540428 0.1245484577516892 0 0.44322298374114399 0.1380315494463584 0 0.44074785507469311 0.15558860711450059 0 0.4323945988937461 0.15651220797960419 0 0.44322298374114399 0.1380315494463584 0 0.44074785507469311 0.15558860711450059 0 0.4323945988937461 0.15651220797960419 0 0.44322298374114399 0.1380315494463584 0 0.45409629882283958 0.1520430851848287 0 0.44322298374114399 0.1380315494463584 0 0.44074785507469311 0.15558860711450059 0 0.45409629882283958 0.1520430851848287 0 0.45967577606076798 0.13578464151422601 0 0.44322298374114399 0.1380315494463584 0 0.44074785507469311 0.15558860711450059 0 0.44757853598331682 0.16484369217556941 0 0.43827272640824638 0.1731456647826434 0 0.44074785507469311 0.15558860711450059 0 0.43827272640824638 0.1731456647826434 0 0.44757853598331682 0.16484369217556941 0 0.43827272640824638 0.1731456647826434 0 0.4430600678196111 0.17261633914323651 0 0.44757853598331682 0.16484369217556941 0 0.45225765305702348 0.17117393106109369 0 0.4430600678196111 0.17261633914323651 0 0.44757853598331682 0.16484369217556941 0 0.45225765305702348 0.17117393106109369 0 0.45703661471748702 0.16449452576711321 0 0.45409629882283958 0.1520430851848287 0 0.44757853598331682 0.16484369217556941 0 0.45703661471748702 0.16449452576711321 0 0.45409629882283958 0.1520430851848287 0 0.44074785507469311 0.15558860711450059 0 0.44757853598331682 0.16484369217556941 0 0.45094905321609352 0.18906762675600419 0 0.43827272640824638 0.1731456647826434 0 0.44790967480828348 0.17719106158928041 0 0.43827272640824638 0.1731456647826434 0 0.4430600678196111 0.17261633914323651 0 0.44790967480828348 0.17719106158928041 0 0.43827272640824638 0.1731456647826434 0 0.4430600678196111 0.17261633914323651 0 0.45225765305702348 0.17117393106109369 0 0.4430600678196111 0.17261633914323651 0 0.44790967480828348 0.17719106158928041 0 0.45225765305702348 0.17117393106109369 0 0.44790967480828348 0.17719106158928041 0 0.45550462466951919 0.17794496128453111 0 0.45094905321609352 0.18906762675600419 0 0.44790967480828348 0.17719106158928041 0 0.45550462466951919 0.17794496128453111 0 0.45094905321609352 0.18906762675600419 0 0.46493306850413968 0.19166720658228439 0 0.4618933221008712 0.18172140417090499 0 0.45094905321609352 0.18906762675600419 0 0.45550462466951919 0.17794496128453111 0 0.4618933221008712 0.18172140417090499 0 0.46073175796116039 0.17289397883404939 0 0.45550462466951919 0.17794496128453111 0 0.4618933221008712 0.18172140417090499 0 0.45225765305702348 0.17117393106109369 0 0.46073175796116039 0.17289397883404939 0 0.45550462466951919 0.17794496128453111 0 0.46073175796116039 0.17289397883404939 0 0.4618933221008712 0.18172140417090499 0 0.46882873414241272 0.17555136234786139 0 0.46493306850413968 0.19166720658228439 0 0.4618933221008712 0.18172140417090499 0 0.47011545318329878 0.18343310582079089 0 0.4618933221008712 0.18172140417090499 0 0.47011545318329878 0.18343310582079089 0 0.46882873414241272 0.17555136234786139 0 0.45409629882283958 0.1520430851848287 0 0.45703661471748702 0.16449452576711321 0 0.46318328566065198 0.1586622205761565 0 0.45225765305702348 0.17117393106109369 0 0.46073175796116039 0.17289397883404939 0 0.45703661471748702 0.16449452576711321 0 0.46073175796116039 0.17289397883404939 0 0.46597477819202909 0.166778539511624 0 0.46882873414241272 0.17555136234786139 0 0.46073175796116039 0.17289397883404939 0 0.45703661471748702 0.16449452576711321 0 0.46597477819202909 0.166778539511624 0 0.46597477819202909 0.166778539511624 0 0.46318328566065198 0.1586622205761565 0 0.47201563473457941 0.16018214894838531 0 0.45703661471748702 0.16449452576711321 0 0.46597477819202909 0.166778539511624 0 0.46318328566065198 0.1586622205761565 0 0.47201563473457941 0.16018214894838531 0 0.47992268374220021 0.1635465672809375 0 0.47764787096591382 0.15133602512845801 0 0.47201563473457941 0.16018214894838531 0 0.47474976661462848 0.17000095162097351 0 0.47992268374220021 0.1635465672809375 0 0.46597477819202909 0.166778539511624 0 0.47201563473457941 0.16018214894838531 0 0.47474976661462848 0.17000095162097351 0 0.46597477819202909 0.166778539511624 0 0.47474976661462848 0.17000095162097351 0 0.46882873414241272 0.17555136234786139 0 0.47992268374220021 0.1635465672809375 0 0.48350398467161892 0.1732089957985459 0 0.48904747921077818 0.1593081830676828 0 0.47474976661462848 0.17000095162097351 0 0.47992268374220021 0.1635465672809375 0 0.48350398467161892 0.1732089957985459 0 0.47992268374220021 0.1635465672809375 0 0.48904747921077818 0.1593081830676828 0 0.47764787096591382 0.15133602512845801 0 0.4779936982208805 0.1893357260847377 0 0.47011545318329878 0.18343310582079089 0 0.47692844294818998 0.17888982991816599 0 0.47474976661462848 0.17000095162097351 0 0.46882873414241272 0.17555136234786139 0 0.47692844294818998 0.17888982991816599 0 0.47011545318329878 0.18343310582079089 0 0.46882873414241272 0.17555136234786139 0 0.47692844294818998 0.17888982991816599 0 0.48350398467161892 0.1732089957985459 0 0.47692844294818998 0.17888982991816599 0 0.4837525734322663 0.18310383865734159 0 0.47474976661462848 0.17000095162097351 0 0.48350398467161892 0.1732089957985459 0 0.47692844294818998 0.17888982991816599 0 0.4779936982208805 0.1893357260847377 0 0.48604207499166019 0.1888046259166126 0 0.4837525734322663 0.18310383865734159 0 0.4779936982208805 0.1893357260847377 0 0.47692844294818998 0.17888982991816599 0 0.4837525734322663 0.18310383865734159 0 0.48350398467161892 0.1732089957985459 0 0.49337046438884252 0.18393837622522249 0 0.48904747921077818 0.1593081830676828 0 0.5 0.18391508124127379 0 0.49337046438884252 0.18393837622522249 0 0.5 0.15799597388348369 0 0.48604207499166019 0.1888046259166126 0 0.4837525734322663 0.18310383865734159 0 0.49337046438884252 0.18393837622522249 0 0.48350398467161892 0.1732089957985459 0 0.4837525734322663 0.18310383865734159 0 0.49337046438884252 0.18393837622522249 0 0.49337046438884252 0.18393837622522249 0 0.48904747921077818 0.1593081830676828 0 0.5 0.15799597388348369 0 0.49337046438884252 0.18393837622522249 0 0.48904747921077818 0.1593081830676828 0 0.48904747921077818 0.1593081830676828 0 0.49311409869898448 0.1459448646510548 0 0.484724494032714 0.13467798991014299 0 0.5 0.15799597388348369 0 0.49311409869898448 0.1459448646510548 0 0.5 0.1320768665256937 0 0.48904747921077818 0.1593081830676828 0 0.5 0.15799597388348369 0 0.49311409869898448 0.1459448646510548 0 0.48904747921077818 0.1593081830676828 0 0.484724494032714 0.13467798991014299 0 0.47764787096591382 0.15133602512845801 0 0.47202352267599568 0.13909158024863411 0 0.484724494032714 0.13467798991014299 0 0.48904747921077818 0.1593081830676828 0 0.47764787096591382 0.15133602512845801 0 0.484724494032714 0.13467798991014299 0 0.46679310183632522 0.14981280346883119 0 0.47764787096591382 0.15133602512845801 0 0.47202352267599568 0.13909158024863411 0 0.46679310183632522 0.14981280346883119 0 0.47201563473457941 0.16018214894838531 0 0.47764787096591382 0.15133602512845801 0 0.47110372261474409 0.12601310397760959 0 0.47202352267599568 0.13909158024863411 0 0.484724494032714 0.13467798991014299 0 0.484724494032714 0.13467798991014299 0 0.5 0.1320768665256937 0 0.49052349536924239 0.1209416084851387 0 0.49311409869898448 0.1459448646510548 0 0.484724494032714 0.13467798991014299 0 0.5 0.1320768665256937 0 0.5 0.1320768665256937 0 0.49052349536924239 0.1209416084851387 0 0.5 0.1061577591679037 0 0.484724494032714 0.13467798991014299 0 0.49052349536924239 0.1209416084851387 0 0.48040150885464977 0.11004779675260309 0 0.49052349536924239 0.1209416084851387 0 0.5 0.1061577591679037 0 0.48040150885464977 0.11004779675260309 0 0.5 0.1061577591679037 0 0.48780907106892307 0.09605318098296993 0 0.50000000000000155 0.080238651810113817 0 0.5 0.1061577591679037 0 0.48780907106892307 0.09605318098296993 0 0.48040150885464977 0.11004779675260309 0 0.48040150885464977 0.11004779675260309 0 0.47607852367658549 0.085417603595063341 0 0.48040150885464977 0.11004779675260309 0 0.47607852367658549 0.085417603595063341 0 0.46809173283078842 0.10091275265026051 0 0.48780907106892307 0.09605318098296993 0 0.48040150885464977 0.11004779675260309 0 0.47607852367658549 0.085417603595063341 0 0.48040150885464977 0.11004779675260309 0 0.46798590141616081 0.1139440910989519 0 0.46809173283078842 0.10091275265026051 0 0.47110372261474409 0.12601310397760959 0 0.48040150885464977 0.11004779675260309 0 0.46798590141616081 0.1139440910989519 0 0.484724494032714 0.13467798991014299 0 0.48040150885464977 0.11004779675260309 0 0.47110372261474409 0.12601310397760959 0 0.484724494032714 0.13467798991014299 0 0.48040150885464977 0.11004779675260309 0 0.5 0.064169785135472113 0 0.48401372658061348 0.075451770974139132 0 0.47568175235585552 0.064194281140194723 0 0.5 0.064169785135472113 0 0.50000000000000155 0.080238651810113817 0 0.48401372658061348 0.075451770974139132 0 0.48780907106892307 0.09605318098296993 0 0.50000000000000155 0.080238651810113817 0 0.47607852367658549 0.085417603595063341 0 0.50000000000000155 0.080238651810113817 0 0.47607852367658549 0.085417603595063341 0 0.48401372658061348 0.075451770974139132 0 0.50000000000000155 0.080238651810113817 0 0.47607852367658549 0.085417603595063341 0 0.47607852367658549 0.085417603595063341 0 0.48401372658061348 0.075451770974139132 0 0.47307756564102299 0.075571105450676454 0 0.48401372658061348 0.075451770974139132 0 0.47307756564102299 0.075571105450676454 0 0.47568175235585552 0.064194281140194723 0 0.47307756564102299 0.075571105450676454 0 0.47568175235585552 0.064194281140194723 0 0.45136350471172593 0.080287643819569599 0 0.46918942709530859 0.063098927845474925 0 0.47568175235585552 0.064194281140194723 0 0.45378414064296291 0.07744835072381405 0 0.47568175235585552 0.064194281140194723 0 0.45378414064296291 0.07744835072381405 0 0.45136350471172593 0.080287643819569599 0 0.47568175235585552 0.064194281140194723 0 0.45136350471172593 0.080287643819569599 0 0.45658928446000019 0.064347659844422006 0 0.45236217827416603 0.06286331162987957 0 0.4623375556565818 0.061774949623494647 0 0.46918942709530859 0.063098927845474925 0 0.45658928446000019 0.064347659844422006 0 0.45378414064296291 0.07744835072381405 0 0.46918942709530859 0.063098927845474925 0 0.45658928446000019 0.064347659844422006 0 0.4623375556565818 0.061774949623494647 0 0.46918942709530859 0.063098927845474925 0 0.45378414064296291 0.07744835072381405 0 0.45658928446000019 0.064347659844422006 0 0.45378414064296291 0.07744835072381405 0 0.45254077087912792 0.071936833507389414 0 0.47607852367658549 0.085417603595063341 0 0.44983945736026509 0.091098308978677378 0 0.47607852367658549 0.085417603595063341 0 0.44983945736026509 0.091098308978677378 0 0.45136350471172593 0.080287643819569599 0 0.47607852367658549 0.085417603595063341 0 0.44983945736026509 0.091098308978677378 0 0.46809173283078842 0.10091275265026051 0 0.47607852367658549 0.085417603595063341 0 0.47307756564102299 0.075571105450676454 0 0.45136350471172593 0.080287643819569599 0 0.45136350471172593 0.080287643819569599 0 0.4278263299376302 0.095864107042992835 0 0.44983945736026509 0.091098308978677378 0 0.4278263299376302 0.095864107042992835 0 0.44983945736026509 0.091098308978677378 0 0.45136350471172593 0.080287643819569599 0 0.4278263299376302 0.095864107042992835 0 0.44983945736026509 0.091098308978677378 0 0.45136350471172593 0.080287643819569599 0 0.45658928446000019 0.064347659844422006 0 0.43190972945619088 0.080485284089348907 0 0.45658928446000019 0.064347659844422006 0 0.45254077087912792 0.071936833507389414 0 0.43190972945619088 0.080485284089348907 0 0.45236217827416603 0.06286331162987957 0 0.43070582256443463 0.070842469908354716 0 0.45658928446000019 0.064347659844422006 0 0.45236217827416603 0.06286331162987957 0 0.43190972945619088 0.080485284089348907 0 0.45236217827416603 0.06286331162987957 0 0.43190972945619088 0.080485284089348907 0 0.43070582256443463 0.070842469908354716 0 0.45136350471172593 0.080287643819569599 0 0.45254077087912792 0.071936833507389414 0 0.43190972945619088 0.080485284089348907 0 0.45236217827416603 0.06286331162987957 0 0.43070582256443463 0.070842469908354716 0 0.4378576997360204 0.058885345208700077 0 0.45378414064296291 0.07744835072381405 0 0.45136350471172593 0.080287643819569599 0 0.45254077087912792 0.071936833507389414 0 0.45136350471172593 0.080287643819569599 0 0.45254077087912792 0.071936833507389414 0 0.45902329794966001 0.1110653660570172 0 0.46130924483096142 0.1216814360572691 0 0.45112314084540428 0.1245484577516892 0 0.45902329794966001 0.1110653660570172 0 0.45112314084540428 0.1245484577516892 0 0.47110372261474409 0.12601310397760959 0 0.46130924483096142 0.1216814360572691 0 0.46798590141616081 0.1139440910989519 0 0.45902329794966001 0.1110653660570172 0 0.46130924483096142 0.1216814360572691 0 0.46798590141616081 0.1139440910989519 0 0.45902329794966001 0.1110653660570172 0 0.46798590141616081 0.1139440910989519 0 0.46809173283078842 0.10091275265026051 0 0.44983945736026509 0.091098308978677378 0 0.45902329794966001 0.1110653660570172 0 0.46809173283078842 0.10091275265026051 0 0.44983945736026509 0.091098308978677378 0 0.44653122055070271 0.1145649292125176 0 0.4278263299376302 0.095864107042992835 0 0.44983945736026509 0.091098308978677378 0 0.45902329794966001 0.1110653660570172 0 0.44653122055070271 0.1145649292125176 0 0.44983945736026509 0.091098308978677378 0 0.44653122055070271 0.1145649292125176 0 0.44322298374114399 0.1380315494463584 0 0.44653122055070271 0.1145649292125176 0 0.42803237682141598 0.1143629063884561 0 0.45902329794966001 0.1110653660570172 0 0.44653122055070271 0.1145649292125176 0 0.45112314084540428 0.1245484577516892 0 0.41782818697981883 0.1288743616201482 0 0.42803237682141598 0.1143629063884561 0 0.40328025718552513 0.11210824012916359 0 0.40723017445238158 0.09662290833427585 0 0.42041853653324718 0.097467879500657578 0 0.40328025718552513 0.11210824012916359 0 0.4278263299376302 0.095864107042992835 0 0.40328025718552513 0.11210824012916359 0 0.42041853653324718 0.097467879500657578 0 0.4278263299376302 0.095864107042992835 0 0.40328025718552513 0.11210824012916359 0 0.42803237682141598 0.1143629063884561 0 0.4278263299376302 0.095864107042992835 0 0.40328025718552513 0.11210824012916359 0 0.44653122055070271 0.1145649292125176 0 0.42803237682141598 0.1143629063884561 0 0.4278263299376302 0.095864107042992835 0 0.42041853653324718 0.097467879500657578 0 0.4278263299376302 0.095864107042992835 0 0.42041853653324718 0.097467879500657578 0 0.4278263299376302 0.095864107042992835 0 0.43190972945619088 0.080485284089348907 0 0.45136350471172593 0.080287643819569599 0 0.4278263299376302 0.095864107042992835 0 0.43190972945619088 0.080485284089348907 0 0.43190972945619088 0.080485284089348907 0 0.43070582256443463 0.070842469908354716 0 0.40904946685470323 0.078821628186829876 0 0.43070582256443463 0.070842469908354716 0 0.42811311447091172 0.061237180679649797 0 0.4378576997360204 0.058885345208700077 0 0.43070582256443463 0.070842469908354716 0 0.41624535405736812 0.067029016748016923 0 0.42811311447091172 0.061237180679649797 0 0.43070582256443463 0.070842469908354716 0 0.40904946685470323 0.078821628186829876 0 0.41624535405736812 0.067029016748016923 0 0.39831243736394761 0.070198760994465065 0 0.40643595908817121 0.059435002310367462 0 0.41624535405736812 0.067029016748016923 0 0.40904946685470323 0.078821628186829876 0 0.39831243736394761 0.070198760994465065 0 0.43070582256443463 0.070842469908354716 0 0.41624535405736812 0.067029016748016923 0 0.40904946685470323 0.078821628186829876 0 0.40723017445238158 0.09662290833427585 0 0.43190972945619088 0.080485284089348907 0 0.40723017445238158 0.09662290833427585 0 0.42041853653324718 0.097467879500657578 0 0.43190972945619088 0.080485284089348907 0 0.40723017445238158 0.09662290833427585 0 0.43190972945619088 0.080485284089348907 0 0.40904946685470323 0.078821628186829876 0 0.40904946685470323 0.078821628186829876 0 0.38739311114497182 0.086800786465305049 0 0.39379113156793699 0.094965013166093973 0 0.40723017445238158 0.09662290833427585 0 0.40904946685470323 0.078821628186829876 0 0.39379113156793699 0.094965013166093973 0 0.40904946685470323 0.078821628186829876 0 0.39831243736394761 0.070198760994465065 0 0.38739311114497182 0.086800786465305049 0 0.40904946685470323 0.078821628186829876 0 0.38739311114497182 0.086800786465305049 0 0.39831243736394761 0.070198760994465065 0 0.38928143737122572 0.060184214307526393 0 0.40643595908817121 0.059435002310367462 0 0.39831243736394761 0.070198760994465065 0 0.38432178714934812 0.071995474735262202 0 0.38928143737122572 0.060184214307526393 0 0.39831243736394761 0.070198760994465065 0 0.38432178714934812 0.071995474735262202 0 0.38739311114497182 0.086800786465305049 0 0.37449503421231478 0.081860185604329117 0 0.37212691565428019 0.06093342630468538 0 0.38432178714934812 0.071995474735262202 0 0.37212691565428019 0.06093342630468538 0 0.38432178714934812 0.071995474735262202 0 0.38928143737122572 0.060184214307526393 0 0.36573675543524009 0.094779944743779626 0 0.38739311114497182 0.086800786465305049 0 0.36573675543524009 0.094779944743779626 0 0.37449503421231478 0.081860185604329117 0 0.38739311114497182 0.086800786465305049 0 0.37449503421231478 0.081860185604329117 0 0.38432178714934812 0.071995474735262202 0 0.38739311114497182 0.086800786465305049 0 0.36982684613364503 0.099307521254285991 0 0.38739311114497182 0.086800786465305049 0 0.38273228593905573 0.099819210264856476 0 0.38273228593905573 0.099819210264856476 0 0.38255061944857249 0.1127605325792026 0 0.39379113156793699 0.094965013166093973 0 0.38739311114497182 0.086800786465305049 0 0.38273228593905573 0.099819210264856476 0 0.39379113156793699 0.094965013166093973 0 0.37283881518866352 0.1092023578701464 0 0.38273228593905573 0.099819210264856476 0 0.38255061944857249 0.1127605325792026 0 0.37283881518866352 0.1092023578701464 0 0.36982684613364503 0.099307521254285991 0 0.38273228593905573 0.099819210264856476 0 0.37120354339752631 0.11933077434222621 0 0.37283881518866352 0.1092023578701464 0 0.38255061944857249 0.1127605325792026 0 0.37873418443342 0.12835237321533449 0 0.38255061944857249 0.1127605325792026 0 0.40328025718552513 0.11210824012916359 0 0.37120354339752631 0.11933077434222621 0 0.37873418443342 0.12835237321533449 0 0.38255061944857249 0.1127605325792026 0 0.37873418443342 0.12835237321533449 0 0.40328025718552513 0.11210824012916359 0 0.40723017445238158 0.09662290833427585 0 0.38255061944857249 0.1127605325792026 0 0.40723017445238158 0.09662290833427585 0 0.38255061944857249 0.1127605325792026 0 0.39379113156793699 0.094965013166093973 0 0.40723017445238158 0.09662290833427585 0 0.38255061944857249 0.1127605325792026 0 0.40328025718552513 0.11210824012916359 0 0.40096377591578453 0.015023304593365939 0 0.39029558394488079 0.02154056236098581 0 0.40033930159400688 0.033250987408576523 0 0.39029558394488079 0.02154056236098581 0 0.39012396849755659 0.031634780224646837 0 0.40033930159400688 0.033250987408576523 0 0.4004964802826827 0.0023048094262989182 0 0.39114786249113942 0.0076667048625689502 0 0.38651699513386489 -0.0082438941662691945 0 0.40096377591578453 0.015023304593365939 0 0.4004964802826827 0.0023048094262989182 0 0.40960233649665301 0.0071739164917633989 0 0.40096377591578453 0.015023304593365939 0 0.39114786249113942 0.0076667048625689502 0 0.39029558394488079 0.02154056236098581 0 0.40096377591578453 0.015023304593365939 0 0.4004964802826827 0.0023048094262989182 0 0.39114786249113942 0.0076667048625689502 0 0.39114786249113942 0.0076667048625689502 0 0.37956009188044232 0.0054639270967038961 0 0.38651699513386489 -0.0082438941662691945 0 0.36745106585583581 0.0096593148345833872 0 0.39029558394488079 0.02154056236098581 0 0.39114786249113942 0.0076667048625689502 0 0.37956009188044232 0.0054639270967038961 0 0.39029558394488079 0.02154056236098581 0 0.36745106585583581 0.0096593148345833872 0 0.37956009188044232 0.0054639270967038961 0 0.39029558394488079 0.02154056236098581 0 0.37089736354892361 0.022449509562283719 0 0.39029558394488079 0.02154056236098581 0 0.38109424490894372 0.031302638199904267 0 0.36745106585583581 0.0096593148345833872 0 0.37089736354892361 0.022449509562283719 0 0.39029558394488079 0.02154056236098581 0 0.39029558394488079 0.02154056236098581 0 0.38109424490894372 0.031302638199904267 0 0.39012396849755659 0.031634780224646837 0 0.38773503734012782 0.040808497906603312 0 0.380293339954552 0.051151997288722093 0 0.39752455056485231 0.048290828297298541 0 0.36919054831138548 0.034985125535885932 0 0.3795782926287522 0.039562064732778887 0 0.380293339954552 0.051151997288722093 0 0.38109424490894372 0.031302638199904267 0 0.3795782926287522 0.039562064732778887 0 0.38773503734012782 0.040808497906603312 0 0.36919054831138548 0.034985125535885932 0 0.38109424490894372 0.031302638199904267 0 0.3795782926287522 0.039562064732778887 0 0.3795782926287522 0.039562064732778887 0 0.38773503734012782 0.040808497906603312 0 0.380293339954552 0.051151997288722093 0 0.38109424490894372 0.031302638199904267 0 0.38773503734012782 0.040808497906603312 0 0.39012396849755659 0.031634780224646837 0 0.37212691565428019 0.06093342630468538 0 0.380293339954552 0.051151997288722093 0 0.38928143737122572 0.060184214307526393 0 0.380293339954552 0.051151997288722093 0 0.38928143737122572 0.060184214307526393 0 0.39752455056485231 0.048290828297298541 0 0.37212691565428019 0.06093342630468538 0 0.38928143737122572 0.060184214307526393 0 0.38928143737122572 0.060184214307526393 0 0.39752455056485231 0.048290828297298541 0 0.40643595908817121 0.059435002310367462 0 0.38928143737122572 0.060184214307526393 0 0.40643595908817121 0.059435002310367462 0 0.39752455056485231 0.048290828297298541 0 0.41243398219595501 0.045569923949320391 0 0.40643595908817121 0.059435002310367462 0 0.38773503734012782 0.040808497906603312 0 0.39012396849755659 0.031634780224646837 0 0.40033930159400688 0.033250987408576523 0 0.38773503734012782 0.040808497906603312 0 0.39752455056485231 0.048290828297298541 0 0.40033930159400688 0.033250987408576523 0 0.39752455056485231 0.048290828297298541 0 0.40033930159400688 0.033250987408576523 0 0.41243398219595501 0.045569923949320391 0 0.40033930159400688 0.033250987408576523 0 0.41243398219595501 0.045569923949320391 0 0.42142170249605038 0.030607186270075561 0 0.41243398219595501 0.045569923949320391 0 0.42689977886953961 0.04995439629051255 0 0.42142170249605038 0.030607186270075561 0 0.41243398219595501 0.045569923949320391 0 0.40643595908817121 0.059435002310367462 0 0.41969254524198429 0.057235673688544389 0 0.41243398219595501 0.045569923949320391 0 0.41969254524198429 0.057235673688544389 0 0.42689977886953961 0.04995439629051255 0 0.41624535405736812 0.067029016748016923 0 0.41969254524198429 0.057235673688544389 0 0.42811311447091172 0.061237180679649797 0 0.41624535405736812 0.067029016748016923 0 0.40643595908817121 0.059435002310367462 0 0.41969254524198429 0.057235673688544389 0 0.41969254524198429 0.057235673688544389 0 0.42811311447091172 0.061237180679649797 0 0.42689977886953961 0.04995439629051255 0 0.42689977886953961 0.04995439629051255 0 0.4378576997360204 0.058885345208700077 0 0.44187962907631612 0.046191067946785118 0 0.42811311447091172 0.061237180679649797 0 0.42689977886953961 0.04995439629051255 0 0.4378576997360204 0.058885345208700077 0 0.42142170249605038 0.030607186270075561 0 0.44195914715442142 0.02874538645618956 0 0.44187962907631612 0.046191067946785118 0 0.42142170249605038 0.030607186270075561 0 0.44187962907631612 0.046191067946785118 0 0.42689977886953961 0.04995439629051255 0 0.42142170249605038 0.030607186270075561 0 0.44187962907631612 0.046191067946785118 0 0.43532686276371219 0.016106982179983579 0 0.42142170249605038 0.030607186270075561 0 0.4197494073312299 0.014784680888764379 0 0.43532686276371219 0.016106982179983579 0 0.42142170249605038 0.030607186270075561 0 0.44195914715442142 0.02874538645618956 0 0.40096377591578453 0.015023304593365939 0 0.42142170249605038 0.030607186270075561 0 0.4197494073312299 0.014784680888764379 0 0.40096377591578453 0.015023304593365939 0 0.40033930159400688 0.033250987408576523 0 0.42142170249605038 0.030607186270075561 0 0.40096377591578453 0.015023304593365939 0 0.42142170249605038 0.030607186270075561 0 0.40096377591578453 0.015023304593365939 0 0.40960233649665301 0.0071739164917633989 0 0.4197494073312299 0.014784680888764379 0 0.4004964802826827 0.0023048094262989182 0 0.40960233649665301 0.0071739164917633989 0 0.40873772934741692 -0.0082227253047044979 0 0.40960233649665301 0.0071739164917633989 0 0.41871377886572758 0.0033715561943622741 0 0.40873772934741692 -0.0082227253047044979 0 0.40960233649665301 0.0071739164917633989 0 0.4197494073312299 0.014784680888764379 0 0.41871377886572758 0.0033715561943622741 0 0.4197494073312299 0.014784680888764379 0 0.41871377886572758 0.0033715561943622741 0 0.43025695391148888 0.0037636498374452169 0 0.43532686276371219 0.016106982179983579 0 0.4197494073312299 0.014784680888764379 0 0.43025695391148888 0.0037636498374452169 0 0.43532686276371219 0.016106982179983579 0 0.43025695391148888 0.0037636498374452169 0 0.44325010166687429 0.0045091878388511556 0 0.43025695391148888 0.0037636498374452169 0 0.44325010166687429 0.0045091878388511556 0 0.43930167915224277 -0.0081936081740181417 0 0.44325010166687429 0.0045091878388511556 0 0.45351310628194091 0.016034004011596999 0 0.45625924732481082 -0.001191271719883092 0 0.43532686276371219 0.016106982179983579 0 0.44325010166687429 0.0045091878388511556 0 0.45351310628194091 0.016034004011596999 0 0.43532686276371219 0.016106982179983579 0 0.44195914715442142 0.02874538645618956 0 0.45351310628194091 0.016034004011596999 0 0.44195914715442142 0.02874538645618956 0 0.45351310628194091 0.016034004011596999 0 0.45765443515408782 0.034787691872506542 0 0.45351310628194091 0.016034004011596999 0 0.46696672695635111 0.025221841143091769 0 0.45765443515408782 0.034787691872506542 0 0.45351310628194091 0.016034004011596999 0 0.46696672695635111 0.025221841143091769 0 0.47248857146917461 0.011351293046179319 0 0.45351310628194091 0.016034004011596999 0 0.47248857146917461 0.011351293046179319 0 0.45625924732481082 -0.001191271719883092 0 0.45236217827416603 0.06286331162987957 0 0.44187962907631612 0.046191067946785118 0 0.4623375556565818 0.061774949623494647 0 0.45236217827416603 0.06286331162987957 0 0.4378576997360204 0.058885345208700077 0 0.44187962907631612 0.046191067946785118 0 0.44187962907631612 0.046191067946785118 0 0.4623375556565818 0.061774949623494647 0 0.44187962907631612 0.046191067946785118 0 0.45765443515408782 0.034787691872506542 0 0.45954234835797059 0.048231052896724677 0 0.44195914715442142 0.02874538645618956 0 0.44187962907631612 0.046191067946785118 0 0.45765443515408782 0.034787691872506542 0 0.46696672695635111 0.025221841143091769 0 0.45765443515408782 0.034787691872506542 0 0.47476651489280458 0.036884401728636017 0 0.45765443515408782 0.034787691872506542 0 0.46797547711532278 0.044946512120927887 0 0.47476651489280458 0.036884401728636017 0 0.45765443515408782 0.034787691872506542 0 0.46797547711532278 0.044946512120927887 0 0.45954234835797059 0.048231052896724677 0 0.44187962907631612 0.046191067946785118 0 0.45954234835797059 0.048231052896724677 0 0.4623375556565818 0.061774949623494647 0 0.45954234835797059 0.048231052896724677 0 0.46786464478754469 0.053455042919909178 0 0.4623375556565818 0.061774949623494647 0 0.46797547711532278 0.044946512120927887 0 0.45954234835797059 0.048231052896724677 0 0.46786464478754469 0.053455042919909178 0 0.46918942709530859 0.063098927845474925 0 0.46786464478754469 0.053455042919909178 0 0.4623375556565818 0.061774949623494647 0 0.46797547711532278 0.044946512120927887 0 0.46786464478754469 0.053455042919909178 0 0.48459471354765438 0.048749504967135808 0 0.46918942709530859 0.063098927845474925 0 0.46786464478754469 0.053455042919909178 0 0.48459471354765438 0.048749504967135808 0 0.46918942709530859 0.063098927845474925 0 0.48459471354765438 0.048749504967135808 0 0.46918942709530859 0.063098927845474925 0 0.47568175235585552 0.064194281140194723 0 0.48459471354765438 0.048749504967135808 0 0.46797547711532278 0.044946512120927887 0 0.47476651489280458 0.036884401728636017 0 0.48459471354765438 0.048749504967135808 0 0.47476651489280458 0.036884401728636017 0 0.48604867671056973 0.03379741394178231 0 0.48459471354765438 0.048749504967135808 0 0.47476651489280458 0.036884401728636017 0 0.48604867671056973 0.03379741394178231 0 0.4783059592694876 0.02592134602187951 0 0.48604867671056973 0.03379741394178231 0 0.50000000000000022 0.034400082088796607 0 0.48459471354765438 0.048749504967135808 0 0.50000000000000022 0.034400082088796607 0 0.48459471354765438 0.048749504967135808 0 0.49999999999999212 0.048100918460830422 0 0.50000000000000022 0.034400082088796607 0 0.48459471354765438 0.048749504967135808 0 0.5 0.064169785135472113 0 0.47568175235585552 0.064194281140194723 0 0.49999999999999212 0.048100918460830422 0 0.47568175235585552 0.064194281140194723 0 0.48459471354765438 0.048749504967135808 0 0.49999999999999212 0.048100918460830422 0 0.47568175235585552 0.064194281140194723 0 0.49999999999999212 0.048100918460830422 0 0.47248857146917461 0.011351293046179319 0 0.48726189732381109 0.01947723898481718 0 0.48675925227609812 0.00148019496453835 0 0.47248857146917461 0.011351293046179319 0 0.48675925227609812 0.00148019496453835 0 0.47448731730473548 -0.0104311595724764 0 0.46696672695635111 0.025221841143091769 0 0.47248857146917461 0.011351293046179319 0 0.4783059592694876 0.02592134602187951 0 0.46696672695635111 0.025221841143091769 0 0.47476651489280458 0.036884401728636017 0 0.4783059592694876 0.02592134602187951 0 0.48604867671056973 0.03379741394178231 0 0.4783059592694876 0.02592134602187951 0 0.48726189732381109 0.01947723898481718 0 0.47248857146917461 0.011351293046179319 0 0.4783059592694876 0.02592134602187951 0 0.48726189732381109 0.01947723898481718 0 0.50000000000000022 0.034400082088796607 0 0.48726189732381109 0.01947723898481718 0 0.5 0.010656825034539691 0 0.48604867671056973 0.03379741394178231 0 0.50000000000000022 0.034400082088796607 0 0.48726189732381109 0.01947723898481718 0 0.48726189732381109 0.01947723898481718 0 0.48675925227609812 0.00148019496453835 0 0.5 0.010656825034539691 0 0.48675925227609812 0.00148019496453835 0 0.5 0.010656825034539691 0 0.5 -0.013086432019717259 0 0.48675925227609812 0.00148019496453835 0 0.5 -0.013086432019717259 0 0.47448731730473548 -0.0104311595724764 0 0.47448731730473548 -0.0104311595724764 0 0.48724365865236768 -0.035502052850353773 0 0.47448731730473548 -0.0104311595724764 0 0.46949943480710837 -0.028951405217413059 0 0.48724365865236768 -0.035502052850353773 0 0.5 -0.013086432019717259 0 0.47448731730473548 -0.0104311595724764 0 0.48724365865236768 -0.035502052850353773 0 0.5 -0.013086432019717259 0 0.5 -0.036829689073974159 0 0.48724365865236768 -0.035502052850353773 0 0.5 -0.036829689073974159 0 0.48724365865236768 -0.035502052850353773 0 0.5 -0.060572946128231102 0 0.48724365865236768 -0.035502052850353773 0 0.5 -0.060572946128231102 0 0.48299411544260301 -0.05458553388675294 0 0.48724365865236768 -0.035502052850353773 0 0.5 -0.060572946128231102 0 0.47030617579950801 -0.0601315322090403 0 0.48299411544260301 -0.05458553388675294 0 0.47241390072959288 -0.044232403476878041 0 0.46949943480710837 -0.028951405217413059 0 0.48724365865236768 -0.035502052850353773 0 0.47241390072959288 -0.044232403476878041 0 0.48724365865236768 -0.035502052850353773 0 0.48299411544260301 -0.05458553388675294 0 0.47241390072959288 -0.044232403476878041 0 0.46949943480710837 -0.028951405217413059 0 0.47241390072959288 -0.044232403476878041 0 0.45571014775380952 -0.036583002930754567 0 0.47241390072959288 -0.044232403476878041 0 0.45571014775380952 -0.036583002930754567 0 0.45520797945265629 -0.054077931851160492 0 0.47030617579950801 -0.0601315322090403 0 0.47241390072959288 -0.044232403476878041 0 0.45520797945265629 -0.054077931851160492 0 0.47030617579950801 -0.0601315322090403 0 0.45520797945265629 -0.054077931851160492 0 0.45799683001194519 -0.07133391950919668 0 0.45520797945265629 -0.054077931851160492 0 0.43949174548112319 -0.045984950483573817 0 0.43855753186239632 -0.066037234291069349 0 0.45571014775380952 -0.036583002930754567 0 0.43949174548112319 -0.045984950483573817 0 0.44021250451327931 -0.027668159806980331 0 0.45571014775380952 -0.036583002930754567 0 0.45520797945265629 -0.054077931851160492 0 0.43949174548112319 -0.045984950483573817 0 0.45571014775380952 -0.036583002930754567 0 0.44021250451327931 -0.027668159806980331 0 0.45594693025080729 -0.018572860026429851 0 0.44021250451327931 -0.027668159806980331 0 0.43930167915224277 -0.0081936081740181417 0 0.45594693025080729 -0.018572860026429851 0 0.44325010166687429 0.0045091878388511556 0 0.43930167915224277 -0.0081936081740181417 0 0.45625924732481082 -0.001191271719883092 0 0.43930167915224277 -0.0081936081740181417 0 0.45625924732481082 -0.001191271719883092 0 0.45594693025080729 -0.018572860026429851 0 0.47448731730473548 -0.0104311595724764 0 0.45625924732481082 -0.001191271719883092 0 0.45594693025080729 -0.018572860026429851 0 0.47248857146917461 0.011351293046179319 0 0.47448731730473548 -0.0104311595724764 0 0.45625924732481082 -0.001191271719883092 0 0.46949943480710837 -0.028951405217413059 0 0.45571014775380952 -0.036583002930754567 0 0.45594693025080729 -0.018572860026429851 0 0.47448731730473548 -0.0104311595724764 0 0.46949943480710837 -0.028951405217413059 0 0.45594693025080729 -0.018572860026429851 0 0.47450488404307312 -0.10467613638040719 0 0.45514232789862002 -0.1207526523689479 0 0.47701358927628451 -0.13433069596812289 0 0.5 -0.12022035018190751 0 0.47450488404307312 -0.10467613638040719 0 0.47701358927628451 -0.13433069596812289 0 0.5 -0.12022035018190751 0 0.47450488404307312 -0.10467613638040719 0 0.5 -0.090396648155069315 0 0.47450488404307312 -0.10467613638040719 0 0.47816492335148297 -0.075460095838506727 0 0.46196748104177809 -0.088564823900112319 0 0.47450488404307312 -0.10467613638040719 0 0.5 -0.090396648155069315 0 0.47816492335148297 -0.075460095838506727 0 0.5 -0.060572946128231102 0 0.5 -0.090396648155069315 0 0.47816492335148297 -0.075460095838506727 0 0.5 -0.060572946128231102 0 0.48299411544260301 -0.05458553388675294 0 0.47816492335148297 -0.075460095838506727 0 0.47030617579950801 -0.0601315322090403 0 0.47816492335148297 -0.075460095838506727 0 0.45799683001194519 -0.07133391950919668 0 0.47030617579950801 -0.0601315322090403 0 0.48299411544260301 -0.05458553388675294 0 0.47816492335148297 -0.075460095838506727 0 0.45520797945265629 -0.054077931851160492 0 0.45799683001194519 -0.07133391950919668 0 0.43855753186239632 -0.066037234291069349 0 0.45799683001194519 -0.07133391950919668 0 0.43855753186239632 -0.066037234291069349 0 0.44377688856385011 -0.083731898965291013 0 0.44377688856385011 -0.083731898965291013 0 0.46196748104177809 -0.088564823900112319 0 0.45024684020838601 -0.10128924731824709 0 0.45799683001194519 -0.07133391950919668 0 0.44377688856385011 -0.083731898965291013 0 0.46196748104177809 -0.088564823900112319 0 0.47816492335148297 -0.075460095838506727 0 0.45799683001194519 -0.07133391950919668 0 0.46196748104177809 -0.088564823900112319 0 0.47450488404307312 -0.10467613638040719 0 0.46196748104177809 -0.088564823900112319 0 0.45024684020838601 -0.10128924731824709 0 0.47450488404307312 -0.10467613638040719 0 0.45024684020838601 -0.10128924731824709 0 0.45514232789862002 -0.1207526523689479 0 0.45024684020838601 -0.10128924731824709 0 0.43807909088099461 -0.1122885980949993 0 0.42801036882200039 -0.097721374199724736 0 0.44377688856385011 -0.083731898965291013 0 0.45024684020838601 -0.10128924731824709 0 0.42801036882200039 -0.097721374199724736 0 0.45024684020838601 -0.10128924731824709 0 0.43807909088099461 -0.1122885980949993 0 0.45514232789862002 -0.1207526523689479 0 0.43807909088099461 -0.1122885980949993 0 0.45514232789862002 -0.1207526523689479 0 0.43668295629035692 -0.1233815912782954 0 0.41287824964344511 -0.1244098422360839 0 0.41274300999879859 -0.1095891595462479 0 0.3973521325971795 -0.12034337486225551 0 0.41287824964344511 -0.1244098422360839 0 0.41274300999879859 -0.1095891595462479 0 0.42519357614446263 -0.11567564681874511 0 0.41287824964344511 -0.1244098422360839 0 0.42519357614446263 -0.11567564681874511 0 0.42613733149589272 -0.1283522507212364 0 0.43668295629035692 -0.1233815912782954 0 0.42519357614446263 -0.11567564681874511 0 0.42613733149589272 -0.1283522507212364 0 0.43807909088099461 -0.1122885980949993 0 0.43668295629035692 -0.1233815912782954 0 0.42519357614446263 -0.11567564681874511 0 0.43807909088099461 -0.1122885980949993 0 0.42519357614446263 -0.11567564681874511 0 0.42801036882200039 -0.097721374199724736 0 0.41274300999879859 -0.1095891595462479 0 0.42519357614446263 -0.11567564681874511 0 0.42801036882200039 -0.097721374199724736 0 0.41274300999879859 -0.1095891595462479 0 0.42801036882200039 -0.097721374199724736 0 0.412176358610365 -0.096024365589800167 0 0.41274300999879859 -0.1095891595462479 0 0.412176358610365 -0.096024365589800167 0 0.40120629371988281 -0.1036839515079335 0 0.42801036882200039 -0.097721374199724736 0 0.412176358610365 -0.096024365589800167 0 0.41570873669506547 -0.082031398904103853 0 0.412176358610365 -0.096024365589800167 0 0.41570873669506547 -0.082031398904103853 0 0.39868411386577862 -0.090544309620796792 0 0.42801036882200039 -0.097721374199724736 0 0.41570873669506547 -0.082031398904103853 0 0.42980773004146972 -0.079767471687950453 0 0.44377688856385011 -0.083731898965291013 0 0.42801036882200039 -0.097721374199724736 0 0.42980773004146972 -0.079767471687950453 0 0.41570873669506547 -0.082031398904103853 0 0.42980773004146972 -0.079767471687950453 0 0.42298512426403628 -0.069315452079563286 0 0.43855753186239632 -0.066037234291069349 0 0.42298512426403628 -0.069315452079563286 0 0.4227132643772108 -0.054098360244124191 0 0.43855753186239632 -0.066037234291069349 0 0.44377688856385011 -0.083731898965291013 0 0.42980773004146972 -0.079767471687950453 0 0.43855753186239632 -0.066037234291069349 0 0.42980773004146972 -0.079767471687950453 0 0.42298512426403628 -0.069315452079563286 0 0.41570873669506547 -0.082031398904103853 0 0.40943635999271388 -0.063708095288329158 0 0.39845778404902521 -0.07488151356005629 0 0.41570873669506547 -0.082031398904103853 0 0.42298512426403628 -0.069315452079563286 0 0.40943635999271388 -0.063708095288329158 0 0.40943635999271388 -0.063708095288329158 0 0.39845778404902521 -0.07488151356005629 0 0.39394803252720018 -0.058692689927634267 0 0.39845778404902521 -0.07488151356005629 0 0.38335002376579003 -0.070742674972891939 0 0.39394803252720018 -0.058692689927634267 0 0.39845778404902521 -0.07488151356005629 0 0.38335002376579003 -0.070742674972891939 0 0.38348584060938562 -0.089058432768113621 0 0.38335002376579003 -0.070742674972891939 0 0.38348584060938562 -0.089058432768113621 0 0.36842620457529901 -0.083266395079578615 0 0.39845778404902521 -0.07488151356005629 0 0.38348584060938562 -0.089058432768113621 0 0.39868411386577862 -0.090544309620796792 0 0.41570873669506547 -0.082031398904103853 0 0.39845778404902521 -0.07488151356005629 0 0.39868411386577862 -0.090544309620796792 0 0.412176358610365 -0.096024365589800167 0 0.39868411386577862 -0.090544309620796792 0 0.40120629371988281 -0.1036839515079335 0 0.39868411386577862 -0.090544309620796792 0 0.40120629371988281 -0.1036839515079335 0 0.38717751397389299 -0.1050287306560085 0 0.38348584060938562 -0.089058432768113621 0 0.38717751397389299 -0.1050287306560085 0 0.3689775454119959 -0.1033412667606214 0 0.38348584060938562 -0.089058432768113621 0 0.39868411386577862 -0.090544309620796792 0 0.38717751397389299 -0.1050287306560085 0 0.38717751397389299 -0.1050287306560085 0 0.37408105728939067 -0.1220646411318288 0 0.3689775454119959 -0.1033412667606214 0 0.38717751397389299 -0.1050287306560085 0 0.3973521325971795 -0.12034337486225551 0 0.37408105728939067 -0.1220646411318288 0 0.40120629371988281 -0.1036839515079335 0 0.38717751397389299 -0.1050287306560085 0 0.3973521325971795 -0.12034337486225551 0 0.41274300999879859 -0.1095891595462479 0 0.40120629371988281 -0.1036839515079335 0 0.3973521325971795 -0.12034337486225551 0 0.41735214176992469 -0.0213435020400446 0 0.40706882829022623 -0.028935058739178541 0 0.40873772934741692 -0.0082227253047044979 0 0.41735214176992469 -0.0213435020400446 0 0.40706882829022623 -0.028935058739178541 0 0.42244062773844537 -0.035489278555506418 0 0.41871377886572758 0.0033715561943622741 0 0.40873772934741692 -0.0082227253047044979 0 0.41871377886572758 0.0033715561943622741 0 0.40873772934741692 -0.0082227253047044979 0 0.42401970424982988 -0.0082081667393636495 0 0.41735214176992469 -0.0213435020400446 0 0.40873772934741692 -0.0082227253047044979 0 0.42401970424982988 -0.0082081667393636495 0 0.40873772934741692 -0.0082227253047044979 0 0.42401970424982988 -0.0082081667393636495 0 0.41871377886572758 0.0033715561943622741 0 0.43025695391148888 0.0037636498374452169 0 0.42401970424982988 -0.0082081667393636495 0 0.43025695391148888 0.0037636498374452169 0 0.43930167915224277 -0.0081936081740181417 0 0.42401970424982988 -0.0082081667393636495 0 0.43930167915224277 -0.0081936081740181417 0 0.42401970424982988 -0.0082081667393636495 0 0.42866533148474439 -0.020180543063182631 0 0.43930167915224277 -0.0081936081740181417 0 0.42401970424982988 -0.0082081667393636495 0 0.44021250451327931 -0.027668159806980331 0 0.43930167915224277 -0.0081936081740181417 0 0.42866533148474439 -0.020180543063182631 0 0.44021250451327931 -0.027668159806980331 0 0.42866533148474439 -0.020180543063182631 0 0.42244062773844537 -0.035489278555506418 0 0.41735214176992469 -0.0213435020400446 0 0.42401970424982988 -0.0082081667393636495 0 0.42866533148474439 -0.020180543063182631 0 0.41735214176992469 -0.0213435020400446 0 0.42866533148474439 -0.020180543063182631 0 0.42244062773844537 -0.035489278555506418 0 0.43949174548112319 -0.045984950483573817 0 0.42244062773844537 -0.035489278555506418 0 0.4227132643772108 -0.054098360244124191 0 0.43949174548112319 -0.045984950483573817 0 0.44021250451327931 -0.027668159806980331 0 0.42244062773844537 -0.035489278555506418 0 0.43949174548112319 -0.045984950483573817 0 0.43855753186239632 -0.066037234291069349 0 0.4227132643772108 -0.054098360244124191 0 0.40943635999271388 -0.063708095288329158 0 0.4227132643772108 -0.054098360244124191 0 0.40427651932911479 -0.043959891634949927 0 0.42298512426403628 -0.069315452079563286 0 0.40943635999271388 -0.063708095288329158 0 0.4227132643772108 -0.054098360244124191 0 0.42244062773844537 -0.035489278555506418 0 0.4227132643772108 -0.054098360244124191 0 0.40427651932911479 -0.043959891634949927 0 0.40706882829022623 -0.028935058739178541 0 0.42244062773844537 -0.035489278555506418 0 0.40427651932911479 -0.043959891634949927 0 0.40706882829022623 -0.028935058739178541 0 0.40427651932911479 -0.043959891634949927 0 0.39205374254781089 -0.027613050014517901 0 0.40943635999271388 -0.063708095288329158 0 0.40427651932911479 -0.043959891634949927 0 0.39394803252720018 -0.058692689927634267 0 0.40427651932911479 -0.043959891634949927 0 0.39394803252720018 -0.058692689927634267 0 0.37536975574820741 -0.047003374724333122 0 0.38335002376579003 -0.070742674972891939 0 0.37536975574820741 -0.047003374724333122 0 0.37145793825947498 -0.066851536052737998 0 0.38335002376579003 -0.070742674972891939 0 0.39394803252720018 -0.058692689927634267 0 0.37536975574820741 -0.047003374724333122 0 0.40427651932911479 -0.043959891634949927 0 0.37536975574820741 -0.047003374724333122 0 0.39205374254781089 -0.027613050014517901 0 0.37536975574820741 -0.047003374724333122 0 0.39205374254781089 -0.027613050014517901 0 0.37484292434526739 -0.024910412108717708 0 0.37536975574820741 -0.047003374724333122 0 0.39205374254781089 -0.027613050014517901 0 0.39205374254781089 -0.027613050014517901 0 0.38651699513386489 -0.0082438941662691945 0 0.37484292434526739 -0.024910412108717708 0 0.40873772934741692 -0.0082227253047044979 0 0.39205374254781089 -0.027613050014517901 0 0.40706882829022623 -0.028935058739178541 0 0.40873772934741692 -0.0082227253047044979 0 0.39205374254781089 -0.027613050014517901 0 0.40873772934741692 -0.0082227253047044979 0 0.38651699513386489 -0.0082438941662691945 0 0.40873772934741692 -0.0082227253047044979 0 0.39205374254781089 -0.027613050014517901 0 0.38651699513386489 -0.0082438941662691945 0 0.4004964802826827 0.0023048094262989182 0 0.40873772934741692 -0.0082227253047044979 0 0.38651699513386489 -0.0082438941662691945 0 0.38651699513386489 -0.0082438941662691945 0 0.36429626092031292 -0.0082650630278287354 0 0.37484292434526739 -0.024910412108717708 0 0.38651699513386489 -0.0082438941662691945 0 0.36429626092031292 -0.0082650630278287354 0 0.37956009188044232 0.0054639270967038961 0 0.38651699513386489 -0.0082438941662691945 0 0.37335478626556751 -0.0010199995163838169 0 0.38651699513386489 -0.0082438941662691945 0 0.37335478626556751 -0.0010199995163838169 0 0.36429626092031292 -0.0082650630278287354 0 0.36550899953369981 0.0024517522133788799 0 0.37335478626556751 -0.0010199995163838169 0 0.36429626092031292 -0.0082650630278287354 0 0.36429626092031292 -0.0082650630278287354 0 0.36262094061262568 -0.0082666590427639061 0 0.36550899953369981 0.0024517522133788799 0 0.36429626092031292 -0.0082650630278287354 0 0.36262094061262568 -0.0082666590427639061 0 0.36550899953369981 0.0024517522133788799 0 0.36429626092031292 -0.0082650630278287354 0 0.36550899953369981 0.0024517522133788799 0 0.36262094061262568 -0.0082666590427639061 0 0.36429626092031292 -0.0082650630278287354 0 0.37484292434526739 -0.024910412108717708 0 0.35607652498516779 -0.032554854001106852 0 0.36429626092031292 -0.0082650630278287354 0 0.36262094061262568 -0.0082666590427639061 0 0.35607652498516779 -0.032554854001106852 0 0.36262094061262568 -0.0082666590427639061 0 0.35061717391290292 -0.018058051822241919 0 0.35607652498516779 -0.032554854001106852 0 0.36262094061262568 -0.0082666590427639061 0 0.35607652498516779 -0.032554854001106852 0 0.35061717391290292 -0.018058051822241919 0 0.34245763163498222 -0.033233001483108773 0 0.35607652498516779 -0.032554854001106852 0 0.36550899953369981 0.0024517522133788799 0 0.36262094061262568 -0.0082666590427639061 0 0.34048390649112098 -0.004366084792897738 0 0.36262094061262568 -0.0082666590427639061 0 0.33859477323187209 -0.0082895478729083753 0 0.36262094061262568 -0.0082666590427639061 0 0.35061717391290292 -0.018058051822241919 0 0.33859477323187209 -0.0082895478729083753 0 0.36262094061262568 -0.0082666590427639061 0 0.33859477323187209 -0.0082895478729083753 0 0.34048390649112098 -0.004366084792897738 0 0.33231672106315707 0.00076736276325971243 0 0.34063004757963988 0.0011895600491483281 0 0.34048390649112098 -0.004366084792897738 0 0.33231672106315707 0.00076736276325971243 0 0.34048390649112098 -0.004366084792897738 0 0.3237582470597658 -0.0036832242047534821 0 0.33859477323187209 -0.0082895478729083753 0 0.34048390649112098 -0.004366084792897738 0 0.31471363201375219 -0.01776899435288349 0 0.33859477323187209 -0.0082895478729083753 0 0.33513242010202782 -0.024597355989223711 0 0.31471363201375219 -0.01776899435288349 0 0.35061717391290292 -0.018058051822241919 0 0.33859477323187209 -0.0082895478729083753 0 0.33513242010202782 -0.024597355989223711 0 0.35061717391290292 -0.018058051822241919 0 0.33513242010202782 -0.024597355989223711 0 0.34245763163498222 -0.033233001483108773 0 0.33513242010202782 -0.024597355989223711 0 0.31471363201375219 -0.01776899435288349 0 0.32858411812589938 -0.040459366684498177 0 0.31471363201375219 -0.01776899435288349 0 0.3237582470597658 -0.0036832242047534821 0 0.30332321409842661 -0.0035271610948642922 0 0.34048390649112098 -0.004366084792897738 0 0.31471363201375219 -0.01776899435288349 0 0.34048390649112098 -0.004366084792897738 0 0.31471363201375219 -0.01776899435288349 0 0.3237582470597658 -0.0036832242047534821 0 0.31505504448721611 0.0068383069611849916 0 0.3237582470597658 -0.0036832242047534821 0 0.30332321409842661 -0.0035271610948642922 0 0.32858411812589938 -0.040459366684498177 0 0.33183681190163877 -0.057884282846953523 0 0.31109383207343388 -0.045507559092967637 0 0.33183681190163877 -0.057884282846953523 0 0.31405627196664698 -0.063953665332340731 0 0.31109383207343388 -0.045507559092967637 0 0.31471363201375219 -0.01776899435288349 0 0.32858411812589938 -0.040459366684498177 0 0.31109383207343388 -0.045507559092967637 0 0.33513242010202782 -0.024597355989223711 0 0.32858411812589938 -0.040459366684498177 0 0.34245763163498222 -0.033233001483108773 0 0.32858411812589938 -0.040459366684498177 0 0.34245763163498222 -0.033233001483108773 0 0.34009387303327021 -0.047326897682668137 0 0.32858411812589938 -0.040459366684498177 0 0.33183681190163877 -0.057884282846953523 0 0.34009387303327021 -0.047326897682668137 0 0.33183681190163877 -0.057884282846953523 0 0.34009387303327021 -0.047326897682668137 0 0.34953210935771012 -0.056843048959449659 0 0.33183681190163877 -0.057884282846953523 0 0.34953210935771012 -0.056843048959449659 0 0.34201931249546702 -0.068394850456455311 0 0.34009387303327021 -0.047326897682668137 0 0.34953210935771012 -0.056843048959449659 0 0.35607652498516779 -0.032554854001106852 0 0.34245763163498222 -0.033233001483108773 0 0.34009387303327021 -0.047326897682668137 0 0.35607652498516779 -0.032554854001106852 0 0.34953210935771012 -0.056843048959449659 0 0.35607652498516779 -0.032554854001106852 0 0.37536975574820741 -0.047003374724333122 0 0.37484292434526739 -0.024910412108717708 0 0.35607652498516779 -0.032554854001106852 0 0.37536975574820741 -0.047003374724333122 0 0.34953210935771012 -0.056843048959449659 0 0.35607652498516779 -0.032554854001106852 0 0.37536975574820741 -0.047003374724333122 0 0.35868576894860382 -0.066393699434148287 0 0.37536975574820741 -0.047003374724333122 0 0.37145793825947498 -0.066851536052737998 0 0.35868576894860382 -0.066393699434148287 0 0.37536975574820741 -0.047003374724333122 0 0.34953210935771012 -0.056843048959449659 0 0.35868576894860382 -0.066393699434148287 0 0.37145793825947498 -0.066851536052737998 0 0.36842620457529901 -0.083266395079578615 0 0.35868576894860382 -0.066393699434148287 0 0.38335002376579003 -0.070742674972891939 0 0.37145793825947498 -0.066851536052737998 0 0.36842620457529901 -0.083266395079578615 0 0.38348584060938562 -0.089058432768113621 0 0.36842620457529901 -0.083266395079578615 0 0.3689775454119959 -0.1033412667606214 0 0.36842620457529901 -0.083266395079578615 0 0.35868576894860382 -0.066393699434148287 0 0.34200178214900029 -0.085784024143963453 0 0.36842620457529901 -0.083266395079578615 0 0.35066645614280029 -0.10208876188784979 0 0.34200178214900029 -0.085784024143963453 0 0.35868576894860382 -0.066393699434148287 0 0.34201931249546702 -0.068394850456455311 0 0.34200178214900029 -0.085784024143963453 0 0.35868576894860382 -0.066393699434148287 0 0.34200178214900029 -0.085784024143963453 0 0.34953210935771012 -0.056843048959449659 0 0.35868576894860382 -0.066393699434148287 0 0.34201931249546702 -0.068394850456455311 0 0.37408105728939067 -0.1220646411318288 0 0.3689775454119959 -0.1033412667606214 0 0.35031208795440871 -0.12268864718202629 0 0.36842620457529901 -0.083266395079578615 0 0.3689775454119959 -0.1033412667606214 0 0.35066645614280029 -0.10208876188784979 0 0.3689775454119959 -0.1033412667606214 0 0.35066645614280029 -0.10208876188784979 0 0.35031208795440871 -0.12268864718202629 0 0.35031208795440871 -0.12268864718202629 0 0.32531779534939681 -0.1051743488537786 0 0.32842247429023141 -0.1259915980058679 0 0.35066645614280029 -0.10208876188784979 0 0.35031208795440871 -0.12268864718202629 0 0.32531779534939681 -0.1051743488537786 0 0.35066645614280029 -0.10208876188784979 0 0.32531779534939681 -0.1051743488537786 0 0.34200178214900029 -0.085784024143963453 0 0.32531779534939681 -0.1051743488537786 0 0.34200178214900029 -0.085784024143963453 0 0.32531779534939681 -0.1051743488537786 0 0.31036564794861299 -0.086653253946053693 0 0.30332924231473202 -0.10646016156316621 0 0.32531779534939681 -0.1051743488537786 0 0.30863380854979322 -0.1245646735635938 0 0.32842247429023141 -0.1259915980058679 0 0.32531779534939681 -0.1051743488537786 0 0.30863380854979322 -0.1245646735635938 0 0.33183681190163877 -0.057884282846953523 0 0.34201931249546702 -0.068394850456455311 0 0.32804009012038188 -0.075069196897761661 0 0.34201931249546702 -0.068394850456455311 0 0.34200178214900029 -0.085784024143963453 0 0.32804009012038188 -0.075069196897761661 0 0.32531779534939681 -0.1051743488537786 0 0.34200178214900029 -0.085784024143963453 0 0.32804009012038188 -0.075069196897761661 0 0.32531779534939681 -0.1051743488537786 0 0.32804009012038188 -0.075069196897761661 0 0.31036564794861299 -0.086653253946053693 0 0.33183681190163877 -0.057884282846953523 0 0.31405627196664698 -0.063953665332340731 0 0.32804009012038188 -0.075069196897761661 0 0.31405627196664698 -0.063953665332340731 0 0.32804009012038188 -0.075069196897761661 0 0.31036564794861299 -0.086653253946053693 0 0.31405627196664698 -0.063953665332340731 0 0.29897866013033098 -0.072285048052624409 0 0.29519344039269507 -0.055772710245670293 0 0.31405627196664698 -0.063953665332340731 0 0.29897866013033098 -0.072285048052624409 0 0.31036564794861299 -0.086653253946053693 0 0.29897866013033098 -0.072285048052624409 0 0.31036564794861299 -0.086653253946053693 0 0.28789366059673288 -0.094502295475606596 0 0.29897866013033098 -0.072285048052624409 0 0.28789366059673288 -0.094502295475606596 0 0.2806790996580148 -0.071173779097910311 0 0.29897866013033098 -0.072285048052624409 0 0.2806790996580148 -0.071173779097910311 0 0.29519344039269507 -0.055772710245670293 0 0.30863380854979322 -0.1245646735635938 0 0.30332924231473202 -0.10646016156316621 0 0.28443529912912419 -0.12140623597679839 0 0.32531779534939681 -0.1051743488537786 0 0.30863380854979322 -0.1245646735635938 0 0.30332924231473202 -0.10646016156316621 0 0.31036564794861299 -0.086653253946053693 0 0.30332924231473202 -0.10646016156316621 0 0.28789366059673288 -0.094502295475606596 0 0.28789366059673288 -0.094502295475606596 0 0.28443529912912419 -0.12140623597679839 0 0.30332924231473202 -0.10646016156316621 0 0.28789366059673288 -0.094502295475606596 0 0.28443529912912419 -0.12140623597679839 0 0.28443529912912419 -0.12140623597679839 0 0.2566916324133659 -0.11530786144550211 0 0.26093079810087821 -0.13796461764969331 0 0.28443529912912419 -0.12140623597679839 0 0.27040551836453808 -0.1008768708821345 0 0.2566916324133659 -0.11530786144550211 0 0.28789366059673288 -0.094502295475606596 0 0.27040551836453808 -0.1008768708821345 0 0.27066572420972751 -0.086391368953045847 0 0.28789366059673288 -0.094502295475606596 0 0.28443529912912419 -0.12140623597679839 0 0.27040551836453808 -0.1008768708821345 0 0.27040551836453808 -0.1008768708821345 0 0.25415217139124358 -0.09701936163760258 0 0.2566916324133659 -0.11530786144550211 0 0.27040551836453808 -0.1008768708821345 0 0.25415217139124358 -0.09701936163760258 0 0.26380234161027138 -0.091676011368673718 0 0.26777589138131092 -0.063244051990538869 0 0.2806790996580148 -0.071173779097910311 0 0.25921383635605111 -0.07869010523964387 0 0.2806790996580148 -0.071173779097910311 0 0.25921383635605111 -0.07869010523964387 0 0.2806790996580148 -0.071173779097910311 0 0.27066572420972751 -0.086391368953045847 0 0.25921383635605111 -0.07869010523964387 0 0.28789366059673288 -0.094502295475606596 0 0.2806790996580148 -0.071173779097910311 0 0.27066572420972751 -0.086391368953045847 0 0.27040551836453808 -0.1008768708821345 0 0.27066572420972751 -0.086391368953045847 0 0.26380234161027138 -0.091676011368673718 0 0.27066572420972751 -0.086391368953045847 0 0.2599859524755766 -0.082416444001912004 0 0.25921383635605111 -0.07869010523964387 0 0.25415217139124358 -0.09701936163760258 0 0.2599859524755766 -0.082416444001912004 0 0.23734579896956209 -0.086347467684455836 0 0.2599859524755766 -0.082416444001912004 0 0.25921383635605111 -0.07869010523964387 0 0.23734579896956209 -0.086347467684455836 0 0.2599859524755766 -0.082416444001912004 0 0.25921383635605111 -0.07869010523964387 0 0.27066572420972751 -0.086391368953045847 0 0.2599859524755766 -0.082416444001912004 0 0.26380234161027138 -0.091676011368673718 0 0.25415217139124358 -0.09701936163760258 0 0.2599859524755766 -0.082416444001912004 0 0.26380234161027138 -0.091676011368673718 0 0.26777589138131092 -0.063244051990538869 0 0.25921383635605111 -0.07869010523964387 0 0.25380120851981741 -0.052568017639291788 0 0.25921383635605111 -0.07869010523964387 0 0.25380120851981741 -0.052568017639291788 0 0.25921383635605111 -0.07869010523964387 0 0.25380120851981741 -0.052568017639291788 0 0.23724335730116961 -0.065010757385908433 0 0.26777589138131092 -0.063244051990538869 0 0.2806790996580148 -0.071173779097910311 0 0.2774094209913604 -0.050544305985309491 0 0.26777589138131092 -0.063244051990538869 0 0.25380120851981741 -0.052568017639291788 0 0.2774094209913604 -0.050544305985309491 0 0.25380120851981741 -0.052568017639291788 0 0.2774094209913604 -0.050544305985309491 0 0.26761912080446482 -0.034809247585236548 0 0.2774094209913604 -0.050544305985309491 0 0.26761912080446482 -0.034809247585236548 0 0.2889433575363835 -0.031171903912869191 0 0.25380120851981741 -0.052568017639291788 0 0.26761912080446482 -0.034809247585236548 0 0.24838858068358369 -0.026445930038939771 0 0.25380120851981741 -0.052568017639291788 0 0.24838858068358369 -0.026445930038939771 0 0.26761912080446482 -0.034809247585236548 0 0.26955303629117888 -0.01331608034977249 0 0.24838858068358369 -0.026445930038939771 0 0.25772642959595549 -0.002976658867858078 0 0.26955303629117888 -0.01331608034977249 0 0.24838858068358369 -0.026445930038939771 0 0.27385935584050519 0.0059842219239403492 0 0.25772642959595549 -0.002976658867858078 0 0.26955303629117888 -0.01331608034977249 0 0.27385935584050519 0.0059842219239403492 0 0.26955303629117888 -0.01331608034977249 0 0.28513605537496112 -0.0059817668724007544 0 0.26761912080446482 -0.034809247585236548 0 0.26955303629117888 -0.01331608034977249 0 0.2889433575363835 -0.031171903912869191 0 0.26955303629117888 -0.01331608034977249 0 0.2889433575363835 -0.031171903912869191 0 0.28513605537496112 -0.0059817668724007544 0 0.2889433575363835 -0.031171903912869191 0 0.28513605537496112 -0.0059817668724007544 0 0.30332321409842661 -0.0035271610948642922 0 0.31471363201375219 -0.01776899435288349 0 0.2889433575363835 -0.031171903912869191 0 0.30332321409842661 -0.0035271610948642922 0 0.31471363201375219 -0.01776899435288349 0 0.2889433575363835 -0.031171903912869191 0 0.2889433575363835 -0.031171903912869191 0 0.31109383207343388 -0.045507559092967637 0 0.29519344039269507 -0.055772710245670293 0 0.31471363201375219 -0.01776899435288349 0 0.2889433575363835 -0.031171903912869191 0 0.31109383207343388 -0.045507559092967637 0 0.31405627196664698 -0.063953665332340731 0 0.31109383207343388 -0.045507559092967637 0 0.29519344039269507 -0.055772710245670293 0 0.2806790996580148 -0.071173779097910311 0 0.2774094209913604 -0.050544305985309491 0 0.29519344039269507 -0.055772710245670293 0 0.2774094209913604 -0.050544305985309491 0 0.2889433575363835 -0.031171903912869191 0 0.29519344039269507 -0.055772710245670293 0 0.28597705526192641 -0.21313670243596741 0 0.29003262637850979 -0.1936223151711414 0 0.30136416602419541 -0.20795299610265289 0 0.28597705526192641 -0.21313670243596741 0 0.30136416602419541 -0.20795299610265289 0 0.2975156380406902 -0.22168534549582461 0 0.28597705526192641 -0.21313670243596741 0 0.29003262637850979 -0.1936223151711414 0 0.27406021472629821 -0.20211805748037401 0 0.29003262637850979 -0.1936223151711414 0 0.30514063718147327 -0.1919367735154538 0 0.30136416602419541 -0.20795299610265289 0 0.30514063718147327 -0.1919367735154538 0 0.30136416602419541 -0.20795299610265289 0 0.31706041835900789 -0.20260025260636849 0 0.30136416602419541 -0.20795299610265289 0 0.31706041835900789 -0.20260025260636849 0 0.31302026757543511 -0.21953992839433301 0 0.30136416602419541 -0.20795299610265289 0 0.2975156380406902 -0.22168534549582461 0 0.31302026757543511 -0.21953992839433301 0 0.2975156380406902 -0.22168534549582461 0 0.30448465568896421 -0.23803549748965649 0 0.31302026757543511 -0.21953992839433301 0 0.30448465568896421 -0.23803549748965649 0 0.289954177650182 -0.24849940719596311 0 0.31227764954635462 -0.25327102046308481 0 0.30448465568896421 -0.23803549748965649 0 0.289954177650182 -0.24849940719596311 0 0.28273204565292981 -0.22976160305651341 0 0.28597705526192641 -0.21313670243596741 0 0.2975156380406902 -0.22168534549582461 0 0.28273204565292981 -0.22976160305651341 0 0.2975156380406902 -0.22168534549582461 0 0.30448465568896421 -0.23803549748965649 0 0.28273204565292981 -0.22976160305651341 0 0.30448465568896421 -0.23803549748965649 0 0.28273204565292981 -0.22976160305651341 0 0.28597705526192641 -0.21313670243596741 0 0.28273204565292981 -0.22976160305651341 0 0.26097943561689552 -0.22148770862337031 0 0.28273204565292981 -0.22976160305651341 0 0.26503799397225231 -0.24416265096041301 0 0.26097943561689552 -0.22148770862337031 0 0.28273204565292981 -0.22976160305651341 0 0.26097943561689552 -0.22148770862337031 0 0.289954177650182 -0.24849940719596311 0 0.28273204565292981 -0.22976160305651341 0 0.26503799397225231 -0.24416265096041301 0 0.26503799397225231 -0.24416265096041301 0 0.24593773647071951 -0.24899878885736021 0 0.24927345032971729 -0.23402375540267939 0 0.26503799397225231 -0.24416265096041301 0 0.26097943561689552 -0.22148770862337031 0 0.24927345032971729 -0.23402375540267939 0 0.26097943561689552 -0.22148770862337031 0 0.24426364978656051 -0.21530824895215189 0 0.24927345032971729 -0.23402375540267939 0 0.26097943561689552 -0.22148770862337031 0 0.25370703271449452 -0.2021672765488961 0 0.24426364978656051 -0.21530824895215189 0 0.26097943561689552 -0.22148770862337031 0 0.27406021472629821 -0.20211805748037401 0 0.25370703271449452 -0.2021672765488961 0 0.28597705526192641 -0.21313670243596741 0 0.26097943561689552 -0.22148770862337031 0 0.27406021472629821 -0.20211805748037401 0 0.29003262637850979 -0.1936223151711414 0 0.27406021472629821 -0.20211805748037401 0 0.27751857619390691 -0.17521411697918221 0 0.27406021472629821 -0.20211805748037401 0 0.27751857619390691 -0.17521411697918221 0 0.27406021472629821 -0.20211805748037401 0 0.25370703271449452 -0.2021672765488961 0 0.25411262099828558 -0.17831709840515231 0 0.25411262099828558 -0.17831709840515231 0 0.26358689047159489 -0.15995434286485921 0 0.24477317661511899 -0.15438625179615861 0 0.25411262099828558 -0.17831709840515231 0 0.26358689047159489 -0.15995434286485921 0 0.27751857619390691 -0.17521411697918221 0 0.26358689047159489 -0.15995434286485921 0 0.27751857619390691 -0.17521411697918221 0 0.28097693766151549 -0.1483101764779903 0 0.27751857619390691 -0.17521411697918221 0 0.28097693766151549 -0.1483101764779903 0 0.27406021472629821 -0.20211805748037401 0 0.25411262099828558 -0.17831709840515231 0 0.27751857619390691 -0.17521411697918221 0 0.2566916324133659 -0.11530786144550211 0 0.26093079810087821 -0.13796461764969331 0 0.24096505950742009 -0.12955721171544829 0 0.26358689047159489 -0.15995434286485921 0 0.26093079810087821 -0.13796461764969331 0 0.24477317661511899 -0.15438625179615861 0 0.26358689047159489 -0.15995434286485921 0 0.26093079810087821 -0.13796461764969331 0 0.28097693766151549 -0.1483101764779903 0 0.28443529912912419 -0.12140623597679839 0 0.26093079810087821 -0.13796461764969331 0 0.28097693766151549 -0.1483101764779903 0 0.28443529912912419 -0.12140623597679839 0 0.28097693766151549 -0.1483101764779903 0 0.28443529912912419 -0.12140623597679839 0 0.28097693766151549 -0.1483101764779903 0 0.29946922911095791 -0.1396642086980249 0 0.28097693766151549 -0.1483101764779903 0 0.29946922911095791 -0.1396642086980249 0 0.30864495172265599 -0.15706384823901631 0 0.29946922911095791 -0.1396642086980249 0 0.30864495172265599 -0.15706384823901631 0 0.31905771333835631 -0.14151840503778909 0 0.30863380854979322 -0.1245646735635938 0 0.28443529912912419 -0.12140623597679839 0 0.29946922911095791 -0.1396642086980249 0 0.30863380854979322 -0.1245646735635938 0 0.29946922911095791 -0.1396642086980249 0 0.31905771333835631 -0.14151840503778909 0 0.29003262637850979 -0.1936223151711414 0 0.27751857619390691 -0.17521411697918221 0 0.29670214602331008 -0.17290713978873559 0 0.28097693766151549 -0.1483101764779903 0 0.29670214602331008 -0.17290713978873559 0 0.30864495172265599 -0.15706384823901631 0 0.27751857619390691 -0.17521411697918221 0 0.28097693766151549 -0.1483101764779903 0 0.29670214602331008 -0.17290713978873559 0 0.29670214602331008 -0.17290713978873559 0 0.30864495172265599 -0.15706384823901631 0 0.32116528092849439 -0.18011932513661011 0 0.30514063718147327 -0.1919367735154538 0 0.29670214602331008 -0.17290713978873559 0 0.32116528092849439 -0.18011932513661011 0 0.29003262637850979 -0.1936223151711414 0 0.30514063718147327 -0.1919367735154538 0 0.29670214602331008 -0.17290713978873559 0 0.30864495172265599 -0.15706384823901631 0 0.32116528092849439 -0.18011932513661011 0 0.33345635168643573 -0.1606642440873095 0 0.30864495172265599 -0.15706384823901631 0 0.32116528092849439 -0.18011932513661011 0 0.32116528092849439 -0.18011932513661011 0 0.33345635168643573 -0.1606642440873095 0 0.34312611387489478 -0.1852460597611669 0 0.31905771333835631 -0.14151840503778909 0 0.32842247429023141 -0.1259915980058679 0 0.3366366656797839 -0.14002483592564419 0 0.30863380854979322 -0.1245646735635938 0 0.31905771333835631 -0.14151840503778909 0 0.32842247429023141 -0.1259915980058679 0 0.30864495172265599 -0.15706384823901631 0 0.33345635168643573 -0.1606642440873095 0 0.31905771333835631 -0.14151840503778909 0 0.33345635168643573 -0.1606642440873095 0 0.31905771333835631 -0.14151840503778909 0 0.3366366656797839 -0.14002483592564419 0 0.33345635168643573 -0.1606642440873095 0 0.3366366656797839 -0.14002483592564419 0 0.35168914766118659 -0.149632180125916 0 0.35031208795440871 -0.12268864718202629 0 0.32842247429023141 -0.1259915980058679 0 0.3366366656797839 -0.14002483592564419 0 0.35031208795440871 -0.12268864718202629 0 0.35168914766118659 -0.149632180125916 0 0.36673211974437742 -0.14061705272009789 0 0.35031208795440871 -0.12268864718202629 0 0.3366366656797839 -0.14002483592564419 0 0.35168914766118659 -0.149632180125916 0 0.36673211974437742 -0.14061705272009789 0 0.38222836740538602 -0.15710324216133559 0 0.35168914766118659 -0.149632180125916 0 0.36673211974437742 -0.14061705272009789 0 0.36820653573641082 -0.16320660408072371 0 0.36673211974437742 -0.14061705272009789 0 0.36820653573641082 -0.16320660408072371 0 0.38222836740538602 -0.15710324216133559 0 0.37408105728939067 -0.1220646411318288 0 0.35031208795440871 -0.12268864718202629 0 0.36673211974437742 -0.14061705272009789 0 0.33345635168643573 -0.1606642440873095 0 0.34312611387489478 -0.1852460597611669 0 0.35479112516570321 -0.17059169675969479 0 0.34312611387489478 -0.1852460597611669 0 0.35479112516570321 -0.17059169675969479 0 0.35977429802260208 -0.18500338367123709 0 0.35168914766118659 -0.149632180125916 0 0.35479112516570321 -0.17059169675969479 0 0.36820653573641082 -0.16320660408072371 0 0.33345635168643573 -0.1606642440873095 0 0.35168914766118659 -0.149632180125916 0 0.35479112516570321 -0.17059169675969479 0 0.35479112516570321 -0.17059169675969479 0 0.36820653573641082 -0.16320660408072371 0 0.37111337480263679 -0.17822036699064001 0 0.36820653573641082 -0.16320660408072371 0 0.37111337480263679 -0.17822036699064001 0 0.38182575019838322 -0.17232084479927109 0 0.35479112516570321 -0.17059169675969479 0 0.37111337480263679 -0.17822036699064001 0 0.35977429802260208 -0.18500338367123709 0 0.37111337480263679 -0.17822036699064001 0 0.35977429802260208 -0.18500338367123709 0 0.37033051365614561 -0.188591525792383 0 0.37111337480263679 -0.17822036699064001 0 0.37033051365614561 -0.188591525792383 0 0.3807851174800867 -0.18690357988790371 0 0.37033051365614561 -0.188591525792383 0 0.37486326500815281 -0.1958067610581177 0 0.36511651296724962 -0.19702353735401629 0 0.37486326500815281 -0.1958067610581177 0 0.36511651296724962 -0.19702353735401629 0 0.37325493163220042 -0.20595078414486759 0 0.36511651296724962 -0.19702353735401629 0 0.36193911608056117 -0.20507651560990861 0 0.35438031992144592 -0.19512532989776329 0 0.36511651296724962 -0.19702353735401629 0 0.37325493163220042 -0.20595078414486759 0 0.36193911608056117 -0.20507651560990861 0 0.35977429802260208 -0.18500338367123709 0 0.37033051365614561 -0.188591525792383 0 0.36511651296724962 -0.19702353735401629 0 0.35977429802260208 -0.18500338367123709 0 0.36511651296724962 -0.19702353735401629 0 0.35438031992144592 -0.19512532989776329 0 0.37325493163220042 -0.20595078414486759 0 0.36607900142095601 -0.21851362828771509 0 0.38548696065678001 -0.2156868077061084 0 0.37325493163220042 -0.20595078414486759 0 0.36193911608056117 -0.20507651560990861 0 0.36607900142095601 -0.21851362828771509 0 0.36193911608056117 -0.20507651560990861 0 0.36607900142095601 -0.21851362828771509 0 0.35086481446095391 -0.2087692983651806 0 0.36607900142095601 -0.21851362828771509 0 0.35086481446095391 -0.2087692983651806 0 0.34620593934017141 -0.22623027893179809 0 0.34312611387489478 -0.1852460597611669 0 0.35977429802260208 -0.18500338367123709 0 0.35438031992144592 -0.19512532989776329 0 0.36193911608056117 -0.20507651560990861 0 0.35086481446095391 -0.2087692983651806 0 0.35438031992144592 -0.19512532989776329 0 0.35086481446095391 -0.2087692983651806 0 0.35438031992144592 -0.19512532989776329 0 0.34551421459790688 -0.1980788725145787 0 0.34312611387489478 -0.1852460597611669 0 0.35438031992144592 -0.19512532989776329 0 0.34551421459790688 -0.1980788725145787 0 0.34312611387489478 -0.1852460597611669 0 0.34551421459790688 -0.1980788725145787 0 0.33368561013433301 -0.2031748020342041 0 0.32116528092849439 -0.18011932513661011 0 0.34312611387489478 -0.1852460597611669 0 0.33368561013433301 -0.2031748020342041 0 0.35086481446095391 -0.2087692983651806 0 0.33368561013433301 -0.2031748020342041 0 0.34620593934017141 -0.22623027893179809 0 0.33368561013433301 -0.2031748020342041 0 0.34620593934017141 -0.22623027893179809 0 0.35086481446095391 -0.2087692983651806 0 0.34551421459790688 -0.1980788725145787 0 0.33368561013433301 -0.2031748020342041 0 0.33368561013433301 -0.2031748020342041 0 0.32927173333853887 -0.21444366637419521 0 0.34620593934017141 -0.22623027893179809 0 0.32927173333853887 -0.21444366637419521 0 0.31706041835900789 -0.20260025260636849 0 0.31302026757543511 -0.21953992839433301 0 0.33368561013433301 -0.2031748020342041 0 0.32927173333853887 -0.21444366637419521 0 0.31706041835900789 -0.20260025260636849 0 0.32116528092849439 -0.18011932513661011 0 0.33368561013433301 -0.2031748020342041 0 0.31706041835900789 -0.20260025260636849 0 0.30514063718147327 -0.1919367735154538 0 0.32116528092849439 -0.18011932513661011 0 0.31706041835900789 -0.20260025260636849 0 0.32116528092849439 -0.18011932513661011 0 0.33368561013433301 -0.2031748020342041 0 0.32623726572499839 -0.24630939192279999 0 0.32775449953176861 -0.2303765291484976 0 0.30448465568896421 -0.23803549748965649 0 0.32623726572499839 -0.24630939192279999 0 0.30448465568896421 -0.23803549748965649 0 0.32623726572499839 -0.24630939192279999 0 0.32775449953176861 -0.2303765291484976 0 0.30448465568896421 -0.23803549748965649 0 0.32623726572499839 -0.24630939192279999 0 0.31227764954635462 -0.25327102046308481 0 0.30448465568896421 -0.23803549748965649 0 0.32775449953176861 -0.2303765291484976 0 0.31302026757543511 -0.21953992839433301 0 0.32927173333853887 -0.21444366637419521 0 0.32775449953176861 -0.2303765291484976 0 0.31302026757543511 -0.21953992839433301 0 0.32927173333853887 -0.21444366637419521 0 0.32775449953176861 -0.2303765291484976 0 0.32927173333853887 -0.21444366637419521 0 0.32775449953176861 -0.2303765291484976 0 0.34620593934017141 -0.22623027893179809 0 0.32775449953176861 -0.2303765291484976 0 0.33997218849470451 -0.2395758907532908 0 0.34620593934017141 -0.22623027893179809 0 0.32623726572499839 -0.24630939192279999 0 0.32775449953176861 -0.2303765291484976 0 0.33997218849470451 -0.2395758907532908 0 0.32623726572499839 -0.24630939192279999 0 0.34175783262437742 -0.25221284589247339 0 0.32623726572499839 -0.24630939192279999 0 0.33997218849470451 -0.2395758907532908 0 0.34175783262437742 -0.25221284589247339 0 0.33997218849470451 -0.2395758907532908 0 0.3579054052522066 -0.24275040787088481 0 0.34175783262437742 -0.25221284589247339 0 0.33997218849470451 -0.2395758907532908 0 0.3579054052522066 -0.24275040787088481 0 0.34620593934017141 -0.22623027893179809 0 0.36607900142095601 -0.21851362828771509 0 0.3579054052522066 -0.24275040787088481 0 0.34620593934017141 -0.22623027893179809 0 0.36607900142095601 -0.21851362828771509 0 0.3579054052522066 -0.24275040787088481 0 0.38083795508738799 -0.2377594477239334 0 0.3579054052522066 -0.24275040787088481 0 0.38083795508738799 -0.2377594477239334 0 0.38024025843686471 -0.26253164586113498 0 0.38083795508738799 -0.2377594477239334 0 0.39946800876023081 -0.24354696695861669 0 0.38024025843686471 -0.26253164586113498 0 0.38083795508738799 -0.2377594477239334 0 0.39946800876023081 -0.24354696695861669 0 0.40317433623955179 -0.22455491031152719 0 0.38083795508738799 -0.2377594477239334 0 0.40317433623955179 -0.22455491031152719 0 0.38548696065678001 -0.2156868077061084 0 0.36607900142095601 -0.21851362828771509 0 0.38083795508738799 -0.2377594477239334 0 0.38548696065678001 -0.2156868077061084 0 0.37325493163220042 -0.20595078414486759 0 0.38548696065678001 -0.2156868077061084 0 0.3856938434222531 -0.2004176921863273 0 0.37033051365614561 -0.188591525792383 0 0.37486326500815281 -0.1958067610581177 0 0.3807851174800867 -0.18690357988790371 0 0.37486326500815281 -0.1958067610581177 0 0.3856938434222531 -0.2004176921863273 0 0.3807851174800867 -0.18690357988790371 0 0.37486326500815281 -0.1958067610581177 0 0.37325493163220042 -0.20595078414486759 0 0.3856938434222531 -0.2004176921863273 0 0.3856938434222531 -0.2004176921863273 0 0.39470472367819143 -0.18867754926388949 0 0.3807851174800867 -0.18690357988790371 0 0.39470472367819143 -0.18867754926388949 0 0.40319589525128491 -0.2051177206781985 0 0.40972423504566591 -0.186355619426152 0 0.3856938434222531 -0.2004176921863273 0 0.39470472367819143 -0.18867754926388949 0 0.40319589525128491 -0.2051177206781985 0 0.38548696065678001 -0.2156868077061084 0 0.3856938434222531 -0.2004176921863273 0 0.40319589525128491 -0.2051177206781985 0 0.40317433623955179 -0.22455491031152719 0 0.38548696065678001 -0.2156868077061084 0 0.40319589525128491 -0.2051177206781985 0 0.40319589525128491 -0.2051177206781985 0 0.41915421069736808 -0.2174795114285962 0 0.42172385502493709 -0.19912180724973069 0 0.40317433623955179 -0.22455491031152719 0 0.40319589525128491 -0.2051177206781985 0 0.41915421069736808 -0.2174795114285962 0 0.40319589525128491 -0.2051177206781985 0 0.42172385502493709 -0.19912180724973069 0 0.40972423504566591 -0.186355619426152 0 0.42172385502493709 -0.19912180724973069 0 0.40972423504566591 -0.186355619426152 0 0.42842991735348479 -0.17719089142069239 0 0.42172385502493709 -0.19912180724973069 0 0.40972423504566591 -0.186355619426152 0 0.42172385502493709 -0.19912180724973069 0 0.42842991735348479 -0.17719089142069239 0 0.44062133699313227 -0.1939018726119503 0 0.42172385502493709 -0.19912180724973069 0 0.44235076642284499 -0.21654336228842769 0 0.44062133699313227 -0.1939018726119503 0 0.41915421069736808 -0.2174795114285962 0 0.42172385502493709 -0.19912180724973069 0 0.44235076642284499 -0.21654336228842769 0 0.42538188769455099 -0.2358922106524477 0 0.44235076642284499 -0.21654336228842769 0 0.41915421069736808 -0.2174795114285962 0 0.42538188769455099 -0.2358922106524477 0 0.44235076642284499 -0.21654336228842769 0 0.39946800876023081 -0.24354696695861669 0 0.42538188769455099 -0.2358922106524477 0 0.42004259892621981 -0.25728489304541852 0 0.39946800876023081 -0.24354696695861669 0 0.40317433623955179 -0.22455491031152719 0 0.42538188769455099 -0.2358922106524477 0 0.40317433623955179 -0.22455491031152719 0 0.41915421069736808 -0.2174795114285962 0 0.42538188769455099 -0.2358922106524477 0 0.3973521325971795 -0.12034337486225551 0 0.38786031027344309 -0.1384811374914911 0 0.40804118490482522 -0.13736934226301839 0 0.41287824964344511 -0.1244098422360839 0 0.3973521325971795 -0.12034337486225551 0 0.40804118490482522 -0.13736934226301839 0 0.3973521325971795 -0.12034337486225551 0 0.37408105728939067 -0.1220646411318288 0 0.38786031027344309 -0.1384811374914911 0 0.37408105728939067 -0.1220646411318288 0 0.36673211974437742 -0.14061705272009789 0 0.38786031027344309 -0.1384811374914911 0 0.36673211974437742 -0.14061705272009789 0 0.38786031027344309 -0.1384811374914911 0 0.38222836740538602 -0.15710324216133559 0 0.38786031027344309 -0.1384811374914911 0 0.39872699969949998 -0.15338917181041031 0 0.38222836740538602 -0.15710324216133559 0 0.38786031027344309 -0.1384811374914911 0 0.39872699969949998 -0.15338917181041031 0 0.40804118490482522 -0.13736934226301839 0 0.39872699969949998 -0.15338917181041031 0 0.39772461506639578 -0.17358943160257231 0 0.41790735119971367 -0.15501692634582989 0 0.39872699969949998 -0.15338917181041031 0 0.38222836740538602 -0.15710324216133559 0 0.39772461506639578 -0.17358943160257231 0 0.38222836740538602 -0.15710324216133559 0 0.38182575019838322 -0.17232084479927109 0 0.39772461506639578 -0.17358943160257231 0 0.38222836740538602 -0.15710324216133559 0 0.39772461506639578 -0.17358943160257231 0 0.36820653573641082 -0.16320660408072371 0 0.38222836740538602 -0.15710324216133559 0 0.38182575019838322 -0.17232084479927109 0 0.38182575019838322 -0.17232084479927109 0 0.3807851174800867 -0.18690357988790371 0 0.39110463580346222 -0.1796812518021832 0 0.38182575019838322 -0.17232084479927109 0 0.39110463580346222 -0.1796812518021832 0 0.39772461506639578 -0.17358943160257231 0 0.37111337480263679 -0.17822036699064001 0 0.38182575019838322 -0.17232084479927109 0 0.3807851174800867 -0.18690357988790371 0 0.39470472367819143 -0.18867754926388949 0 0.3807851174800867 -0.18690357988790371 0 0.39110463580346222 -0.1796812518021832 0 0.39470472367819143 -0.18867754926388949 0 0.39110463580346222 -0.1796812518021832 0 0.39772461506639578 -0.17358943160257231 0 0.39110463580346222 -0.1796812518021832 0 0.39772461506639578 -0.17358943160257231 0 0.39470472367819143 -0.18867754926388949 0 0.39772461506639578 -0.17358943160257231 0 0.40972423504566591 -0.186355619426152 0 0.39772461506639578 -0.17358943160257231 0 0.40972423504566591 -0.186355619426152 0 0.41344652966631501 -0.17303821719881171 0 0.40972423504566591 -0.186355619426152 0 0.42842991735348479 -0.17719089142069239 0 0.39772461506639578 -0.17358943160257231 0 0.41344652966631501 -0.17303821719881171 0 0.40972423504566591 -0.186355619426152 0 0.42842991735348479 -0.17719089142069239 0 0.41790735119971367 -0.15501692634582989 0 0.43843087239260781 -0.1580216183159491 0 0.39772461506639578 -0.17358943160257231 0 0.41344652966631501 -0.17303821719881171 0 0.41790735119971367 -0.15501692634582989 0 0.39772461506639578 -0.17358943160257231 0 0.41790735119971367 -0.15501692634582989 0 0.41344652966631501 -0.17303821719881171 0 0.42842991735348479 -0.17719089142069239 0 0.41790735119971367 -0.15501692634582989 0 0.39872699969949998 -0.15338917181041031 0 0.41790735119971367 -0.15501692634582989 0 0.40804118490482522 -0.13736934226301839 0 0.41790735119971367 -0.15501692634582989 0 0.43809008733303179 -0.13644442108908761 0 0.41790735119971367 -0.15501692634582989 0 0.43809008733303179 -0.13644442108908761 0 0.43843087239260781 -0.1580216183159491 0 0.41790735119971367 -0.15501692634582989 0 0.42613733149589272 -0.1283522507212364 0 0.43809008733303179 -0.13644442108908761 0 0.42613733149589272 -0.1283522507212364 0 0.43809008733303179 -0.13644442108908761 0 0.43668295629035692 -0.1233815912782954 0 0.42613733149589272 -0.1283522507212364 0 0.43809008733303179 -0.13644442108908761 0 0.41790735119971367 -0.15501692634582989 0 0.42613733149589272 -0.1283522507212364 0 0.40804118490482522 -0.13736934226301839 0 0.41287824964344511 -0.1244098422360839 0 0.42613733149589272 -0.1283522507212364 0 0.40804118490482522 -0.13736934226301839 0 0.45196453217778781 -0.13441055949585631 0 0.45522935300348533 -0.14804792572642611 0 0.47701358927628451 -0.13433069596812289 0 0.45514232789862002 -0.1207526523689479 0 0.45196453217778781 -0.13441055949585631 0 0.47701358927628451 -0.13433069596812289 0 0.45196453217778781 -0.13441055949585631 0 0.43809008733303179 -0.13644442108908761 0 0.45522935300348533 -0.14804792572642611 0 0.45514232789862002 -0.1207526523689479 0 0.43668295629035692 -0.1233815912782954 0 0.43809008733303179 -0.13644442108908761 0 0.45514232789862002 -0.1207526523689479 0 0.45196453217778781 -0.13441055949585631 0 0.43809008733303179 -0.13644442108908761 0 0.45514232789862002 -0.1207526523689479 0 0.43809008733303179 -0.13644442108908761 0 0.43809008733303179 -0.13644442108908761 0 0.45522935300348533 -0.14804792572642611 0 0.43843087239260781 -0.1580216183159491 0 0.43809008733303179 -0.13644442108908761 0 0.45522935300348533 -0.14804792572642611 0 0.45522935300348533 -0.14804792572642611 0 0.47236861867393948 -0.15965143036376339 0 0.45522935300348533 -0.14804792572642611 0 0.47236861867393948 -0.15965143036376339 0 0.47701358927628451 -0.13433069596812289 0 0.45249765307332368 -0.17340792699770941 0 0.47628852387943321 -0.17784566556038769 0 0.47236861867393948 -0.15965143036376339 0 0.45522935300348533 -0.14804792572642611 0 0.45249765307332368 -0.17340792699770941 0 0.47236861867393948 -0.15965143036376339 0 0.45522935300348533 -0.14804792572642611 0 0.43843087239260781 -0.1580216183159491 0 0.45249765307332368 -0.17340792699770941 0 0.42842991735348479 -0.17719089142069239 0 0.43843087239260781 -0.1580216183159491 0 0.45249765307332368 -0.17340792699770941 0 0.42842991735348479 -0.17719089142069239 0 0.45249765307332368 -0.17340792699770941 0 0.44062133699313227 -0.1939018726119503 0 0.45249765307332368 -0.17340792699770941 0 0.47628852387943321 -0.17784566556038769 0 0.45931964515113899 -0.19719451392440779 0 0.47628852387943321 -0.17784566556038769 0 0.48950788434439368 -0.17125493500110081 0 0.48678637488950061 -0.1947796052490029 0 0.5 -0.17986775423558379 0 0.48950788434439368 -0.17125493500110081 0 0.48678637488950061 -0.1947796052490029 0 0.5 -0.17986775423558379 0 0.48950788434439368 -0.17125493500110081 0 0.5 -0.1500440522087457 0 0.48950788434439368 -0.17125493500110081 0 0.48575991362530058 -0.15524792984573771 0 0.5 -0.1500440522087457 0 0.48950788434439368 -0.17125493500110081 0 0.47236861867393948 -0.15965143036376339 0 0.48950788434439368 -0.17125493500110081 0 0.47236861867393948 -0.15965143036376339 0 0.48575991362530058 -0.15524792984573771 0 0.47628852387943321 -0.17784566556038769 0 0.48950788434439368 -0.17125493500110081 0 0.47236861867393948 -0.15965143036376339 0 0.47236861867393948 -0.15965143036376339 0 0.48575991362530058 -0.15524792984573771 0 0.47701358927628451 -0.13433069596812289 0 0.48575991362530058 -0.15524792984573771 0 0.5 -0.1500440522087457 0 0.47701358927628451 -0.13433069596812289 0 0.5 -0.12022035018190751 0 0.5 -0.1500440522087457 0 0.47701358927628451 -0.13433069596812289 0 0.45617038366176571 -0.22715277788122001 0 0.47336760637159542 -0.21131877153730541 0 0.47519146280416907 -0.22659104659366361 0 0.45617038366176571 -0.22715277788122001 0 0.47519146280416907 -0.22659104659366361 0 0.46994923430507202 -0.24460383287070089 0 0.45617038366176571 -0.22715277788122001 0 0.45115228035453392 -0.24611007472868229 0 0.46994923430507202 -0.24460383287070089 0 0.45115228035453392 -0.24611007472868229 0 0.46994923430507202 -0.24460383287070089 0 0.45741350596588148 -0.25903608713894449 0 0.42538188769455099 -0.2358922106524477 0 0.45617038366176571 -0.22715277788122001 0 0.45115228035453392 -0.24611007472868229 0 0.42538188769455099 -0.2358922106524477 0 0.45115228035453392 -0.24611007472868229 0 0.43910993848000418 -0.2602867900026441 0 0.42538188769455099 -0.2358922106524477 0 0.45617038366176571 -0.22715277788122001 0 0.44235076642284499 -0.21654336228842769 0 0.44235076642284499 -0.21654336228842769 0 0.45931964515113899 -0.19719451392440779 0 0.45617038366176571 -0.22715277788122001 0 0.44235076642284499 -0.21654336228842769 0 0.45931964515113899 -0.19719451392440779 0 0.45249765307332368 -0.17340792699770941 0 0.44062133699313227 -0.1939018726119503 0 0.45931964515113899 -0.19719451392440779 0 0.44235076642284499 -0.21654336228842769 0 0.44062133699313227 -0.1939018726119503 0 0.45931964515113899 -0.19719451392440779 0 0.47628852387943321 -0.17784566556038769 0 0.45931964515113899 -0.19719451392440779 0 0.45617038366176571 -0.22715277788122001 0 0.45931964515113899 -0.19719451392440779 0 0.47336760637159542 -0.21131877153730541 0 0.47336760637159542 -0.21131877153730541 0 0.48678637488950061 -0.1947796052490029 0 0.48674276213255352 -0.21951253149624081 0 0.47628852387943321 -0.17784566556038769 0 0.45931964515113899 -0.19719451392440779 0 0.48678637488950061 -0.1947796052490029 0 0.45931964515113899 -0.19719451392440779 0 0.47336760637159542 -0.21131877153730541 0 0.48678637488950061 -0.1947796052490029 0 0.5 -0.17986775423558379 0 0.48678637488950061 -0.1947796052490029 0 0.5 -0.20969145626242169 0 0.48678637488950061 -0.1947796052490029 0 0.5 -0.20969145626242169 0 0.48674276213255352 -0.21951253149624081 0 0.5 -0.20969145626242169 0 0.48674276213255352 -0.21951253149624081 0 0.5 -0.23951515828925959 0 0.48674276213255352 -0.21951253149624081 0 0.48511112873005591 -0.2351791510457916 0 0.5 -0.23951515828925959 0 0.48674276213255352 -0.21951253149624081 0 0.47519146280416907 -0.22659104659366361 0 0.48511112873005591 -0.2351791510457916 0 0.47336760637159542 -0.21131877153730541 0 0.48674276213255352 -0.21951253149624081 0 0.47519146280416907 -0.22659104659366361 0 0.46994923430507202 -0.24460383287070089 0 0.49190780658582001 -0.24883755805200769 0 0.48511112873005591 -0.2351791510457916 0 0.47519146280416907 -0.22659104659366361 0 0.46994923430507202 -0.24460383287070089 0 0.48511112873005591 -0.2351791510457916 0 0.49190780658582001 -0.24883755805200769 0 0.48511112873005591 -0.2351791510457916 0 0.5 -0.23951515828925959 0 0.49190780658582001 -0.24883755805200769 0 0.48693120580519611 -0.26602892611732171 0 0.5 -0.26933886031609761 0 0.49190780658582001 -0.24883755805200769 0 0.5 -0.23951515828925959 0 0.5 -0.26933886031609761 0 0.48693120580519611 -0.26602892611732171 0 0.5 -0.26933886031609761 0 0.4828957222097589 -0.2816001873862809 0 0.47292129442520559 -0.26433909871490069 0 0.45393478226459177 -0.27984063937779452 0 0.4828957222097589 -0.2816001873862809 0 0.48693120580519611 -0.26602892611732171 0 0.47292129442520559 -0.26433909871490069 0 0.4828957222097589 -0.2816001873862809 0 0.49190780658582001 -0.24883755805200769 0 0.47292129442520559 -0.26433909871490069 0 0.49190780658582001 -0.24883755805200769 0 0.48693120580519611 -0.26602892611732171 0 0.47292129442520559 -0.26433909871490069 0 0.46994923430507202 -0.24460383287070089 0 0.49190780658582001 -0.24883755805200769 0 0.47292129442520559 -0.26433909871490069 0 0.46994923430507202 -0.24460383287070089 0 0.47292129442520559 -0.26433909871490069 0 0.45741350596588148 -0.25903608713894449 0 0.47292129442520559 -0.26433909871490069 0 0.45741350596588148 -0.25903608713894449 0 0.45393478226459177 -0.27984063937779452 0 0.45393478226459177 -0.27984063937779452 0 0.4828957222097589 -0.2816001873862809 0 0.47292129442520559 -0.26433909871490069 0 0.45393478226459177 -0.27984063937779452 0 0.45393478226459177 -0.27984063937779452 0 0.42700803830055628 -0.27820468077953719 0 0.45741350596588148 -0.25903608713894449 0 0.45393478226459177 -0.27984063937779452 0 0.43910993848000418 -0.2602867900026441 0 0.45393478226459177 -0.27984063937779452 0 0.43910993848000418 -0.2602867900026441 0 0.42700803830055628 -0.27820468077953719 0 0.45115228035453392 -0.24611007472868229 0 0.45741350596588148 -0.25903608713894449 0 0.43910993848000418 -0.2602867900026441 0 0.451097344134051 -0.30365222677299658 0 0.43957177432853661 -0.29156731933242341 0 0.43447756194689469 -0.3052851956154668 0 0.451097344134051 -0.30365222677299658 0 0.45624114371682961 -0.32054998995130879 0 0.43447756194689469 -0.3052851956154668 0 0.45393478226459177 -0.27984063937779452 0 0.43957177432853661 -0.29156731933242341 0 0.42700803830055628 -0.27820468077953719 0 0.45393478226459177 -0.27984063937779452 0 0.43957177432853661 -0.29156731933242341 0 0.45268043320849688 -0.29339902129613848 0 0.45393478226459177 -0.27984063937779452 0 0.43957177432853661 -0.29156731933242341 0 0.451097344134051 -0.30365222677299658 0 0.43957177432853661 -0.29156731933242341 0 0.45268043320849688 -0.29339902129613848 0 0.45393478226459177 -0.27984063937779452 0 0.45268043320849688 -0.29339902129613848 0 0.46611783210680829 -0.29853589970133948 0 0.45393478226459177 -0.27984063937779452 0 0.46611783210680829 -0.29853589970133948 0 0.4828957222097589 -0.2816001873862809 0 0.46611783210680829 -0.29853589970133948 0 0.48271419277004041 -0.31421917297839391 0 0.45624114371682961 -0.32054998995130879 0 0.451097344134051 -0.30365222677299658 0 0.46611783210680829 -0.29853589970133948 0 0.45624114371682961 -0.32054998995130879 0 0.451097344134051 -0.30365222677299658 0 0.45268043320849688 -0.29339902129613848 0 0.46611783210680829 -0.29853589970133948 0 0.46611783210680829 -0.29853589970133948 0 0.48293193677165192 -0.29837945560223739 0 0.48271419277004041 -0.31421917297839391 0 0.46611783210680829 -0.29853589970133948 0 0.48293193677165192 -0.29837945560223739 0 0.4828957222097589 -0.2816001873862809 0 0.48293193677165192 -0.29837945560223739 0 0.4828957222097589 -0.2816001873862809 0 0.5 -0.29916256234293542 0 0.5 -0.26933886031609761 0 0.4828957222097589 -0.2816001873862809 0 0.5 -0.29916256234293542 0 0.48293193677165192 -0.29837945560223739 0 0.5 -0.29916256234293542 0 0.48271419277004041 -0.31421917297839391 0 0.5 -0.3289862643697733 0 0.47800472548676459 -0.335814784287151 0 0.48271419277004041 -0.31421917297839391 0 0.5 -0.29916256234293542 0 0.5 -0.3289862643697733 0 0.48271419277004041 -0.31421917297839391 0 0.47800472548676459 -0.335814784287151 0 0.5 -0.35107957862299322 0 0.5 -0.3289862643697733 0 0.47800472548676459 -0.335814784287151 0 0.5 -0.35107957862299322 0 0.47800472548676459 -0.335814784287151 0 0.46993680288862649 -0.3461721201788886 0 0.45947073257806598 -0.34315878921454229 0 0.47800472548676459 -0.335814784287151 0 0.48271419277004041 -0.31421917297839391 0 0.45624114371682961 -0.32054998995130879 0 0.48580878695463803 -0.36670077354420871 0 0.5 -0.35880996639661122 0 0.5 -0.38863366842344921 0 0.48580878695463803 -0.36670077354420871 0 0.48911826900967059 -0.35526744420679879 0 0.5 -0.35880996639661122 0 0.47800472548676459 -0.335814784287151 0 0.48911826900967059 -0.35526744420679879 0 0.5 -0.35107957862299322 0 0.48911826900967059 -0.35526744420679879 0 0.5 -0.35880996639661122 0 0.5 -0.35107957862299322 0 0.47800472548676459 -0.335814784287151 0 0.48911826900967059 -0.35526744420679879 0 0.47785241550677238 -0.35325695231115473 0 0.47800472548676459 -0.335814784287151 0 0.46993680288862649 -0.3461721201788886 0 0.47785241550677238 -0.35325695231115473 0 0.46993680288862649 -0.3461721201788886 0 0.47785241550677238 -0.35325695231115473 0 0.46441933798290319 -0.35245795490270648 0 0.48580878695463803 -0.36670077354420871 0 0.48911826900967059 -0.35526744420679879 0 0.47785241550677238 -0.35325695231115473 0 0.48580878695463803 -0.36670077354420871 0 0.47785241550677238 -0.35325695231115473 0 0.4710413617043322 -0.36657569288428588 0 0.4710413617043322 -0.36657569288428588 0 0.46345712900900388 -0.37318347017476139 0 0.47684067550705311 -0.37766091704295218 0 0.48580878695463803 -0.36670077354420871 0 0.4710413617043322 -0.36657569288428588 0 0.47684067550705311 -0.37766091704295218 0 0.47785241550677238 -0.35325695231115473 0 0.45512654156490079 -0.36769314536904041 0 0.47785241550677238 -0.35325695231115473 0 0.4710413617043322 -0.36657569288428588 0 0.45512654156490079 -0.36769314536904041 0 0.47785241550677238 -0.35325695231115473 0 0.45512654156490079 -0.36769314536904041 0 0.45804024035709889 -0.36496151599812088 0 0.4710413617043322 -0.36657569288428588 0 0.45512654156490079 -0.36769314536904041 0 0.46345712900900388 -0.37318347017476139 0 0.45512654156490079 -0.36769314536904041 0 0.46345712900900388 -0.37318347017476139 0 0.45615469407839732 -0.37634822220283798 0 0.47785241550677238 -0.35325695231115473 0 0.45804024035709889 -0.36496151599812088 0 0.46441933798290319 -0.35245795490270648 0 0.45804024035709889 -0.36496151599812088 0 0.4566215695682832 -0.35530744277583132 0 0.46441933798290319 -0.35245795490270648 0 0.45804024035709889 -0.36496151599812088 0 0.4566215695682832 -0.35530744277583132 0 0.44734900172378 -0.35400895242702979 0 0.46993680288862649 -0.3461721201788886 0 0.46441933798290319 -0.35245795490270648 0 0.45947073257806598 -0.34315878921454229 0 0.4566215695682832 -0.35530744277583132 0 0.44734900172378 -0.35400895242702979 0 0.45947073257806598 -0.34315878921454229 0 0.4566215695682832 -0.35530744277583132 0 0.46441933798290319 -0.35245795490270648 0 0.45947073257806598 -0.34315878921454229 0 0.44734900172378 -0.35400895242702979 0 0.44240664560855258 -0.3357548306816891 0 0.43049157243870712 -0.34504141590114817 0 0.45804024035709889 -0.36496151599812088 0 0.44734900172378 -0.35400895242702979 0 0.43293048823527192 -0.35914390141169172 0 0.44734900172378 -0.35400895242702979 0 0.45947073257806598 -0.34315878921454229 0 0.44240664560855258 -0.3357548306816891 0 0.45804024035709889 -0.36496151599812088 0 0.43293048823527192 -0.35914390141169172 0 0.45512654156490079 -0.36769314536904041 0 0.43635179379854538 -0.36985628672678011 0 0.43293048823527192 -0.35914390141169172 0 0.45512654156490079 -0.36769314536904041 0 0.43635179379854538 -0.36985628672678011 0 0.43240066762302942 -0.38212933842692592 0 0.45512654156490079 -0.36769314536904041 0 0.45804024035709889 -0.36496151599812088 0 0.43293048823527192 -0.35914390141169172 0 0.45512654156490079 -0.36769314536904041 0 0.43240066762302942 -0.38212933842692592 0 0.45512654156490079 -0.36769314536904041 0 0.45615469407839732 -0.37634822220283798 0 0.44717123240800549 -0.3802756284666699 0 0.47800472548676459 -0.335814784287151 0 0.45624114371682961 -0.32054998995130879 0 0.45947073257806598 -0.34315878921454229 0 0.47800472548676459 -0.335814784287151 0 0.45624114371682961 -0.32054998995130879 0 0.45624114371682961 -0.32054998995130879 0 0.45947073257806598 -0.34315878921454229 0 0.44240664560855258 -0.3357548306816891 0 0.45624114371682961 -0.32054998995130879 0 0.44240664560855258 -0.3357548306816891 0 0.43662870380860819 -0.32166756459131962 0 0.45624114371682961 -0.32054998995130879 0 0.43662870380860819 -0.32166756459131962 0 0.43447756194689469 -0.3052851956154668 0 0.45624114371682961 -0.32054998995130879 0 0.43447756194689469 -0.3052851956154668 0 0.42590275704472208 -0.3157961594641524 0 0.43662870380860819 -0.32166756459131962 0 0.43447756194689469 -0.3052851956154668 0 0.42590275704472208 -0.3157961594641524 0 0.43662870380860819 -0.32166756459131962 0 0.42411541072604181 -0.3309516472439808 0 0.44240664560855258 -0.3357548306816891 0 0.43662870380860819 -0.32166756459131962 0 0.42411541072604181 -0.3309516472439808 0 0.44240664560855258 -0.3357548306816891 0 0.42411541072604181 -0.3309516472439808 0 0.43049157243870712 -0.34504141590114817 0 0.42411541072604181 -0.3309516472439808 0 0.40782073611344483 -0.35332628682526263 0 0.40511291313480519 -0.33423352998531969 0 0.42411541072604181 -0.3309516472439808 0 0.43049157243870712 -0.34504141590114817 0 0.40782073611344483 -0.35332628682526263 0 0.42411541072604181 -0.3309516472439808 0 0.4135220122621025 -0.32151130750263218 0 0.40511291313480519 -0.33423352998531969 0 0.4135220122621025 -0.32151130750263218 0 0.39906671487789369 -0.31525974254281008 0 0.41341226552704963 -0.31131545827689799 0 0.42590275704472208 -0.3157961594641524 0 0.4135220122621025 -0.32151130750263218 0 0.41341226552704963 -0.31131545827689799 0 0.42590275704472208 -0.3157961594641524 0 0.42411541072604181 -0.3309516472439808 0 0.4135220122621025 -0.32151130750263218 0 0.42494947777097941 -0.37045876169946229 0 0.43293048823527192 -0.35914390141169172 0 0.40782073611344483 -0.35332628682526263 0 0.42494947777097941 -0.37045876169946229 0 0.43635179379854538 -0.36985628672678011 0 0.43240066762302942 -0.38212933842692592 0 0.42494947777097941 -0.37045876169946229 0 0.43635179379854538 -0.36985628672678011 0 0.43293048823527192 -0.35914390141169172 0 0.44734900172378 -0.35400895242702979 0 0.43049157243870712 -0.34504141590114817 0 0.43293048823527192 -0.35914390141169172 0 0.43049157243870712 -0.34504141590114817 0 0.43293048823527192 -0.35914390141169172 0 0.40782073611344483 -0.35332628682526263 0 0.43293048823527192 -0.35914390141169172 0 0.40782073611344483 -0.35332628682526263 0 0.42494947777097941 -0.37045876169946229 0 0.40782073611344483 -0.35332628682526263 0 0.41081176988577689 -0.37598843986931441 0 0.40782073611344483 -0.35332628682526263 0 0.3889089604905685 -0.37250826243982338 0 0.41081176988577689 -0.37598843986931441 0 0.40782073611344483 -0.35332628682526263 0 0.38271098399161779 -0.34750867223883342 0 0.40782073611344483 -0.35332628682526263 0 0.38271098399161779 -0.34750867223883342 0 0.3889089604905685 -0.37250826243982338 0 0.40782073611344483 -0.35332628682526263 0 0.38271098399161779 -0.34750867223883342 0 0.40511291313480519 -0.33423352998531969 0 0.38271098399161779 -0.34750867223883342 0 0.3889089604905685 -0.37250826243982338 0 0.36523940570890773 -0.36542769994236229 0 0.4135220122621025 -0.32151130750263218 0 0.39906671487789369 -0.31525974254281008 0 0.40511291313480519 -0.33423352998531969 0 0.39906671487789369 -0.31525974254281008 0 0.40511291313480519 -0.33423352998531969 0 0.38711862483199588 -0.32934701646384318 0 0.38271098399161779 -0.34750867223883342 0 0.40511291313480519 -0.33423352998531969 0 0.38711862483199588 -0.32934701646384318 0 0.38271098399161779 -0.34750867223883342 0 0.38711862483199588 -0.32934701646384318 0 0.3683352327275366 -0.32664342993636691 0 0.38711862483199588 -0.32934701646384318 0 0.38188029629269038 -0.31396736973096018 0 0.3683352327275366 -0.32664342993636691 0 0.39906671487789369 -0.31525974254281008 0 0.38711862483199588 -0.32934701646384318 0 0.38188029629269038 -0.31396736973096018 0 0.38188029629269038 -0.31396736973096018 0 0.38614001645978407 -0.29336027691126532 0 0.36874089256624171 -0.30522638280051562 0 0.39906671487789369 -0.31525974254281008 0 0.38188029629269038 -0.31396736973096018 0 0.38614001645978407 -0.29336027691126532 0 0.39906671487789369 -0.31525974254281008 0 0.40524172709006168 -0.29782674282133892 0 0.38614001645978407 -0.29336027691126532 0 0.39906671487789369 -0.31525974254281008 0 0.40524172709006168 -0.29782674282133892 0 0.41341226552704963 -0.31131545827689799 0 0.40524172709006168 -0.29782674282133892 0 0.38614001645978407 -0.29336027691126532 0 0.4000812943365209 -0.27656872218127931 0 0.38614001645978407 -0.29336027691126532 0 0.38024025843686471 -0.26253164586113498 0 0.4000812943365209 -0.27656872218127931 0 0.38614001645978407 -0.29336027691126532 0 0.38024025843686471 -0.26253164586113498 0 0.36641870847826657 -0.28115869475223892 0 0.39946800876023081 -0.24354696695861669 0 0.38024025843686471 -0.26253164586113498 0 0.399958040114959 -0.25998305701161228 0 0.38024025843686471 -0.26253164586113498 0 0.399958040114959 -0.25998305701161228 0 0.4000812943365209 -0.27656872218127931 0 0.4000812943365209 -0.27656872218127931 0 0.42700803830055628 -0.27820468077953719 0 0.4000812943365209 -0.27656872218127931 0 0.42004259892621981 -0.25728489304541852 0 0.42700803830055628 -0.27820468077953719 0 0.39946800876023081 -0.24354696695861669 0 0.399958040114959 -0.25998305701161228 0 0.42004259892621981 -0.25728489304541852 0 0.399958040114959 -0.25998305701161228 0 0.4000812943365209 -0.27656872218127931 0 0.42004259892621981 -0.25728489304541852 0 0.42538188769455099 -0.2358922106524477 0 0.43910993848000418 -0.2602867900026441 0 0.42004259892621981 -0.25728489304541852 0 0.43910993848000418 -0.2602867900026441 0 0.42004259892621981 -0.25728489304541852 0 0.42700803830055628 -0.27820468077953719 0 0.43957177432853661 -0.29156731933242341 0 0.42700803830055628 -0.27820468077953719 0 0.42778499936897812 -0.29172325778748692 0 0.42700803830055628 -0.27820468077953719 0 0.42778499936897812 -0.29172325778748692 0 0.41741539993988841 -0.29134889020023452 0 0.42778499936897812 -0.29172325778748692 0 0.42520876639248179 -0.30329399928705308 0 0.41741539993988841 -0.29134889020023452 0 0.43957177432853661 -0.29156731933242341 0 0.42778499936897812 -0.29172325778748692 0 0.42520876639248179 -0.30329399928705308 0 0.43957177432853661 -0.29156731933242341 0 0.43447756194689469 -0.3052851956154668 0 0.42520876639248179 -0.30329399928705308 0 0.43957177432853661 -0.29156731933242341 0 0.42520876639248179 -0.30329399928705308 0 0.42590275704472208 -0.3157961594641524 0 0.43447756194689469 -0.3052851956154668 0 0.42520876639248179 -0.30329399928705308 0 0.42520876639248179 -0.30329399928705308 0 0.41531953973737029 -0.30094627264638107 0 0.41741539993988841 -0.29134889020023452 0 0.42590275704472208 -0.3157961594641524 0 0.42520876639248179 -0.30329399928705308 0 0.41341226552704963 -0.31131545827689799 0 0.42520876639248179 -0.30329399928705308 0 0.41531953973737029 -0.30094627264638107 0 0.41341226552704963 -0.31131545827689799 0 0.40524172709006168 -0.29782674282133892 0 0.41531953973737029 -0.30094627264638107 0 0.41341226552704963 -0.31131545827689799 0 0.40524172709006168 -0.29782674282133892 0 0.41531953973737029 -0.30094627264638107 0 0.41741539993988841 -0.29134889020023452 0 0.40524172709006168 -0.29782674282133892 0 0.4000812943365209 -0.27656872218127931 0 0.41741539993988841 -0.29134889020023452 0 0.4000812943365209 -0.27656872218127931 0 0.42700803830055628 -0.27820468077953719 0 0.41741539993988841 -0.29134889020023452 0 0.4481616080234041 -0.49999999999999739 0 0.44466071191754558 -0.46993686656255612 0 0.4481616080234041 -0.49999999999999739 0 0.44466071191754558 -0.46993686656255612 0 0.42684753271581788 -0.48650761622771332 0 0.4481616080234041 -0.49999999999999739 0 0.44466071191754558 -0.46993686656255612 0 0.47297131918324781 -0.48187546367607892 0 0.5 -0.5 0 0.48160341758426178 -0.46272807795893761 0 0.5 -0.45259391504201679 0 0.4481616080234041 -0.49999999999999739 0 0.5 -0.5 0 0.47297131918324781 -0.48187546367607892 0 0.5 -0.5 0 0.47297131918324781 -0.48187546367607892 0 0.48160341758426178 -0.46272807795893761 0 0.47297131918324781 -0.48187546367607892 0 0.48160341758426178 -0.46272807795893761 0 0.4631071412783605 -0.45277703452513107 0 0.48160341758426178 -0.46272807795893761 0 0.5 -0.45259391504201679 0 0.48155357063917698 -0.43561720248770808 0 0.48160341758426178 -0.46272807795893761 0 0.4631071412783605 -0.45277703452513107 0 0.48155357063917698 -0.43561720248770808 0 0.4631071412783605 -0.45277703452513107 0 0.48155357063917698 -0.43561720248770808 0 0.4631071412783605 -0.45277703452513107 0 0.44152687793105461 -0.44302579395195718 0 0.46104192510812481 -0.42289084401363108 0 0.44466071191754558 -0.46993686656255612 0 0.47297131918324781 -0.48187546367607892 0 0.4631071412783605 -0.45277703452513107 0 0.44466071191754558 -0.46993686656255612 0 0.4631071412783605 -0.45277703452513107 0 0.44466071191754558 -0.46993686656255612 0 0.4631071412783605 -0.45277703452513107 0 0.44152687793105461 -0.44302579395195718 0 0.44466071191754558 -0.46993686656255612 0 0.44152687793105461 -0.44302579395195718 0 0.44152687793105461 -0.44302579395195718 0 0.43839304394455902 -0.41611472134135891 0 0.46104192510812481 -0.42289084401363108 0 0.44152687793105461 -0.44302579395195718 0 0.43839304394455902 -0.41611472134135891 0 0.43839304394455902 -0.41611472134135891 0 0.46104192510812481 -0.42289084401363108 0 0.45132454257904309 -0.39962444874762382 0 0.46104192510812481 -0.42289084401363108 0 0.47152264147421491 -0.39776863450436473 0 0.45132454257904309 -0.39962444874762382 0 0.4631071412783605 -0.45277703452513107 0 0.46104192510812481 -0.42289084401363108 0 0.48155357063917698 -0.43561720248770808 0 0.5 -0.45259391504201679 0 0.48155357063917698 -0.43561720248770808 0 0.49999999999999573 -0.41845737045028708 0 0.46104192510812481 -0.42289084401363108 0 0.48155357063917698 -0.43561720248770808 0 0.481978493291778 -0.41342626642199842 0 0.48155357063917698 -0.43561720248770808 0 0.49999999999999573 -0.41845737045028708 0 0.481978493291778 -0.41342626642199842 0 0.48155357063917698 -0.43561720248770808 0 0.49999999999999573 -0.41845737045028708 0 0.49999999999999573 -0.41845737045028708 0 0.481978493291778 -0.41342626642199842 0 0.5 -0.38863366842344921 0 0.46104192510812481 -0.42289084401363108 0 0.481978493291778 -0.41342626642199842 0 0.47152264147421491 -0.39776863450436473 0 0.481978493291778 -0.41342626642199842 0 0.47152264147421491 -0.39776863450436473 0 0.5 -0.38863366842344921 0 0.48580878695463803 -0.36670077354420871 0 0.5 -0.38863366842344921 0 0.47684067550705311 -0.37766091704295218 0 0.47152264147421491 -0.39776863450436473 0 0.47684067550705311 -0.37766091704295218 0 0.45886387333167911 -0.38424064480088022 0 0.47152264147421491 -0.39776863450436473 0 0.5 -0.38863366842344921 0 0.47684067550705311 -0.37766091704295218 0 0.46345712900900388 -0.37318347017476139 0 0.47684067550705311 -0.37766091704295218 0 0.45886387333167911 -0.38424064480088022 0 0.45615469407839732 -0.37634822220283798 0 0.45886387333167911 -0.38424064480088022 0 0.44717123240800549 -0.3802756284666699 0 0.46345712900900388 -0.37318347017476139 0 0.45615469407839732 -0.37634822220283798 0 0.45886387333167911 -0.38424064480088022 0 0.47152264147421491 -0.39776863450436473 0 0.45886387333167911 -0.38424064480088022 0 0.45132454257904309 -0.39962444874762382 0 0.45886387333167911 -0.38424064480088022 0 0.45132454257904309 -0.39962444874762382 0 0.44659780108844233 -0.3891334165162062 0 0.45132454257904309 -0.39962444874762382 0 0.44659780108844233 -0.3891334165162062 0 0.43525920995806339 -0.38920364873076052 0 0.43839304394455902 -0.41611472134135891 0 0.45132454257904309 -0.39962444874762382 0 0.43525920995806339 -0.38920364873076052 0 0.44035722776938507 -0.38518550803514062 0 0.44659780108844233 -0.3891334165162062 0 0.43525920995806339 -0.38920364873076052 0 0.45512654156490079 -0.36769314536904041 0 0.44717123240800549 -0.3802756284666699 0 0.43240066762302942 -0.38212933842692592 0 0.44035722776938507 -0.38518550803514062 0 0.44717123240800549 -0.3802756284666699 0 0.44659780108844233 -0.3891334165162062 0 0.44035722776938507 -0.38518550803514062 0 0.44717123240800549 -0.3802756284666699 0 0.43240066762302942 -0.38212933842692592 0 0.45886387333167911 -0.38424064480088022 0 0.44717123240800549 -0.3802756284666699 0 0.44659780108844233 -0.3891334165162062 0 0.43240066762302942 -0.38212933842692592 0 0.43525920995806339 -0.38920364873076052 0 0.40967479368115811 -0.39656553148481138 0 0.42494947777097941 -0.37045876169946229 0 0.43240066762302942 -0.38212933842692592 0 0.41081176988577689 -0.37598843986931441 0 0.44035722776938507 -0.38518550803514062 0 0.43240066762302942 -0.38212933842692592 0 0.43525920995806339 -0.38920364873076052 0 0.43839304394455902 -0.41611472134135891 0 0.43525920995806339 -0.38920364873076052 0 0.43525920995806339 -0.38920364873076052 0 0.42530138770190312 -0.40411068913542397 0 0.40967479368115811 -0.39656553148481138 0 0.43839304394455902 -0.41611472134135891 0 0.43525920995806339 -0.38920364873076052 0 0.42530138770190312 -0.40411068913542397 0 0.42530138770190312 -0.40411068913542397 0 0.40967479368115811 -0.39656553148481138 0 0.41419194227720751 -0.41738599593160508 0 0.43240066762302942 -0.38212933842692592 0 0.40967479368115811 -0.39656553148481138 0 0.41081176988577689 -0.37598843986931441 0 0.43240066762302942 -0.38212933842692592 0 0.40967479368115811 -0.39656553148481138 0 0.3889089604905685 -0.37250826243982338 0 0.41081176988577689 -0.37598843986931441 0 0.39315341249333252 -0.38935459565798258 0 0.40967479368115811 -0.39656553148481138 0 0.41081176988577689 -0.37598843986931441 0 0.39315341249333252 -0.38935459565798258 0 0.3889089604905685 -0.37250826243982338 0 0.37345257572878959 -0.39005886110989851 0 0.36523940570890773 -0.36542769994236229 0 0.3889089604905685 -0.37250826243982338 0 0.39315341249333252 -0.38935459565798258 0 0.37345257572878959 -0.39005886110989851 0 0.39315341249333252 -0.38935459565798258 0 0.38894111862313668 -0.40791185399279439 0 0.37345257572878959 -0.39005886110989851 0 0.38894111862313668 -0.40791185399279439 0 0.37106834820806489 -0.41138377357564809 0 0.37345257572878959 -0.39005886110989851 0 0.40967479368115811 -0.39656553148481138 0 0.39315341249333252 -0.38935459565798258 0 0.38894111862313668 -0.40791185399279439 0 0.38894111862313668 -0.40791185399279439 0 0.40164923866304442 -0.43612450647807022 0 0.41419194227720751 -0.41738599593160508 0 0.40967479368115811 -0.39656553148481138 0 0.38894111862313668 -0.40791185399279439 0 0.41419194227720751 -0.41738599593160508 0 0.38894111862313668 -0.40791185399279439 0 0.37854106231005852 -0.42913597104278212 0 0.37106834820806489 -0.41138377357564809 0 0.37854106231005852 -0.42913597104278212 0 0.40164923866304442 -0.43612450647807022 0 0.38894111862313668 -0.40791185399279439 0 0.37854106231005852 -0.42913597104278212 0 0.40164923866304442 -0.43612450647807022 0 0.40164923866304442 -0.43612450647807022 0 0.41419194227720751 -0.41738599593160508 0 0.41615921016988783 -0.44263291846815722 0 0.43839304394455902 -0.41611472134135891 0 0.42530138770190312 -0.40411068913542397 0 0.41419194227720751 -0.41738599593160508 0 0.43839304394455902 -0.41611472134135891 0 0.41419194227720751 -0.41738599593160508 0 0.41615921016988783 -0.44263291846815722 0 0.44152687793105461 -0.44302579395195718 0 0.43839304394455902 -0.41611472134135891 0 0.41615921016988783 -0.44263291846815722 0 0.44152687793105461 -0.44302579395195718 0 0.42400718974388479 -0.46577424125725247 0 0.41615921016988783 -0.44263291846815722 0 0.44466071191754558 -0.46993686656255612 0 0.44152687793105461 -0.44302579395195718 0 0.42400718974388479 -0.46577424125725247 0 0.42400718974388479 -0.46577424125725247 0 0.41615921016988783 -0.44263291846815722 0 0.40059195218878119 -0.46814610476965318 0 0.37854106231005852 -0.42913597104278212 0 0.40164923866304442 -0.43612450647807022 0 0.39319706254672732 -0.4504757536378759 0 0.40164923866304442 -0.43612450647807022 0 0.41615921016988783 -0.44263291846815722 0 0.39319706254672732 -0.4504757536378759 0 0.37854106231005852 -0.42913597104278212 0 0.39319706254672732 -0.4504757536378759 0 0.37533566479653802 -0.45668517182298513 0 0.37533566479653802 -0.45668517182298513 0 0.40059195218878119 -0.46814610476965318 0 0.38431927857806347 -0.48000347861417009 0 0.39319706254672732 -0.4504757536378759 0 0.37533566479653802 -0.45668517182298513 0 0.40059195218878119 -0.46814610476965318 0 0.41615921016988783 -0.44263291846815722 0 0.39319706254672732 -0.4504757536378759 0 0.40059195218878119 -0.46814610476965318 0 0.40059195218878119 -0.46814610476965318 0 0.38431927857806347 -0.48000347861417009 0 0.40942381710843762 -0.48219064169185599 0 0.38431927857806347 -0.48000347861417009 0 0.38196633289325588 -0.49999999999999872 0 0.36429730458560189 -0.48212898523020148 0 0.38431927857806347 -0.48000347861417009 0 0.38196633289325588 -0.49999999999999872 0 0.40403142460330532 -0.5 0 0.38431927857806347 -0.48000347861417009 0 0.40403142460330532 -0.5 0 0.40942381710843762 -0.48219064169185599 0 0.40403142460330532 -0.5 0 0.41659982268522883 -0.49217456447989227 0 0.40942381710843762 -0.48219064169185599 0 0.41659982268522883 -0.49217456447989227 0 0.40942381710843762 -0.48219064169185599 0 0.42684753271581788 -0.48650761622771332 0 0.40403142460330532 -0.5 0 0.41659982268522883 -0.49217456447989227 0 0.42609651631335471 -0.5 0 0.42400718974388479 -0.46577424125725247 0 0.40059195218878119 -0.46814610476965318 0 0.40942381710843762 -0.48219064169185599 0 0.42400718974388479 -0.46577424125725247 0 0.40942381710843762 -0.48219064169185599 0 0.42684753271581788 -0.48650761622771332 0 0.44466071191754558 -0.46993686656255612 0 0.42684753271581788 -0.48650761622771332 0 0.44466071191754558 -0.46993686656255612 0 0.42400718974388479 -0.46577424125725247 0 0.42684753271581788 -0.48650761622771332 0 0.4481616080234041 -0.49999999999999739 0 0.42609651631335471 -0.5 0 0.42684753271581788 -0.48650761622771332 0 0.41659982268522883 -0.49217456447989227 0 0.42609651631335471 -0.5 0 0.42684753271581788 -0.48650761622771332 0 0.31631253372767432 -0.5 0 0.33649641961076748 -0.49999999999999872 0 0.31243546270415212 -0.49513357048298151 0 0.32558110782871952 -0.47502431362884601 0 0.33649641961076748 -0.49999999999999872 0 0.31243546270415212 -0.49513357048298151 0 0.33649641961076748 -0.49999999999999872 0 0.31243546270415212 -0.49513357048298151 0 0.32558110782871952 -0.47502431362884601 0 0.34644689691100949 -0.48428225386389051 0 0.3466282762779474 -0.46425797046040512 0 0.32558110782871952 -0.47502431362884601 0 0.33649641961076748 -0.49999999999999872 0 0.34644689691100949 -0.48428225386389051 0 0.35923137625201168 -0.5 0 0.36429730458560189 -0.48212898523020148 0 0.34644689691100949 -0.48428225386389051 0 0.33649641961076748 -0.49999999999999872 0 0.35923137625201168 -0.5 0 0.34644689691100949 -0.48428225386389051 0 0.38196633289325588 -0.49999999999999872 0 0.35923137625201168 -0.5 0 0.36429730458560189 -0.48212898523020148 0 0.38196633289325588 -0.49999999999999872 0 0.36429730458560189 -0.48212898523020148 0 0.38431927857806347 -0.48000347861417009 0 0.36429730458560189 -0.48212898523020148 0 0.36250200938387611 -0.46623381939665892 0 0.36429730458560189 -0.48212898523020148 0 0.3466282762779474 -0.46425797046040512 0 0.36429730458560189 -0.48212898523020148 0 0.34644689691100949 -0.48428225386389051 0 0.3466282762779474 -0.46425797046040512 0 0.36429730458560189 -0.48212898523020148 0 0.3466282762779474 -0.46425797046040512 0 0.36250200938387611 -0.46623381939665892 0 0.3466282762779474 -0.46425797046040512 0 0.36250200938387611 -0.46623381939665892 0 0.35622716633862123 -0.44470090669096207 0 0.37533566479653802 -0.45668517182298513 0 0.38431927857806347 -0.48000347861417009 0 0.36250200938387611 -0.46623381939665892 0 0.37533566479653802 -0.45668517182298513 0 0.36250200938387611 -0.46623381939665892 0 0.35622716633862123 -0.44470090669096207 0 0.37854106231005852 -0.42913597104278212 0 0.37533566479653802 -0.45668517182298513 0 0.35622716633862123 -0.44470090669096207 0 0.3466282762779474 -0.46425797046040512 0 0.35622716633862123 -0.44470090669096207 0 0.32895924797029291 -0.44638695569060849 0 0.35622716633862123 -0.44470090669096207 0 0.32895924797029291 -0.44638695569060849 0 0.33879454323393537 -0.43162981283747393 0 0.3466282762779474 -0.46425797046040512 0 0.32895924797029291 -0.44638695569060849 0 0.32558110782871952 -0.47502431362884601 0 0.3466282762779474 -0.46425797046040512 0 0.32895924797029291 -0.44638695569060849 0 0.32558110782871952 -0.47502431362884601 0 0.32895924797029291 -0.44638695569060849 0 0.31013517672393359 -0.45824264406072301 0 0.32895924797029291 -0.44638695569060849 0 0.30820235984919558 -0.44403263630352657 0 0.31013517672393359 -0.45824264406072301 0 0.32895924797029291 -0.44638695569060849 0 0.31129021966263831 -0.42851594092081208 0 0.30820235984919558 -0.44403263630352657 0 0.32895924797029291 -0.44638695569060849 0 0.31129021966263831 -0.42851594092081208 0 0.32895924797029291 -0.44638695569060849 0 0.33879454323393537 -0.43162981283747393 0 0.31129021966263831 -0.42851594092081208 0 0.33232470960408678 -0.41515890017220591 0 0.33879454323393537 -0.43162981283747393 0 0.31129021966263831 -0.42851594092081208 0 0.33232470960408678 -0.41515890017220591 0 0.30921653325110088 -0.40817036473691792 0 0.31129021966263831 -0.42851594092081208 0 0.33232470960408678 -0.41515890017220591 0 0.30921653325110088 -0.40817036473691792 0 0.33232470960408678 -0.41515890017220591 0 0.32430874552458289 -0.39996552949528669 0 0.30921653325110088 -0.40817036473691792 0 0.33232470960408678 -0.41515890017220591 0 0.33879454323393537 -0.43162981283747393 0 0.35543288595707262 -0.42214743560749401 0 0.35622716633862123 -0.44470090669096207 0 0.33879454323393537 -0.43162981283747393 0 0.35543288595707262 -0.42214743560749401 0 0.37854106231005852 -0.42913597104278212 0 0.35622716633862123 -0.44470090669096207 0 0.35543288595707262 -0.42214743560749401 0 0.37854106231005852 -0.42913597104278212 0 0.35543288595707262 -0.42214743560749401 0 0.37854106231005852 -0.42913597104278212 0 0.35543288595707262 -0.42214743560749401 0 0.37106834820806489 -0.41138377357564809 0 0.35543288595707262 -0.42214743560749401 0 0.37106834820806489 -0.41138377357564809 0 0.35680168147205232 -0.4021345450958918 0 0.33232470960408678 -0.41515890017220591 0 0.35543288595707262 -0.42214743560749401 0 0.33232470960408678 -0.41515890017220591 0 0.35543288595707262 -0.42214743560749401 0 0.35680168147205232 -0.4021345450958918 0 0.35680168147205232 -0.4021345450958918 0 0.35348859489841328 -0.38269725120100279 0 0.33981127359827318 -0.39246421297616058 0 0.37106834820806489 -0.41138377357564809 0 0.35680168147205232 -0.4021345450958918 0 0.37345257572878959 -0.39005886110989851 0 0.35680168147205232 -0.4021345450958918 0 0.37345257572878959 -0.39005886110989851 0 0.35348859489841328 -0.38269725120100279 0 0.37345257572878959 -0.39005886110989851 0 0.35348859489841328 -0.38269725120100279 0 0.36523940570890773 -0.36542769994236229 0 0.35348859489841328 -0.38269725120100279 0 0.34092812651359911 -0.37900863971731158 0 0.33981127359827318 -0.39246421297616058 0 0.35348859489841328 -0.38269725120100279 0 0.34092812651359911 -0.37900863971731158 0 0.34469850636885763 -0.36708954836439239 0 0.34092812651359911 -0.37900863971731158 0 0.32872967993344548 -0.38674186069518479 0 0.33084765180319819 -0.37442893789394271 0 0.34092812651359911 -0.37900863971731158 0 0.32872967993344548 -0.38674186069518479 0 0.33981127359827318 -0.39246421297616058 0 0.33232470960408678 -0.41515890017220591 0 0.33981127359827318 -0.39246421297616058 0 0.32430874552458289 -0.39996552949528669 0 0.33232470960408678 -0.41515890017220591 0 0.35680168147205232 -0.4021345450958918 0 0.33981127359827318 -0.39246421297616058 0 0.32872967993344548 -0.38674186069518479 0 0.33981127359827318 -0.39246421297616058 0 0.32430874552458289 -0.39996552949528669 0 0.32430874552458289 -0.39996552949528669 0 0.31318921732056032 -0.39641419345299389 0 0.30921653325110088 -0.40817036473691792 0 0.32430874552458289 -0.39996552949528669 0 0.31318921732056032 -0.39641419345299389 0 0.31580688998062711 -0.38503861940110229 0 0.32872967993344548 -0.38674186069518479 0 0.31580688998062711 -0.38503861940110229 0 0.33084765180319819 -0.37442893789394271 0 0.31580688998062711 -0.38503861940110229 0 0.33084765180319819 -0.37442893789394271 0 0.3239734129121552 -0.37050833823473772 0 0.32872967993344548 -0.38674186069518479 0 0.32430874552458289 -0.39996552949528669 0 0.31580688998062711 -0.38503861940110229 0 0.30366203949628617 -0.38966965656229591 0 0.29586024325518351 -0.3780896277203305 0 0.30991970831166571 -0.37081026414458501 0 0.31580688998062711 -0.38503861940110229 0 0.30366203949628617 -0.38966965656229591 0 0.30991970831166571 -0.37081026414458501 0 0.30366203949628617 -0.38966965656229591 0 0.30991970831166571 -0.37081026414458501 0 0.31318921732056032 -0.39641419345299389 0 0.31580688998062711 -0.38503861940110229 0 0.30366203949628617 -0.38966965656229591 0 0.2861083568981152 -0.40118182930162971 0 0.30921653325110088 -0.40817036473691792 0 0.31318921732056032 -0.39641419345299389 0 0.30366203949628617 -0.38966965656229591 0 0.30921653325110088 -0.40817036473691792 0 0.30366203949628617 -0.38966965656229591 0 0.2861083568981152 -0.40118182930162971 0 0.30921653325110088 -0.40817036473691792 0 0.2861083568981152 -0.40118182930162971 0 0.28180483585464872 -0.3859507572978208 0 0.29586024325518351 -0.3780896277203305 0 0.2861083568981152 -0.40118182930162971 0 0.29586024325518351 -0.3780896277203305 0 0.28180483585464872 -0.3859507572978208 0 0.29586024325518351 -0.3780896277203305 0 0.27999137035426569 -0.37109643547666271 0 0.30366203949628617 -0.38966965656229591 0 0.2861083568981152 -0.40118182930162971 0 0.29586024325518351 -0.3780896277203305 0 0.28180483585464872 -0.3859507572978208 0 0.26984637489932439 -0.37982947266185668 0 0.27999137035426569 -0.37109643547666271 0 0.28180483585464872 -0.3859507572978208 0 0.26984637489932439 -0.37982947266185668 0 0.25804373749725018 -0.39269433188232461 0 0.26984637489932439 -0.37982947266185668 0 0.25762254538930029 -0.37704746804297867 0 0.25804373749725018 -0.39269433188232461 0 0.25762254538930029 -0.37704746804297867 0 0.25804373749725018 -0.39269433188232461 0 0.2429041237822688 -0.37851861370108841 0 0.25804373749725018 -0.39269433188232461 0 0.26595457093772101 -0.40947836774030522 0 0.24852229779328019 -0.41657435612796578 0 0.2861083568981152 -0.40118182930162971 0 0.25804373749725018 -0.39269433188232461 0 0.26595457093772101 -0.40947836774030522 0 0.2861083568981152 -0.40118182930162971 0 0.25804373749725018 -0.39269433188232461 0 0.2861083568981152 -0.40118182930162971 0 0.28180483585464872 -0.3859507572978208 0 0.25804373749725018 -0.39269433188232461 0 0.2861083568981152 -0.40118182930162971 0 0.27919865446964082 -0.41754381666517398 0 0.26595457093772101 -0.40947836774030522 0 0.27919865446964082 -0.41754381666517398 0 0.26649111881045262 -0.41937558614054121 0 0.26595457093772101 -0.40947836774030522 0 0.26649111881045262 -0.41937558614054121 0 0.26595457093772101 -0.40947836774030522 0 0.24852229779328019 -0.41657435612796578 0 0.27228895204116832 -0.43390580402871942 0 0.24852229779328019 -0.41657435612796578 0 0.25532234801786119 -0.43168975851388652 0 0.26358533067251072 -0.4372686002881182 0 0.27228895204116832 -0.43390580402871942 0 0.26649111881045262 -0.41937558614054121 0 0.27228895204116832 -0.43390580402871942 0 0.24852229779328019 -0.41657435612796578 0 0.25532234801786119 -0.43168975851388652 0 0.27228895204116832 -0.43390580402871942 0 0.24852229779328019 -0.41657435612796578 0 0.25532234801786119 -0.43168975851388652 0 0.26358533067251072 -0.4372686002881182 0 0.25796262984271462 -0.44211489073159332 0 0.27919865446964082 -0.41754381666517398 0 0.27228895204116832 -0.43390580402871942 0 0.26358533067251072 -0.4372686002881182 0 0.27228895204116832 -0.43390580402871942 0 0.27115751636338808 -0.43658501293158047 0 0.27919865446964082 -0.41754381666517398 0 0.27228895204116832 -0.43390580402871942 0 0.28154566174934742 -0.42777002367119271 0 0.27919865446964082 -0.41754381666517398 0 0.26649111881045262 -0.41937558614054121 0 0.27228895204116832 -0.43390580402871942 0 0.27228895204116832 -0.43390580402871942 0 0.27115751636338808 -0.43658501293158047 0 0.27228895204116832 -0.43390580402871942 0 0.27436379384075948 -0.43541884882572152 0 0.27228895204116832 -0.43390580402871942 0 0.27115751636338808 -0.43658501293158047 0 0.27436379384075948 -0.43541884882572152 0 0.27115751636338808 -0.43658501293158047 0 0.27436379384075948 -0.43541884882572152 0 0.27403715308022852 -0.43901844553686309 0 0.27228895204116832 -0.43390580402871942 0 0.27857918223025308 -0.43322917994625337 0 0.28154566174934742 -0.42777002367119271 0 0.27228895204116832 -0.43390580402871942 0 0.27436379384075948 -0.43541884882572152 0 0.27857918223025308 -0.43322917994625337 0 0.27436379384075948 -0.43541884882572152 0 0.27857918223025308 -0.43322917994625337 0 0.27799068061553328 -0.43845029249562911 0 0.27857918223025308 -0.43322917994625337 0 0.28395422633351869 -0.43715853081178391 0 0.27799068061553328 -0.43845029249562911 0 0.28395422633351869 -0.43715853081178391 0 0.29417812431809809 -0.43739933824611082 0 0.28154566174934742 -0.42777002367119271 0 0.29417812431809809 -0.43739933824611082 0 0.28154566174934742 -0.42777002367119271 0 0.29358959172482352 -0.42009688559030622 0 0.27857918223025308 -0.43322917994625337 0 0.28395422633351869 -0.43715853081178391 0 0.28154566174934742 -0.42777002367119271 0 0.2861083568981152 -0.40118182930162971 0 0.27919865446964082 -0.41754381666517398 0 0.27919865446964082 -0.41754381666517398 0 0.28154566174934742 -0.42777002367119271 0 0.29358959172482352 -0.42009688559030622 0 0.2861083568981152 -0.40118182930162971 0 0.27919865446964082 -0.41754381666517398 0 0.29358959172482352 -0.42009688559030622 0 0.2861083568981152 -0.40118182930162971 0 0.29358959172482352 -0.42009688559030622 0 0.30921653325110088 -0.40817036473691792 0 0.29358959172482352 -0.42009688559030622 0 0.30921653325110088 -0.40817036473691792 0 0.31129021966263831 -0.42851594092081208 0 0.29417812431809809 -0.43739933824611082 0 0.31129021966263831 -0.42851594092081208 0 0.30820235984919558 -0.44403263630352657 0 0.29417812431809809 -0.43739933824611082 0 0.29358959172482352 -0.42009688559030622 0 0.31129021966263831 -0.42851594092081208 0 0.29417812431809809 -0.43739933824611082 0 0.30820235984919558 -0.44403263630352657 0 0.29219216538881182 -0.45184607074389932 0 0.30820235984919558 -0.44403263630352657 0 0.31013517672393359 -0.45824264406072301 0 0.29219216538881182 -0.45184607074389932 0 0.31013517672393359 -0.45824264406072301 0 0.29219216538881182 -0.45184607074389932 0 0.29654927358255351 -0.47402494524065603 0 0.28242499606775912 -0.46257328444392848 0 0.29219216538881182 -0.45184607074389932 0 0.29654927358255351 -0.47402494524065603 0 0.28242499606775912 -0.46257328444392848 0 0.29219216538881182 -0.45184607074389932 0 0.27847152787625667 -0.4513487256690073 0 0.29219216538881182 -0.45184607074389932 0 0.288640399347527 -0.44341757383598313 0 0.28133908198536811 -0.4436934118271787 0 0.29219216538881182 -0.45184607074389932 0 0.28133908198536811 -0.4436934118271787 0 0.27847152787625667 -0.4513487256690073 0 0.29417812431809809 -0.43739933824611082 0 0.29219216538881182 -0.45184607074389932 0 0.288640399347527 -0.44341757383598313 0 0.28395422633351869 -0.43715853081178391 0 0.29417812431809809 -0.43739933824611082 0 0.288640399347527 -0.44341757383598313 0 0.28395422633351869 -0.43715853081178391 0 0.288640399347527 -0.44341757383598313 0 0.28133908198536811 -0.4436934118271787 0 0.28395422633351869 -0.43715853081178391 0 0.28133908198536811 -0.4436934118271787 0 0.27799068061553328 -0.43845029249562911 0 0.28133908198536811 -0.4436934118271787 0 0.27799068061553328 -0.43845029249562911 0 0.2753549814786983 -0.44293535638627018 0 0.27436379384075948 -0.43541884882572152 0 0.27799068061553328 -0.43845029249562911 0 0.27403715308022852 -0.43901844553686309 0 0.27799068061553328 -0.43845029249562911 0 0.2753549814786983 -0.44293535638627018 0 0.27403715308022852 -0.43901844553686309 0 0.2753549814786983 -0.44293535638627018 0 0.27847152787625667 -0.4513487256690073 0 0.27146143093161001 -0.44766084632933478 0 0.28133908198536811 -0.4436934118271787 0 0.2753549814786983 -0.44293535638627018 0 0.27847152787625667 -0.4513487256690073 0 0.27146143093161001 -0.44766084632933478 0 0.26597382363671102 -0.45044571757681878 0 0.26951278223790981 -0.45722290213561328 0 0.27847152787625667 -0.4513487256690073 0 0.27146143093161001 -0.44766084632933478 0 0.26951278223790981 -0.45722290213561328 0 0.27146143093161001 -0.44766084632933478 0 0.26597382363671102 -0.45044571757681878 0 0.26455520637633129 -0.44524742720171712 0 0.26358533067251072 -0.4372686002881182 0 0.27043719202946759 -0.44227367643525922 0 0.26455520637633129 -0.44524742720171712 0 0.27115751636338808 -0.43658501293158047 0 0.27403715308022852 -0.43901844553686309 0 0.27043719202946759 -0.44227367643525922 0 0.2753549814786983 -0.44293535638627018 0 0.27146143093161001 -0.44766084632933478 0 0.27043719202946759 -0.44227367643525922 0 0.2753549814786983 -0.44293535638627018 0 0.27403715308022852 -0.43901844553686309 0 0.27043719202946759 -0.44227367643525922 0 0.27146143093161001 -0.44766084632933478 0 0.27043719202946759 -0.44227367643525922 0 0.26455520637633129 -0.44524742720171712 0 0.26358533067251072 -0.4372686002881182 0 0.27115751636338808 -0.43658501293158047 0 0.27043719202946759 -0.44227367643525922 0 0.25836587500099278 -0.45165169464061011 0 0.2443552964304268 -0.4604541631217185 0 0.24798438914587709 -0.44471697301363439 0 0.26358533067251072 -0.4372686002881182 0 0.25796262984271462 -0.44211489073159332 0 0.26455520637633129 -0.44524742720171712 0 0.26597382363671102 -0.45044571757681878 0 0.25836587500099278 -0.45165169464061011 0 0.26951278223790981 -0.45722290213561328 0 0.25796262984271462 -0.44211489073159332 0 0.26455520637633129 -0.44524742720171712 0 0.25836587500099278 -0.45165169464061011 0 0.26597382363671102 -0.45044571757681878 0 0.26455520637633129 -0.44524742720171712 0 0.25836587500099278 -0.45165169464061011 0 0.25796262984271462 -0.44211489073159332 0 0.25836587500099278 -0.45165169464061011 0 0.24798438914587709 -0.44471697301363439 0 0.25532234801786119 -0.43168975851388652 0 0.25796262984271462 -0.44211489073159332 0 0.24798438914587709 -0.44471697301363439 0 0.25972533196042952 -0.46672666409502311 0 0.2486107905310152 -0.47178281681740752 0 0.2443552964304268 -0.4604541631217185 0 0.25836587500099278 -0.45165169464061011 0 0.25972533196042952 -0.46672666409502311 0 0.2443552964304268 -0.4604541631217185 0 0.25836587500099278 -0.45165169464061011 0 0.25972533196042952 -0.46672666409502311 0 0.26951278223790981 -0.45722290213561328 0 0.25972533196042952 -0.46672666409502311 0 0.26951278223790981 -0.45722290213561328 0 0.27413680599244689 -0.4735496205127695 0 0.28242499606775912 -0.46257328444392848 0 0.26951278223790981 -0.45722290213561328 0 0.27413680599244689 -0.4735496205127695 0 0.28242499606775912 -0.46257328444392848 0 0.27847152787625667 -0.4513487256690073 0 0.26951278223790981 -0.45722290213561328 0 0.27413680599244689 -0.4735496205127695 0 0.26431354889092068 -0.4854007114489497 0 0.28837450579753637 -0.49026714096596558 0 0.25972533196042952 -0.46672666409502311 0 0.27413680599244689 -0.4735496205127695 0 0.26431354889092068 -0.4854007114489497 0 0.26431354889092068 -0.4854007114489497 0 0.2486107905310152 -0.47178281681740752 0 0.2402525919843049 -0.48053428193193393 0 0.25972533196042952 -0.46672666409502311 0 0.26431354889092068 -0.4854007114489497 0 0.2486107905310152 -0.47178281681740752 0 0.26431354889092068 -0.4854007114489497 0 0.2402525919843049 -0.48053428193193393 0 0.25053490694631031 -0.5 0 0.25646778227897887 -0.49015285543631321 0 0.27594476196148798 -0.49999999999999939 0 0.26431354889092068 -0.4854007114489497 0 0.25646778227897887 -0.49015285543631321 0 0.27594476196148798 -0.49999999999999939 0 0.26431354889092068 -0.4854007114489497 0 0.25646778227897887 -0.49015285543631321 0 0.2402525919843049 -0.48053428193193393 0 0.26431354889092068 -0.4854007114489497 0 0.27594476196148798 -0.49999999999999939 0 0.28837450579753637 -0.49026714096596558 0 0.25646778227897887 -0.49015285543631321 0 0.27594476196148798 -0.49999999999999939 0 0.26431354889092068 -0.4854007114489497 0 0.28837450579753637 -0.49026714096596558 0 0.27594476196148798 -0.49999999999999939 0 0.29612864784458109 -0.5 0 0.28837450579753637 -0.49026714096596558 0 0.27413680599244689 -0.4735496205127695 0 0.28837450579753637 -0.49026714096596558 0 0.29654927358255351 -0.47402494524065603 0 0.28242499606775912 -0.46257328444392848 0 0.27413680599244689 -0.4735496205127695 0 0.29654927358255351 -0.47402494524065603 0 0.32558110782871952 -0.47502431362884601 0 0.31013517672393359 -0.45824264406072301 0 0.29654927358255351 -0.47402494524065603 0 0.32558110782871952 -0.47502431362884601 0 0.29654927358255351 -0.47402494524065603 0 0.31243546270415212 -0.49513357048298151 0 0.28837450579753637 -0.49026714096596558 0 0.31243546270415212 -0.49513357048298151 0 0.31631253372767432 -0.5 0 0.29612864784458109 -0.5 0 0.31243546270415212 -0.49513357048298151 0 0.28837450579753637 -0.49026714096596558 0 0.29654927358255351 -0.47402494524065603 0 0.31243546270415212 -0.49513357048298151 0 0.29612864784458109 -0.5 0 0.28837450579753637 -0.49026714096596558 0 0.31243546270415212 -0.49513357048298151 0 0.33024703309228243 -0.29199579029886341 0 0.33847376378877259 -0.2847539142085927 0 0.32263787353633749 -0.28410753585877507 0 0.33847376378877259 -0.2847539142085927 0 0.3424863449763379 -0.30256206636538802 0 0.33251278517155641 -0.30271914027798258 0 0.33024703309228243 -0.29199579029886341 0 0.33847376378877259 -0.2847539142085927 0 0.33251278517155641 -0.30271914027798258 0 0.33847376378877259 -0.2847539142085927 0 0.33251278517155641 -0.30271914027798258 0 0.33251278517155641 -0.30271914027798258 0 0.3379378395038235 -0.31405057938586672 0 0.32655180655434041 -0.32068436634737257 0 0.33251278517155641 -0.30271914027798258 0 0.32655180655434041 -0.32068436634737257 0 0.3424863449763379 -0.30256206636538802 0 0.33251278517155641 -0.30271914027798258 0 0.3379378395038235 -0.31405057938586672 0 0.33024703309228243 -0.29199579029886341 0 0.33251278517155641 -0.30271914027798258 0 0.32060333182329698 -0.30547278212329337 0 0.33251278517155641 -0.30271914027798258 0 0.32655180655434041 -0.32068436634737257 0 0.32360155475540681 -0.31313991070943831 0 0.33251278517155641 -0.30271914027798258 0 0.32060333182329698 -0.30547278212329337 0 0.32403909204093478 -0.30910402632660422 0 0.33251278517155641 -0.30271914027798258 0 0.32403909204093478 -0.30910402632660422 0 0.32360155475540681 -0.31313991070943831 0 0.32060333182329698 -0.30547278212329337 0 0.32141222654517088 -0.31758322646324227 0 0.32360155475540681 -0.31313991070943831 0 0.32403909204093478 -0.30910402632660422 0 0.32360155475540681 -0.31313991070943831 0 0.32060333182329698 -0.30547278212329337 0 0.32403909204093478 -0.30910402632660422 0 0.32360155475540681 -0.31313991070943831 0 0.32060333182329698 -0.30547278212329337 0 0.32360155475540681 -0.31313991070943831 0 0.33024703309228243 -0.29199579029886341 0 0.32060333182329698 -0.30547278212329337 0 0.32263787353633749 -0.28410753585877507 0 0.32060333182329698 -0.30547278212329337 0 0.32263787353633749 -0.28410753585877507 0 0.31273491517594959 -0.28535147574592579 0 0.32060333182329698 -0.30547278212329337 0 0.32263787353633749 -0.28410753585877507 0 0.32060333182329698 -0.30547278212329337 0 0.31273491517594959 -0.28535147574592579 0 0.31538970550446982 -0.27313647176473671 0 0.32467241524937912 -0.26274228959425677 0 0.29995504542999007 -0.26283598693345578 0 0.32263787353633749 -0.28410753585877507 0 0.32467241524937912 -0.26274228959425677 0 0.32263787353633749 -0.28410753585877507 0 0.31538970550446982 -0.27313647176473671 0 0.32467241524937912 -0.26274228959425677 0 0.32263787353633749 -0.28410753585877507 0 0.31273491517594959 -0.28535147574592579 0 0.31538970550446982 -0.27313647176473671 0 0.32623726572499839 -0.24630939192279999 0 0.32467241524937912 -0.26274228959425677 0 0.31227764954635462 -0.25327102046308481 0 0.32623726572499839 -0.24630939192279999 0 0.32467241524937912 -0.26274228959425677 0 0.32467241524937912 -0.26274228959425677 0 0.34175783262437742 -0.25221284589247339 0 0.35245633684312189 -0.26263696772769579 0 0.32623726572499839 -0.24630939192279999 0 0.32467241524937912 -0.26274228959425677 0 0.34175783262437742 -0.25221284589247339 0 0.32467241524937912 -0.26274228959425677 0 0.35245633684312189 -0.26263696772769579 0 0.32263787353633749 -0.28410753585877507 0 0.32467241524937912 -0.26274228959425677 0 0.33783219439211443 -0.27427703898111411 0 0.32467241524937912 -0.26274228959425677 0 0.33783219439211443 -0.27427703898111411 0 0.35245633684312189 -0.26263696772769579 0 0.33847376378877259 -0.2847539142085927 0 0.32263787353633749 -0.28410753585877507 0 0.33783219439211443 -0.27427703898111411 0 0.33847376378877259 -0.2847539142085927 0 0.33783219439211443 -0.27427703898111411 0 0.35023256276424047 -0.2784830750830658 0 0.35023256276424047 -0.2784830750830658 0 0.35245633684312189 -0.26263696772769579 0 0.36641870847826657 -0.28115869475223892 0 0.33783219439211443 -0.27427703898111411 0 0.35023256276424047 -0.2784830750830658 0 0.35245633684312189 -0.26263696772769579 0 0.3579054052522066 -0.24275040787088481 0 0.34175783262437742 -0.25221284589247339 0 0.35245633684312189 -0.26263696772769579 0 0.38024025843686471 -0.26253164586113498 0 0.35245633684312189 -0.26263696772769579 0 0.3579054052522066 -0.24275040787088481 0 0.38024025843686471 -0.26253164586113498 0 0.35245633684312189 -0.26263696772769579 0 0.38024025843686471 -0.26253164586113498 0 0.35245633684312189 -0.26263696772769579 0 0.36641870847826657 -0.28115869475223892 0 0.36641870847826657 -0.28115869475223892 0 0.35267931538106839 -0.29601398006640378 0 0.36874089256624171 -0.30522638280051562 0 0.38614001645978407 -0.29336027691126532 0 0.36641870847826657 -0.28115869475223892 0 0.36874089256624171 -0.30522638280051562 0 0.33847376378877259 -0.2847539142085927 0 0.3424863449763379 -0.30256206636538802 0 0.35267931538106839 -0.29601398006640378 0 0.33847376378877259 -0.2847539142085927 0 0.35023256276424047 -0.2784830750830658 0 0.35267931538106839 -0.29601398006640378 0 0.35023256276424047 -0.2784830750830658 0 0.36641870847826657 -0.28115869475223892 0 0.35267931538106839 -0.29601398006640378 0 0.35267931538106839 -0.29601398006640378 0 0.36874089256624171 -0.30522638280051562 0 0.3508280210364686 -0.3152727178880943 0 0.3424863449763379 -0.30256206636538802 0 0.35267931538106839 -0.29601398006640378 0 0.3508280210364686 -0.3152727178880943 0 0.3424863449763379 -0.30256206636538802 0 0.3508280210364686 -0.3152727178880943 0 0.3379378395038235 -0.31405057938586672 0 0.38188029629269038 -0.31396736973096018 0 0.36874089256624171 -0.30522638280051562 0 0.3683352327275366 -0.32664342993636691 0 0.36874089256624171 -0.30522638280051562 0 0.3683352327275366 -0.32664342993636691 0 0.3508280210364686 -0.3152727178880943 0 0.38271098399161779 -0.34750867223883342 0 0.3683352327275366 -0.32664342993636691 0 0.35760123186979098 -0.34169105765240421 0 0.3683352327275366 -0.32664342993636691 0 0.35760123186979098 -0.34169105765240421 0 0.34915811632932292 -0.32900342743156241 0 0.35760123186979098 -0.34169105765240421 0 0.33249147974796489 -0.33587344306597128 0 0.35760123186979098 -0.34169105765240421 0 0.34915811632932292 -0.32900342743156241 0 0.33249147974796489 -0.33587344306597128 0 0.3683352327275366 -0.32664342993636691 0 0.34915811632932292 -0.32900342743156241 0 0.3508280210364686 -0.3152727178880943 0 0.34915811632932292 -0.32900342743156241 0 0.3508280210364686 -0.3152727178880943 0 0.33653461626484737 -0.3255364886149773 0 0.38271098399161779 -0.34750867223883342 0 0.35760123186979098 -0.34169105765240421 0 0.36523940570890773 -0.36542769994236229 0 0.38271098399161779 -0.34750867223883342 0 0.35760123186979098 -0.34169105765240421 0 0.35760123186979098 -0.34169105765240421 0 0.36523940570890773 -0.36542769994236229 0 0.35153353425149259 -0.35642245041858489 0 0.35760123186979098 -0.34169105765240421 0 0.35153353425149259 -0.35642245041858489 0 0.33859499305841428 -0.35148149571518061 0 0.35153353425149259 -0.35642245041858489 0 0.34469850636885763 -0.36708954836439239 0 0.33859499305841428 -0.35148149571518061 0 0.36523940570890773 -0.36542769994236229 0 0.35153353425149259 -0.35642245041858489 0 0.34469850636885763 -0.36708954836439239 0 0.35348859489841328 -0.38269725120100279 0 0.36523940570890773 -0.36542769994236229 0 0.34469850636885763 -0.36708954836439239 0 0.33084765180319819 -0.37442893789394271 0 0.33085817070246648 -0.36127044392918711 0 0.3239734129121552 -0.37050833823473772 0 0.34469850636885763 -0.36708954836439239 0 0.33084765180319819 -0.37442893789394271 0 0.33085817070246648 -0.36127044392918711 0 0.34092812651359911 -0.37900863971731158 0 0.34469850636885763 -0.36708954836439239 0 0.33084765180319819 -0.37442893789394271 0 0.34469850636885763 -0.36708954836439239 0 0.33085817070246648 -0.36127044392918711 0 0.33859499305841428 -0.35148149571518061 0 0.33085817070246648 -0.36127044392918711 0 0.33859499305841428 -0.35148149571518061 0 0.32673364684909711 -0.35056300778016453 0 0.34469850636885763 -0.36708954836439239 0 0.33859499305841428 -0.35148149571518061 0 0.33859499305841428 -0.35148149571518061 0 0.32673364684909711 -0.35056300778016453 0 0.3282141758957931 -0.34179625118923601 0 0.32673364684909711 -0.35056300778016453 0 0.31838093916232912 -0.36129535171471838 0 0.32095498834403191 -0.33755208402833448 0 0.31617737712704458 -0.35195087172687389 0 0.31838093916232912 -0.36129535171471838 0 0.32095498834403191 -0.33755208402833448 0 0.31617737712704458 -0.35195087172687389 0 0.31598458851518929 -0.35397539456799498 0 0.30991970831166571 -0.37081026414458501 0 0.31838093916232912 -0.36129535171471838 0 0.32095498834403191 -0.33755208402833448 0 0.31617737712704458 -0.35195087172687389 0 0.32095498834403191 -0.33755208402833448 0 0.31617737712704458 -0.35195087172687389 0 0.31598458851518929 -0.35397539456799498 0 0.31838093916232912 -0.36129535171471838 0 0.31617737712704458 -0.35195087172687389 0 0.31598458851518929 -0.35397539456799498 0 0.33085817070246648 -0.36127044392918711 0 0.32673364684909711 -0.35056300778016453 0 0.31838093916232912 -0.36129535171471838 0 0.31580688998062711 -0.38503861940110229 0 0.31838093916232912 -0.36129535171471838 0 0.3239734129121552 -0.37050833823473772 0 0.31580688998062711 -0.38503861940110229 0 0.31838093916232912 -0.36129535171471838 0 0.30991970831166571 -0.37081026414458501 0 0.31598458851518929 -0.35397539456799498 0 0.31838093916232912 -0.36129535171471838 0 0.30991970831166571 -0.37081026414458501 0 0.31580688998062711 -0.38503861940110229 0 0.31838093916232912 -0.36129535171471838 0 0.31617737712704458 -0.35195087172687389 0 0.30991970831166571 -0.37081026414458501 0 0.33085817070246648 -0.36127044392918711 0 0.31838093916232912 -0.36129535171471838 0 0.3239734129121552 -0.37050833823473772 0 0.33653461626484737 -0.3255364886149773 0 0.33249147974796489 -0.33587344306597128 0 0.32655180655434041 -0.32068436634737257 0 0.3379378395038235 -0.31405057938586672 0 0.33653461626484737 -0.3255364886149773 0 0.32655180655434041 -0.32068436634737257 0 0.3508280210364686 -0.3152727178880943 0 0.3379378395038235 -0.31405057938586672 0 0.33653461626484737 -0.3255364886149773 0 0.34915811632932292 -0.32900342743156241 0 0.33653461626484737 -0.3255364886149773 0 0.33249147974796489 -0.33587344306597128 0 0.35760123186979098 -0.34169105765240421 0 0.33859499305841428 -0.35148149571518061 0 0.33249147974796489 -0.33587344306597128 0 0.33859499305841428 -0.35148149571518061 0 0.33249147974796489 -0.33587344306597128 0 0.33859499305841428 -0.35148149571518061 0 0.3282141758957931 -0.34179625118923601 0 0.33249147974796489 -0.33587344306597128 0 0.33249147974796489 -0.33587344306597128 0 0.32655180655434041 -0.32068436634737257 0 0.33249147974796489 -0.33587344306597128 0 0.32229577147945082 -0.33351122535653122 0 0.32655180655434041 -0.32068436634737257 0 0.31617737712704458 -0.35195087172687389 0 0.32095498834403191 -0.33755208402833448 0 0.31802749392329382 -0.3325223189886346 0 0.33249147974796489 -0.33587344306597128 0 0.32229577147945082 -0.33351122535653122 0 0.31617737712704458 -0.35195087172687389 0 0.31802749392329382 -0.3325223189886346 0 0.31536401596932251 -0.33190522455773341 0 0.31617737712704458 -0.35195087172687389 0 0.31802749392329382 -0.3325223189886346 0 0.32229577147945082 -0.33351122535653122 0 0.32095498834403191 -0.33755208402833448 0 0.31802749392329382 -0.3325223189886346 0 0.32229577147945082 -0.33351122535653122 0 0.32095498834403191 -0.33755208402833448 0 0.3282141758957931 -0.34179625118923601 0 0.32229577147945082 -0.33351122535653122 0 0.32095498834403191 -0.33755208402833448 0 0.3282141758957931 -0.34179625118923601 0 0.33249147974796489 -0.33587344306597128 0 0.32229577147945082 -0.33351122535653122 0 0.32673364684909711 -0.35056300778016453 0 0.3282141758957931 -0.34179625118923601 0 0.32095498834403191 -0.33755208402833448 0 0.32229577147945082 -0.33351122535653122 0 0.31802749392329382 -0.3325223189886346 0 0.31887882743479679 -0.32358224663232538 0 0.31802749392329382 -0.3325223189886346 0 0.31536401596932251 -0.33190522455773341 0 0.31887882743479679 -0.32358224663232538 0 0.32229577147945082 -0.33351122535653122 0 0.31802749392329382 -0.3325223189886346 0 0.31802749392329382 -0.3325223189886346 0 0.31536401596932251 -0.33190522455773341 0 0.31536401596932251 -0.33190522455773341 0 0.31887882743479679 -0.32358224663232538 0 0.30583399933886612 -0.31620600039178531 0 0.32229577147945082 -0.33351122535653122 0 0.32655180655434041 -0.32068436634737257 0 0.32360155475540681 -0.31313991070943831 0 0.32229577147945082 -0.33351122535653122 0 0.32360155475540681 -0.31313991070943831 0 0.32229577147945082 -0.33351122535653122 0 0.32141222654517088 -0.31758322646324227 0 0.32360155475540681 -0.31313991070943831 0 0.31536401596932251 -0.33190522455773341 0 0.31887882743479679 -0.32358224663232538 0 0.31802749392329382 -0.3325223189886346 0 0.31887882743479679 -0.32358224663232538 0 0.32229577147945082 -0.33351122535653122 0 0.31887882743479679 -0.32358224663232538 0 0.32141222654517088 -0.31758322646324227 0 0.32060333182329698 -0.30547278212329337 0 0.31887882743479679 -0.32358224663232538 0 0.32060333182329698 -0.30547278212329337 0 0.31887882743479679 -0.32358224663232538 0 0.32141222654517088 -0.31758322646324227 0 0.32060333182329698 -0.30547278212329337 0 0.31887882743479679 -0.32358224663232538 0 0.30583399933886612 -0.31620600039178531 0 0.31887882743479679 -0.32358224663232538 0 0.32141222654517088 -0.31758322646324227 0 0.32229577147945082 -0.33351122535653122 0 0.32655180655434041 -0.32068436634737257 0 0.32655180655434041 -0.32068436634737257 0 0.32360155475540681 -0.31313991070943831 0 0.31536401596932251 -0.33190522455773341 0 0.30583399933886612 -0.31620600039178531 0 0.29157003979573831 -0.32639245875323808 0 0.31536401596932251 -0.33190522455773341 0 0.29157003979573831 -0.32639245875323808 0 0.31536401596932251 -0.33190522455773341 0 0.30083383231846461 -0.33980607961132592 0 0.30561212961225293 -0.3549974261390319 0 0.31536401596932251 -0.33190522455773341 0 0.30083383231846461 -0.33980607961132592 0 0.29157003979573831 -0.32639245875323808 0 0.31536401596932251 -0.33190522455773341 0 0.30561212961225293 -0.3549974261390319 0 0.29157003979573831 -0.32639245875323808 0 0.29078914389654531 -0.34592920899529911 0 0.27272696826161641 -0.3375989964823195 0 0.30083383231846461 -0.33980607961132592 0 0.29157003979573831 -0.32639245875323808 0 0.29078914389654531 -0.34592920899529911 0 0.30583399933886612 -0.31620600039178531 0 0.29157003979573831 -0.32639245875323808 0 0.28596238614344771 -0.31015327119359282 0 0.29157003979573831 -0.32639245875323808 0 0.26777606362215428 -0.32087969294874158 0 0.28596238614344771 -0.31015327119359282 0 0.29586024325518351 -0.3780896277203305 0 0.30561212961225293 -0.3549974261390319 0 0.29029346156071401 -0.36111430088493518 0 0.29586024325518351 -0.3780896277203305 0 0.30561212961225293 -0.3549974261390319 0 0.29586024325518351 -0.3780896277203305 0 0.30991970831166571 -0.37081026414458501 0 0.30561212961225293 -0.3549974261390319 0 0.31617737712704458 -0.35195087172687389 0 0.31536401596932251 -0.33190522455773341 0 0.30561212961225293 -0.3549974261390319 0 0.31617737712704458 -0.35195087172687389 0 0.30991970831166571 -0.37081026414458501 0 0.30561212961225293 -0.3549974261390319 0 0.30083383231846461 -0.33980607961132592 0 0.30561212961225293 -0.3549974261390319 0 0.29078914389654531 -0.34592920899529911 0 0.29078914389654531 -0.34592920899529911 0 0.29029346156071401 -0.36111430088493518 0 0.27657155518813409 -0.35490816071985681 0 0.30561212961225293 -0.3549974261390319 0 0.29078914389654531 -0.34592920899529911 0 0.29029346156071401 -0.36111430088493518 0 0.29586024325518351 -0.3780896277203305 0 0.29029346156071401 -0.36111430088493518 0 0.27999137035426569 -0.37109643547666271 0 0.29029346156071401 -0.36111430088493518 0 0.27999137035426569 -0.37109643547666271 0 0.27657155518813409 -0.35490816071985681 0 0.27999137035426569 -0.37109643547666271 0 0.27657155518813409 -0.35490816071985681 0 0.26557175136759009 -0.36668629357517618 0 0.26984637489932439 -0.37982947266185668 0 0.27999137035426569 -0.37109643547666271 0 0.26557175136759009 -0.36668629357517618 0 0.27657155518813409 -0.35490816071985681 0 0.25327327554220291 -0.34805689210700852 0 0.27272696826161641 -0.3375989964823195 0 0.29078914389654531 -0.34592920899529911 0 0.27657155518813409 -0.35490816071985681 0 0.27272696826161641 -0.3375989964823195 0 0.27657155518813409 -0.35490816071985681 0 0.25327327554220291 -0.34805689210700852 0 0.26557175136759009 -0.36668629357517618 0 0.25327327554220291 -0.34805689210700852 0 0.26557175136759009 -0.36668629357517618 0 0.25174673940006792 -0.36750862839444798 0 0.25762254538930029 -0.37704746804297867 0 0.25174673940006792 -0.36750862839444798 0 0.2429041237822688 -0.37851861370108841 0 0.25762254538930029 -0.37704746804297867 0 0.26557175136759009 -0.36668629357517618 0 0.25174673940006792 -0.36750862839444798 0 0.26984637489932439 -0.37982947266185668 0 0.25762254538930029 -0.37704746804297867 0 0.26557175136759009 -0.36668629357517618 0 0.29157003979573831 -0.32639245875323808 0 0.26777606362215428 -0.32087969294874158 0 0.29157003979573831 -0.32639245875323808 0 0.26777606362215428 -0.32087969294874158 0 0.27272696826161641 -0.3375989964823195 0 0.25327327554220291 -0.34805689210700852 0 0.27272696826161641 -0.3375989964823195 0 0.25097045844197102 -0.3309697863632427 0 0.26777606362215428 -0.32087969294874158 0 0.27272696826161641 -0.3375989964823195 0 0.25097045844197102 -0.3309697863632427 0 0.26777606362215428 -0.32087969294874158 0 0.26753725296933029 -0.30303095497352928 0 0.24398208744857039 -0.31536692714424519 0 0.26777606362215428 -0.32087969294874158 0 0.25097045844197102 -0.3309697863632427 0 0.24398208744857039 -0.31536692714424519 0 0.26777606362215428 -0.32087969294874158 0 0.24398208744857039 -0.31536692714424519 0 0.25425683663126081 -0.29004928035117289 0 0.26753725296933029 -0.30303095497352928 0 0.24398208744857039 -0.31536692714424519 0 0.25425683663126081 -0.29004928035117289 0 0.26753725296933029 -0.30303095497352928 0 0.27015559958180269 -0.28021469338577648 0 0.26753725296933029 -0.30303095497352928 0 0.28569069059679952 -0.29396484704810832 0 0.27015559958180269 -0.28021469338577648 0 0.26777606362215428 -0.32087969294874158 0 0.26753725296933029 -0.30303095497352928 0 0.28596238614344771 -0.31015327119359282 0 0.26753725296933029 -0.30303095497352928 0 0.28596238614344771 -0.31015327119359282 0 0.28569069059679952 -0.29396484704810832 0 0.28596238614344771 -0.31015327119359282 0 0.28569069059679952 -0.29396484704810832 0 0.3026253948665979 -0.29973001909052932 0 0.28569069059679952 -0.29396484704810832 0 0.28979774267923952 -0.27776071526890761 0 0.27015559958180269 -0.28021469338577648 0 0.28569069059679952 -0.29396484704810832 0 0.29896421216139729 -0.28692296980983101 0 0.3026253948665979 -0.29973001909052932 0 0.28569069059679952 -0.29396484704810832 0 0.29896421216139729 -0.28692296980983101 0 0.28979774267923952 -0.27776071526890761 0 0.32060333182329698 -0.30547278212329337 0 0.31273491517594959 -0.28535147574592579 0 0.3026253948665979 -0.29973001909052932 0 0.31273491517594959 -0.28535147574592579 0 0.29896421216139729 -0.28692296980983101 0 0.30397231748840031 -0.27780779189568378 0 0.31273491517594959 -0.28535147574592579 0 0.29896421216139729 -0.28692296980983101 0 0.3026253948665979 -0.29973001909052932 0 0.30583399933886612 -0.31620600039178531 0 0.28596238614344771 -0.31015327119359282 0 0.3026253948665979 -0.29973001909052932 0 0.32060333182329698 -0.30547278212329337 0 0.30583399933886612 -0.31620600039178531 0 0.3026253948665979 -0.29973001909052932 0 0.32467241524937912 -0.26274228959425677 0 0.31227764954635462 -0.25327102046308481 0 0.29995504542999007 -0.26283598693345578 0 0.289954177650182 -0.24849940719596311 0 0.31227764954635462 -0.25327102046308481 0 0.29995504542999007 -0.26283598693345578 0 0.32467241524937912 -0.26274228959425677 0 0.29995504542999007 -0.26283598693345578 0 0.31538970550446982 -0.27313647176473671 0 0.29995504542999007 -0.26283598693345578 0 0.30397231748840031 -0.27780779189568378 0 0.31273491517594959 -0.28535147574592579 0 0.31538970550446982 -0.27313647176473671 0 0.30397231748840031 -0.27780779189568378 0 0.29896421216139729 -0.28692296980983101 0 0.30397231748840031 -0.27780779189568378 0 0.28979774267923952 -0.27776071526890761 0 0.29995504542999007 -0.26283598693345578 0 0.30397231748840031 -0.27780779189568378 0 0.28979774267923952 -0.27776071526890761 0 0.29995504542999007 -0.26283598693345578 0 0.28979774267923952 -0.27776071526890761 0 0.27523767561060108 -0.26292968427265512 0 0.29995504542999007 -0.26283598693345578 0 0.27523767561060108 -0.26292968427265512 0 0.289954177650182 -0.24849940719596311 0 0.29995504542999007 -0.26283598693345578 0 0.27523767561060108 -0.26292968427265512 0 0.289954177650182 -0.24849940719596311 0 0.26503799397225231 -0.24416265096041301 0 0.27523767561060108 -0.26292968427265512 0 0.28979774267923952 -0.27776071526890761 0 0.27523767561060108 -0.26292968427265512 0 0.27015559958180269 -0.28021469338577648 0 0.25425683663126081 -0.29004928035117289 0 0.27015559958180269 -0.28021469338577648 0 0.25052030579121198 -0.26302338161185418 0 0.27523767561060108 -0.26292968427265512 0 0.27015559958180269 -0.28021469338577648 0 0.25052030579121198 -0.26302338161185418 0 0.26503799397225231 -0.24416265096041301 0 0.27523767561060108 -0.26292968427265512 0 0.25052030579121198 -0.26302338161185418 0 0.26503799397225231 -0.24416265096041301 0 0.25052030579121198 -0.26302338161185418 0 0.24593773647071951 -0.24899878885736021 0 0.27523767561060108 -0.26292968427265512 0 0.25052030579121198 -0.26302338161185418 0 0.25052030579121198 -0.26302338161185418 0 0.22580293597182299 -0.26311707895105479 0 0.22580293597182299 -0.26311707895105479 0 0.237311055005646 -0.24290651797302651 0 0.24593773647071951 -0.24899878885736021 0 0.25052030579121198 -0.26302338161185418 0 0.22580293597182299 -0.26311707895105479 0 0.24593773647071951 -0.24899878885736021 0 0.25425683663126081 -0.29004928035117289 0 0.25052030579121198 -0.26302338161185418 0 0.23831521696513741 -0.28006464606720038 0 0.25052030579121198 -0.26302338161185418 0 0.23831521696513741 -0.28006464606720038 0 0.22580293597182299 -0.26311707895105479 0 0.22580293597182299 -0.26311707895105479 0 0.20757047269696871 -0.27776493171254552 0 0.22299552362340511 -0.2864856201454008 0 0.23831521696513741 -0.28006464606720038 0 0.22580293597182299 -0.26311707895105479 0 0.22299552362340511 -0.2864856201454008 0 0.22580293597182299 -0.26311707895105479 0 0.22299552362340511 -0.2864856201454008 0 0.22580293597182299 -0.26311707895105479 0 0.22893859532102681 -0.23701625171967541 0 0.22580293597182299 -0.26311707895105479 0 0.20381785053999779 -0.26320041888657569 0 0.22580293597182299 -0.26311707895105479 0 0.20381785053999779 -0.26320041888657569 0 0.21006609087306391 -0.24615974969517859 0 0.22580293597182299 -0.26311707895105479 0 0.20381785053999779 -0.26320041888657569 0 0.20757047269696871 -0.27776493171254552 0 0.20757047269696871 -0.27776493171254552 0 0.19278074819447991 -0.27136936691753472 0 0.19186015530472789 -0.2915511944982449 0 0.19278074819447991 -0.27136936691753472 0 0.19186015530472789 -0.2915511944982449 0 0.17973335965299969 -0.27221333951941112 0 0.20381785053999779 -0.26320041888657569 0 0.19278074819447991 -0.27136936691753472 0 0.18183276510817281 -0.26328375882209798 0 0.20381785053999779 -0.26320041888657569 0 0.20757047269696871 -0.27776493171254552 0 0.19278074819447991 -0.27136936691753472 0 0.20381785053999779 -0.26320041888657569 0 0.19379555089723269 -0.25427210553970042 0 0.21006609087306391 -0.24615974969517859 0 0.20381785053999779 -0.26320041888657569 0 0.19379555089723269 -0.25427210553970042 0 0.18183276510817281 -0.26328375882209798 0 0.20381785053999779 -0.26320041888657569 0 0.18183276510817281 -0.26328375882209798 0 0.19600010040047189 -0.30719640412230881 0 0.19186015530472789 -0.2915511944982449 0 0.2121758561484379 -0.30770301596467209 0 0.19600010040047189 -0.30719640412230881 0 0.19186015530472789 -0.2915511944982449 0 0.183158821503003 -0.30235372606865052 0 0.19186015530472789 -0.2915511944982449 0 0.2121758561484379 -0.30770301596467209 0 0.20757047269696871 -0.27776493171254552 0 0.19186015530472789 -0.2915511944982449 0 0.20816562254737861 -0.29086591087646202 0 0.19186015530472789 -0.2915511944982449 0 0.20816562254737861 -0.29086591087646202 0 0.2121758561484379 -0.30770301596467209 0 0.20816562254737861 -0.29086591087646202 0 0.2121758561484379 -0.30770301596467209 0 0.22299552362340511 -0.2864856201454008 0 0.20757047269696871 -0.27776493171254552 0 0.20816562254737861 -0.29086591087646202 0 0.22299552362340511 -0.2864856201454008 0 0.19600010040047189 -0.30719640412230881 0 0.2121758561484379 -0.30770301596467209 0 0.20652021595667411 -0.31480495221303972 0 0.2121758561484379 -0.30770301596467209 0 0.2201881112749868 -0.30985416133974653 0 0.22299552362340511 -0.2864856201454008 0 0.2121758561484379 -0.30770301596467209 0 0.20652021595667411 -0.31480495221303972 0 0.2134960451183078 -0.31419525031584 0 0.2121758561484379 -0.30770301596467209 0 0.2201881112749868 -0.30985416133974653 0 0.2134960451183078 -0.31419525031584 0 0.2201881112749868 -0.30985416133974653 0 0.22299552362340511 -0.2864856201454008 0 0.23653410593704741 -0.2967309105144007 0 0.2201881112749868 -0.30985416133974653 0 0.22299552362340511 -0.2864856201454008 0 0.2201881112749868 -0.30985416133974653 0 0.23653410593704741 -0.2967309105144007 0 0.24398208744857039 -0.31536692714424519 0 0.23831521696513741 -0.28006464606720038 0 0.22299552362340511 -0.2864856201454008 0 0.23653410593704741 -0.2967309105144007 0 0.25425683663126081 -0.29004928035117289 0 0.23831521696513741 -0.28006464606720038 0 0.23653410593704741 -0.2967309105144007 0 0.25425683663126081 -0.29004928035117289 0 0.23653410593704741 -0.2967309105144007 0 0.24398208744857039 -0.31536692714424519 0 0.25097045844197102 -0.3309697863632427 0 0.24398208744857039 -0.31536692714424519 0 0.233144863620874 -0.33204060577965688 0 0.25327327554220291 -0.34805689210700852 0 0.25097045844197102 -0.3309697863632427 0 0.233144863620874 -0.33204060577965688 0 0.233144863620874 -0.33204060577965688 0 0.22080857963223341 -0.34538044680432811 0 0.23342663447785719 -0.35192470959936012 0 0.233144863620874 -0.33204060577965688 0 0.21930219457820149 -0.33157036988584399 0 0.22080857963223341 -0.34538044680432811 0 0.24398208744857039 -0.31536692714424519 0 0.233144863620874 -0.33204060577965688 0 0.21922939610042921 -0.31783438379011919 0 0.2201881112749868 -0.30985416133974653 0 0.24398208744857039 -0.31536692714424519 0 0.21922939610042921 -0.31783438379011919 0 0.2201881112749868 -0.30985416133974653 0 0.24398208744857039 -0.31536692714424519 0 0.233144863620874 -0.33204060577965688 0 0.21930219457820149 -0.33157036988584399 0 0.21922939610042921 -0.31783438379011919 0 0.2201881112749868 -0.30985416133974653 0 0.21922939610042921 -0.31783438379011919 0 0.23592721769545119 -0.37376605786317713 0 0.2383816674433917 -0.36583048080439778 0 0.2290911390116234 -0.37558380891328641 0 0.23592721769545119 -0.37376605786317713 0 0.2383816674433917 -0.36583048080439778 0 0.2429041237822688 -0.37851861370108841 0 0.25174673940006792 -0.36750862839444798 0 0.2383816674433917 -0.36583048080439778 0 0.2429041237822688 -0.37851861370108841 0 0.25174673940006792 -0.36750862839444798 0 0.2383816674433917 -0.36583048080439778 0 0.24420707921587989 -0.3583301777263036 0 0.25327327554220291 -0.34805689210700852 0 0.24420707921587989 -0.3583301777263036 0 0.23342663447785719 -0.35192470959936012 0 0.25327327554220291 -0.34805689210700852 0 0.25174673940006792 -0.36750862839444798 0 0.24420707921587989 -0.3583301777263036 0 0.25327327554220291 -0.34805689210700852 0 0.233144863620874 -0.33204060577965688 0 0.23342663447785719 -0.35192470959936012 0 0.2383816674433917 -0.36583048080439778 0 0.24420707921587989 -0.3583301777263036 0 0.23342663447785719 -0.35192470959936012 0 0.22080857963223341 -0.34538044680432811 0 0.23342663447785719 -0.35192470959936012 0 0.22155032003018221 -0.36219556078724918 0 0.2383816674433917 -0.36583048080439778 0 0.23342663447785719 -0.35192470959936012 0 0.2290911390116234 -0.37558380891328641 0 0.23342663447785719 -0.35192470959936012 0 0.2290911390116234 -0.37558380891328641 0 0.23342663447785719 -0.35192470959936012 0 0.22155032003018221 -0.36219556078724918 0 0.2290911390116234 -0.37558380891328641 0 0.2209203454311523 -0.3725238494343317 0 0.2276258221479745 -0.37620781452930968 0 0.2290911390116234 -0.37558380891328641 0 0.22155032003018221 -0.36219556078724918 0 0.2209203454311523 -0.3725238494343317 0 0.2290911390116234 -0.37558380891328641 0 0.2090621208775543 -0.37140049679849002 0 0.2078112580782831 -0.35551234967826062 0 0.19854680035505459 -0.36387570147481108 0 0.22155032003018221 -0.36219556078724918 0 0.2090621208775543 -0.37140049679849002 0 0.2078112580782831 -0.35551234967826062 0 0.2209203454311523 -0.3725238494343317 0 0.2090621208775543 -0.37140049679849002 0 0.21727232508842709 -0.37723156614332309 0 0.22155032003018221 -0.36219556078724918 0 0.2209203454311523 -0.3725238494343317 0 0.2090621208775543 -0.37140049679849002 0 0.22080857963223341 -0.34538044680432811 0 0.2078112580782831 -0.35551234967826062 0 0.20961620700800229 -0.33903908509559832 0 0.22080857963223341 -0.34538044680432811 0 0.22155032003018221 -0.36219556078724918 0 0.2078112580782831 -0.35551234967826062 0 0.2078112580782831 -0.35551234967826062 0 0.18821047870952129 -0.35330055833895829 0 0.20961620700800229 -0.33903908509559832 0 0.2078112580782831 -0.35551234967826062 0 0.18821047870952129 -0.35330055833895829 0 0.19854680035505459 -0.36387570147481108 0 0.18821047870952129 -0.35330055833895829 0 0.20961620700800229 -0.33903908509559832 0 0.2090621208775543 -0.37140049679849002 0 0.19005466159289369 -0.37393777884123047 0 0.19854680035505459 -0.36387570147481108 0 0.18821047870952129 -0.35330055833895829 0 0.19005466159289369 -0.37393777884123047 0 0.19854680035505459 -0.36387570147481108 0 0.20652021595667411 -0.31480495221303972 0 0.2134960451183078 -0.31419525031584 0 0.21154854471087911 -0.32314906424137058 0 0.20652021595667411 -0.31480495221303972 0 0.21154854471087911 -0.32314906424137058 0 0.19962862614162069 -0.32280710817167962 0 0.21922939610042921 -0.31783438379011919 0 0.2134960451183078 -0.31419525031584 0 0.21154854471087911 -0.32314906424137058 0 0.2201881112749868 -0.30985416133974653 0 0.21922939610042921 -0.31783438379011919 0 0.2134960451183078 -0.31419525031584 0 0.21930219457820149 -0.33157036988584399 0 0.21922939610042921 -0.31783438379011919 0 0.21154854471087911 -0.32314906424137058 0 0.21154854471087911 -0.32314906424137058 0 0.20961620700800229 -0.33903908509559832 0 0.19962862614162069 -0.32280710817167962 0 0.21930219457820149 -0.33157036988584399 0 0.21154854471087911 -0.32314906424137058 0 0.20961620700800229 -0.33903908509559832 0 0.21930219457820149 -0.33157036988584399 0 0.22080857963223341 -0.34538044680432811 0 0.20961620700800229 -0.33903908509559832 0 0.20961620700800229 -0.33903908509559832 0 0.19142014570814531 -0.33513141105045469 0 0.19962862614162069 -0.32280710817167962 0 0.18821047870952129 -0.35330055833895829 0 0.20961620700800229 -0.33903908509559832 0 0.19142014570814531 -0.33513141105045469 0 0.19142014570814531 -0.33513141105045469 0 0.19962862614162069 -0.32280710817167962 0 0.18261787701062621 -0.31858031049336188 0 0.19600010040047189 -0.30719640412230881 0 0.19962862614162069 -0.32280710817167962 0 0.18261787701062621 -0.31858031049336188 0 0.19600010040047189 -0.30719640412230881 0 0.20652021595667411 -0.31480495221303972 0 0.19962862614162069 -0.32280710817167962 0 0.18261787701062621 -0.31858031049336188 0 0.1741974940309311 -0.33968639921098609 0 0.161944671038001 -0.31950677963823348 0 0.18821047870952129 -0.35330055833895829 0 0.19142014570814531 -0.33513141105045469 0 0.1741974940309311 -0.33968639921098609 0 0.19142014570814531 -0.33513141105045469 0 0.18261787701062621 -0.31858031049336188 0 0.1741974940309311 -0.33968639921098609 0 0.1741974940309311 -0.33968639921098609 0 0.161944671038001 -0.31950677963823348 0 0.1527720184882424 -0.3429155071917479 0 0.18261787701062621 -0.31858031049336188 0 0.161944671038001 -0.31950677963823348 0 0.16948541942624371 -0.30218383015687139 0 0.18821047870952129 -0.35330055833895829 0 0.19005466159289369 -0.37393777884123047 0 0.1668047504110384 -0.36756203158231582 0 0.18821047870952129 -0.35330055833895829 0 0.1668047504110384 -0.36756203158231582 0 0.18821047870952129 -0.35330055833895829 0 0.1741974940309311 -0.33968639921098609 0 0.1668047504110384 -0.36756203158231582 0 0.1741974940309311 -0.33968639921098609 0 0.1668047504110384 -0.36756203158231582 0 0.1527720184882424 -0.3429155071917479 0 0.1668047504110384 -0.36756203158231582 0 0.1527720184882424 -0.3429155071917479 0 0.1668047504110384 -0.36756203158231582 0 0.15016040097888431 -0.37865125689480977 0 0.1668047504110384 -0.36756203158231582 0 0.14798511620210689 -0.3605289789624983 0 0.15016040097888431 -0.37865125689480977 0 0.14798511620210689 -0.3605289789624983 0 0.13240322570731711 -0.37003442529207242 0 0.15016040097888431 -0.37865125689480977 0 0.1668047504110384 -0.36756203158231582 0 0.14798511620210689 -0.3605289789624983 0 0.1527720184882424 -0.3429155071917479 0 0.14798511620210689 -0.3605289789624983 0 0.1527720184882424 -0.3429155071917479 0 0.13427159898292429 -0.34207260640439968 0 0.13240322570731711 -0.37003442529207242 0 0.13427159898292429 -0.34207260640439968 0 0.11976416236354551 -0.3551758041798404 0 0.14798511620210689 -0.3605289789624983 0 0.13240322570731711 -0.37003442529207242 0 0.13427159898292429 -0.34207260640439968 0 0.161944671038001 -0.31950677963823348 0 0.13873928656544651 -0.31826898280117982 0 0.15386887602065641 -0.30245138022476248 0 0.161944671038001 -0.31950677963823348 0 0.1527720184882424 -0.3429155071917479 0 0.13873928656544651 -0.31826898280117982 0 0.1527720184882424 -0.3429155071917479 0 0.13873928656544651 -0.31826898280117982 0 0.1527720184882424 -0.3429155071917479 0 0.13427159898292429 -0.34207260640439968 0 0.13873928656544651 -0.31826898280117982 0 0.13427159898292429 -0.34207260640439968 0 0.13873928656544651 -0.31826898280117982 0 0.11802514066771549 -0.33168998595812188 0 0.13873928656544651 -0.31826898280117982 0 0.1239183229528943 -0.31063788990941937 0 0.11802514066771549 -0.33168998595812188 0 0.13873928656544651 -0.31826898280117982 0 0.12470655464265119 -0.29362245841061141 0 0.13873928656544651 -0.31826898280117982 0 0.12470655464265119 -0.29362245841061141 0 0.1239183229528943 -0.31063788990941937 0 0.13873928656544651 -0.31826898280117982 0 0.14094110319267331 -0.30069726110581918 0 0.12470655464265119 -0.29362245841061141 0 0.13873928656544651 -0.31826898280117982 0 0.14094110319267331 -0.30069726110581918 0 0.15386887602065641 -0.30245138022476248 0 0.14094110319267331 -0.30069726110581918 0 0.15386887602065641 -0.30245138022476248 0 0.1481255045518346 -0.28451091572121689 0 0.15386887602065641 -0.30245138022476248 0 0.1481255045518346 -0.28451091572121689 0 0.16397727134973911 -0.28954051192525437 0 0.1481255045518346 -0.28451091572121689 0 0.1316679908100386 -0.27940250192532728 0 0.12470655464265119 -0.29362245841061141 0 0.1481255045518346 -0.28451091572121689 0 0.12470655464265119 -0.29362245841061141 0 0.14094110319267331 -0.30069726110581918 0 0.1481255045518346 -0.28451091572121689 0 0.12470655464265119 -0.29362245841061141 0 0.1316679908100386 -0.27940250192532728 0 0.1233724359099948 -0.29127926607534749 0 0.1316679908100386 -0.27940250192532728 0 0.12470655464265119 -0.29362245841061141 0 0.1233724359099948 -0.29127926607534749 0 0.1481255045518346 -0.28451091572121689 0 0.1316679908100386 -0.27940250192532728 0 0.1395180260887354 -0.27431461648392458 0 0.1293844639767889 -0.26841340011125497 0 0.13910130574654661 -0.26633338687929597 0 0.1395180260887354 -0.27431461648392458 0 0.1316679908100386 -0.27940250192532728 0 0.1293844639767889 -0.26841340011125497 0 0.1395180260887354 -0.27431461648392458 0 0.1293844639767889 -0.26841340011125497 0 0.13910130574654661 -0.26633338687929597 0 0.12781738792472361 -0.25630073961036098 0 0.13910130574654661 -0.26633338687929597 0 0.12781738792472361 -0.25630073961036098 0 0.14201429185693151 -0.26007451340817322 0 0.12781738792472361 -0.25630073961036098 0 0.13962150948789279 -0.25001931295635449 0 0.14201429185693151 -0.26007451340817322 0 0.13962150948789279 -0.25001931295635449 0 0.15558298197445539 -0.2627093429940861 0 0.15148798434260941 -0.25187825785796969 0 0.13962150948789279 -0.25001931295635449 0 0.15558298197445539 -0.2627093429940861 0 0.13962150948789279 -0.25001931295635449 0 0.14201429185693151 -0.26007451340817322 0 0.15558298197445539 -0.2627093429940861 0 0.13910130574654661 -0.26633338687929597 0 0.14201429185693151 -0.26007451340817322 0 0.1479482741510392 -0.26500978460076807 0 0.14201429185693151 -0.26007451340817322 0 0.1479482741510392 -0.26500978460076807 0 0.15558298197445539 -0.2627093429940861 0 0.1479482741510392 -0.26500978460076807 0 0.15558298197445539 -0.2627093429940861 0 0.15314106428909419 -0.2683131335093103 0 0.15558298197445539 -0.2627093429940861 0 0.15148798434260941 -0.25187825785796969 0 0.15870206335437531 -0.25664053318994112 0 0.1481255045518346 -0.28451091572121689 0 0.1395180260887354 -0.27431461648392458 0 0.14954830925738211 -0.27282135824460979 0 0.13910130574654661 -0.26633338687929597 0 0.1479482741510392 -0.26500978460076807 0 0.14954830925738211 -0.27282135824460979 0 0.13910130574654661 -0.26633338687929597 0 0.1395180260887354 -0.27431461648392458 0 0.14954830925738211 -0.27282135824460979 0 0.14954830925738211 -0.27282135824460979 0 0.15314106428909419 -0.2683131335093103 0 0.15948469177350039 -0.27271204819777728 0 0.15558298197445539 -0.2627093429940861 0 0.15314106428909419 -0.2683131335093103 0 0.15948469177350039 -0.27271204819777728 0 0.1479482741510392 -0.26500978460076807 0 0.14954830925738211 -0.27282135824460979 0 0.15314106428909419 -0.2683131335093103 0 0.1481255045518346 -0.28451091572121689 0 0.14954830925738211 -0.27282135824460979 0 0.15948469177350039 -0.27271204819777728 0 0.1481255045518346 -0.28451091572121689 0 0.17154445446101679 -0.27539937303181922 0 0.17154445446101679 -0.27539937303181922 0 0.15984767967634761 -0.26336709875762032 0 0.18183276510817281 -0.26328375882209798 0 0.1481255045518346 -0.28451091572121689 0 0.15948469177350039 -0.27271204819777728 0 0.17154445446101679 -0.27539937303181922 0 0.15558298197445539 -0.2627093429940861 0 0.15948469177350039 -0.27271204819777728 0 0.17154445446101679 -0.27539937303181922 0 0.15558298197445539 -0.2627093429940861 0 0.17154445446101679 -0.27539937303181922 0 0.15558298197445539 -0.2627093429940861 0 0.17154445446101679 -0.27539937303181922 0 0.15984767967634761 -0.26336709875762032 0 0.15984767967634761 -0.26336709875762032 0 0.18183276510817281 -0.26328375882209798 0 0.15984767967634761 -0.26336709875762032 0 0.1664653244862713 -0.25744310427664019 0 0.18183276510817281 -0.26328375882209798 0 0.15148798434260941 -0.25187825785796969 0 0.16018855828932971 -0.2508071549327926 0 0.15870206335437531 -0.25664053318994112 0 0.16018855828932971 -0.2508071549327926 0 0.15870206335437531 -0.25664053318994112 0 0.1664653244862713 -0.25744310427664019 0 0.15870206335437531 -0.25664053318994112 0 0.15984767967634761 -0.26336709875762032 0 0.1664653244862713 -0.25744310427664019 0 0.15558298197445539 -0.2627093429940861 0 0.15870206335437531 -0.25664053318994112 0 0.15984767967634761 -0.26336709875762032 0 0.16018855828932971 -0.2508071549327926 0 0.17175555600313111 -0.25311697568074948 0 0.1664653244862713 -0.25744310427664019 0 0.17175555600313111 -0.25311697568074948 0 0.18183276510817281 -0.26328375882209798 0 0.18176942957851211 -0.2510096841395052 0 0.17175555600313111 -0.25311697568074948 0 0.1664653244862713 -0.25744310427664019 0 0.18183276510817281 -0.26328375882209798 0 0.19379555089723269 -0.25427210553970042 0 0.18183276510817281 -0.26328375882209798 0 0.18176942957851211 -0.2510096841395052 0 0.19186015530472789 -0.2915511944982449 0 0.17154445446101679 -0.27539937303181922 0 0.17973335965299969 -0.27221333951941112 0 0.17154445446101679 -0.27539937303181922 0 0.17973335965299969 -0.27221333951941112 0 0.17154445446101679 -0.27539937303181922 0 0.18183276510817281 -0.26328375882209798 0 0.17973335965299969 -0.27221333951941112 0 0.19278074819447991 -0.27136936691753472 0 0.18183276510817281 -0.26328375882209798 0 0.17973335965299969 -0.27221333951941112 0 0.19186015530472789 -0.2915511944982449 0 0.17583055537294559 -0.2922568910724655 0 0.183158821503003 -0.30235372606865052 0 0.19186015530472789 -0.2915511944982449 0 0.17154445446101679 -0.27539937303181922 0 0.17583055537294559 -0.2922568910724655 0 0.19186015530472789 -0.2915511944982449 0 0.17154445446101679 -0.27539937303181922 0 0.18261787701062621 -0.31858031049336188 0 0.183158821503003 -0.30235372606865052 0 0.16948541942624371 -0.30218383015687139 0 0.19600010040047189 -0.30719640412230881 0 0.18261787701062621 -0.31858031049336188 0 0.183158821503003 -0.30235372606865052 0 0.17583055537294559 -0.2922568910724655 0 0.183158821503003 -0.30235372606865052 0 0.16948541942624371 -0.30218383015687139 0 0.161944671038001 -0.31950677963823348 0 0.15386887602065641 -0.30245138022476248 0 0.16948541942624371 -0.30218383015687139 0 0.15386887602065641 -0.30245138022476248 0 0.16948541942624371 -0.30218383015687139 0 0.16397727134973911 -0.28954051192525437 0 0.17154445446101679 -0.27539937303181922 0 0.17583055537294559 -0.2922568910724655 0 0.16397727134973911 -0.28954051192525437 0 0.1481255045518346 -0.28451091572121689 0 0.17154445446101679 -0.27539937303181922 0 0.16397727134973911 -0.28954051192525437 0 0.17583055537294559 -0.2922568910724655 0 0.16948541942624371 -0.30218383015687139 0 0.16397727134973911 -0.28954051192525437 0 0.20449678435147711 -0.4965642165048344 0 0.18386851677182131 -0.49312843300966969 0 0.19813644393868721 -0.5 0 0.20449678435147711 -0.4965642165048344 0 0.18386851677182131 -0.49312843300966969 0 0.20003007592475541 -0.48439814271229409 0 0.20449678435147711 -0.4965642165048344 0 0.18386851677182131 -0.49312843300966969 0 0.20003007592475541 -0.48439814271229409 0 0.18386851677182131 -0.49312843300966969 0 0.20003007592475541 -0.48439814271229409 0 0.18809035345949471 -0.48196363930091812 0 0.18386851677182131 -0.49312843300966969 0 0.20003007592475541 -0.48439814271229409 0 0.192543617841337 -0.4708849416793004 0 0.21619163507768921 -0.47566785241491788 0 0.20003007592475541 -0.48439814271229409 0 0.18809035345949471 -0.48196363930091812 0 0.192543617841337 -0.4708849416793004 0 0.192543617841337 -0.4708849416793004 0 0.21619163507768921 -0.47566785241491788 0 0.192543617841337 -0.4708849416793004 0 0.21619163507768921 -0.47566785241491788 0 0.20483957727562499 -0.4642566340461094 0 0.20003007592475541 -0.48439814271229409 0 0.21619163507768921 -0.47566785241491788 0 0.2138189996444177 -0.48829804648972119 0 0.20003007592475541 -0.48439814271229409 0 0.21619163507768921 -0.47566785241491788 0 0.21619163507768921 -0.47566785241491788 0 0.2138189996444177 -0.48829804648972119 0 0.22373955003900939 -0.48788423597159752 0 0.20449678435147711 -0.4965642165048344 0 0.22512505193113261 -0.50000000000000011 0 0.2138189996444177 -0.48829804648972119 0 0.20449678435147711 -0.4965642165048344 0 0.22512505193113261 -0.50000000000000011 0 0.19813644393868721 -0.5 0 0.20449678435147711 -0.4965642165048344 0 0.22512505193113261 -0.50000000000000011 0 0.20003007592475541 -0.48439814271229409 0 0.2138189996444177 -0.48829804648972119 0 0.20449678435147711 -0.4965642165048344 0 0.2138189996444177 -0.48829804648972119 0 0.22512505193113261 -0.50000000000000011 0 0.22373955003900939 -0.48788423597159752 0 0.22373955003900939 -0.48788423597159752 0 0.2329091832564483 -0.491268231669718 0 0.2292256936817669 -0.48428292744066592 0 0.2329091832564483 -0.491268231669718 0 0.23544141850954239 -0.48636498770840919 0 0.2292256936817669 -0.48428292744066592 0 0.22512505193113261 -0.50000000000000011 0 0.22373955003900939 -0.48788423597159752 0 0.2329091832564483 -0.491268231669718 0 0.25053490694631031 -0.5 0 0.22512505193113261 -0.50000000000000011 0 0.2329091832564483 -0.491268231669718 0 0.25646778227897887 -0.49015285543631321 0 0.242639994503485 -0.48960308085062543 0 0.23707457549866301 -0.47989151475973402 0 0.25053490694631031 -0.5 0 0.2329091832564483 -0.491268231669718 0 0.242639994503485 -0.48960308085062543 0 0.25646778227897887 -0.49015285543631321 0 0.23707457549866301 -0.47989151475973402 0 0.23544141850954239 -0.48636498770840919 0 0.242639994503485 -0.48960308085062543 0 0.23707457549866301 -0.47989151475973402 0 0.2329091832564483 -0.491268231669718 0 0.23544141850954239 -0.48636498770840919 0 0.242639994503485 -0.48960308085062543 0 0.25053490694631031 -0.5 0 0.25646778227897887 -0.49015285543631321 0 0.242639994503485 -0.48960308085062543 0 0.25646778227897887 -0.49015285543631321 0 0.2402525919843049 -0.48053428193193393 0 0.23707457549866301 -0.47989151475973402 0 0.2486107905310152 -0.47178281681740752 0 0.2402525919843049 -0.48053428193193393 0 0.23027346575405791 -0.46806100776831822 0 0.2402525919843049 -0.48053428193193393 0 0.23707457549866301 -0.47989151475973402 0 0.2402525919843049 -0.48053428193193393 0 0.23707457549866301 -0.47989151475973402 0 0.23027346575405791 -0.46806100776831822 0 0.21619163507768921 -0.47566785241491788 0 0.23707457549866301 -0.47989151475973402 0 0.21619163507768921 -0.47566785241491788 0 0.23707457549866301 -0.47989151475973402 0 0.2292256936817669 -0.48428292744066592 0 0.21619163507768921 -0.47566785241491788 0 0.23707457549866301 -0.47989151475973402 0 0.23027346575405791 -0.46806100776831822 0 0.23544141850954239 -0.48636498770840919 0 0.23707457549866301 -0.47989151475973402 0 0.2292256936817669 -0.48428292744066592 0 0.21619163507768921 -0.47566785241491788 0 0.22373955003900939 -0.48788423597159752 0 0.2292256936817669 -0.48428292744066592 0 0.21619163507768921 -0.47566785241491788 0 0.23027346575405791 -0.46806100776831822 0 0.23027346575405791 -0.46806100776831822 0 0.232815183544791 -0.4476740532133715 0 0.21437356296128959 -0.4558986417039177 0 0.21619163507768921 -0.47566785241491788 0 0.23027346575405791 -0.46806100776831822 0 0.21437356296128959 -0.4558986417039177 0 0.2486107905310152 -0.47178281681740752 0 0.23027346575405791 -0.46806100776831822 0 0.2443552964304268 -0.4604541631217185 0 0.23027346575405791 -0.46806100776831822 0 0.2443552964304268 -0.4604541631217185 0 0.232815183544791 -0.4476740532133715 0 0.23027346575405791 -0.46806100776831822 0 0.2443552964304268 -0.4604541631217185 0 0.24798438914587709 -0.44471697301363439 0 0.232815183544791 -0.4476740532133715 0 0.23994896094300369 -0.42978424020975747 0 0.2443552964304268 -0.4604541631217185 0 0.24798438914587709 -0.44471697301363439 0 0.232815183544791 -0.4476740532133715 0 0.232815183544791 -0.4476740532133715 0 0.21437356296128959 -0.4558986417039177 0 0.2195646032533396 -0.42757077496556511 0 0.20655063140021851 -0.44044683949281488 0 0.21437356296128959 -0.4558986417039177 0 0.19624949322218441 -0.45457510038630139 0 0.21437356296128959 -0.4558986417039177 0 0.2195646032533396 -0.42757077496556511 0 0.20655063140021851 -0.44044683949281488 0 0.21437356296128959 -0.4558986417039177 0 0.2195646032533396 -0.42757077496556511 0 0.21619163507768921 -0.47566785241491788 0 0.21437356296128959 -0.4558986417039177 0 0.20483957727562499 -0.4642566340461094 0 0.21437356296128959 -0.4558986417039177 0 0.20483957727562499 -0.4642566340461094 0 0.19624949322218441 -0.45457510038630139 0 0.192543617841337 -0.4708849416793004 0 0.20483957727562499 -0.4642566340461094 0 0.19624949322218441 -0.45457510038630139 0 0.192543617841337 -0.4708849416793004 0 0.19624949322218441 -0.45457510038630139 0 0.18245623984740211 -0.46549843307486372 0 0.19624949322218441 -0.45457510038630139 0 0.19333347743758891 -0.43227679542891079 0 0.18117015172762169 -0.45033249680461868 0 0.20655063140021851 -0.44044683949281488 0 0.19624949322218441 -0.45457510038630139 0 0.19333347743758891 -0.43227679542891079 0 0.19333347743758891 -0.43227679542891079 0 0.1921326471908387 -0.40911886655889829 0 0.20905925737184081 -0.40894646733094892 0 0.20905925737184081 -0.40894646733094892 0 0.2195646032533396 -0.42757077496556511 0 0.2247556435453914 -0.39924290822721298 0 0.20655063140021851 -0.44044683949281488 0 0.19333347743758891 -0.43227679542891079 0 0.2195646032533396 -0.42757077496556511 0 0.19333347743758891 -0.43227679542891079 0 0.20905925737184081 -0.40894646733094892 0 0.2195646032533396 -0.42757077496556511 0 0.232815183544791 -0.4476740532133715 0 0.2195646032533396 -0.42757077496556511 0 0.23994896094300369 -0.42978424020975747 0 0.2195646032533396 -0.42757077496556511 0 0.23994896094300369 -0.42978424020975747 0 0.23139537432509491 -0.41509918786818839 0 0.25532234801786119 -0.43168975851388652 0 0.23994896094300369 -0.42978424020975747 0 0.24852229779328019 -0.41657435612796578 0 0.25532234801786119 -0.43168975851388652 0 0.24798438914587709 -0.44471697301363439 0 0.23994896094300369 -0.42978424020975747 0 0.23994896094300369 -0.42978424020975747 0 0.24852229779328019 -0.41657435612796578 0 0.23139537432509491 -0.41509918786818839 0 0.24852229779328019 -0.41657435612796578 0 0.2247556435453914 -0.39924290822721298 0 0.24852229779328019 -0.41657435612796578 0 0.23139537432509491 -0.41509918786818839 0 0.2247556435453914 -0.39924290822721298 0 0.2195646032533396 -0.42757077496556511 0 0.23139537432509491 -0.41509918786818839 0 0.2247556435453914 -0.39924290822721298 0 0.2195646032533396 -0.42757077496556511 0 0.2247556435453914 -0.39924290822721298 0 0.2247556435453914 -0.39924290822721298 0 0.24091674274322669 -0.39742841877507118 0 0.22997911809638519 -0.38420683446301929 0 0.25804373749725018 -0.39269433188232461 0 0.24852229779328019 -0.41657435612796578 0 0.24091674274322669 -0.39742841877507118 0 0.24852229779328019 -0.41657435612796578 0 0.2247556435453914 -0.39924290822721298 0 0.24091674274322669 -0.39742841877507118 0 0.25804373749725018 -0.39269433188232461 0 0.24091674274322669 -0.39742841877507118 0 0.22997911809638519 -0.38420683446301929 0 0.25804373749725018 -0.39269433188232461 0 0.22997911809638519 -0.38420683446301929 0 0.25804373749725018 -0.39269433188232461 0 0.2429041237822688 -0.37851861370108841 0 0.22997911809638519 -0.38420683446301929 0 0.2429041237822688 -0.37851861370108841 0 0.23432087814617381 -0.37762862593768243 0 0.22997911809638519 -0.38420683446301929 0 0.23592721769545119 -0.37376605786317713 0 0.2429041237822688 -0.37851861370108841 0 0.23432087814617381 -0.37762862593768243 0 0.2247556435453914 -0.39924290822721298 0 0.2276258221479745 -0.37620781452930968 0 0.21245626696483261 -0.39027378694516762 0 0.2247556435453914 -0.39924290822721298 0 0.2290911390116234 -0.37558380891328641 0 0.23432087814617381 -0.37762862593768243 0 0.2290911390116234 -0.37558380891328641 0 0.22997911809638519 -0.38420683446301929 0 0.2247556435453914 -0.39924290822721298 0 0.2276258221479745 -0.37620781452930968 0 0.2290911390116234 -0.37558380891328641 0 0.2247556435453914 -0.39924290822721298 0 0.2290911390116234 -0.37558380891328641 0 0.22997911809638519 -0.38420683446301929 0 0.23592721769545119 -0.37376605786317713 0 0.23432087814617381 -0.37762862593768243 0 0.2290911390116234 -0.37558380891328641 0 0.2276258221479745 -0.37620781452930968 0 0.21245626696483261 -0.39027378694516762 0 0.2209203454311523 -0.3725238494343317 0 0.2276258221479745 -0.37620781452930968 0 0.21727232508842709 -0.37723156614332309 0 0.2276258221479745 -0.37620781452930968 0 0.21727232508842709 -0.37723156614332309 0 0.21245626696483261 -0.39027378694516762 0 0.2090621208775543 -0.37140049679849002 0 0.19005466159289369 -0.37393777884123047 0 0.21245626696483261 -0.39027378694516762 0 0.2090621208775543 -0.37140049679849002 0 0.21727232508842709 -0.37723156614332309 0 0.21245626696483261 -0.39027378694516762 0 0.20905925737184081 -0.40894646733094892 0 0.2247556435453914 -0.39924290822721298 0 0.21245626696483261 -0.39027378694516762 0 0.2247556435453914 -0.39924290822721298 0 0.21245626696483261 -0.39027378694516762 0 0.1921326471908387 -0.40911886655889829 0 0.20905925737184081 -0.40894646733094892 0 0.21245626696483261 -0.39027378694516762 0 0.1921326471908387 -0.40911886655889829 0 0.21245626696483261 -0.39027378694516762 0 0.19353928934255149 -0.39129887019529869 0 0.1921326471908387 -0.40911886655889829 0 0.21245626696483261 -0.39027378694516762 0 0.19005466159289369 -0.37393777884123047 0 0.21245626696483261 -0.39027378694516762 0 0.19005466159289369 -0.37393777884123047 0 0.21245626696483261 -0.39027378694516762 0 0.19353928934255149 -0.39129887019529869 0 0.19005466159289369 -0.37393777884123047 0 0.19353928934255149 -0.39129887019529869 0 0.1779472081530859 -0.3871321949703968 0 0.1668047504110384 -0.36756203158231582 0 0.1779472081530859 -0.3871321949703968 0 0.19005466159289369 -0.37393777884123047 0 0.1668047504110384 -0.36756203158231582 0 0.1779472081530859 -0.3871321949703968 0 0.1921326471908387 -0.40911886655889829 0 0.19353928934255149 -0.39129887019529869 0 0.17436667993911709 -0.404281191460444 0 0.19353928934255149 -0.39129887019529869 0 0.1779472081530859 -0.3871321949703968 0 0.17436667993911709 -0.404281191460444 0 0.17436667993911709 -0.404281191460444 0 0.16300735765972901 -0.38925379214450412 0 0.1550003226864041 -0.40394022798492391 0 0.1779472081530859 -0.3871321949703968 0 0.17436667993911709 -0.404281191460444 0 0.16300735765972901 -0.38925379214450412 0 0.1668047504110384 -0.36756203158231582 0 0.1779472081530859 -0.3871321949703968 0 0.16300735765972901 -0.38925379214450412 0 0.1668047504110384 -0.36756203158231582 0 0.16300735765972901 -0.38925379214450412 0 0.15016040097888431 -0.37865125689480977 0 0.15016040097888431 -0.37865125689480977 0 0.13351605154672841 -0.38974048220730112 0 0.16300735765972901 -0.38925379214450412 0 0.15016040097888431 -0.37865125689480977 0 0.1550003226864041 -0.40394022798492391 0 0.13240322570731711 -0.37003442529207242 0 0.15016040097888431 -0.37865125689480977 0 0.13351605154672841 -0.38974048220730112 0 0.13240322570731711 -0.37003442529207242 0 0.13351605154672841 -0.38974048220730112 0 0.1172634489325893 -0.37778659213166921 0 0.13351605154672841 -0.38974048220730112 0 0.14157975638347459 -0.41009104758758141 0 0.12823450593758751 -0.41018219710297199 0 0.15016040097888431 -0.37865125689480977 0 0.13351605154672841 -0.38974048220730112 0 0.1550003226864041 -0.40394022798492391 0 0.13351605154672841 -0.38974048220730112 0 0.1550003226864041 -0.40394022798492391 0 0.14157975638347459 -0.41009104758758141 0 0.1550003226864041 -0.40394022798492391 0 0.14157975638347459 -0.41009104758758141 0 0.15027117547388011 -0.42243681889000989 0 0.14157975638347459 -0.41009104758758141 0 0.1372383746347477 -0.42280959331386558 0 0.15027117547388011 -0.42243681889000989 0 0.14157975638347459 -0.41009104758758141 0 0.12823450593758751 -0.41018219710297199 0 0.1372383746347477 -0.42280959331386558 0 0.12823450593758751 -0.41018219710297199 0 0.1372383746347477 -0.42280959331386558 0 0.1248192462828009 -0.420450350018582 0 0.13063056484969629 -0.43422413144691729 0 0.1372383746347477 -0.42280959331386558 0 0.1248192462828009 -0.420450350018582 0 0.13063056484969629 -0.43422413144691729 0 0.1372383746347477 -0.42280959331386558 0 0.1443847448834481 -0.43246099093735202 0 0.1372383746347477 -0.42280959331386558 0 0.1443847448834481 -0.43246099093735202 0 0.15027117547388011 -0.42243681889000989 0 0.1443847448834481 -0.43246099093735202 0 0.15027117547388011 -0.42243681889000989 0 0.15448758885425781 -0.4324176954465897 0 0.1443847448834481 -0.43246099093735202 0 0.15448758885425781 -0.4324176954465897 0 0.15148540764285551 -0.44680902578636489 0 0.17180902741684739 -0.427963946172632 0 0.15148540764285551 -0.44680902578636489 0 0.15448758885425781 -0.4324176954465897 0 0.17180902741684739 -0.427963946172632 0 0.15148540764285551 -0.44680902578636489 0 0.15027117547388011 -0.42243681889000989 0 0.15448758885425781 -0.4324176954465897 0 0.17180902741684739 -0.427963946172632 0 0.17436667993911709 -0.404281191460444 0 0.1550003226864041 -0.40394022798492391 0 0.17180902741684739 -0.427963946172632 0 0.1550003226864041 -0.40394022798492391 0 0.15027117547388011 -0.42243681889000989 0 0.17180902741684739 -0.427963946172632 0 0.1921326471908387 -0.40911886655889829 0 0.17436667993911709 -0.404281191460444 0 0.17180902741684739 -0.427963946172632 0 0.1921326471908387 -0.40911886655889829 0 0.17180902741684739 -0.427963946172632 0 0.19333347743758891 -0.43227679542891079 0 0.1921326471908387 -0.40911886655889829 0 0.17180902741684739 -0.427963946172632 0 0.19333347743758891 -0.43227679542891079 0 0.17180902741684739 -0.427963946172632 0 0.17193768270699461 -0.44252232150077991 0 0.19333347743758891 -0.43227679542891079 0 0.17193768270699461 -0.44252232150077991 0 0.18117015172762169 -0.45033249680461868 0 0.17193768270699461 -0.44252232150077991 0 0.18117015172762169 -0.45033249680461868 0 0.16697082374512889 -0.45615372943061427 0 0.192543617841337 -0.4708849416793004 0 0.16889560060498501 -0.46610203094368291 0 0.19624949322218441 -0.45457510038630139 0 0.18117015172762169 -0.45033249680461868 0 0.18245623984740211 -0.46549843307486372 0 0.192543617841337 -0.4708849416793004 0 0.18245623984740211 -0.46549843307486372 0 0.16889560060498501 -0.46610203094368291 0 0.18245623984740211 -0.46549843307486372 0 0.16697082374512889 -0.45615372943061427 0 0.16889560060498501 -0.46610203094368291 0 0.18245623984740211 -0.46549843307486372 0 0.16697082374512889 -0.45615372943061427 0 0.18117015172762169 -0.45033249680461868 0 0.18245623984740211 -0.46549843307486372 0 0.16697082374512889 -0.45615372943061427 0 0.16697082374512889 -0.45615372943061427 0 0.1675023579049941 -0.4685005141806966 0 0.1433950038547219 -0.45431085396412518 0 0.16697082374512889 -0.45615372943061427 0 0.16889560060498501 -0.46610203094368291 0 0.1675023579049941 -0.4685005141806966 0 0.16889560060498501 -0.46610203094368291 0 0.1675023579049941 -0.4685005141806966 0 0.1702202829852151 -0.4696098219046404 0 0.1675023579049941 -0.4685005141806966 0 0.152246653299135 -0.46439837742726808 0 0.1575875106723417 -0.47143889082692247 0 0.16697082374512889 -0.45615372943061427 0 0.15148540764285551 -0.44680902578636489 0 0.17180902741684739 -0.427963946172632 0 0.17193768270699461 -0.44252232150077991 0 0.15148540764285551 -0.44680902578636489 0 0.17193768270699461 -0.44252232150077991 0 0.16697082374512889 -0.45615372943061427 0 0.15148540764285551 -0.44680902578636489 0 0.16697082374512889 -0.45615372943061427 0 0.15148540764285551 -0.44680902578636489 0 0.1433950038547219 -0.45431085396412518 0 0.13063056484969629 -0.43422413144691729 0 0.15148540764285551 -0.44680902578636489 0 0.13063056484969629 -0.43422413144691729 0 0.1443847448834481 -0.43246099093735202 0 0.15148540764285551 -0.44680902578636489 0 0.13063056484969629 -0.43422413144691729 0 0.15148540764285551 -0.44680902578636489 0 0.1433950038547219 -0.45431085396412518 0 0.15148540764285551 -0.44680902578636489 0 0.1433950038547219 -0.45431085396412518 0 0.13063056484969629 -0.43422413144691729 0 0.1433950038547219 -0.45431085396412518 0 0.1198189797197739 -0.44043393611427439 0 0.1261170216087435 -0.45426370044287118 0 0.1433950038547219 -0.45431085396412518 0 0.1198189797197739 -0.44043393611427439 0 0.1433950038547219 -0.45431085396412518 0 0.1198189797197739 -0.44043393611427439 0 0.1261170216087435 -0.45426370044287118 0 0.1433950038547219 -0.45431085396412518 0 0.1269704012375886 -0.46954056930941829 0 0.1433950038547219 -0.45431085396412518 0 0.1269704012375886 -0.46954056930941829 0 0.1675023579049941 -0.4685005141806966 0 0.1433950038547219 -0.45431085396412518 0 0.152246653299135 -0.46439837742726808 0 0.1675023579049941 -0.4685005141806966 0 0.1433950038547219 -0.45431085396412518 0 0.1433950038547219 -0.45431085396412518 0 0.152246653299135 -0.46439837742726808 0 0.1269704012375886 -0.46954056930941829 0 0.14743929381364609 -0.47692830648866069 0 0.15703694704924431 -0.47757506475615408 0 0.1575875106723417 -0.47143889082692247 0 0.14743929381364609 -0.47692830648866069 0 0.13402225646187349 -0.4862805691096509 0 0.15289926532941461 -0.48599530711639721 0 0.152246653299135 -0.46439837742726808 0 0.14743929381364609 -0.47692830648866069 0 0.1269704012375886 -0.46954056930941829 0 0.152246653299135 -0.46439837742726808 0 0.14743929381364609 -0.47692830648866069 0 0.1575875106723417 -0.47143889082692247 0 0.14743929381364609 -0.47692830648866069 0 0.15289926532941461 -0.48599530711639721 0 0.15703694704924431 -0.47757506475615408 0 0.14743929381364609 -0.47692830648866069 0 0.1269704012375886 -0.46954056930941829 0 0.13402225646187349 -0.4862805691096509 0 0.13402225646187349 -0.4862805691096509 0 0.14547228929860101 -0.5 0 0.1197967426509602 -0.5 0 0.13402225646187349 -0.4862805691096509 0 0.14547228929860101 -0.5 0 0.15289926532941461 -0.48599530711639721 0 0.14547228929860101 -0.5 0 0.15289926532941461 -0.48599530711639721 0 0.1648647165515828 -0.48996321601362219 0 0.14547228929860101 -0.5 0 0.17114783594624189 -0.50000000000000067 0 0.1648647165515828 -0.48996321601362219 0 0.15289926532941461 -0.48599530711639721 0 0.1648647165515828 -0.48996321601362219 0 0.16214441771660579 -0.48208432124362938 0 0.15289926532941461 -0.48599530711639721 0 0.15703694704924431 -0.47757506475615408 0 0.16214441771660579 -0.48208432124362938 0 0.15703694704924431 -0.47757506475615408 0 0.16214441771660579 -0.48208432124362938 0 0.16387774260353891 -0.4744137908318512 0 0.1675023579049941 -0.4685005141806966 0 0.1575875106723417 -0.47143889082692247 0 0.16387774260353891 -0.4744137908318512 0 0.15703694704924431 -0.47757506475615408 0 0.1575875106723417 -0.47143889082692247 0 0.16387774260353891 -0.4744137908318512 0 0.1675023579049941 -0.4685005141806966 0 0.16387774260353891 -0.4744137908318512 0 0.17000882537454839 -0.47285424746054849 0 0.16387774260353891 -0.4744137908318512 0 0.17000882537454839 -0.47285424746054849 0 0.16916570358485089 -0.47981296419302938 0 0.17000882537454839 -0.47285424746054849 0 0.16916570358485089 -0.47981296419302938 0 0.17454162982018709 -0.47670020879131259 0 0.17000882537454839 -0.47285424746054849 0 0.1702202829852151 -0.4696098219046404 0 0.17447434805633291 -0.47098249503363337 0 0.16889560060498501 -0.46610203094368291 0 0.1702202829852151 -0.4696098219046404 0 0.17447434805633291 -0.47098249503363337 0 0.1675023579049941 -0.4685005141806966 0 0.17000882537454839 -0.47285424746054849 0 0.1702202829852151 -0.4696098219046404 0 0.1648647165515828 -0.48996321601362219 0 0.16214441771660579 -0.48208432124362938 0 0.16916570358485089 -0.47981296419302938 0 0.1648647165515828 -0.48996321601362219 0 0.16916570358485089 -0.47981296419302938 0 0.17748496592212709 -0.48316873427571971 0 0.16214441771660579 -0.48208432124362938 0 0.16387774260353891 -0.4744137908318512 0 0.16916570358485089 -0.47981296419302938 0 0.16916570358485089 -0.47981296419302938 0 0.17454162982018709 -0.47670020879131259 0 0.17748496592212709 -0.48316873427571971 0 0.192543617841337 -0.4708849416793004 0 0.17447434805633291 -0.47098249503363337 0 0.18157430616307579 -0.47668260299363208 0 0.192543617841337 -0.4708849416793004 0 0.16889560060498501 -0.46610203094368291 0 0.17447434805633291 -0.47098249503363337 0 0.17454162982018709 -0.47670020879131259 0 0.17748496592212709 -0.48316873427571971 0 0.18157430616307579 -0.47668260299363208 0 0.17000882537454839 -0.47285424746054849 0 0.17454162982018709 -0.47670020879131259 0 0.17447434805633291 -0.47098249503363337 0 0.17454162982018709 -0.47670020879131259 0 0.17447434805633291 -0.47098249503363337 0 0.18157430616307579 -0.47668260299363208 0 0.18809035345949471 -0.48196363930091812 0 0.192543617841337 -0.4708849416793004 0 0.18157430616307579 -0.47668260299363208 0 0.18809035345949471 -0.48196363930091812 0 0.17748496592212709 -0.48316873427571971 0 0.18157430616307579 -0.47668260299363208 0 0.17114783594624189 -0.50000000000000067 0 0.1648647165515828 -0.48996321601362219 0 0.18386851677182131 -0.49312843300966969 0 0.19813644393868721 -0.5 0 0.17114783594624189 -0.50000000000000067 0 0.18386851677182131 -0.49312843300966969 0 0.18809035345949471 -0.48196363930091812 0 0.17748496592212709 -0.48316873427571971 0 0.18386851677182131 -0.49312843300966969 0 0.1648647165515828 -0.48996321601362219 0 0.18386851677182131 -0.49312843300966969 0 0.1648647165515828 -0.48996321601362219 0 0.17748496592212709 -0.48316873427571971 0 0.18386851677182131 -0.49312843300966969 0 0.17114783594624189 -0.50000000000000067 0 0.18386851677182131 -0.49312843300966969 0 0.06562373335203342 -0.5 0 0.075412614020220758 -0.48073706413289802 0 0.049601314217692587 -0.47242773916750658 0 0.075412614020220758 -0.48073706413289802 0 0.07415220114332674 -0.45901307197498248 0 0.049601314217692587 -0.47242773916750658 0 0.075412614020220758 -0.48073706413289802 0 0.093564625384731814 -0.47224450952200109 0 0.07415220114332674 -0.45901307197498248 0 0.075412614020220758 -0.48073706413289802 0 0.093564625384731814 -0.47224450952200109 0 0.09412119600331928 -0.50000000000000144 0 0.06562373335203342 -0.5 0 0.075412614020220758 -0.48073706413289802 0 0.09412119600331928 -0.50000000000000144 0 0.09412119600331928 -0.50000000000000144 0 0.1105457986204543 -0.48477028465471028 0 0.093564625384731814 -0.47224450952200109 0 0.09412119600331928 -0.50000000000000144 0 0.1105457986204543 -0.48477028465471028 0 0.09412119600331928 -0.50000000000000144 0 0.1105457986204543 -0.48477028465471028 0 0.1197967426509602 -0.5 0 0.13402225646187349 -0.4862805691096509 0 0.1105457986204543 -0.48477028465471028 0 0.1197967426509602 -0.5 0 0.1269704012375886 -0.46954056930941829 0 0.1105457986204543 -0.48477028465471028 0 0.1269704012375886 -0.46954056930941829 0 0.13402225646187349 -0.4862805691096509 0 0.1105457986204543 -0.48477028465471028 0 0.1269704012375886 -0.46954056930941829 0 0.1105457986204543 -0.48477028465471028 0 0.1111982058138095 -0.46956055212753028 0 0.093564625384731814 -0.47224450952200109 0 0.1105457986204543 -0.48477028465471028 0 0.1111982058138095 -0.46956055212753028 0 0.10287704561572 -0.4600283828894286 0 0.11509714273548589 -0.4564179383118564 0 0.1021561991933078 -0.44368026483131678 0 0.093564625384731814 -0.47224450952200109 0 0.10287704561572 -0.4600283828894286 0 0.091166090595716592 -0.454982062468821 0 0.093564625384731814 -0.47224450952200109 0 0.1111982058138095 -0.46956055212753028 0 0.10287704561572 -0.4600283828894286 0 0.1111982058138095 -0.46956055212753028 0 0.10287704561572 -0.4600283828894286 0 0.11509714273548589 -0.4564179383118564 0 0.1269704012375886 -0.46954056930941829 0 0.1111982058138095 -0.46956055212753028 0 0.11509714273548589 -0.4564179383118564 0 0.1261170216087435 -0.45426370044287118 0 0.1269704012375886 -0.46954056930941829 0 0.11509714273548589 -0.4564179383118564 0 0.11509714273548589 -0.4564179383118564 0 0.1198189797197739 -0.44043393611427439 0 0.1021561991933078 -0.44368026483131678 0 0.1261170216087435 -0.45426370044287118 0 0.11509714273548589 -0.4564179383118564 0 0.1198189797197739 -0.44043393611427439 0 0.10287704561572 -0.4600283828894286 0 0.1021561991933078 -0.44368026483131678 0 0.091166090595716592 -0.454982062468821 0 0.1021561991933078 -0.44368026483131678 0 0.083080381641496448 -0.43994408312637601 0 0.091166090595716592 -0.454982062468821 0 0.083080381641496448 -0.43994408312637601 0 0.091166090595716592 -0.454982062468821 0 0.07415220114332674 -0.45901307197498248 0 0.093564625384731814 -0.47224450952200109 0 0.091166090595716592 -0.454982062468821 0 0.07415220114332674 -0.45901307197498248 0 0.083080381641496448 -0.43994408312637601 0 0.07415220114332674 -0.45901307197498248 0 0.06778060897944449 -0.44356928839419019 0 0.07415220114332674 -0.45901307197498248 0 0.06778060897944449 -0.44356928839419019 0 0.053295744534282867 -0.45128519290186742 0 0.06778060897944449 -0.44356928839419019 0 0.068242746632435763 -0.42749505468587612 0 0.052852563705867113 -0.43049655743221321 0 0.083080381641496448 -0.43994408312637601 0 0.068242746632435763 -0.42749505468587612 0 0.081650215584045643 -0.42431175415742622 0 0.083080381641496448 -0.43994408312637601 0 0.06778060897944449 -0.44356928839419019 0 0.068242746632435763 -0.42749505468587612 0 0.068242746632435763 -0.42749505468587612 0 0.070464210341427705 -0.41225999907787531 0 0.057419114312616829 -0.4146520556196962 0 0.068242746632435763 -0.42749505468587612 0 0.070464210341427705 -0.41225999907787531 0 0.081650215584045643 -0.42431175415742622 0 0.070464210341427705 -0.41225999907787531 0 0.088920879263377467 -0.40905434276802238 0 0.081650215584045643 -0.42431175415742622 0 0.088920879263377467 -0.40905434276802238 0 0.081650215584045643 -0.42431175415742622 0 0.096242955584823237 -0.42655701826442832 0 0.083080381641496448 -0.43994408312637601 0 0.081650215584045643 -0.42431175415742622 0 0.096242955584823237 -0.42655701826442832 0 0.1198189797197739 -0.44043393611427439 0 0.096242955584823237 -0.42655701826442832 0 0.1021561991933078 -0.44368026483131678 0 0.083080381641496448 -0.43994408312637601 0 0.096242955584823237 -0.42655701826442832 0 0.1198189797197739 -0.44043393611427439 0 0.096242955584823237 -0.42655701826442832 0 0.10977572205653691 -0.42163923710746992 0 0.1198189797197739 -0.44043393611427439 0 0.1021561991933078 -0.44368026483131678 0 0.096242955584823237 -0.42655701826442832 0 0.13063056484969629 -0.43422413144691729 0 0.10977572205653691 -0.42163923710746992 0 0.13063056484969629 -0.43422413144691729 0 0.1248192462828009 -0.420450350018582 0 0.10977572205653691 -0.42163923710746992 0 0.13063056484969629 -0.43422413144691729 0 0.1198189797197739 -0.44043393611427439 0 0.10977572205653691 -0.42163923710746992 0 0.12823450593758751 -0.41018219710297199 0 0.1184203273677118 -0.41338366929941439 0 0.11226980089747771 -0.40117275033647498 0 0.1184203273677118 -0.41338366929941439 0 0.10977572205653691 -0.42163923710746992 0 0.11226980089747771 -0.40117275033647498 0 0.1184203273677118 -0.41338366929941439 0 0.1248192462828009 -0.420450350018582 0 0.10977572205653691 -0.42163923710746992 0 0.12823450593758751 -0.41018219710297199 0 0.1184203273677118 -0.41338366929941439 0 0.1248192462828009 -0.420450350018582 0 0.088920879263377467 -0.40905434276802238 0 0.096242955584823237 -0.42655701826442832 0 0.10977572205653691 -0.42163923710746992 0 0.088920879263377467 -0.40905434276802238 0 0.10977572205653691 -0.42163923710746992 0 0.088920879263377467 -0.40905434276802238 0 0.10977572205653691 -0.42163923710746992 0 0.11226980089747771 -0.40117275033647498 0 0.088920879263377467 -0.40905434276802238 0 0.11226980089747771 -0.40117275033647498 0 0.100355355613908 -0.3843458818340777 0 0.13351605154672841 -0.38974048220730112 0 0.12823450593758751 -0.41018219710297199 0 0.11226980089747771 -0.40117275033647498 0 0.13351605154672841 -0.38974048220730112 0 0.11226980089747771 -0.40117275033647498 0 0.1172634489325893 -0.37778659213166921 0 0.11226980089747771 -0.40117275033647498 0 0.1172634489325893 -0.37778659213166921 0 0.100355355613908 -0.3843458818340777 0 0.1172634489325893 -0.37778659213166921 0 0.100355355613908 -0.3843458818340777 0 0.10527209746655899 -0.36625020894024862 0 0.100355355613908 -0.3843458818340777 0 0.076746428995785806 -0.38086328082468868 0 0.086962952467056959 -0.3620491137270791 0 0.100355355613908 -0.3843458818340777 0 0.083272788144635485 -0.3935951927042437 0 0.076746428995785806 -0.38086328082468868 0 0.088920879263377467 -0.40905434276802238 0 0.068066036470217944 -0.3964694484285749 0 0.088920879263377467 -0.40905434276802238 0 0.100355355613908 -0.3843458818340777 0 0.083272788144635485 -0.3935951927042437 0 0.088920879263377467 -0.40905434276802238 0 0.083272788144635485 -0.3935951927042437 0 0.068066036470217944 -0.3964694484285749 0 0.070464210341427705 -0.41225999907787531 0 0.068066036470217944 -0.3964694484285749 0 0.058980137179419807 -0.40202157129761168 0 0.070464210341427705 -0.41225999907787531 0 0.088920879263377467 -0.40905434276802238 0 0.068066036470217944 -0.3964694484285749 0 0.068066036470217944 -0.3964694484285749 0 0.062839468607054957 -0.38728733957740202 0 0.058582518048036963 -0.39363598672849548 0 0.068066036470217944 -0.3964694484285749 0 0.062839468607054957 -0.38728733957740202 0 0.076746428995785806 -0.38086328082468868 0 0.062839468607054957 -0.38728733957740202 0 0.063466827646366741 -0.37607830675611192 0 0.076746428995785806 -0.38086328082468868 0 0.083272788144635485 -0.3935951927042437 0 0.068066036470217944 -0.3964694484285749 0 0.076746428995785806 -0.38086328082468868 0 0.050999120259630028 -0.38955068956382027 0 0.043118674791166878 -0.36426944168543057 0 0.050999120259630028 -0.38955068956382027 0 0.053990086585599478 -0.37369286474469221 0 0.043118674791166878 -0.36426944168543057 0 0.063466827646366741 -0.37607830675611192 0 0.050999120259630028 -0.38955068956382027 0 0.053990086585599478 -0.37369286474469221 0 0.062839468607054957 -0.38728733957740202 0 0.063466827646366741 -0.37607830675611192 0 0.050999120259630028 -0.38955068956382027 0 0.062839468607054957 -0.38728733957740202 0 0.050999120259630028 -0.38955068956382027 0 0.058582518048036963 -0.39363598672849548 0 0.063466827646366741 -0.37607830675611192 0 0.050999120259630028 -0.38955068956382027 0 0.058582518048036963 -0.39363598672849548 0 0.058980137179419807 -0.40202157129761168 0 0.052027827723862052 -0.39285088477506869 0 0.068066036470217944 -0.3964694484285749 0 0.058582518048036963 -0.39363598672849548 0 0.058980137179419807 -0.40202157129761168 0 0.058980137179419807 -0.40202157129761168 0 0.047712493864621688 -0.40279783118762058 0 0.052027827723862052 -0.39285088477506869 0 0.050999120259630028 -0.38955068956382027 0 0.047712493864621688 -0.40279783118762058 0 0.052027827723862052 -0.39285088477506869 0 0.050999120259630028 -0.38955068956382027 0 0.058582518048036963 -0.39363598672849548 0 0.052027827723862052 -0.39285088477506869 0 0.050999120259630028 -0.38955068956382027 0 0.052027827723862052 -0.39285088477506869 0 0.050999120259630028 -0.38955068956382027 0 0.037028643743992472 -0.4046469379586895 0 0.037697858612149943 -0.39176297650120601 0 0.050999120259630028 -0.38955068956382027 0 0.037028643743992472 -0.4046469379586895 0 0.050999120259630028 -0.38955068956382027 0 0.047712493864621688 -0.40279783118762058 0 0.037028643743992472 -0.4046469379586895 0 0.037028643743992472 -0.4046469379586895 0 0.037697858612149943 -0.39176297650120601 0 0.022105117860399089 -0.39738185295469092 0 0.050999120259630028 -0.38955068956382027 0 0.041378038689220811 -0.37830796348130058 0 0.043118674791166878 -0.36426944168543057 0 0.037697858612149943 -0.39176297650120601 0 0.040972548763584679 -0.38587244453846681 0 0.029239252686648249 -0.38343800635237002 0 0.050999120259630028 -0.38955068956382027 0 0.040972548763584679 -0.38587244453846681 0 0.041378038689220811 -0.37830796348130058 0 0.050999120259630028 -0.38955068956382027 0 0.037697858612149943 -0.39176297650120601 0 0.040972548763584679 -0.38587244453846681 0 0.041378038689220811 -0.37830796348130058 0 0.029239252686648249 -0.38343800635237002 0 0.029121168347510641 -0.36818654530316658 0 0.040972548763584679 -0.38587244453846681 0 0.041378038689220811 -0.37830796348130058 0 0.029239252686648249 -0.38343800635237002 0 0.029239252686648249 -0.38343800635237002 0 0.0081625739511966347 -0.37959504827830032 0 0.029121168347510641 -0.36818654530316658 0 0.029239252686648249 -0.38343800635237002 0 0.0081625739511966347 -0.37959504827830032 0 0.022105117860399089 -0.39738185295469092 0 -0.0029277384365188671 -0.4052699318625318 0 0.0081625739511966347 -0.37959504827830032 0 0.022105117860399089 -0.39738185295469092 0 0.037697858612149943 -0.39176297650120601 0 0.029239252686648249 -0.38343800635237002 0 0.022105117860399089 -0.39738185295469092 0 -0.0029277384365188671 -0.4052699318625318 0 0.023058167228355578 -0.41974318635355928 0 0.007271525743211698 -0.43680195030579488 0 0.037028643743992472 -0.4046469379586895 0 0.023058167228355578 -0.41974318635355928 0 0.037028643743992472 -0.4046469379586895 0 0.022105117860399089 -0.39738185295469092 0 0.023058167228355578 -0.41974318635355928 0 -0.0029277384365188671 -0.4052699318625318 0 0.022105117860399089 -0.39738185295469092 0 0.023058167228355578 -0.41974318635355928 0 -0.0029277384365188671 -0.4052699318625318 0 0.023058167228355578 -0.41974318635355928 0 0.023058167228355578 -0.41974318635355928 0 0.007271525743211698 -0.43680195030579488 0 0.023058167228355578 -0.41974318635355928 0 0.007271525743211698 -0.43680195030579488 0 0.025497084315326581 -0.43473571320350052 0 0.023058167228355578 -0.41974318635355928 0 0.038585266749116137 -0.42839124602750728 0 0.023058167228355578 -0.41974318635355928 0 0.025497084315326581 -0.43473571320350052 0 0.038585266749116137 -0.42839124602750728 0 0.025497084315326581 -0.43473571320350052 0 0.038585266749116137 -0.42839124602750728 0 0.039511537738758387 -0.44261832082777308 0 0.038585266749116137 -0.42839124602750728 0 0.052852563705867113 -0.43049655743221321 0 0.039511537738758387 -0.44261832082777308 0 0.038585266749116137 -0.42839124602750728 0 0.042776041600761629 -0.41678796909654769 0 0.052852563705867113 -0.43049655743221321 0 0.023058167228355578 -0.41974318635355928 0 0.038585266749116137 -0.42839124602750728 0 0.042776041600761629 -0.41678796909654769 0 0.037028643743992472 -0.4046469379586895 0 0.023058167228355578 -0.41974318635355928 0 0.042776041600761629 -0.41678796909654769 0 0.047712493864621688 -0.40279783118762058 0 0.037028643743992472 -0.4046469379586895 0 0.042776041600761629 -0.41678796909654769 0 0.042776041600761629 -0.41678796909654769 0 0.057419114312616829 -0.4146520556196962 0 0.052852563705867113 -0.43049655743221321 0 0.047712493864621688 -0.40279783118762058 0 0.042776041600761629 -0.41678796909654769 0 0.057419114312616829 -0.4146520556196962 0 0.070464210341427705 -0.41225999907787531 0 0.058980137179419807 -0.40202157129761168 0 0.057419114312616829 -0.4146520556196962 0 0.058980137179419807 -0.40202157129761168 0 0.047712493864621688 -0.40279783118762058 0 0.057419114312616829 -0.4146520556196962 0 0.068242746632435763 -0.42749505468587612 0 0.057419114312616829 -0.4146520556196962 0 0.052852563705867113 -0.43049655743221321 0 0.06778060897944449 -0.44356928839419019 0 0.052852563705867113 -0.43049655743221321 0 0.053295744534282867 -0.45128519290186742 0 0.052852563705867113 -0.43049655743221321 0 0.053295744534282867 -0.45128519290186742 0 0.039511537738758387 -0.44261832082777308 0 0.07415220114332674 -0.45901307197498248 0 0.053295744534282867 -0.45128519290186742 0 0.049601314217692587 -0.47242773916750658 0 0.07415220114332674 -0.45901307197498248 0 0.049601314217692587 -0.47242773916750658 0 0.053295744534282867 -0.45128519290186742 0 0.035393731345124073 -0.46381399002959589 0 0.049601314217692587 -0.47242773916750658 0 0.035393731345124073 -0.46381399002959589 0 0.039511537738758387 -0.44261832082777308 0 0.0258779511446822 -0.44917099430277002 0 0.053295744534282867 -0.45128519290186742 0 0.035393731345124073 -0.46381399002959589 0 0.039511537738758387 -0.44261832082777308 0 0.025497084315326581 -0.43473571320350052 0 0.039511537738758387 -0.44261832082777308 0 0.0258779511446822 -0.44917099430277002 0 0.007271525743211698 -0.43680195030579488 0 0.025497084315326581 -0.43473571320350052 0 0.0258779511446822 -0.44917099430277002 0 -0.008515115741932441 -0.45386071425803037 0 0.007271525743211698 -0.43680195030579488 0 0.01009617260750212 -0.45664112822671599 0 0.007271525743211698 -0.43680195030579488 0 0.0258779511446822 -0.44917099430277002 0 0.01009617260750212 -0.45664112822671599 0 -0.0016783646119623609 -0.47146816853448209 0 0.01009617260750212 -0.45664112822671599 0 0.02094502800315276 -0.47201685885869998 0 0.0258779511446822 -0.44917099430277002 0 0.01009617260750212 -0.45664112822671599 0 0.021738053810855539 -0.45994206354080269 0 0.01009617260750212 -0.45664112822671599 0 0.021738053810855539 -0.45994206354080269 0 0.02094502800315276 -0.47201685885869998 0 0.035393731345124073 -0.46381399002959589 0 0.0258779511446822 -0.44917099430277002 0 0.021738053810855539 -0.45994206354080269 0 0.035393731345124073 -0.46381399002959589 0 0.021738053810855539 -0.45994206354080269 0 0.02094502800315276 -0.47201685885869998 0 0.035393731345124073 -0.46381399002959589 0 0.02094502800315276 -0.47201685885869998 0 0.025050427292058641 -0.48584240636003062 0 0.02094502800315276 -0.47201685885869998 0 0.0081573999142501418 -0.4831801874344101 0 0.025050427292058641 -0.48584240636003062 0 -0.0016783646119623609 -0.47146816853448209 0 0.02094502800315276 -0.47201685885869998 0 0.0081573999142501418 -0.4831801874344101 0 -0.0016783646119623609 -0.47146816853448209 0 0.02094502800315276 -0.47201685885869998 0 -0.005511665807985431 -0.48742496297742588 0 -0.0016783646119623609 -0.47146816853448209 0 0.0081573999142501418 -0.4831801874344101 0 0.00049954036642466809 -0.5 0 0.0086288080494619779 -0.5 0 0.025050427292058641 -0.48584240636003062 0 0.0081573999142501418 -0.4831801874344101 0 0.00049954036642466809 -0.5 0 0.025050427292058641 -0.48584240636003062 0 -0.005511665807985431 -0.48742496297742588 0 0.0081573999142501418 -0.4831801874344101 0 0.00049954036642466809 -0.5 0 0.00049954036642466809 -0.5 0 0.025050427292058641 -0.48584240636003062 0 0.0086288080494619779 -0.5 0 0.025050427292058641 -0.48584240636003062 0 0.037126270700747699 -0.5 0 0.025050427292058641 -0.48584240636003062 0 0.037126270700747699 -0.5 0 0.049601314217692587 -0.47242773916750658 0 0.035393731345124073 -0.46381399002959589 0 0.025050427292058641 -0.48584240636003062 0 0.049601314217692587 -0.47242773916750658 0 0.025050427292058641 -0.48584240636003062 0 0.049601314217692587 -0.47242773916750658 0 0.06562373335203342 -0.5 0 0.037126270700747699 -0.5 0 0.049601314217692587 -0.47242773916750658 0 0.090698024717557113 -0.29308945222043442 0 0.068887727892631326 -0.29028079677972207 0 0.084869010909391973 -0.28231088073482219 0 0.090698024717557113 -0.29308945222043442 0 0.068887727892631326 -0.29028079677972207 0 0.090698024717557113 -0.29308945222043442 0 0.078429992169200838 -0.3069919925573828 0 0.068887727892631326 -0.29028079677972207 0 0.084869010909391973 -0.28231088073482219 0 0.090698024717557113 -0.29308945222043442 0 0.097616938994345565 -0.28140785851861549 0 0.078429992169200838 -0.3069919925573828 0 0.096908737219551441 -0.30443767434064939 0 0.092073225109135542 -0.31627836322782749 0 0.090698024717557113 -0.29308945222043442 0 0.078429992169200838 -0.3069919925573828 0 0.096908737219551441 -0.30443767434064939 0 0.078429992169200838 -0.3069919925573828 0 0.060178146173354791 -0.3174555775130819 0 0.060271808065879111 -0.29947186351905603 0 0.078429992169200838 -0.3069919925573828 0 0.068887727892631326 -0.29028079677972207 0 0.060271808065879111 -0.29947186351905603 0 0.084869010909391973 -0.28231088073482219 0 0.068887727892631326 -0.29028079677972207 0 0.07644407929999536 -0.27449858107412922 0 0.068887727892631326 -0.29028079677972207 0 0.062804284913018135 -0.27502441074476702 0 0.07644407929999536 -0.27449858107412922 0 0.062804284913018135 -0.27502441074476702 0 0.069259492706366235 -0.26793697185261811 0 0.07644407929999536 -0.27449858107412922 0 0.062804284913018135 -0.27502441074476702 0 0.069259492706366235 -0.26793697185261811 0 0.062381111266618439 -0.26046915535353149 0 0.069259492706366235 -0.26793697185261811 0 0.07644407929999536 -0.27449858107412922 0 0.075408495345833021 -0.26175574023804471 0 0.072880416832233008 -0.25096375523048992 0 0.062381111266618439 -0.26046915535353149 0 0.063372039046269812 -0.24359189162298511 0 0.075408495345833021 -0.26175574023804471 0 0.072880416832233008 -0.25096375523048992 0 0.062381111266618439 -0.26046915535353149 0 0.069259492706366235 -0.26793697185261811 0 0.075408495345833021 -0.26175574023804471 0 0.062381111266618439 -0.26046915535353149 0 0.075408495345833021 -0.26175574023804471 0 0.072880416832233008 -0.25096375523048992 0 0.081939808532238603 -0.25636564581082538 0 0.081939808532238603 -0.25636564581082538 0 0.091460813072920422 -0.25727321876019149 0 0.083870927088600528 -0.2476168044414524 0 0.072880416832233008 -0.25096375523048992 0 0.081939808532238603 -0.25636564581082538 0 0.083870927088600528 -0.2476168044414524 0 0.075408495345833021 -0.26175574023804471 0 0.081939808532238603 -0.25636564581082538 0 0.084062922685187197 -0.26448298906295331 0 0.081939808532238603 -0.25636564581082538 0 0.084062922685187197 -0.26448298906295331 0 0.091460813072920422 -0.25727321876019149 0 0.084062922685187197 -0.26448298906295331 0 0.091460813072920422 -0.25727321876019149 0 0.090698283642430516 -0.27227771508120979 0 0.084869010909391973 -0.28231088073482219 0 0.07644407929999536 -0.27449858107412922 0 0.090698283642430516 -0.27227771508120979 0 0.07644407929999536 -0.27449858107412922 0 0.075408495345833021 -0.26175574023804471 0 0.084062922685187197 -0.26448298906295331 0 0.07644407929999536 -0.27449858107412922 0 0.084062922685187197 -0.26448298906295331 0 0.090698283642430516 -0.27227771508120979 0 0.084869010909391973 -0.28231088073482219 0 0.090698283642430516 -0.27227771508120979 0 0.097616938994345565 -0.28140785851861549 0 0.1088176093139004 -0.26571575565736621 0 0.11278512566252499 -0.28609870279503358 0 0.106271684419183 -0.28314748976145387 0 0.1088176093139004 -0.26571575565736621 0 0.106271684419183 -0.28314748976145387 0 0.097616938994345565 -0.28140785851861549 0 0.090698283642430516 -0.27227771508120979 0 0.1088176093139004 -0.26571575565736621 0 0.097616938994345565 -0.28140785851861549 0 0.091460813072920422 -0.25727321876019149 0 0.1088176093139004 -0.26571575565736621 0 0.094262782717805998 -0.24015224523938489 0 0.1088176093139004 -0.26571575565736621 0 0.094262782717805998 -0.24015224523938489 0 0.091460813072920422 -0.25727321876019149 0 0.090698283642430516 -0.27227771508120979 0 0.1088176093139004 -0.26571575565736621 0 0.1088176093139004 -0.26571575565736621 0 0.1110954753030154 -0.24696600708057559 0 0.094262782717805998 -0.24015224523938489 0 0.12781738792472361 -0.25630073961036098 0 0.1088176093139004 -0.26571575565736621 0 0.1110954753030154 -0.24696600708057559 0 0.1293844639767889 -0.26841340011125497 0 0.12781738792472361 -0.25630073961036098 0 0.1088176093139004 -0.26571575565736621 0 0.1316679908100386 -0.27940250192532728 0 0.1088176093139004 -0.26571575565736621 0 0.1233724359099948 -0.29127926607534749 0 0.1088176093139004 -0.26571575565736621 0 0.1233724359099948 -0.29127926607534749 0 0.1316679908100386 -0.27940250192532728 0 0.1293844639767889 -0.26841340011125497 0 0.1088176093139004 -0.26571575565736621 0 0.1088176093139004 -0.26571575565736621 0 0.1233724359099948 -0.29127926607534749 0 0.11278512566252499 -0.28609870279503358 0 0.1206272242658369 -0.29520959160900989 0 0.11278512566252499 -0.28609870279503358 0 0.103954986884028 -0.29089418336842582 0 0.1233724359099948 -0.29127926607534749 0 0.1206272242658369 -0.29520959160900989 0 0.11278512566252499 -0.28609870279503358 0 0.12470655464265119 -0.29362245841061141 0 0.1233724359099948 -0.29127926607534749 0 0.1206272242658369 -0.29520959160900989 0 0.12470655464265119 -0.29362245841061141 0 0.1206272242658369 -0.29520959160900989 0 0.1233724359099948 -0.29127926607534749 0 0.1206272242658369 -0.29520959160900989 0 0.12470655464265119 -0.29362245841061141 0 0.1233724359099948 -0.29127926607534749 0 0.1206272242658369 -0.29520959160900989 0 0.103954986884028 -0.29089418336842582 0 0.096908737219551441 -0.30443767434064939 0 0.106271684419183 -0.28314748976145387 0 0.103954986884028 -0.29089418336842582 0 0.097616938994345565 -0.28140785851861549 0 0.11278512566252499 -0.28609870279503358 0 0.106271684419183 -0.28314748976145387 0 0.103954986884028 -0.29089418336842582 0 0.090698024717557113 -0.29308945222043442 0 0.103954986884028 -0.29089418336842582 0 0.096908737219551441 -0.30443767434064939 0 0.090698024717557113 -0.29308945222043442 0 0.103954986884028 -0.29089418336842582 0 0.097616938994345565 -0.28140785851861549 0 0.1206272242658369 -0.29520959160900989 0 0.096908737219551441 -0.30443767434064939 0 0.10858275405760701 -0.31245368603051049 0 0.096908737219551441 -0.30443767434064939 0 0.092073225109135542 -0.31627836322782749 0 0.1206272242658369 -0.29520959160900989 0 0.10858275405760701 -0.31245368603051049 0 0.096908737219551441 -0.30443767434064939 0 0.1206272242658369 -0.29520959160900989 0 0.10858275405760701 -0.31245368603051049 0 0.12470655464265119 -0.29362245841061141 0 0.1206272242658369 -0.29520959160900989 0 0.1239183229528943 -0.31063788990941937 0 0.1206272242658369 -0.29520959160900989 0 0.10858275405760701 -0.31245368603051049 0 0.1239183229528943 -0.31063788990941937 0 0.10858275405760701 -0.31245368603051049 0 0.1239183229528943 -0.31063788990941937 0 0.11802514066771549 -0.33168998595812188 0 0.13427159898292429 -0.34207260640439968 0 0.11802514066771549 -0.33168998595812188 0 0.11976416236354551 -0.3551758041798404 0 0.096538283849376572 -0.32969778045201081 0 0.1013159952132795 -0.34894585690271679 0 0.084493813641146234 -0.34694187487351091 0 0.11802514066771549 -0.33168998595812188 0 0.096538283849376572 -0.32969778045201081 0 0.1013159952132795 -0.34894585690271679 0 0.10858275405760701 -0.31245368603051049 0 0.11802514066771549 -0.33168998595812188 0 0.096538283849376572 -0.32969778045201081 0 0.10858275405760701 -0.31245368603051049 0 0.096538283849376572 -0.32969778045201081 0 0.10858275405760701 -0.31245368603051049 0 0.096538283849376572 -0.32969778045201081 0 0.092073225109135542 -0.31627836322782749 0 0.1172634489325893 -0.37778659213166921 0 0.11976416236354551 -0.3551758041798404 0 0.10527209746655899 -0.36625020894024862 0 0.13240322570731711 -0.37003442529207242 0 0.1172634489325893 -0.37778659213166921 0 0.11976416236354551 -0.3551758041798404 0 0.11802514066771549 -0.33168998595812188 0 0.11976416236354551 -0.3551758041798404 0 0.1013159952132795 -0.34894585690271679 0 0.11976416236354551 -0.3551758041798404 0 0.1013159952132795 -0.34894585690271679 0 0.10527209746655899 -0.36625020894024862 0 0.1013159952132795 -0.34894585690271679 0 0.10527209746655899 -0.36625020894024862 0 0.086962952467056959 -0.3620491137270791 0 0.100355355613908 -0.3843458818340777 0 0.10527209746655899 -0.36625020894024862 0 0.086962952467056959 -0.3620491137270791 0 0.076746428995785806 -0.38086328082468868 0 0.086962952467056959 -0.3620491137270791 0 0.073813685633605158 -0.36408162930243221 0 0.100355355613908 -0.3843458818340777 0 0.086962952467056959 -0.3620491137270791 0 0.1013159952132795 -0.34894585690271679 0 0.086962952467056959 -0.3620491137270791 0 0.084493813641146234 -0.34694187487351091 0 0.086962952467056959 -0.3620491137270791 0 0.084493813641146234 -0.34694187487351091 0 0.073570549320205916 -0.33975234562008061 0 0.086962952467056959 -0.3620491137270791 0 0.073570549320205916 -0.33975234562008061 0 0.086962952467056959 -0.3620491137270791 0 0.06796488474572332 -0.351974222942186 0 0.073570549320205916 -0.33975234562008061 0 0.073813685633605158 -0.36408162930243221 0 0.054525957478152483 -0.35153491155473748 0 0.086962952467056959 -0.3620491137270791 0 0.06796488474572332 -0.351974222942186 0 0.073813685633605158 -0.36408162930243221 0 0.06796488474572332 -0.351974222942186 0 0.073813685633605158 -0.36408162930243221 0 0.054525957478152483 -0.35153491155473748 0 0.063466827646366741 -0.37607830675611192 0 0.076746428995785806 -0.38086328082468868 0 0.073813685633605158 -0.36408162930243221 0 0.063466827646366741 -0.37607830675611192 0 0.073813685633605158 -0.36408162930243221 0 0.058375723645234259 -0.36487302097340618 0 0.096538283849376572 -0.32969778045201081 0 0.092073225109135542 -0.31627836322782749 0 0.08082340728165055 -0.32436253896592587 0 0.078429992169200838 -0.3069919925573828 0 0.092073225109135542 -0.31627836322782749 0 0.08082340728165055 -0.32436253896592587 0 0.096538283849376572 -0.32969778045201081 0 0.084493813641146234 -0.34694187487351091 0 0.096538283849376572 -0.32969778045201081 0 0.08082340728165055 -0.32436253896592587 0 0.083856513523094811 -0.33518863497788198 0 0.096538283849376572 -0.32969778045201081 0 0.084493813641146234 -0.34694187487351091 0 0.083856513523094811 -0.33518863497788198 0 0.084493813641146234 -0.34694187487351091 0 0.083856513523094811 -0.33518863497788198 0 0.073570549320205916 -0.33975234562008061 0 0.08082340728165055 -0.32436253896592587 0 0.083856513523094811 -0.33518863497788198 0 0.073570549320205916 -0.33975234562008061 0 0.073570549320205916 -0.33975234562008061 0 0.060178146173354791 -0.3174555775130819 0 0.073570549320205916 -0.33975234562008061 0 0.060178146173354791 -0.3174555775130819 0 0.056511909289634843 -0.3357208023688466 0 0.06796488474572332 -0.351974222942186 0 0.073570549320205916 -0.33975234562008061 0 0.056511909289634843 -0.3357208023688466 0 0.078429992169200838 -0.3069919925573828 0 0.08082340728165055 -0.32436253896592587 0 0.060178146173354791 -0.3174555775130819 0 0.08082340728165055 -0.32436253896592587 0 0.073570549320205916 -0.33975234562008061 0 0.060178146173354791 -0.3174555775130819 0 0.060178146173354791 -0.3174555775130819 0 0.044045345668940812 -0.32189287298562502 0 0.041047815016546203 -0.3071756284262116 0 0.060178146173354791 -0.3174555775130819 0 0.056511909289634843 -0.3357208023688466 0 0.044045345668940812 -0.32189287298562502 0 0.056511909289634843 -0.3357208023688466 0 0.035238229322700293 -0.33898819380704193 0 0.054525957478152483 -0.35153491155473748 0 0.056511909289634843 -0.3357208023688466 0 0.035238229322700293 -0.33898819380704193 0 0.044045345668940812 -0.32189287298562502 0 0.044045345668940812 -0.32189287298562502 0 0.026634596766646479 -0.31138689027990041 0 0.041047815016546203 -0.3071756284262116 0 0.035238229322700293 -0.33898819380704193 0 0.044045345668940812 -0.32189287298562502 0 0.026634596766646479 -0.31138689027990041 0 0.073813685633605158 -0.36408162930243221 0 0.058375723645234259 -0.36487302097340618 0 0.054525957478152483 -0.35153491155473748 0 0.053990086585599478 -0.37369286474469221 0 0.058375723645234259 -0.36487302097340618 0 0.043118674791166878 -0.36426944168543057 0 0.063466827646366741 -0.37607830675611192 0 0.053990086585599478 -0.37369286474469221 0 0.058375723645234259 -0.36487302097340618 0 0.058375723645234259 -0.36487302097340618 0 0.054525957478152483 -0.35153491155473748 0 0.043118674791166878 -0.36426944168543057 0 0.06796488474572332 -0.351974222942186 0 0.056511909289634843 -0.3357208023688466 0 0.054525957478152483 -0.35153491155473748 0 0.035238229322700293 -0.33898819380704193 0 0.054525957478152483 -0.35153491155473748 0 0.043118674791166878 -0.36426944168543057 0 0.035238229322700293 -0.33898819380704193 0 0.043118674791166878 -0.36426944168543057 0 0.029301780152147221 -0.35463906208129847 0 0.035238229322700293 -0.33898819380704193 0 0.054525957478152483 -0.35153491155473748 0 0.035238229322700293 -0.33898819380704193 0 0.043118674791166878 -0.36426944168543057 0 0.043118674791166878 -0.36426944168543057 0 0.029121168347510641 -0.36818654530316658 0 0.029301780152147221 -0.35463906208129847 0 0.041378038689220811 -0.37830796348130058 0 0.043118674791166878 -0.36426944168543057 0 0.029121168347510641 -0.36818654530316658 0 0.0081625739511966347 -0.37959504827830032 0 0.029121168347510641 -0.36818654530316658 0 0.016748305998863261 -0.35785406172692902 0 0.029121168347510641 -0.36818654530316658 0 0.016748305998863261 -0.35785406172692902 0 0.029301780152147221 -0.35463906208129847 0 0.035238229322700293 -0.33898819380704193 0 0.029301780152147221 -0.35463906208129847 0 0.0226462391312841 -0.34503232884643559 0 0.016748305998863261 -0.35785406172692902 0 0.029301780152147221 -0.35463906208129847 0 0.0226462391312841 -0.34503232884643559 0 0.016748305998863261 -0.35785406172692902 0 0.0226462391312841 -0.34503232884643559 0 0.01042414134484887 -0.34361669734997707 0 0.016748305998863261 -0.35785406172692902 0 0.00064886371917051487 -0.36216327411849342 0 0.01042414134484887 -0.34361669734997707 0 -0.0064528311403182041 -0.34658308637676433 0 0.00064886371917051487 -0.36216327411849342 0 0.01042414134484887 -0.34361669734997707 0 0.0081625739511966347 -0.37959504827830032 0 0.016748305998863261 -0.35785406172692902 0 0.00064886371917051487 -0.36216327411849342 0 0.018775482653987971 -0.31927318025934509 0 0.02151873883786086 -0.33006362926693139 0 0.026634596766646479 -0.31138689027990041 0 0.035238229322700293 -0.33898819380704193 0 0.02151873883786086 -0.33006362926693139 0 0.026634596766646479 -0.31138689027990041 0 0.035238229322700293 -0.33898819380704193 0 0.026634596766646479 -0.31138689027990041 0 0.018775482653987971 -0.31927318025934509 0 0.02151873883786086 -0.33006362926693139 0 0.0077992483530218036 -0.3211390647268203 0 0.035238229322700293 -0.33898819380704193 0 0.02151873883786086 -0.33006362926693139 0 0.035238229322700293 -0.33898819380704193 0 0.0226462391312841 -0.34503232884643559 0 0.02151873883786086 -0.33006362926693139 0 0.0226462391312841 -0.34503232884643559 0 0.02151873883786086 -0.33006362926693139 0 0.01042414134484887 -0.34361669734997707 0 -0.0064528311403182041 -0.34658308637676433 0 0.0077992483530218036 -0.3211390647268203 0 -0.0064528311403182041 -0.34658308637676433 0 0.01042414134484887 -0.34361669734997707 0 0.0077992483530218036 -0.3211390647268203 0 0.02151873883786086 -0.33006362926693139 0 0.01042414134484887 -0.34361669734997707 0 0.0077992483530218036 -0.3211390647268203 0 -0.00090219304442910116 -0.32233256723130188 0 -0.0058317805359695014 -0.33092424562459982 0 0.0077992483530218036 -0.3211390647268203 0 0.018775482653987971 -0.31927318025934509 0 0.0077992483530218036 -0.3211390647268203 0 0.017915181090379831 -0.30307924323206181 0 0.02151873883786086 -0.33006362926693139 0 0.0077992483530218036 -0.3211390647268203 0 -0.00090219304442910116 -0.32233256723130188 0 0.0077992483530218036 -0.3211390647268203 0 0.001804894369510784 -0.31723972174019571 0 0.0077992483530218036 -0.3211390647268203 0 0.001804894369510784 -0.31723972174019571 0 0.0068020784681082167 -0.30906778812607683 0 0.0077992483530218036 -0.3211390647268203 0 0.001804894369510784 -0.31723972174019571 0 -0.001218064301224819 -0.30894404495570632 0 0.0068020784681082167 -0.30906778812607683 0 0.00096569162923609538 -0.29956240717707422 0 0.0077992483530218036 -0.3211390647268203 0 0.0068020784681082167 -0.30906778812607683 0 0.017915181090379831 -0.30307924323206181 0 0.0068020784681082167 -0.30906778812607683 0 0.00096569162923609538 -0.29956240717707422 0 0.017915181090379831 -0.30307924323206181 0 0.0077992483530218036 -0.3211390647268203 0 0.017915181090379831 -0.30307924323206181 0 -0.001218064301224819 -0.30894404495570632 0 0.001804894369510784 -0.31723972174019571 0 0.0068020784681082167 -0.30906778812607683 0 0.00096569162923609538 -0.29956240717707422 0 0.0009930660910825867 -0.28153755441145178 0 0.017915181090379831 -0.30307924323206181 0 0.0009930660910825867 -0.28153755441145178 0 0.028031113827737021 -0.28501942173730282 0 0.028031113827737021 -0.28501942173730282 0 0.017915181090379831 -0.30307924323206181 0 0.028031113827737021 -0.28501942173730282 0 0.02611645240398015 -0.3032010961394544 0 0.033389677150844482 -0.29898715379016599 0 0.0009930660910825867 -0.28153755441145178 0 0.028031113827737021 -0.28501942173730282 0 0.017915181090379831 -0.30307924323206181 0 0.028031113827737021 -0.28501942173730282 0 0.017915181090379831 -0.30307924323206181 0 0.02611645240398015 -0.3032010961394544 0 0.018775482653987971 -0.31927318025934509 0 0.017915181090379831 -0.30307924323206181 0 0.026634596766646479 -0.31138689027990041 0 0.02611645240398015 -0.3032010961394544 0 0.026634596766646479 -0.31138689027990041 0 0.033389677150844482 -0.29898715379016599 0 0.017915181090379831 -0.30307924323206181 0 0.02611645240398015 -0.3032010961394544 0 0.026634596766646479 -0.31138689027990041 0 0.026634596766646479 -0.31138689027990041 0 0.041047815016546203 -0.3071756284262116 0 0.033389677150844482 -0.29898715379016599 0 0.041047815016546203 -0.3071756284262116 0 0.041922594825666112 -0.29581799407060583 0 0.046785743026502923 -0.29515880940608358 0 0.041047815016546203 -0.3071756284262116 0 0.033389677150844482 -0.29898715379016599 0 0.041922594825666112 -0.29581799407060583 0 0.028031113827737021 -0.28501942173730282 0 0.037808543440663679 -0.2914911706555775 0 0.047077431067705663 -0.28747214133900961 0 0.028031113827737021 -0.28501942173730282 0 0.047077431067705663 -0.28747214133900961 0 0.028031113827737021 -0.28501942173730282 0 0.033389677150844482 -0.29898715379016599 0 0.037808543440663679 -0.2914911706555775 0 0.028031113827737021 -0.28501942173730282 0 0.047077431067705663 -0.28747214133900961 0 0.038591128871878863 -0.28000799642568303 0 0.033389677150844482 -0.29898715379016599 0 0.037808543440663679 -0.2914911706555775 0 0.041922594825666112 -0.29581799407060583 0 0.037808543440663679 -0.2914911706555775 0 0.044685677602964297 -0.29166244872721642 0 0.047077431067705663 -0.28747214133900961 0 0.037808543440663679 -0.2914911706555775 0 0.041922594825666112 -0.29581799407060583 0 0.044685677602964297 -0.29166244872721642 0 0.044685677602964297 -0.29166244872721642 0 0.046785743026502923 -0.29515880940608358 0 0.047077431067705663 -0.28747214133900961 0 0.041922594825666112 -0.29581799407060583 0 0.044855816753234322 -0.29457327643457232 0 0.046785743026502923 -0.29515880940608358 0 0.044685677602964297 -0.29166244872721642 0 0.046785743026502923 -0.29515880940608358 0 0.041922594825666112 -0.29581799407060583 0 0.044685677602964297 -0.29166244872721642 0 0.044855816753234322 -0.29457327643457232 0 0.044685677602964297 -0.29166244872721642 0 0.044855816753234322 -0.29457327643457232 0 0.046785743026502923 -0.29515880940608358 0 0.068887727892631326 -0.29028079677972207 0 0.047077431067705663 -0.28747214133900961 0 0.060271808065879111 -0.29947186351905603 0 0.046785743026502923 -0.29515880940608358 0 0.047077431067705663 -0.28747214133900961 0 0.060271808065879111 -0.29947186351905603 0 0.068887727892631326 -0.29028079677972207 0 0.047077431067705663 -0.28747214133900961 0 0.068887727892631326 -0.29028079677972207 0 0.062804284913018135 -0.27502441074476702 0 0.047077431067705663 -0.28747214133900961 0 0.046785743026502923 -0.29515880940608358 0 0.047077431067705663 -0.28747214133900961 0 0.060178146173354791 -0.3174555775130819 0 0.046785743026502923 -0.29515880940608358 0 0.060271808065879111 -0.29947186351905603 0 0.060178146173354791 -0.3174555775130819 0 0.041047815016546203 -0.3071756284262116 0 0.046785743026502923 -0.29515880940608358 0 0.060178146173354791 -0.3174555775130819 0 0.046785743026502923 -0.29515880940608358 0 0.055536617082742101 -0.25142090382798621 0 0.062381111266618439 -0.26046915535353149 0 0.063372039046269812 -0.24359189162298511 0 0.04811418637971758 -0.26015119284474891 0 0.055260069715091412 -0.26016925976907829 0 0.055008364131287527 -0.26863578705004681 0 0.04811418637971758 -0.26015119284474891 0 0.055536617082742101 -0.25142090382798621 0 0.055260069715091412 -0.26016925976907829 0 0.055536617082742101 -0.25142090382798621 0 0.062381111266618439 -0.26046915535353149 0 0.055260069715091412 -0.26016925976907829 0 0.062381111266618439 -0.26046915535353149 0 0.055260069715091412 -0.26016925976907829 0 0.055008364131287527 -0.26863578705004681 0 0.062804284913018135 -0.27502441074476702 0 0.047077431067705663 -0.28747214133900961 0 0.055008364131287527 -0.26863578705004681 0 0.047077431067705663 -0.28747214133900961 0 0.04811418637971758 -0.26015119284474891 0 0.062804284913018135 -0.27502441074476702 0 0.062381111266618439 -0.26046915535353149 0 0.055008364131287527 -0.26863578705004681 0 0.047077431067705663 -0.28747214133900961 0 0.04811418637971758 -0.26015119284474891 0 0.055008364131287527 -0.26863578705004681 0 0.047077431067705663 -0.28747214133900961 0 0.04811418637971758 -0.26015119284474891 0 0.038591128871878863 -0.28000799642568303 0 0.04811418637971758 -0.26015119284474891 0 0.038591128871878863 -0.28000799642568303 0 0.035914226014140627 -0.27094582095269698 0 0.028031113827737021 -0.28501942173730282 0 0.038591128871878863 -0.28000799642568303 0 0.035914226014140627 -0.27094582095269698 0 0.028031113827737021 -0.28501942173730282 0 0.035914226014140627 -0.27094582095269698 0 0.035914226014140627 -0.27094582095269698 0 0.033684975717333143 -0.26077258889199828 0 0.043797338200541387 -0.25687222016808969 0 0.04811418637971758 -0.26015119284474891 0 0.035914226014140627 -0.27094582095269698 0 0.043797338200541387 -0.25687222016808969 0 0.035914226014140627 -0.27094582095269698 0 0.043797338200541387 -0.25687222016808969 0 0.033684975717333143 -0.26077258889199828 0 0.043797338200541387 -0.25687222016808969 0 0.032179126181802568 -0.25206969633033882 0 0.043797338200541387 -0.25687222016808969 0 0.032179126181802568 -0.25206969633033882 0 0.035419798959639953 -0.24238968088984081 0 0.032179126181802568 -0.25206969633033882 0 0.02552898869480167 -0.25588408639671012 0 0.022464529336696699 -0.2444299053050549 0 0.033684975717333143 -0.26077258889199828 0 0.032179126181802568 -0.25206969633033882 0 0.02552898869480167 -0.25588408639671012 0 0.033684975717333143 -0.26077258889199828 0 0.02552898869480167 -0.25588408639671012 0 0.020718671013950991 -0.26767078549695889 0 0.02552898869480167 -0.25588408639671012 0 0.020718671013950991 -0.26767078549695889 0 0.01460910680774407 -0.25666082887372338 0 0.02552898869480167 -0.25588408639671012 0 0.01460910680774407 -0.25666082887372338 0 0.022464529336696699 -0.2444299053050549 0 0.028031113827737021 -0.28501942173730282 0 0.035914226014140627 -0.27094582095269698 0 0.020718671013950991 -0.26767078549695889 0 0.0009930660910825867 -0.28153755441145178 0 0.028031113827737021 -0.28501942173730282 0 0.020718671013950991 -0.26767078549695889 0 0.035914226014140627 -0.27094582095269698 0 0.033684975717333143 -0.26077258889199828 0 0.020718671013950991 -0.26767078549695889 0 0.0009930660910825867 -0.28153755441145178 0 0.020718671013950991 -0.26767078549695889 0 0.0055715618356646087 -0.26366604158818169 0 0.01460910680774407 -0.25666082887372338 0 0.001132853500818054 -0.25333800061779432 0 0.009567360668603914 -0.24694342463332281 0 0.020718671013950991 -0.26767078549695889 0 0.01460910680774407 -0.25666082887372338 0 0.0055715618356646087 -0.26366604158818169 0 0.01460910680774407 -0.25666082887372338 0 0.0055715618356646087 -0.26366604158818169 0 0.001132853500818054 -0.25333800061779432 0 -0.0066164347875948808 -0.24271512594326239 0 0.001132853500818054 -0.25333800061779432 0 0.009567360668603914 -0.24694342463332281 0 -0.0066164347875948808 -0.24271512594326239 0 0.009567360668603914 -0.24694342463332281 0 0.011013661382486779 -0.23488891133629899 0 0.01460910680774407 -0.25666082887372338 0 0.009567360668603914 -0.24694342463332281 0 0.022464529336696699 -0.2444299053050549 0 0.009567360668603914 -0.24694342463332281 0 0.011013661382486779 -0.23488891133629899 0 0.022464529336696699 -0.2444299053050549 0 -0.0066164347875948808 -0.24271512594326239 0 -5.7255641541217699e-05 -0.22481575049984709 0 0.011013661382486779 -0.23488891133629899 0 -5.7255641541217699e-05 -0.22481575049984709 0 0.011013661382486779 -0.23488891133629899 0 0.023837384993539351 -0.22439980216759711 0 0.011013661382486779 -0.23488891133629899 0 0.023837384993539351 -0.22439980216759711 0 0.022464529336696699 -0.2444299053050549 0 0.023837384993539351 -0.22439980216759711 0 0.022464529336696699 -0.2444299053050549 0 0.035419798959639953 -0.24238968088984081 0 0.032179126181802568 -0.25206969633033882 0 0.022464529336696699 -0.2444299053050549 0 0.035419798959639953 -0.24238968088984081 0 -0.001832913880063871 -0.18948146249523201 0 0.0062936657237188491 -0.204298398676966 0 0.0177300727851002 -0.18356383807142759 0 -5.7255641541217699e-05 -0.22481575049984709 0 0.023837384993539351 -0.22439980216759711 0 0.0062936657237188491 -0.204298398676966 0 0.023837384993539351 -0.22439980216759711 0 0.0062936657237188491 -0.204298398676966 0 0.033364142888083939 -0.21074862651753931 0 0.0062936657237188491 -0.204298398676966 0 0.032952284619127033 -0.1931183536641399 0 0.033364142888083939 -0.21074862651753931 0 0.0062936657237188491 -0.204298398676966 0 0.032952284619127033 -0.1931183536641399 0 0.0062936657237188491 -0.204298398676966 0 0.032952284619127033 -0.1931183536641399 0 0.0177300727851002 -0.18356383807142759 0 0.032952284619127033 -0.1931183536641399 0 0.059610903514535282 -0.18193830865131369 0 0.033364142888083939 -0.21074862651753931 0 0.050187697003736188 -0.20550929585622729 0 0.049150941691726881 -0.2328302443504881 0 0.032952284619127033 -0.1931183536641399 0 0.033364142888083939 -0.21074862651753931 0 0.050187697003736188 -0.20550929585622729 0 0.050187697003736188 -0.20550929585622729 0 0.064363832717192135 -0.22736239360142091 0 0.06979038329953495 -0.21322976116705639 0 0.032952284619127033 -0.1931183536641399 0 0.050187697003736188 -0.20550929585622729 0 0.059610903514535282 -0.18193830865131369 0 0.050187697003736188 -0.20550929585622729 0 0.071023032245795675 -0.19548068956319839 0 0.059610903514535282 -0.18193830865131369 0 0.043797338200541387 -0.25687222016808969 0 0.035419798959639953 -0.24238968088984081 0 0.049150941691726881 -0.2328302443504881 0 0.023837384993539351 -0.22439980216759711 0 0.035419798959639953 -0.24238968088984081 0 0.049150941691726881 -0.2328302443504881 0 0.023837384993539351 -0.22439980216759711 0 0.033364142888083939 -0.21074862651753931 0 0.049150941691726881 -0.2328302443504881 0 0.050187697003736188 -0.20550929585622729 0 0.049150941691726881 -0.2328302443504881 0 0.064363832717192135 -0.22736239360142091 0 0.050187697003736188 -0.20550929585622729 0 0.049150941691726881 -0.2328302443504881 0 0.04811418637971758 -0.26015119284474891 0 0.043797338200541387 -0.25687222016808969 0 0.049150941691726881 -0.2328302443504881 0 0.049150941691726881 -0.2328302443504881 0 0.063372039046269812 -0.24359189162298511 0 0.064363832717192135 -0.22736239360142091 0 0.04811418637971758 -0.26015119284474891 0 0.049150941691726881 -0.2328302443504881 0 0.055536617082742101 -0.25142090382798621 0 0.049150941691726881 -0.2328302443504881 0 0.063372039046269812 -0.24359189162298511 0 0.04811418637971758 -0.26015119284474891 0 0.055536617082742101 -0.25142090382798621 0 0.049150941691726881 -0.2328302443504881 0 0.063372039046269812 -0.24359189162298511 0 0.078179082113300435 -0.23333474103566859 0 0.064363832717192135 -0.22736239360142091 0 0.072880416832233008 -0.25096375523048992 0 0.063372039046269812 -0.24359189162298511 0 0.078179082113300435 -0.23333474103566859 0 0.091460813072920422 -0.25727321876019149 0 0.083870927088600528 -0.2476168044414524 0 0.094262782717805998 -0.24015224523938489 0 0.083870927088600528 -0.2476168044414524 0 0.078179082113300435 -0.23333474103566859 0 0.094262782717805998 -0.24015224523938489 0 0.072880416832233008 -0.25096375523048992 0 0.083870927088600528 -0.2476168044414524 0 0.078179082113300435 -0.23333474103566859 0 0.078179082113300435 -0.23333474103566859 0 0.094262782717805998 -0.24015224523938489 0 0.1009195595573158 -0.23533201197714421 0 0.078179082113300435 -0.23333474103566859 0 0.1009195595573158 -0.23533201197714421 0 0.090598735940324235 -0.22447899111596209 0 0.078179082113300435 -0.23333474103566859 0 0.1009195595573158 -0.23533201197714421 0 0.090598735940324235 -0.22447899111596209 0 0.078179082113300435 -0.23333474103566859 0 0.079211968783879219 -0.22091823008517661 0 0.079211968783879219 -0.22091823008517661 0 0.064363832717192135 -0.22736239360142091 0 0.06979038329953495 -0.21322976116705639 0 0.078179082113300435 -0.23333474103566859 0 0.079211968783879219 -0.22091823008517661 0 0.064363832717192135 -0.22736239360142091 0 0.050187697003736188 -0.20550929585622729 0 0.06979038329953495 -0.21322976116705639 0 0.071023032245795675 -0.19548068956319839 0 0.06979038329953495 -0.21322976116705639 0 0.071023032245795675 -0.19548068956319839 0 0.088568700497640443 -0.20943022068167311 0 0.071023032245795675 -0.19548068956319839 0 0.088568700497640443 -0.20943022068167311 0 0.071023032245795675 -0.19548068956319839 0 0.088568700497640443 -0.20943022068167311 0 0.096556255667569549 -0.1886782786753767 0 0.079211968783879219 -0.22091823008517661 0 0.06979038329953495 -0.21322976116705639 0 0.088568700497640443 -0.20943022068167311 0 0.090598735940324235 -0.22447899111596209 0 0.079211968783879219 -0.22091823008517661 0 0.088568700497640443 -0.20943022068167311 0 0.088568700497640443 -0.20943022068167311 0 0.1061143687494852 -0.22337975180014799 0 0.088568700497640443 -0.20943022068167311 0 0.1087380312032941 -0.20743127830680241 0 0.1061143687494852 -0.22337975180014799 0 0.088568700497640443 -0.20943022068167311 0 0.1087380312032941 -0.20743127830680241 0 0.096556255667569549 -0.1886782786753767 0 0.1087380312032941 -0.20743127830680241 0 0.096556255667569549 -0.1886782786753767 0 0.11931245204809771 -0.1870584185114415 0 0.1087380312032941 -0.20743127830680241 0 0.11931245204809771 -0.1870584185114415 0 0.12874846310804949 -0.2107776762610549 0 0.1087380312032941 -0.20743127830680241 0 0.1205804478484914 -0.22195912213603489 0 0.1061143687494852 -0.22337975180014799 0 0.1087380312032941 -0.20743127830680241 0 0.1205804478484914 -0.22195912213603489 0 0.12874846310804949 -0.2107776762610549 0 0.1205804478484914 -0.22195912213603489 0 0.12366003700133101 -0.2373292829186216 0 0.1061143687494852 -0.22337975180014799 0 0.12366003700133101 -0.2373292829186216 0 0.1009195595573158 -0.23533201197714421 0 0.1061143687494852 -0.22337975180014799 0 0.12366003700133101 -0.2373292829186216 0 0.1061143687494852 -0.22337975180014799 0 0.12366003700133101 -0.2373292829186216 0 0.1009195595573158 -0.23533201197714421 0 0.1110954753030154 -0.24696600708057559 0 0.12366003700133101 -0.2373292829186216 0 0.1009195595573158 -0.23533201197714421 0 0.12781738792472361 -0.25630073961036098 0 0.1110954753030154 -0.24696600708057559 0 0.12366003700133101 -0.2373292829186216 0 0.1110954753030154 -0.24696600708057559 0 0.094262782717805998 -0.24015224523938489 0 0.1009195595573158 -0.23533201197714421 0 0.090598735940324235 -0.22447899111596209 0 0.1009195595573158 -0.23533201197714421 0 0.1061143687494852 -0.22337975180014799 0 0.090598735940324235 -0.22447899111596209 0 0.088568700497640443 -0.20943022068167311 0 0.1061143687494852 -0.22337975180014799 0 0.1148461764638975 -0.14404608003039901 0 0.1061705096329378 -0.16643727976594261 0 0.093732505834455693 -0.14516456847118189 0 0.1013339836899915 -0.12642382478405781 0 0.1148461764638975 -0.14404608003039901 0 0.093732505834455693 -0.14516456847118189 0 0.1013339836899915 -0.12642382478405781 0 0.1238389007101184 -0.12538748776530201 0 0.1148461764638975 -0.14404608003039901 0 0.11931245204809771 -0.1870584185114415 0 0.1061705096329378 -0.16643727976594261 0 0.12647954811933559 -0.1605037134453817 0 0.1148461764638975 -0.14404608003039901 0 0.1061705096329378 -0.16643727976594261 0 0.12647954811933559 -0.1605037134453817 0 0.096556255667569549 -0.1886782786753767 0 0.11931245204809771 -0.1870584185114415 0 0.1061705096329378 -0.16643727976594261 0 0.096556255667569549 -0.1886782786753767 0 0.1061705096329378 -0.16643727976594261 0 0.086269522409943511 -0.17075826363848759 0 0.1061705096329378 -0.16643727976594261 0 0.086269522409943511 -0.17075826363848759 0 0.093732505834455693 -0.14516456847118189 0 0.071023032245795675 -0.19548068956319839 0 0.096556255667569549 -0.1886782786753767 0 0.086269522409943511 -0.17075826363848759 0 0.086269522409943511 -0.17075826363848759 0 0.059610903514535282 -0.18193830865131369 0 0.071023032245795675 -0.19548068956319839 0 0.086269522409943511 -0.17075826363848759 0 0.059610903514535282 -0.18193830865131369 0 0.086269522409943511 -0.17075826363848759 0 0.065756760188130162 -0.1633713506721626 0 0.059610903514535282 -0.18193830865131369 0 0.086269522409943511 -0.17075826363848759 0 0.065756760188130162 -0.1633713506721626 0 0.074987911939004212 -0.1498379484015275 0 0.065756760188130162 -0.1633713506721626 0 0.074987911939004212 -0.1498379484015275 0 0.056346882446819048 -0.14319360389746211 0 0.086269522409943511 -0.17075826363848759 0 0.074987911939004212 -0.1498379484015275 0 0.093732505834455693 -0.14516456847118189 0 0.1013339836899915 -0.12642382478405781 0 0.093732505834455693 -0.14516456847118189 0 0.072527652454640296 -0.12602419547075139 0 0.074987911939004212 -0.1498379484015275 0 0.093732505834455693 -0.14516456847118189 0 0.072527652454640296 -0.12602419547075139 0 0.074987911939004212 -0.1498379484015275 0 0.072527652454640296 -0.12602419547075139 0 0.056346882446819048 -0.14319360389746211 0 0.072527652454640296 -0.12602419547075139 0 0.056346882446819048 -0.14319360389746211 0 0.044383157529222991 -0.12551210744171701 0 0.065756760188130162 -0.1633713506721626 0 0.056346882446819048 -0.14319360389746211 0 0.047217574412801541 -0.1614990167153553 0 0.056346882446819048 -0.14319360389746211 0 0.0393155074808164 -0.145986638980766 0 0.047217574412801541 -0.1614990167153553 0 0.0393155074808164 -0.145986638980766 0 0.047217574412801541 -0.1614990167153553 0 0.02452319270087502 -0.159174330488809 0 0.0393155074808164 -0.145986638980766 0 0.044383157529222991 -0.12551210744171701 0 0.024672505775480521 -0.13584365341497881 0 0.056346882446819048 -0.14319360389746211 0 0.0393155074808164 -0.145986638980766 0 0.044383157529222991 -0.12551210744171701 0 0.059610903514535282 -0.18193830865131369 0 0.047217574412801541 -0.1614990167153553 0 0.036406805606487812 -0.17585876951820911 0 0.065756760188130162 -0.1633713506721626 0 0.059610903514535282 -0.18193830865131369 0 0.047217574412801541 -0.1614990167153553 0 0.047217574412801541 -0.1614990167153553 0 0.036406805606487812 -0.17585876951820911 0 0.02452319270087502 -0.159174330488809 0 0.032952284619127033 -0.1931183536641399 0 0.059610903514535282 -0.18193830865131369 0 0.036406805606487812 -0.17585876951820911 0 0.036406805606487812 -0.17585876951820911 0 0.0177300727851002 -0.18356383807142759 0 0.02452319270087502 -0.159174330488809 0 0.032952284619127033 -0.1931183536641399 0 0.036406805606487812 -0.17585876951820911 0 0.0177300727851002 -0.18356383807142759 0 0.02452319270087502 -0.159174330488809 0 0.002497602333390581 -0.17513408624846249 0 0.0027139176769928391 -0.15513218753068189 0 -0.001832913880063871 -0.18948146249523201 0 0.0177300727851002 -0.18356383807142759 0 0.002497602333390581 -0.17513408624846249 0 0.0177300727851002 -0.18356383807142759 0 0.02452319270087502 -0.159174330488809 0 0.002497602333390581 -0.17513408624846249 0 0.02452319270087502 -0.159174330488809 0 0.024672505775480521 -0.13584365341497881 0 0.0027139176769928391 -0.15513218753068189 0 0.0393155074808164 -0.145986638980766 0 0.02452319270087502 -0.159174330488809 0 0.024672505775480521 -0.13584365341497881 0 0.024672505775480521 -0.13584365341497881 0 0.0027139176769928391 -0.15513218753068189 0 0.0031716933938910549 -0.1279946343258361 0 0.0031716933938910549 -0.1279946343258361 0 0.023522603621839399 -0.107751300817022 0 -0.0040072478643717636 -0.10183159143133461 0 0.0031716933938910549 -0.1279946343258361 0 0.023522603621839399 -0.107751300817022 0 0.024672505775480521 -0.13584365341497881 0 0.0031716933938910549 -0.1279946343258361 0 0.023522603621839399 -0.107751300817022 0 0.044383157529222991 -0.12551210744171701 0 0.024672505775480521 -0.13584365341497881 0 0.023522603621839399 -0.107751300817022 0 0.023522603621839399 -0.107751300817022 0 0.01890081529004221 -0.089935957067165631 0 0.04387351384978775 -0.08750796730820791 0 -0.0040072478643717636 -0.10183159143133461 0 0.023522603621839399 -0.107751300817022 0 0.01890081529004221 -0.089935957067165631 0 -0.0040072478643717636 -0.10183159143133461 0 0.0048234998987816248 -0.077730636789505952 0 -0.0040072478643717636 -0.10183159143133461 0 0.0048234998987816248 -0.077730636789505952 0 0.01890081529004221 -0.089935957067165631 0 0.0048234998987816248 -0.077730636789505952 0 0.026291706944174049 -0.074858288989757674 0 0.01365424766193501 -0.053629682147677271 0 0.0048234998987816248 -0.077730636789505952 0 0.01365424766193501 -0.053629682147677271 0 -0.011885421224751801 -0.064064825071286663 0 0.0048234998987816248 -0.077730636789505952 0 0.01365424766193501 -0.053629682147677271 0 0.026291706944174049 -0.074858288989757674 0 0.01365424766193501 -0.053629682147677271 0 0.032404074388307301 -0.061118388562579888 0 0.0048234998987816248 -0.077730636789505952 0 0.026291706944174049 -0.074858288989757674 0 0.01890081529004221 -0.089935957067165631 0 0.026291706944174049 -0.074858288989757674 0 0.01890081529004221 -0.089935957067165631 0 0.04387351384978775 -0.08750796730820791 0 0.026291706944174049 -0.074858288989757674 0 0.04387351384978775 -0.08750796730820791 0 0.047900455249400432 -0.073376299682127097 0 0.047900455249400432 -0.073376299682127097 0 0.032404074388307301 -0.061118388562579888 0 0.042709716979834743 -0.055435792295508948 0 0.026291706944174049 -0.074858288989757674 0 0.047900455249400432 -0.073376299682127097 0 0.032404074388307301 -0.061118388562579888 0 0.04387351384978775 -0.08750796730820791 0 0.064224424077736125 -0.067264633799393792 0 0.06420806520237142 -0.078021708552390656 0 0.04387351384978775 -0.08750796730820791 0 0.064224424077736125 -0.067264633799393792 0 0.047900455249400432 -0.073376299682127097 0 0.063293272274149603 -0.059791786424778531 0 0.064224424077736125 -0.067264633799393792 0 0.04387351384978775 -0.08750796730820791 0 0.047900455249400432 -0.073376299682127097 0 0.064224424077736125 -0.067264633799393792 0 0.047900455249400432 -0.073376299682127097 0 0.063293272274149603 -0.059791786424778531 0 0.04387351384978775 -0.08750796730820791 0 0.054784633052771058 -0.099223507435420008 0 0.064096312648292256 -0.08957401037831822 0 0.04387351384978775 -0.08750796730820791 0 0.064096312648292256 -0.08957401037831822 0 0.06420806520237142 -0.078021708552390656 0 0.054784633052771058 -0.099223507435420008 0 0.056159935339701067 -0.11173371516430659 0 0.071954418266344244 -0.1055443816971123 0 0.04387351384978775 -0.08750796730820791 0 0.054784633052771058 -0.099223507435420008 0 0.044481627894775083 -0.1063573240344164 0 0.054784633052771058 -0.099223507435420008 0 0.056159935339701067 -0.11173371516430659 0 0.044481627894775083 -0.1063573240344164 0 0.072527652454640296 -0.12602419547075139 0 0.044383157529222991 -0.12551210744171701 0 0.056159935339701067 -0.11173371516430659 0 0.044383157529222991 -0.12551210744171701 0 0.056159935339701067 -0.11173371516430659 0 0.044481627894775083 -0.1063573240344164 0 0.044383157529222991 -0.12551210744171701 0 0.023522603621839399 -0.107751300817022 0 0.044481627894775083 -0.1063573240344164 0 0.023522603621839399 -0.107751300817022 0 0.04387351384978775 -0.08750796730820791 0 0.023522603621839399 -0.107751300817022 0 0.04387351384978775 -0.08750796730820791 0 0.044481627894775083 -0.1063573240344164 0 0.018135682798734901 -0.011552118573024871 0 0.022484995425088399 -0.029528727505848611 0 0.03131574318824179 -0.0054277728640199432 0 0.014054210519925151 0.0035720571881815949 0 0.042122726037603628 -0.0021610766017879451 0 0.03131574318824179 -0.0054277728640199432 0 0.014054210519925151 0.0035720571881815949 0 0.018135682798734901 -0.011552118573024871 0 0.03131574318824179 -0.0054277728640199432 0 0.014054210519925151 0.0035720571881815949 0 0.018135682798734901 -0.011552118573024871 0 0.0046877820616839788 -0.014824031110414009 0 -0.0066317386901698708 0.00012469464361213051 0 0.014054210519925151 0.0035720571881815949 0 0.0046877820616839788 -0.014824031110414009 0 0.0046877820616839788 -0.014824031110414009 0 0.022484995425088399 -0.029528727505848611 0 0.0053656951540007759 -0.033063162948168578 0 0.018135682798734901 -0.011552118573024871 0 0.0046877820616839788 -0.014824031110414009 0 0.022484995425088399 -0.029528727505848611 0 0.022484995425088399 -0.029528727505848611 0 0.037602265575652882 -0.017244374912025299 0 0.03131574318824179 -0.0054277728640199432 0 0.022484995425088399 -0.029528727505848611 0 0.03131574318824179 -0.0054277728640199432 0 0.022484995425088399 -0.029528727505848611 0 0.01365424766193501 -0.053629682147677271 0 0.031464245106192237 -0.04829187969782843 0 0.022484995425088399 -0.029528727505848611 0 0.01365424766193501 -0.053629682147677271 0 0.022484995425088399 -0.029528727505848611 0 0.0053656951540007759 -0.033063162948168578 0 0.01365424766193501 -0.053629682147677271 0 -0.0047045664312333523 -0.044839655199411681 0 0.0053656951540007759 -0.033063162948168578 0 0.01365424766193501 -0.053629682147677271 0 0.01365424766193501 -0.053629682147677271 0 0.032404074388307301 -0.061118388562579888 0 0.031464245106192237 -0.04829187969782843 0 0.031464245106192237 -0.04829187969782843 0 0.042709716979834743 -0.055435792295508948 0 0.045357370514599309 -0.038716041489384109 0 0.032404074388307301 -0.061118388562579888 0 0.031464245106192237 -0.04829187969782843 0 0.042709716979834743 -0.055435792295508948 0 0.047900455249400432 -0.073376299682127097 0 0.05365198601076495 -0.053577267156964252 0 0.063293272274149603 -0.059791786424778531 0 0.05365198601076495 -0.053577267156964252 0 0.060111134253740442 -0.043639793430968667 0 0.063293272274149603 -0.059791786424778531 0 0.047900455249400432 -0.073376299682127097 0 0.042709716979834743 -0.055435792295508948 0 0.05365198601076495 -0.053577267156964252 0 0.042709716979834743 -0.055435792295508948 0 0.05365198601076495 -0.053577267156964252 0 0.045357370514599309 -0.038716041489384109 0 0.05365198601076495 -0.053577267156964252 0 0.060111134253740442 -0.043639793430968667 0 0.045357370514599309 -0.038716041489384109 0 0.060111134253740442 -0.043639793430968667 0 0.045357370514599309 -0.038716041489384109 0 0.060833885161478633 -0.031180230603781271 0 0.022484995425088399 -0.029528727505848611 0 0.045357370514599309 -0.038716041489384109 0 0.039743862999587022 -0.026899417937974141 0 0.022484995425088399 -0.029528727505848611 0 0.031464245106192237 -0.04829187969782843 0 0.045357370514599309 -0.038716041489384109 0 0.045357370514599309 -0.038716041489384109 0 0.039743862999587022 -0.026899417937974141 0 0.050365966468970257 -0.022365465993591401 0 0.022484995425088399 -0.029528727505848611 0 0.037602265575652882 -0.017244374912025299 0 0.039743862999587022 -0.026899417937974141 0 0.037602265575652882 -0.017244374912025299 0 0.039743862999587022 -0.026899417937974141 0 0.050365966468970257 -0.022365465993591401 0 0.045357370514599309 -0.038716041489384109 0 0.060833885161478633 -0.031180230603781271 0 0.050365966468970257 -0.022365465993591401 0 0.060833885161478633 -0.031180230603781271 0 0.050365966468970257 -0.022365465993591401 0 0.062504668312050454 -0.019076272241482669 0 0.042122726037603628 -0.0021610766017879451 0 0.07019124155528178 -0.0078942103917589643 0 0.062504668312050454 -0.019076272241482669 0 0.042122726037603628 -0.0021610766017879451 0 0.07019124155528178 -0.0078942103917589643 0 0.050365966468970257 -0.022365465993591401 0 0.042122726037603628 -0.0021610766017879451 0 0.062504668312050454 -0.019076272241482669 0 0.037602265575652882 -0.017244374912025299 0 0.050365966468970257 -0.022365465993591401 0 0.042122726037603628 -0.0021610766017879451 0 0.037602265575652882 -0.017244374912025299 0 0.042122726037603628 -0.0021610766017879451 0 0.03131574318824179 -0.0054277728640199432 0 0.07019124155528178 -0.0078942103917589643 0 0.098259757072959877 -0.013627344181729969 0 0.07019124155528178 -0.0078942103917589643 0 0.085134787187620298 -0.02026556437330276 0 0.098259757072959877 -0.013627344181729969 0 0.081556316898992162 0.006260620949295425 0 0.1004896233285711 0.0052863644354491758 0 0.098259757072959877 -0.013627344181729969 0 0.081556316898992162 0.006260620949295425 0 0.07019124155528178 -0.0078942103917589643 0 0.098259757072959877 -0.013627344181729969 0 0.07019124155528178 -0.0078942103917589643 0 0.062504668312050454 -0.019076272241482669 0 0.07423565963688962 -0.026187714952114791 0 0.07019124155528178 -0.0078942103917589643 0 0.07423565963688962 -0.026187714952114791 0 0.085134787187620298 -0.02026556437330276 0 0.060833885161478633 -0.031180230603781271 0 0.062504668312050454 -0.019076272241482669 0 0.07423565963688962 -0.026187714952114791 0 0.07423565963688962 -0.026187714952114791 0 0.086055287527306179 -0.028827509244415381 0 0.080443504292230114 -0.034736659449489789 0 0.07423565963688962 -0.026187714952114791 0 0.085134787187620298 -0.02026556437330276 0 0.086055287527306179 -0.028827509244415381 0 0.085134787187620298 -0.02026556437330276 0 0.093784490079364888 -0.02372131584704441 0 0.098259757072959877 -0.013627344181729969 0 0.085134787187620298 -0.02026556437330276 0 0.086055287527306179 -0.028827509244415381 0 0.093784490079364888 -0.02372131584704441 0 0.086055287527306179 -0.028827509244415381 0 0.092624469669280229 -0.033906333539356993 0 0.093784490079364888 -0.02372131584704441 0 0.086055287527306179 -0.028827509244415381 0 0.092624469669280229 -0.033906333539356993 0 0.080443504292230114 -0.034736659449489789 0 0.092719589955650383 -0.038920095899392868 0 0.084575334305684438 -0.047021300290579632 0 0.092624469669280229 -0.033906333539356993 0 0.092719589955650383 -0.038920095899392868 0 0.078686089298900169 -0.046207273167431513 0 0.092624469669280229 -0.033906333539356993 0 0.078686089298900169 -0.046207273167431513 0 0.092719589955650383 -0.038920095899392868 0 0.078686089298900169 -0.046207273167431513 0 0.084575334305684438 -0.047021300290579632 0 0.078686089298900169 -0.046207273167431513 0 0.084575334305684438 -0.047021300290579632 0 0.092624469669280229 -0.033906333539356993 0 0.078686089298900169 -0.046207273167431513 0 0.080443504292230114 -0.034736659449489789 0 0.060111134253740442 -0.043639793430968667 0 0.078686089298900169 -0.046207273167431513 0 0.060111134253740442 -0.043639793430968667 0 0.078686089298900169 -0.046207273167431513 0 0.070734261472985407 -0.036454735117854777 0 0.07423565963688962 -0.026187714952114791 0 0.080443504292230114 -0.034736659449489789 0 0.070734261472985407 -0.036454735117854777 0 0.060111134253740442 -0.043639793430968667 0 0.060833885161478633 -0.031180230603781271 0 0.070734261472985407 -0.036454735117854777 0 0.060833885161478633 -0.031180230603781271 0 0.07423565963688962 -0.026187714952114791 0 0.070734261472985407 -0.036454735117854777 0 0.078686089298900169 -0.046207273167431513 0 0.080443504292230114 -0.034736659449489789 0 0.070734261472985407 -0.036454735117854777 0 0.084575334305684438 -0.047021300290579632 0 0.064224424077736125 -0.067264633799393792 0 0.078686089298900169 -0.046207273167431513 0 0.084575334305684438 -0.047021300290579632 0 0.064224424077736125 -0.067264633799393792 0 0.084575334305684438 -0.047021300290579632 0 0.064224424077736125 -0.067264633799393792 0 0.074344661770167145 -0.066999598159722534 0 0.078686089298900169 -0.046207273167431513 0 0.063293272274149603 -0.059791786424778531 0 0.078686089298900169 -0.046207273167431513 0 0.063293272274149603 -0.059791786424778531 0 0.064224424077736125 -0.067264633799393792 0 0.060111134253740442 -0.043639793430968667 0 0.078686089298900169 -0.046207273167431513 0 0.063293272274149603 -0.059791786424778531 0 0.084575334305684438 -0.047021300290579632 0 0.089589265354845016 -0.056915885984451638 0 0.082879384552222601 -0.064514009337165196 0 0.084575334305684438 -0.047021300290579632 0 0.074344661770167145 -0.066999598159722534 0 0.082879384552222601 -0.064514009337165196 0 0.089589265354845016 -0.056915885984451638 0 0.097742718395314759 -0.061308395942108872 0 0.089709209298404771 -0.065588581543436483 0 0.089589265354845016 -0.056915885984451638 0 0.082879384552222601 -0.064514009337165196 0 0.089709209298404771 -0.065588581543436483 0 0.097742718395314759 -0.061308395942108872 0 0.1085960343575549 -0.050341505399497138 0 0.1162137464904253 -0.068516057782421647 0 0.084575334305684438 -0.047021300290579632 0 0.1085960343575549 -0.050341505399497138 0 0.089589265354845016 -0.056915885984451638 0 0.097742718395314759 -0.061308395942108872 0 0.1085960343575549 -0.050341505399497138 0 0.084575334305684438 -0.047021300290579632 0 0.089589265354845016 -0.056915885984451638 0 0.1085960343575549 -0.050341505399497138 0 0.097742718395314759 -0.061308395942108872 0 0.1085960343575549 -0.050341505399497138 0 0.1085960343575549 -0.050341505399497138 0 0.1162137464904253 -0.068516057782421647 0 0.12943233767569559 -0.053221554714399627 0 0.1085960343575549 -0.050341505399497138 0 0.12943233767569559 -0.053221554714399627 0 0.1085960343575549 -0.050341505399497138 0 0.1067617894028302 -0.036145906085482633 0 0.11591789507805871 -0.02874901771437683 0 0.1085960343575549 -0.050341505399497138 0 0.1273995677643156 -0.031341202321270162 0 0.12943233767569559 -0.053221554714399627 0 0.1085960343575549 -0.050341505399497138 0 0.11591789507805871 -0.02874901771437683 0 0.1273995677643156 -0.031341202321270162 0 0.1085960343575549 -0.050341505399497138 0 0.1273995677643156 -0.031341202321270162 0 0.1067617894028302 -0.036145906085482633 0 0.10020783491912801 -0.036247368505075359 0 0.10656285003966159 -0.021605393911284031 0 0.092719589955650383 -0.038920095899392868 0 0.1085960343575549 -0.050341505399497138 0 0.10020783491912801 -0.036247368505075359 0 0.092719589955650383 -0.038920095899392868 0 0.084575334305684438 -0.047021300290579632 0 0.1085960343575549 -0.050341505399497138 0 0.1085960343575549 -0.050341505399497138 0 0.1067617894028302 -0.036145906085482633 0 0.10020783491912801 -0.036247368505075359 0 0.092624469669280229 -0.033906333539356993 0 0.092719589955650383 -0.038920095899392868 0 0.10020783491912801 -0.036247368505075359 0 0.092624469669280229 -0.033906333539356993 0 0.10656285003966159 -0.021605393911284031 0 0.092624469669280229 -0.033906333539356993 0 0.10020783491912801 -0.036247368505075359 0 0.10656285003966159 -0.021605393911284031 0 0.092624469669280229 -0.033906333539356993 0 0.093784490079364888 -0.02372131584704441 0 0.10656285003966159 -0.021605393911284031 0 0.093784490079364888 -0.02372131584704441 0 0.10656285003966159 -0.021605393911284031 0 0.098259757072959877 -0.013627344181729969 0 0.1067617894028302 -0.036145906085482633 0 0.10656285003966159 -0.021605393911284031 0 0.11591789507805871 -0.02874901771437683 0 0.11591789507805871 -0.02874901771437683 0 0.1227469176571091 -0.014795530248792431 0 0.1273995677643156 -0.031341202321270162 0 0.10656285003966159 -0.021605393911284031 0 0.11591789507805871 -0.02874901771437683 0 0.1227469176571091 -0.014795530248792431 0 0.11940402113221719 0.0021974637424521382 0 0.1004896233285711 0.0052863644354491758 0 0.1094926338461038 -0.0085088880327810253 0 0.10656285003966159 -0.021605393911284031 0 0.1227469176571091 -0.014795530248792431 0 0.1094926338461038 -0.0085088880327810253 0 0.11940402113221719 0.0021974637424521382 0 0.1227469176571091 -0.014795530248792431 0 0.1094926338461038 -0.0085088880327810253 0 0.1004896233285711 0.0052863644354491758 0 0.1094926338461038 -0.0085088880327810253 0 0.098259757072959877 -0.013627344181729969 0 0.10656285003966159 -0.021605393911284031 0 0.1094926338461038 -0.0085088880327810253 0 0.098259757072959877 -0.013627344181729969 0 0.084773740452861512 -0.09871309641801515 0 0.090306804826062459 -0.11108737016611329 0 0.071954418266344244 -0.1055443816971123 0 0.084773740452861512 -0.09871309641801515 0 0.087066153267661248 -0.086588345218870252 0 0.099363506982237684 -0.097385216278874934 0 0.084773740452861512 -0.09871309641801515 0 0.090306804826062459 -0.11108737016611329 0 0.099363506982237684 -0.097385216278874934 0 0.1013339836899915 -0.12642382478405781 0 0.072527652454640296 -0.12602419547075139 0 0.090306804826062459 -0.11108737016611329 0 0.072527652454640296 -0.12602419547075139 0 0.090306804826062459 -0.11108737016611329 0 0.071954418266344244 -0.1055443816971123 0 0.072527652454640296 -0.12602419547075139 0 0.056159935339701067 -0.11173371516430659 0 0.071954418266344244 -0.1055443816971123 0 0.071954418266344244 -0.1055443816971123 0 0.064096312648292256 -0.08957401037831822 0 0.07629748045599774 -0.092073787141372737 0 0.054784633052771058 -0.099223507435420008 0 0.071954418266344244 -0.1055443816971123 0 0.064096312648292256 -0.08957401037831822 0 0.084773740452861512 -0.09871309641801515 0 0.071954418266344244 -0.1055443816971123 0 0.07629748045599774 -0.092073787141372737 0 0.064096312648292256 -0.08957401037831822 0 0.075836100712821125 -0.078176338819083355 0 0.06420806520237142 -0.078021708552390656 0 0.064096312648292256 -0.08957401037831822 0 0.075836100712821125 -0.078176338819083355 0 0.07629748045599774 -0.092073787141372737 0 0.064224424077736125 -0.067264633799393792 0 0.06420806520237142 -0.078021708552390656 0 0.074344661770167145 -0.066999598159722534 0 0.075836100712821125 -0.078176338819083355 0 0.06420806520237142 -0.078021708552390656 0 0.074344661770167145 -0.066999598159722534 0 0.075836100712821125 -0.078176338819083355 0 0.074344661770167145 -0.066999598159722534 0 0.082879384552222601 -0.064514009337165196 0 0.075836100712821125 -0.078176338819083355 0 0.082879384552222601 -0.064514009337165196 0 0.087025925202231388 -0.074539298009284841 0 0.087025925202231388 -0.074539298009284841 0 0.089709209298404771 -0.065588581543436483 0 0.099638778180047127 -0.077829215127868889 0 0.082879384552222601 -0.064514009337165196 0 0.087025925202231388 -0.074539298009284841 0 0.089709209298404771 -0.065588581543436483 0 0.084773740452861512 -0.09871309641801515 0 0.07629748045599774 -0.092073787141372737 0 0.087066153267661248 -0.086588345218870252 0 0.075836100712821125 -0.078176338819083355 0 0.07629748045599774 -0.092073787141372737 0 0.087066153267661248 -0.086588345218870252 0 0.075836100712821125 -0.078176338819083355 0 0.087025925202231388 -0.074539298009284841 0 0.087066153267661248 -0.086588345218870252 0 0.087025925202231388 -0.074539298009284841 0 0.087066153267661248 -0.086588345218870252 0 0.099638778180047127 -0.077829215127868889 0 0.087066153267661248 -0.086588345218870252 0 0.099638778180047127 -0.077829215127868889 0 0.099363506982237684 -0.097385216278874934 0 0.099638778180047127 -0.077829215127868889 0 0.12076550000324229 -0.091326510274528871 0 0.099363506982237684 -0.097385216278874934 0 0.097742718395314759 -0.061308395942108872 0 0.099638778180047127 -0.077829215127868889 0 0.1162137464904253 -0.068516057782421647 0 0.097742718395314759 -0.061308395942108872 0 0.089709209298404771 -0.065588581543436483 0 0.099638778180047127 -0.077829215127868889 0 0.099638778180047127 -0.077829215127868889 0 0.1162137464904253 -0.068516057782421647 0 0.12076550000324229 -0.091326510274528871 0 0.12076550000324229 -0.091326510274528871 0 0.11132470840982529 -0.1108365059584708 0 0.12835000717578579 -0.1086684536094711 0 0.12076550000324229 -0.091326510274528871 0 0.099363506982237684 -0.097385216278874934 0 0.11132470840982529 -0.1108365059584708 0 0.090306804826062459 -0.11108737016611329 0 0.099363506982237684 -0.097385216278874934 0 0.11132470840982529 -0.1108365059584708 0 0.1013339836899915 -0.12642382478405781 0 0.090306804826062459 -0.11108737016611329 0 0.11132470840982529 -0.1108365059584708 0 0.1013339836899915 -0.12642382478405781 0 0.1238389007101184 -0.12538748776530201 0 0.11132470840982529 -0.1108365059584708 0 0.1238389007101184 -0.12538748776530201 0 0.11132470840982529 -0.1108365059584708 0 0.12835000717578579 -0.1086684536094711 0 0.1238389007101184 -0.12538748776530201 0 0.14552427977500371 -0.1174908708710279 0 0.12835000717578579 -0.1086684536094711 0 0.1396355304013899 -0.096738439831270451 0 0.1528106427701979 -0.086179336938580181 0 0.15646422545811481 -0.099818490891201275 0 0.14552427977500371 -0.1174908708710279 0 0.1396355304013899 -0.096738439831270451 0 0.15646422545811481 -0.099818490891201275 0 0.14552427977500371 -0.1174908708710279 0 0.1396355304013899 -0.096738439831270451 0 0.12835000717578579 -0.1086684536094711 0 0.12076550000324229 -0.091326510274528871 0 0.1396355304013899 -0.096738439831270451 0 0.12835000717578579 -0.1086684536094711 0 0.1162137464904253 -0.068516057782421647 0 0.12076550000324229 -0.091326510274528871 0 0.13862102902904691 -0.074642622529233815 0 0.12076550000324229 -0.091326510274528871 0 0.1396355304013899 -0.096738439831270451 0 0.13862102902904691 -0.074642622529233815 0 0.1162137464904253 -0.068516057782421647 0 0.13862102902904691 -0.074642622529233815 0 0.12943233767569559 -0.053221554714399627 0 0.13862102902904691 -0.074642622529233815 0 0.16195965168730261 -0.070934648246182661 0 0.15026864099383649 -0.056101604029301658 0 0.13862102902904691 -0.074642622529233815 0 0.1528106427701979 -0.086179336938580181 0 0.16195965168730261 -0.070934648246182661 0 0.1396355304013899 -0.096738439831270451 0 0.13862102902904691 -0.074642622529233815 0 0.1528106427701979 -0.086179336938580181 0 0.1528106427701979 -0.086179336938580181 0 0.16195965168730261 -0.070934648246182661 0 0.17260898753388629 -0.089364251796235264 0 0.1528106427701979 -0.086179336938580181 0 0.17260898753388629 -0.089364251796235264 0 0.15646422545811481 -0.099818490891201275 0 0.16195965168730261 -0.070934648246182661 0 0.18177584084679899 -0.0706602581821167 0 0.17130365079966409 -0.056378293378158723 0 0.16195965168730261 -0.070934648246182661 0 0.18177584084679899 -0.0706602581821167 0 0.17260898753388629 -0.089364251796235264 0 0.18177584084679899 -0.0706602581821167 0 0.17260898753388629 -0.089364251796235264 0 0.19331490353307371 -0.085409208728489242 0 0.17260898753388629 -0.089364251796235264 0 0.19360972419658479 -0.1016621925740803 0 0.19331490353307371 -0.085409208728489242 0 0.17174168681009611 -0.10931955501889259 0 0.19360972419658479 -0.1016621925740803 0 0.17260898753388629 -0.089364251796235264 0 0.17174168681009611 -0.10931955501889259 0 0.19360972419658479 -0.1016621925740803 0 0.18150231088433089 -0.123655007210659 0 0.17174168681009611 -0.10931955501889259 0 0.19360972419658479 -0.1016621925740803 0 0.18150231088433089 -0.123655007210659 0 0.17174168681009611 -0.10931955501889259 0 0.16201261428958999 -0.13316355356437429 0 0.14552427977500371 -0.1174908708710279 0 0.17174168681009611 -0.10931955501889259 0 0.16201261428958999 -0.13316355356437429 0 0.14552427977500371 -0.1174908708710279 0 0.15646422545811481 -0.099818490891201275 0 0.17174168681009611 -0.10931955501889259 0 0.17260898753388629 -0.089364251796235264 0 0.15646422545811481 -0.099818490891201275 0 0.17174168681009611 -0.10931955501889259 0 0.16500663457783829 0.0066594038351828963 0 0.14865092338076161 0.0029196368863995291 0 0.1462031011710769 -0.012340899243043629 0 0.16500663457783829 0.0066594038351828963 0 0.1462031011710769 -0.012340899243043629 0 0.14865092338076161 0.0029196368863995291 0 0.1462031011710769 -0.012340899243043629 0 0.13534696994241319 -0.0012545724301827831 0 0.1227469176571091 -0.014795530248792431 0 0.1462031011710769 -0.012340899243043629 0 0.13534696994241319 -0.0012545724301827831 0 0.11940402113221719 0.0021974637424521382 0 0.1227469176571091 -0.014795530248792431 0 0.13534696994241319 -0.0012545724301827831 0 0.1227469176571091 -0.014795530248792431 0 0.1462031011710769 -0.012340899243043629 0 0.1273995677643156 -0.031341202321270162 0 0.1462031011710769 -0.012340899243043629 0 0.1273995677643156 -0.031341202321270162 0 0.1462031011710769 -0.012340899243043629 0 0.1517067619256951 -0.031961638223091539 0 0.16394258331322331 -0.010299091428861359 0 0.1462031011710769 -0.012340899243043629 0 0.1517067619256951 -0.031961638223091539 0 0.1273995677643156 -0.031341202321270162 0 0.1517067619256951 -0.031961638223091539 0 0.1273995677643156 -0.031341202321270162 0 0.12943233767569559 -0.053221554714399627 0 0.13862102902904691 -0.074642622529233815 0 0.12943233767569559 -0.053221554714399627 0 0.15026864099383649 -0.056101604029301658 0 0.12943233767569559 -0.053221554714399627 0 0.15026864099383649 -0.056101604029301658 0 0.1517067619256951 -0.031961638223091539 0 0.12943233767569559 -0.053221554714399627 0 0.15026864099383649 -0.056101604029301658 0 0.15026864099383649 -0.056101604029301658 0 0.17130365079966409 -0.056378293378158723 0 0.1693919318004895 -0.038563380211604492 0 0.16195965168730261 -0.070934648246182661 0 0.15026864099383649 -0.056101604029301658 0 0.17130365079966409 -0.056378293378158723 0 0.18177584084679899 -0.0706602581821167 0 0.17130365079966409 -0.056378293378158723 0 0.192540347958812 -0.048388478406835508 0 0.17130365079966409 -0.056378293378158723 0 0.1693919318004895 -0.038563380211604492 0 0.192540347958812 -0.048388478406835508 0 0.1693919318004895 -0.038563380211604492 0 0.19051878047760679 -0.025439415616379479 0 0.1693919318004895 -0.038563380211604492 0 0.19051878047760679 -0.025439415616379479 0 0.192540347958812 -0.048388478406835508 0 0.1517067619256951 -0.031961638223091539 0 0.15026864099383649 -0.056101604029301658 0 0.1693919318004895 -0.038563380211604492 0 0.1517067619256951 -0.031961638223091539 0 0.1693919318004895 -0.038563380211604492 0 0.17448593871406939 -0.021112080515709161 0 0.1517067619256951 -0.031961638223091539 0 0.17448593871406939 -0.021112080515709161 0 0.16394258331322331 -0.010299091428861359 0 0.1693919318004895 -0.038563380211604492 0 0.17448593871406939 -0.021112080515709161 0 0.19051878047760679 -0.025439415616379479 0 0.17448593871406939 -0.021112080515709161 0 0.18595703651160539 -0.0085299275062495038 0 0.19051878047760679 -0.025439415616379479 0 0.17448593871406939 -0.021112080515709161 0 0.18595703651160539 -0.0085299275062495038 0 0.17678423811432731 -0.0040137111683443459 0 0.18476487371872691 0.0023264512215359291 0 0.18595703651160539 -0.0085299275062495038 0 0.17678423811432731 -0.0040137111683443459 0 0.17194389469659341 0.0046427798174643251 0 0.17678423811432731 -0.0040137111683443459 0 0.16394258331322331 -0.010299091428861359 0 0.17448593871406939 -0.021112080515709161 0 0.17678423811432731 -0.0040137111683443459 0 0.16394258331322331 -0.010299091428861359 0 0.16500663457783829 0.0066594038351828963 0 0.1462031011710769 -0.012340899243043629 0 0.16394258331322331 -0.010299091428861359 0 0.2216901033440723 0.0019520988824035101 0 0.2128063672562063 -0.0010087193959307549 0 0.21164562915472401 -0.012315451021154489 0 0.2128063672562063 -0.0010087193959307549 0 0.21164562915472401 -0.012315451021154489 0 0.20483123724834651 -0.00017065645069986779 0 0.21164562915472401 -0.012315451021154489 0 0.20483123724834651 -0.00017065645069986779 0 0.19725200521955449 -0.0089141221622132307 0 0.21164562915472401 -0.012315451021154489 0 0.19725200521955449 -0.0089141221622132307 0 0.19051878047760679 -0.025439415616379479 0 0.1933073427054901 0.001884839783417182 0 0.20483123724834651 -0.00017065645069986779 0 0.19725200521955449 -0.0089141221622132307 0 0.18595703651160539 -0.0085299275062495038 0 0.19725200521955449 -0.0089141221622132307 0 0.19051878047760679 -0.025439415616379479 0 0.1933073427054901 0.001884839783417182 0 0.18476487371872691 0.0023264512215359291 0 0.18595703651160539 -0.0085299275062495038 0 0.1933073427054901 0.001884839783417182 0 0.18595703651160539 -0.0085299275062495038 0 0.19725200521955449 -0.0089141221622132307 0 0.21164562915472401 -0.012315451021154489 0 0.19051878047760679 -0.025439415616379479 0 0.21164562915472401 -0.012315451021154489 0 0.19051878047760679 -0.025439415616379479 0 0.21144940249407451 -0.033512535545341227 0 0.21164562915472401 -0.012315451021154489 0 0.21144940249407451 -0.033512535545341227 0 0.2256295674547544 -0.01873150834171641 0 0.21144940249407451 -0.033512535545341227 0 0.192540347958812 -0.048388478406835508 0 0.21717423915993619 -0.056437923269661468 0 0.19051878047760679 -0.025439415616379479 0 0.21144940249407451 -0.033512535545341227 0 0.192540347958812 -0.048388478406835508 0 0.192540347958812 -0.048388478406835508 0 0.21717423915993619 -0.056437923269661468 0 0.20310220350502509 -0.071354510960745798 0 0.21717423915993619 -0.056437923269661468 0 0.23329422128383029 -0.042676169090076002 0 0.23724335730116961 -0.065010757385908433 0 0.25380120851981741 -0.052568017639291788 0 0.23329422128383029 -0.042676169090076002 0 0.23724335730116961 -0.065010757385908433 0 0.25380120851981741 -0.052568017639291788 0 0.23329422128383029 -0.042676169090076002 0 0.24838858068358369 -0.026445930038939771 0 0.21144940249407451 -0.033512535545341227 0 0.23329422128383029 -0.042676169090076002 0 0.2256295674547544 -0.01873150834171641 0 0.21144940249407451 -0.033512535545341227 0 0.21717423915993619 -0.056437923269661468 0 0.23329422128383029 -0.042676169090076002 0 0.2256295674547544 -0.01873150834171641 0 0.24838858068358369 -0.026445930038939771 0 0.23655448100153939 -0.01164957492237139 0 0.23329422128383029 -0.042676169090076002 0 0.2256295674547544 -0.01873150834171641 0 0.24838858068358369 -0.026445930038939771 0 0.24838858068358369 -0.026445930038939771 0 0.24297595284734999 -0.00032384243858780282 0 0.25772642959595549 -0.002976658867858078 0 0.24838858068358369 -0.026445930038939771 0 0.24297595284734999 -0.00032384243858780282 0 0.24838858068358369 -0.026445930038939771 0 0.23655448100153939 -0.01164957492237139 0 0.24297595284734999 -0.00032384243858780282 0 0.2327724778318416 0.00080851357406988567 0 0.23655448100153939 -0.01164957492237139 0 0.24297595284734999 -0.00032384243858780282 0 0.2327724778318416 0.00080851357406988567 0 0.2256295674547544 -0.01873150834171641 0 0.23655448100153939 -0.01164957492237139 0 0.2327724778318416 0.00080851357406988567 0 0.2256295674547544 -0.01873150834171641 0 0.2327724778318416 0.00080851357406988567 0 0.21164562915472401 -0.012315451021154489 0 0.2216901033440723 0.0019520988824035101 0 0.2327724778318416 0.00080851357406988567 0 0.21164562915472401 -0.012315451021154489 0 0.2327724778318416 0.00080851357406988567 0 0.21164562915472401 -0.012315451021154489 0 0.2256295674547544 -0.01873150834171641 0 0.21547776158307341 -0.094004830129268108 0 0.19360972419658479 -0.1016621925740803 0 0.21547776158307341 -0.094004830129268108 0 0.21321353889884531 -0.1123504460630748 0 0.19360972419658479 -0.1016621925740803 0 0.21321353889884531 -0.1123504460630748 0 0.22154329537864789 -0.12936285137161521 0 0.1991139726725033 -0.12532014643277059 0 0.18150231088433089 -0.123655007210659 0 0.19360972419658479 -0.1016621925740803 0 0.1991139726725033 -0.12532014643277059 0 0.21321353889884531 -0.1123504460630748 0 0.19360972419658479 -0.1016621925740803 0 0.1991139726725033 -0.12532014643277059 0 0.21547776158307341 -0.094004830129268108 0 0.19360972419658479 -0.1016621925740803 0 0.19331490353307371 -0.085409208728489242 0 0.18177584084679899 -0.0706602581821167 0 0.19331490353307371 -0.085409208728489242 0 0.20310220350502509 -0.071354510960745798 0 0.18177584084679899 -0.0706602581821167 0 0.192540347958812 -0.048388478406835508 0 0.20310220350502509 -0.071354510960745798 0 0.21717423915993619 -0.056437923269661468 0 0.20310220350502509 -0.071354510960745798 0 0.22263083951782059 -0.073344861392321659 0 0.21547776158307341 -0.094004830129268108 0 0.19331490353307371 -0.085409208728489242 0 0.20310220350502509 -0.071354510960745798 0 0.21547776158307341 -0.094004830129268108 0 0.20310220350502509 -0.071354510960745798 0 0.22263083951782059 -0.073344861392321659 0 0.21547776158307341 -0.094004830129268108 0 0.22263083951782059 -0.073344861392321659 0 0.23734579896956209 -0.086347467684455836 0 0.21547776158307341 -0.094004830129268108 0 0.23734579896956209 -0.086347467684455836 0 0.21717423915993619 -0.056437923269661468 0 0.22263083951782059 -0.073344861392321659 0 0.23724335730116961 -0.065010757385908433 0 0.22263083951782059 -0.073344861392321659 0 0.23724335730116961 -0.065010757385908433 0 0.23734579896956209 -0.086347467684455836 0 0.25921383635605111 -0.07869010523964387 0 0.23724335730116961 -0.065010757385908433 0 0.23734579896956209 -0.086347467684455836 0 0.25921383635605111 -0.07869010523964387 0 0.23734579896956209 -0.086347467684455836 0 0.25415217139124358 -0.09701936163760258 0 0.23734579896956209 -0.086347467684455836 0 0.23436568626996401 -0.1082985952540855 0 0.25415217139124358 -0.09701936163760258 0 0.2566916324133659 -0.11530786144550211 0 0.23436568626996401 -0.1082985952540855 0 0.21547776158307341 -0.094004830129268108 0 0.21321353889884531 -0.1123504460630748 0 0.23436568626996401 -0.1082985952540855 0 0.21547776158307341 -0.094004830129268108 0 0.23734579896956209 -0.086347467684455836 0 0.23436568626996401 -0.1082985952540855 0 0.23436568626996401 -0.1082985952540855 0 0.24096505950742009 -0.12955721171544829 0 0.22154329537864789 -0.12936285137161521 0 0.21321353889884531 -0.1123504460630748 0 0.23436568626996401 -0.1082985952540855 0 0.22154329537864789 -0.12936285137161521 0 0.2566916324133659 -0.11530786144550211 0 0.23436568626996401 -0.1082985952540855 0 0.24096505950742009 -0.12955721171544829 0 0.26093079810087821 -0.13796461764969331 0 0.24096505950742009 -0.12955721171544829 0 0.24477317661511899 -0.15438625179615861 0 0.24096505950742009 -0.12955721171544829 0 0.24477317661511899 -0.15438625179615861 0 0.22430201446302339 -0.1487810919338502 0 0.24096505950742009 -0.12955721171544829 0 0.22430201446302339 -0.1487810919338502 0 0.22154329537864789 -0.12936285137161521 0 0.22154329537864789 -0.12936285137161521 0 0.20420102584452551 -0.14472879793413659 0 0.1991139726725033 -0.12532014643277059 0 0.22430201446302339 -0.1487810919338502 0 0.22154329537864789 -0.12936285137161521 0 0.20420102584452551 -0.14472879793413659 0 0.22430201446302339 -0.1487810919338502 0 0.20420102584452551 -0.14472879793413659 0 0.20823132262661001 -0.161663710547054 0 0.20420102584452551 -0.14472879793413659 0 0.1891244548070658 -0.163361137320304 0 0.179911303776395 -0.14405700592880341 0 0.20420102584452551 -0.14472879793413659 0 0.1991139726725033 -0.12532014643277059 0 0.179911303776395 -0.14405700592880341 0 0.19915802257389559 -0.17943180692643321 0 0.1891244548070658 -0.163361137320304 0 0.18029548472598281 -0.18404284479789279 0 0.20420102584452551 -0.14472879793413659 0 0.1891244548070658 -0.163361137320304 0 0.20823132262661001 -0.161663710547054 0 0.19915802257389559 -0.17943180692643321 0 0.1891244548070658 -0.163361137320304 0 0.20823132262661001 -0.161663710547054 0 0.19915802257389559 -0.17943180692643321 0 0.20823132262661001 -0.161663710547054 0 0.2252651116836773 -0.173420927130602 0 0.19915802257389559 -0.17943180692643321 0 0.2252651116836773 -0.173420927130602 0 0.2119141569871773 -0.1971213976439728 0 0.22430201446302339 -0.1487810919338502 0 0.20823132262661001 -0.161663710547054 0 0.2252651116836773 -0.173420927130602 0 0.24477317661511899 -0.15438625179615861 0 0.22430201446302339 -0.1487810919338502 0 0.2252651116836773 -0.173420927130602 0 0.25411262099828558 -0.17831709840515231 0 0.24477317661511899 -0.15438625179615861 0 0.2252651116836773 -0.173420927130602 0 0.25411262099828558 -0.17831709840515231 0 0.2252651116836773 -0.173420927130602 0 0.23511924244443319 -0.19360526928343191 0 0.25370703271449452 -0.2021672765488961 0 0.25411262099828558 -0.17831709840515231 0 0.23511924244443319 -0.19360526928343191 0 0.25370703271449452 -0.2021672765488961 0 0.23511924244443319 -0.19360526928343191 0 0.24426364978656051 -0.21530824895215189 0 0.23511924244443319 -0.19360526928343191 0 0.24426364978656051 -0.21530824895215189 0 0.2266702399950207 -0.21219685485981449 0 0.23511924244443319 -0.19360526928343191 0 0.2266702399950207 -0.21219685485981449 0 0.2119141569871773 -0.1971213976439728 0 0.2252651116836773 -0.173420927130602 0 0.23511924244443319 -0.19360526928343191 0 0.2119141569871773 -0.1971213976439728 0 0.237311055005646 -0.24290651797302651 0 0.24593773647071951 -0.24899878885736021 0 0.24927345032971729 -0.23402375540267939 0 0.237311055005646 -0.24290651797302651 0 0.23660255693494331 -0.23137671493436299 0 0.24927345032971729 -0.23402375540267939 0 0.24426364978656051 -0.21530824895215189 0 0.2266702399950207 -0.21219685485981449 0 0.23660255693494331 -0.23137671493436299 0 0.24426364978656051 -0.21530824895215189 0 0.23660255693494331 -0.23137671493436299 0 0.24927345032971729 -0.23402375540267939 0 0.2266702399950207 -0.21219685485981449 0 0.23660255693494331 -0.23137671493436299 0 0.2088181227183625 -0.2252465994925795 0 0.23660255693494331 -0.23137671493436299 0 0.21899797613249011 -0.23481835956155581 0 0.2088181227183625 -0.2252465994925795 0 0.23660255693494331 -0.23137671493436299 0 0.2088181227183625 -0.2252465994925795 0 0.23660255693494331 -0.23137671493436299 0 0.21899797613249011 -0.23481835956155581 0 0.22893859532102681 -0.23701625171967541 0 0.21899797613249011 -0.23481835956155581 0 0.22893859532102681 -0.23701625171967541 0 0.21006609087306391 -0.24615974969517859 0 0.22580293597182299 -0.26311707895105479 0 0.237311055005646 -0.24290651797302651 0 0.22893859532102681 -0.23701625171967541 0 0.22580293597182299 -0.26311707895105479 0 0.22893859532102681 -0.23701625171967541 0 0.21006609087306391 -0.24615974969517859 0 0.237311055005646 -0.24290651797302651 0 0.23660255693494331 -0.23137671493436299 0 0.22893859532102681 -0.23701625171967541 0 0.21899797613249011 -0.23481835956155581 0 0.21006609087306391 -0.24615974969517859 0 0.2088181227183625 -0.2252465994925795 0 0.21006609087306391 -0.24615974969517859 0 0.2088181227183625 -0.2252465994925795 0 0.1934840184441084 -0.24346184585610081 0 0.2088181227183625 -0.2252465994925795 0 0.1934840184441084 -0.24346184585610081 0 0.18103368850178181 -0.21911648405079609 0 0.2088181227183625 -0.2252465994925795 0 0.18103368850178181 -0.21911648405079609 0 0.19379555089723269 -0.25427210553970042 0 0.21006609087306391 -0.24615974969517859 0 0.1934840184441084 -0.24346184585610081 0 0.19379555089723269 -0.25427210553970042 0 0.18176942957851211 -0.2510096841395052 0 0.1934840184441084 -0.24346184585610081 0 0.2266702399950207 -0.21219685485981449 0 0.2088181227183625 -0.2252465994925795 0 0.2119141569871773 -0.1971213976439728 0 0.2088181227183625 -0.2252465994925795 0 0.2119141569871773 -0.1971213976439728 0 0.19191761273436439 -0.20112620564181111 0 0.2088181227183625 -0.2252465994925795 0 0.19191761273436439 -0.20112620564181111 0 0.18103368850178181 -0.21911648405079609 0 0.19915802257389559 -0.17943180692643321 0 0.19191761273436439 -0.20112620564181111 0 0.18029548472598281 -0.18404284479789279 0 0.19915802257389559 -0.17943180692643321 0 0.2119141569871773 -0.1971213976439728 0 0.19191761273436439 -0.20112620564181111 0 0.19191761273436439 -0.20112620564181111 0 0.1702862008989863 -0.2017981009391922 0 0.18029548472598281 -0.18404284479789279 0 0.19191761273436439 -0.20112620564181111 0 0.1702862008989863 -0.2017981009391922 0 0.18103368850178181 -0.21911648405079609 0 0.1702862008989863 -0.2017981009391922 0 0.18103368850178181 -0.21911648405079609 0 0.15324925428520089 -0.2129863686090126 0 0.18103368850178181 -0.21911648405079609 0 0.15324925428520089 -0.2129863686090126 0 0.1702862008989863 -0.2017981009391922 0 0.18029548472598281 -0.18404284479789279 0 0.15719898932585211 -0.18578949016383561 0 0.1702862008989863 -0.2017981009391922 0 0.15324925428520089 -0.2129863686090126 0 0.15719898932585211 -0.18578949016383561 0 0.1934840184441084 -0.24346184585610081 0 0.17020935796318271 -0.24141765821027381 0 0.18176942957851211 -0.2510096841395052 0 0.1934840184441084 -0.24346184585610081 0 0.17020935796318271 -0.24141765821027381 0 0.1934840184441084 -0.24346184585610081 0 0.18103368850178181 -0.21911648405079609 0 0.17020935796318271 -0.24141765821027381 0 0.17175555600313111 -0.25311697568074948 0 0.18176942957851211 -0.2510096841395052 0 0.17020935796318271 -0.24141765821027381 0 0.18103368850178181 -0.21911648405079609 0 0.15962030688891191 -0.22846009372146789 0 0.17020935796318271 -0.24141765821027381 0 0.18103368850178181 -0.21911648405079609 0 0.15962030688891191 -0.22846009372146789 0 0.15324925428520089 -0.2129863686090126 0 0.17020935796318271 -0.24141765821027381 0 0.14693469748225699 -0.2393734705644468 0 0.16018855828932971 -0.2508071549327926 0 0.17020935796318271 -0.24141765821027381 0 0.14693469748225699 -0.2393734705644468 0 0.15962030688891191 -0.22846009372146789 0 0.17020935796318271 -0.24141765821027381 0 0.14693469748225699 -0.2393734705644468 0 0.16018855828932971 -0.2508071549327926 0 0.17175555600313111 -0.25311697568074948 0 0.17020935796318271 -0.24141765821027381 0 0.13962150948789279 -0.25001931295635449 0 0.15148798434260941 -0.25187825785796969 0 0.14693469748225699 -0.2393734705644468 0 0.15148798434260941 -0.25187825785796969 0 0.16018855828932971 -0.2508071549327926 0 0.14693469748225699 -0.2393734705644468 0 0.15962030688891191 -0.22846009372146789 0 0.14693469748225699 -0.2393734705644468 0 0.13689964863930831 -0.2268260186165405 0 0.15962030688891191 -0.22846009372146789 0 0.13689964863930831 -0.2268260186165405 0 0.15324925428520089 -0.2129863686090126 0 0.1205804478484914 -0.22195912213603489 0 0.12366003700133101 -0.2373292829186216 0 0.13689964863930831 -0.2268260186165405 0 0.1205804478484914 -0.22195912213603489 0 0.13689964863930831 -0.2268260186165405 0 0.12874846310804949 -0.2107776762610549 0 0.12781738792472361 -0.25630073961036098 0 0.13962150948789279 -0.25001931295635449 0 0.12366003700133101 -0.2373292829186216 0 0.13962150948789279 -0.25001931295635449 0 0.12366003700133101 -0.2373292829186216 0 0.14693469748225699 -0.2393734705644468 0 0.13962150948789279 -0.25001931295635449 0 0.12366003700133101 -0.2373292829186216 0 0.12366003700133101 -0.2373292829186216 0 0.14693469748225699 -0.2393734705644468 0 0.12366003700133101 -0.2373292829186216 0 0.14693469748225699 -0.2393734705644468 0 0.13689964863930831 -0.2268260186165405 0 0.15324925428520089 -0.2129863686090126 0 0.1391091774258304 -0.19466549752048579 0 0.15719898932585211 -0.18578949016383561 0 0.15324925428520089 -0.2129863686090126 0 0.12874846310804949 -0.2107776762610549 0 0.1391091774258304 -0.19466549752048579 0 0.13689964863930831 -0.2268260186165405 0 0.15324925428520089 -0.2129863686090126 0 0.12874846310804949 -0.2107776762610549 0 0.11931245204809771 -0.1870584185114415 0 0.12874846310804949 -0.2107776762610549 0 0.1391091774258304 -0.19466549752048579 0 0.11931245204809771 -0.1870584185114415 0 0.1391091774258304 -0.19466549752048579 0 0.13839645311571749 -0.1772285374226589 0 0.11931245204809771 -0.1870584185114415 0 0.13839645311571749 -0.1772285374226589 0 0.12647954811933559 -0.1605037134453817 0 0.13839645311571749 -0.1772285374226589 0 0.15260154816700369 -0.15915157420329831 0 0.15719898932585211 -0.18578949016383561 0 0.1391091774258304 -0.19466549752048579 0 0.13839645311571749 -0.1772285374226589 0 0.15719898932585211 -0.18578949016383561 0 0.13839645311571749 -0.1772285374226589 0 0.15260154816700369 -0.15915157420329831 0 0.12647954811933559 -0.1605037134453817 0 0.1148461764638975 -0.14404608003039901 0 0.12647954811933559 -0.1605037134453817 0 0.1375216107965461 -0.1403596059505284 0 0.15260154816700369 -0.15915157420329831 0 0.12647954811933559 -0.1605037134453817 0 0.1375216107965461 -0.1403596059505284 0 0.1238389007101184 -0.12538748776530201 0 0.14552427977500371 -0.1174908708710279 0 0.1375216107965461 -0.1403596059505284 0 0.1238389007101184 -0.12538748776530201 0 0.1148461764638975 -0.14404608003039901 0 0.1375216107965461 -0.1403596059505284 0 0.14552427977500371 -0.1174908708710279 0 0.1375216107965461 -0.1403596059505284 0 0.16201261428958999 -0.13316355356437429 0 0.15260154816700369 -0.15915157420329831 0 0.1375216107965461 -0.1403596059505284 0 0.16201261428958999 -0.13316355356437429 0 0.15260154816700369 -0.15915157420329831 0 0.16201261428958999 -0.13316355356437429 0 0.179911303776395 -0.14405700592880341 0 0.18150231088433089 -0.123655007210659 0 0.16201261428958999 -0.13316355356437429 0 0.179911303776395 -0.14405700592880341 0 0.18150231088433089 -0.123655007210659 0 0.1991139726725033 -0.12532014643277059 0 0.179911303776395 -0.14405700592880341 0 0.1891244548070658 -0.163361137320304 0 0.18029548472598281 -0.18404284479789279 0 0.17182635616045991 -0.1672804104828268 0 0.1891244548070658 -0.163361137320304 0 0.179911303776395 -0.14405700592880341 0 0.17182635616045991 -0.1672804104828268 0 0.18029548472598281 -0.18404284479789279 0 0.15719898932585211 -0.18578949016383561 0 0.17182635616045991 -0.1672804104828268 0 0.15260154816700369 -0.15915157420329831 0 0.179911303776395 -0.14405700592880341 0 0.17182635616045991 -0.1672804104828268 0 0.15260154816700369 -0.15915157420329831 0 0.15719898932585211 -0.18578949016383561 0 0.17182635616045991 -0.1672804104828268 0 
</DataArray>
</Points>
<Cells>
<DataArray type="UInt32" Name="connectivity" format="ascii">
0 1 2 3 4 5 6 7 8 9 10 11 12 13 14 15 16 17 18 19 20 21 22 23 24 25 26 27 28 29 30 31 32 33 34 35 36 37 38 39 40 41 42 43 44 45 46 47 48 49 50 51 52 53 54 55 56 57 58 59 60 61 62 63 64 65 66 67 68 69 70 71 72 73 74 75 76 77 78 79 80 81 82 83 84 85 86 87 88 89 90 91 92 93 94 95 96 97 98 99 100 101 102 103 104 105 106 107 108 109 110 111 112 113 114 115 116 117 118 119 120 121 122 123 124 125 126 127 128 129 130 131 132 133 134 135 136 137 138 139 140 141 142 143 144 145 146 147 148 149 150 151 152 153 154 155 156 157 158 159 160 161 162 163 164 165 166 167 168 169 170 171 172 173 174 175 176 177 178 179 180 181 182 183 184 185 186 187 188 189 190 191 192 193 194 195 196 197 198 199 200 201 202 203 204 205 206 207 208 209 210 211 212 213 214 215 216 217 218 219 220 221 222 223 224 225 226 227 228 229 230 231 232 233 234 235 236 237 238 239 240 241 242 243 244 245 246 247 248 249 250 251 252 253 254 255 256 257 258 259 260 261 262 263 264 265 266 267 268 269 270 271 272 273 274 275 276 277 278 279 280 281 282 283 284 285 286 287 288 289 290 291 292 293 294 295 296 297 298 299 300 301 302 303 304 305 306 307 308 309 310 311 312 313 314 315 316 317 318 319 320 321 322 323 324 325 326 327 328 329 330 331 332 333 334 335 336 337 338 339 340 341 342 343 344 345 346 347 348 349 350 351 352 353 354 355 356 357 358 359 360 361 362 363 364 365 366 367 368 369 370 371 372 373 374 375 376 377 378 379 380 381 382 383 384 385 386 387 388 389 390 391 392 393 394 395 396 397 398 399 400 401 402 403 404 405 406 407 408 409 410 411 412 413 414 415 416 417 418 419 420 421 422 423 424 425 426 427 428 429 430 431 432 433 434 435 436 437 438 439 440 441 442 443 444 445 446 447 448 449 450 451 452 453 454 455 456 457 458 459 460 461 462 463 464 465 466 467 468 469 470 471 472 473 474 475 476 477 478 479 480 481 482 483 484 485 486 487 488 489 490 491 492 493 494 495 496 497 498 499 500 501 502 503 504 505 506 507 508 509 510 511 512 513 514 515 516 517 518 519 520 521 522 523 524 525 526 527 528 529 530 531 532 533 534 535 536 537 538 539 540 541 542 543 544 545 546 547 548 549 550 551 552 553 554 555 556 557 558 559 560 561 562 563 564 565 566 567 568 569 570 571 572 573 574 575 576 577 578 579 580 581 582 583 584 585 586 587 588 589 590 591 592 593 594 595 596 597 598 599 600 601 602 603 604 605 606 607 608 609 610 611 612 613 614 615 616 617 618 619 620 621 622 623 624 625 626 627 628 629 630 631 632 633 634 635 636 637 638 639 640 641 642 643 644 645 646 647 648 649 650 651 652 653 654 655 656 657 658 659 660 661 662 663 664 665 666 667 668 669 670 671 672 673 674 675 676 677 678 679 680 681 682 683 684 685 686 687 688 689 690 691 692 693 694 695 696 697 698 699 700 701 702 703 704 705 706 707 708 709 710 711 712 713 714 715 716 717 718 719 720 721 722 723 724 725 726 727 728 729 730 731 732 733 734 735 736 737 738 739 740 741 742 743 744 745 746 747 748 749 750 751 752 753 754 755 756 757 758 759 760 761 762 763 764 765 766 767 768 769 770 771 772 773 774 775 776 777 778 779 780 781 782 783 784 785 786 787 788 789 790 791 792 793 794 795 796 797 798 799 800 801 802 803 804 805 806 807 808 809 810 811 812 813 814 815 816 817 818 819 820 821 822 823 824 825 826 827 828 829 830 831 832 833 834 835 836 837 838 839 840 841 842 843 844 845 846 847 848 849 850 851 852 853 854 855 856 857 858 859 860 861 862 863 864 865 866 867 868 869 870 871 872 873 874 875 876 877 878 879 880 881 882 883 884 885 886 887 888 889 890 891 892 893 894 895 896 897 898 899 900 901 902 903 904 905 906 907 908 909 910 911 912 913 914 915 916 917 918 919 920 921 922 923 924 925 926 927 928 929 930 931 932 933 934 935 936 937 938 939 940 941 942 943 944 945 946 947 948 949 950 951 952 953 954 955 956 957 958 959 960 961 962 963 964 965 966 967 968 969 970 971 972 973 974 975 976 977 978 979 980 981 982 983 984 985 986 987 988 989 990 991 992 993 994 995 996 997 998 999 1000 1001 1002 1003 1004 1005 1006 1007 1008 1009 1010 1011 1012 1013 1014 1015 1016 1017 1018 1019 1020 1021 1022 1023 1024 1025 1026 1027 1028 1029 1030 1031 1032 1033 1034 1035 1036 1037 1038 1039 1040 1041 1042 1043 1044 1045 1046 1047 1048 1049 1050 1051 1052 1053 1054 1055 1056 1057 1058 1059 1060 1061 1062 1063 1064 1065 1066 1067 1068 1069 1070 1071 1072 1073 1074 1075 1076 1077 1078 1079 1080 1081 1082 1083 1084 1085 1086 1087 1088 1089 1090 1091 1092 1093 1094 1095 1096 1097 1098 1099 1100 1101 1102 1103 1104 1105 1106 1107 1108 1109 1110 1111 1112 1113 1114 1115 1116 1117 1118 1119 1120 1121 1122 1123 1124 1125 1126 1127 1128 1129 1130 1131 1132 1133 1134 1135 1136 1137 1138 1139 1140 1141 1142 1143 1144 1145 1146 1147 1148 1149 1150 1151 1152 1153 1154 1155 1156 1157 1158 1159 1160 1161 1162 1163 1164 1165 1166 1167 1168 1169 1170 1171 1172 1173 1174 1175 1176 1177 1178 1179 1180 1181 1182 1183 1184 1185 1186 1187 1188 1189 1190 1191 1192 1193 1194 1195 1196 1197 1198 1199 1200 1201 1202 1203 1204 1205 1206 1207 1208 1209 1210 1211 1212 1213 1214 1215 1216 1217 1218 1219 1220 1221 1222 1223 1224 1225 1226 1227 1228 1229 1230 1231 1232 1233 1234 1235 1236 1237 1238 1239 1240 1241 1242 1243 1244 1245 1246 1247 1248 1249 1250 1251 1252 1253 1254 1255 1256 1257 1258 1259 1260 1261 1262 1263 1264 1265 1266 1267 1268 1269 1270 1271 1272 1273 1274 1275 1276 1277 1278 1279 1280 1281 1282 1283 1284 1285 1286 1287 1288 1289 1290 1291 1292 1293 1294 1295 1296 1297 1298 1299 1300 1301 1302 1303 1304 1305 1306 1307 1308 1309 1310 1311 1312 1313 1314 1315 1316 1317 1318 1319 1320 1321 1322 1323 1324 1325 1326 1327 1328 1329 1330 1331 1332 1333 1334 1335 1336 1337 1338 1339 1340 1341 1342 1343 1344 1345 1346 1347 1348 1349 1350 1351 1352 1353 1354 1355 1356 1357 1358 1359 1360 1361 1362 1363 1364 1365 1366 1367 1368 1369 1370 1371 1372 1373 1374 1375 1376 1377 1378 1379 1380 1381 1382 1383 1384 1385 1386 1387 1388 1389 1390 1391 1392 1393 1394 1395 1396 1397 1398 1399 1400 1401 1402 1403 1404 1405 1406 1407 1408 1409 1410 1411 1412 1413 1414 1415 1416 1417 1418 1419 1420 1421 1422 1423 1424 1425 1426 1427 1428 1429 1430 1431 1432 1433 1434 1435 1436 1437 1438 1439 1440 1441 1442 1443 1444 1445 1446 1447 1448 1449 1450 1451 1452 1453 1454 1455 1456 1457 1458 1459 1460 1461 1462 1463 1464 1465 1466 1467 1468 1469 1470 1471 1472 1473 1474 1475 1476 1477 1478 1479 1480 1481 1482 1483 1484 1485 1486 1487 1488 1489 1490 1491 1492 1493 1494 1495 1496 1497 1498 1499 1500 1501 1502 1503 1504 1505 1506 1507 1508 1509 1510 1511 1512 1513 1514 1515 1516 1517 1518 1519 1520 1521 1522 1523 1524 1525 1526 1527 1528 1529 1530 1531 1532 1533 1534 1535 1536 1537 1538 1539 1540 1541 1542 1543 1544 1545 1546 1547 1548 1549 1550 1551 1552 1553 1554 1555 1556 1557 1558 1559 1560 1561 1562 1563 1564 1565 1566 1567 1568 1569 1570 1571 1572 1573 1574 1575 1576 1577 1578 1579 1580 1581 1582 1583 1584 1585 1586 1587 1588 1589 1590 1591 1592 1593 1594 1595 1596 1597 1598 1599 1600 1601 1602 1603 1604 1605 1606 1607 1608 1609 1610 1611 1612 1613 1614 1615 1616 1617 1618 1619 1620 1621 1622 1623 1624 1625 1626 1627 1628 1629 1630 1631 1632 1633 1634 1635 1636 1637 1638 1639 1640 1641 1642 1643 1644 1645 1646 1647 1648 1649 1650 1651 1652 1653 1654 1655 1656 1657 1658 1659 1660 1661 1662 1663 1664 1665 1666 1667 1668 1669 1670 1671 1672 1673 1674 1675 1676 1677 1678 1679 1680 1681 1682 1683 1684 1685 1686 1687 1688 1689 1690 1691 1692 1693 1694 1695 1696 1697 1698 1699 1700 1701 1702 1703 1704 1705 1706 1707 1708 1709 1710 1711 1712 1713 1714 1715 1716 1717 1718 1719 1720 1721 1722 1723 1724 1725 1726 1727 1728 1729 1730 1731 1732 1733 1734 1735 1736 1737 1738 1739 1740 1741 1742 1743 1744 1745 1746 1747 1748 1749 1750 1751 1752 1753 1754 1755 1756 1757 1758 1759 1760 1761 1762 1763 1764 1765 1766 1767 1768 1769 1770 1771 1772 1773 1774 1775 1776 1777 1778 1779 1780 1781 1782 1783 1784 1785 1786 1787 1788 1789 1790 1791 1792 1793 1794 1795 1796 1797 1798 1799 1800 1801 1802 1803 1804 1805 1806 1807 1808 1809 1810 1811 1812 1813 1814 1815 1816 1817 1818 1819 1820 1821 1822 1823 1824 1825 1826 1827 1828 1829 1830 1831 1832 1833 1834 1835 1836 1837 1838 1839 1840 1841 1842 1843 1844 1845 1846 1847 1848 1849 1850 1851 1852 1853 1854 1855 1856 1857 1858 1859 1860 1861 1862 1863 1864 1865 1866 1867 1868 1869 1870 1871 1872 1873 1874 1875 1876 1877 1878 1879 1880 1881 1882 1883 1884 1885 1886 1887 1888 1889 1890 1891 1892 1893 1894 1895 1896 1897 1898 1899 1900 1901 1902 1903 1904 1905 1906 1907 1908 1909 1910 1911 1912 1913 1914 1915 1916 1917 1918 1919 1920 1921 1922 1923 1924 1925 1926 1927 1928 1929 1930 1931 1932 1933 1934 1935 1936 1937 1938 1939 1940 1941 1942 1943 1944 1945 1946 1947 1948 1949 1950 1951 1952 1953 1954 1955 1956 1957 1958 1959 1960 1961 1962 1963 1964 1965 1966 1967 1968 1969 1970 1971 1972 1973 1974 1975 1976 1977 1978 1979 1980 1981 1982 1983 1984 1985 1986 1987 1988 1989 1990 1991 1992 1993 1994 1995 1996 1997 1998 1999 2000 2001 2002 2003 2004 2005 2006 2007 2008 2009 2010 2011 2012 2013 2014 2015 2016 2017 2018 2019 2020 2021 2022 2023 2024 2025 2026 2027 2028 2029 2030 2031 2032 2033 2034 2035 2036 2037 2038 2039 2040 2041 2042 2043 2044 2045 2046 2047 2048 2049 2050 2051 2052 2053 2054 2055 2056 2057 2058 2059 2060 2061 2062 2063 2064 2065 2066 2067 2068 2069 2070 2071 2072 2073 2074 2075 2076 2077 2078 2079 2080 2081 2082 2083 2084 2085 2086 2087 2088 2089 2090 2091 2092 2093 2094 2095 2096 2097 2098 2099 2100 2101 2102 2103 2104 2105 2106 2107 2108 2109 2110 2111 2112 2113 2114 2115 2116 2117 2118 2119 2120 2121 2122 2123 2124 2125 2126 2127 2128 2129 2130 2131 2132 2133 2134 2135 2136 2137 2138 2139 2140 2141 2142 2143 2144 2145 2146 2147 2148 2149 2150 2151 2152 2153 2154 2155 2156 2157 2158 2159 2160 2161 2162 2163 2164 2165 2166 2167 2168 2169 2170 2171 2172 2173 2174 2175 2176 2177 2178 2179 2180 2181 2182 2183 2184 2185 2186 2187 2188 2189 2190 2191 2192 2193 2194 2195 2196 2197 2198 2199 2200 2201 2202 2203 2204 2205 2206 2207 2208 2209 2210 2211 2212 2213 2214 2215 2216 2217 2218 2219 2220 2221 2222 2223 2224 2225 2226 2227 2228 2229 2230 2231 2232 2233 2234 2235 2236 2237 2238 2239 2240 2241 2242 2243 2244 2245 2246 2247 2248 2249 2250 2251 2252 2253 2254 2255 2256 2257 2258 2259 2260 2261 2262 2263 2264 2265 2266 2267 2268 2269 2270 2271 2272 2273 2274 2275 2276 2277 2278 2279 2280 2281 2282 2283 2284 2285 2286 2287 2288 2289 2290 2291 2292 2293 2294 2295 2296 2297 2298 2299 2300 2301 2302 2303 2304 2305 2306 2307 2308 2309 2310 2311 2312 2313 2314 2315 2316 2317 2318 2319 2320 2321 2322 2323 2324 2325 2326 2327 2328 2329 2330 2331 2332 2333 2334 2335 2336 2337 2338 2339 2340 2341 2342 2343 2344 2345 2346 2347 2348 2349 2350 2351 2352 2353 2354 2355 2356 2357 2358 2359 2360 2361 2362 2363 2364 2365 2366 2367 2368 2369 2370 2371 2372 2373 2374 2375 2376 2377 2378 2379 2380 2381 2382 2383 2384 2385 2386 2387 2388 2389 2390 2391 2392 2393 2394 2395 2396 2397 2398 2399 2400 2401 2402 2403 2404 2405 2406 2407 2408 2409 2410 2411 2412 2413 2414 2415 2416 2417 2418 2419 2420 2421 2422 2423 2424 2425 2426 2427 2428 2429 2430 2431 2432 2433 2434 2435 2436 2437 2438 2439 2440 2441 2442 2443 2444 2445 2446 2447 2448 2449 2450 2451 2452 2453 2454 2455 2456 2457 2458 2459 2460 2461 2462 2463 2464 2465 2466 2467 2468 2469 2470 2471 2472 2473 2474 2475 2476 2477 2478 2479 2480 2481 2482 2483 2484 2485 2486 2487 2488 2489 2490 2491 2492 2493 2494 2495 2496 2497 2498 2499 2500 2501 2502 2503 2504 2505 2506 2507 2508 2509 2510 2511 2512 2513 2514 2515 2516 2517 2518 2519 2520 2521 2522 2523 2524 2525 2526 2527 2528 2529 2530 2531 2532 2533 2534 2535 2536 2537 2538 2539 2540 2541 2542 2543 2544 2545 2546 2547 2548 2549 2550 2551 2552 2553 2554 2555 2556 2557 2558 2559 2560 2561 2562 2563 2564 2565 2566 2567 2568 2569 2570 2571 2572 2573 2574 2575 2576 2577 2578 2579 2580 2581 2582 2583 2584 2585 2586 2587 2588 2589 2590 2591 2592 2593 2594 2595 2596 2597 2598 2599 2600 2601 2602 2603 2604 2605 2606 2607 2608 2609 2610 2611 2612 2613 2614 2615 2616 2617 2618 2619 2620 2621 2622 2623 2624 2625 2626 2627 2628 2629 2630 2631 2632 2633 2634 2635 2636 2637 2638 2639 2640 2641 2642 2643 2644 2645 2646 2647 2648 2649 2650 2651 2652 2653 2654 2655 2656 2657 2658 2659 2660 2661 2662 2663 2664 2665 2666 2667 2668 2669 2670 2671 2672 2673 2674 2675 2676 2677 2678 2679 2680 2681 2682 2683 2684 2685 2686 2687 2688 2689 2690 2691 2692 2693 2694 2695 2696 2697 2698 2699 2700 2701 2702 2703 2704 2705 2706 2707 2708 2709 2710 2711 2712 2713 2714 2715 2716 2717 2718 2719 2720 2721 2722 2723 2724 2725 2726 2727 2728 2729 2730 2731 2732 2733 2734 2735 2736 2737 2738 2739 2740 2741 2742 2743 2744 2745 2746 2747 2748 2749 2750 2751 2752 2753 2754 2755 2756 2757 2758 2759 2760 2761 2762 2763 2764 2765 2766 2767 2768 2769 2770 2771 2772 2773 2774 2775 2776 2777 2778 2779 2780 2781 2782 2783 2784 2785 2786 2787 2788 2789 2790 2791 2792 2793 2794 2795 2796 2797 2798 2799 2800 2801 2802 2803 2804 2805 2806 2807 2808 2809 2810 2811 2812 2813 2814 2815 2816 2817 2818 2819 2820 2821 2822 2823 2824 2825 2826 2827 2828 2829 2830 2831 2832 2833 2834 2835 2836 2837 2838 2839 2840 2841 2842 2843 2844 2845 2846 2847 2848 2849 2850 2851 2852 2853 2854 2855 2856 2857 2858 2859 2860 2861 2862 2863 2864 2865 2866 2867 2868 2869 2870 2871 2872 2873 2874 2875 2876 2877 2878 2879 2880 2881 2882 2883 2884 2885 2886 2887 2888 2889 2890 2891 2892 2893 2894 2895 2896 2897 2898 2899 2900 2901 2902 2903 2904 2905 2906 2907 2908 2909 2910 2911 2912 2913 2914 2915 2916 2917 2918 2919 2920 2921 2922 2923 2924 2925 2926 2927 2928 2929 2930 2931 2932 2933 2934 2935 2936 2937 2938 2939 2940 2941 2942 2943 2944 2945 2946 2947 2948 2949 2950 2951 2952 2953 2954 2955 2956 2957 2958 2959 2960 2961 2962 2963 2964 2965 2966 2967 2968 2969 2970 2971 2972 2973 2974 2975 2976 2977 2978 2979 2980 2981 2982 2983 2984 2985 2986 2987 2988 2989 2990 2991 2992 2993 2994 2995 2996 2997 2998 2999 3000 3001 3002 3003 3004 3005 3006 3007 3008 3009 3010 3011 3012 3013 3014 3015 3016 3017 3018 3019 3020 3021 3022 3023 3024 3025 3026 3027 3028 3029 3030 3031 3032 3033 3034 3035 3036 3037 3038 3039 3040 3041 3042 3043 3044 3045 3046 3047 3048 3049 3050 3051 3052 3053 3054 3055 3056 3057 3058 3059 3060 3061 3062 3063 3064 3065 3066 3067 3068 3069 3070 3071 3072 3073 3074 3075 3076 3077 3078 3079 3080 3081 3082 3083 3084 3085 3086 3087 3088 3089 3090 3091 3092 3093 3094 3095 3096 3097 3098 3099 3100 3101 3102 3103 3104 3105 3106 3107 3108 3109 3110 3111 3112 3113 3114 3115 3116 3117 3118 3119 3120 3121 3122 3123 3124 3125 3126 3127 3128 3129 3130 3131 3132 3133 3134 3135 3136 3137 3138 3139 3140 3141 3142 3143 3144 3145 3146 3147 3148 3149 3150 3151 3152 3153 3154 3155 3156 3157 3158 3159 3160 3161 3162 3163 3164 3165 3166 3167 3168 3169 3170 3171 3172 3173 3174 3175 3176 3177 3178 3179 3180 3181 3182 3183 3184 3185 3186 3187 3188 3189 3190 3191 3192 3193 3194 3195 3196 3197 3198 3199 3200 3201 3202 3203 3204 3205 3206 3207 3208 3209 3210 3211 3212 3213 3214 3215 3216 3217 3218 3219 3220 3221 3222 3223 3224 3225 3226 3227 3228 3229 3230 3231 3232 3233 3234 3235 3236 3237 3238 3239 3240 3241 3242 3243 3244 3245 3246 3247 3248 3249 3250 3251 3252 3253 3254 3255 3256 3257 3258 3259 3260 3261 3262 3263 3264 3265 3266 3267 3268 3269 3270 3271 3272 3273 3274 3275 3276 3277 3278 3279 3280 3281 3282 3283 3284 3285 3286 3287 3288 3289 3290 3291 3292 3293 3294 3295 3296 3297 3298 3299 3300 3301 3302 3303 3304 3305 3306 3307 3308 3309 3310 3311 3312 3313 3314 3315 3316 3317 3318 3319 3320 3321 3322 3323 3324 3325 3326 3327 3328 3329 3330 3331 3332 3333 3334 3335 3336 3337 3338 3339 3340 3341 3342 3343 3344 3345 3346 3347 3348 3349 3350 3351 3352 3353 3354 3355 3356 3357 3358 3359 3360 3361 3362 3363 3364 3365 3366 3367 3368 3369 3370 3371 3372 3373 3374 3375 3376 3377 3378 3379 3380 3381 3382 3383 3384 3385 3386 3387 3388 3389 3390 3391 3392 3393 3394 3395 3396 3397 3398 3399 3400 3401 3402 3403 3404 3405 3406 3407 3408 3409 3410 3411 3412 3413 3414 3415 3416 3417 3418 3419 3420 3421 3422 3423 3424 3425 3426 3427 3428 3429 3430 3431 3432 3433 3434 3435 3436 3437 3438 3439 3440 3441 3442 3443 3444 3445 3446 3447 3448 3449 3450 3451 3452 3453 3454 3455 3456 3457 3458 3459 3460 3461 3462 3463 3464 3465 3466 3467 3468 3469 3470 3471 3472 3473 3474 3475 3476 3477 3478 3479 3480 3481 3482 3483 3484 3485 3486 3487 3488 3489 3490 3491 3492 3493 3494 3495 3496 3497 3498 3499 3500 3501 3502 3503 3504 3505 3506 3507 3508 3509 3510 3511 3512 3513 3514 3515 3516 3517 3518 3519 3520 3521 3522 3523 3524 3525 3526 3527 3528 3529 3530 3531 3532 3533 3534 3535 3536 3537 3538 3539 3540 3541 3542 3543 3544 3545 3546 3547 3548 3549 3550 3551 3552 3553 3554 3555 3556 3557 3558 3559 3560 3561 3562 3563 3564 3565 3566 3567 3568 3569 3570 3571 3572 3573 3574 3575 3576 3577 3578 3579 3580 3581 3582 3583 3584 3585 3586 3587 3588 3589 3590 3591 3592 3593 3594 3595 3596 3597 3598 3599 3600 3601 3602 3603 3604 3605 3606 3607 3608 3609 3610 3611 3612 3613 3614 3615 3616 3617 3618 3619 3620 3621 3622 3623 3624 3625 3626 3627 3628 3629 3630 3631 3632 3633 3634 3635 3636 3637 3638 3639 3640 3641 3642 3643 3644 3645 3646 3647 3648 3649 3650 3651 3652 3653 3654 3655 3656 3657 3658 3659 3660 3661 3662 3663 3664 3665 3666 3667 3668 3669 3670 3671 3672 3673 3674 3675 3676 3677 3678 3679 3680 3681 3682 3683 3684 3685 3686 3687 3688 3689 3690 3691 3692 3693 3694 3695 3696 3697 3698 3699 3700 3701 3702 3703 3704 3705 3706 3707 3708 3709 3710 3711 3712 3713 3714 3715 3716 3717 3718 3719 3720 3721 3722 3723 3724 3725 3726 3727 3728 3729 3730 3731 3732 3733 3734 3735 3736 3737 3738 3739 3740 3741 3742 3743 3744 3745 3746 3747 3748 3749 3750 3751 3752 3753 3754 3755 3756 3757 3758 3759 3760 3761 3762 3763 3764 3765 3766 3767 3768 3769 3770 3771 3772 3773 3774 3775 3776 3777 3778 3779 3780 3781 3782 3783 3784 3785 3786 3787 3788 3789 3790 3791 3792 3793 3794 3795 3796 3797 3798 3799 3800 3801 3802 3803 3804 3805 3806 3807 3808 3809 3810 3811 3812 3813 3814 3815 3816 3817 3818 3819 3820 3821 3822 3823 3824 3825 3826 3827 3828 3829 3830 3831 3832 3833 3834 3835 3836 3837 3838 3839 3840 3841 3842 3843 3844 3845 3846 3847 3848 3849 3850 3851 3852 3853 3854 3855 3856 3857 3858 3859 3860 3861 3862 3863 3864 3865 3866 3867 3868 3869 3870 3871 3872 3873 3874 3875 3876 3877 3878 3879 3880 3881 3882 3883 3884 3885 3886 3887 3888 3889 3890 3891 3892 3893 3894 3895 3896 3897 3898 3899 3900 3901 3902 3903 3904 3905 3906 3907 3908 3909 3910 3911 3912 3913 3914 3915 3916 3917 3918 3919 3920 3921 3922 3923 3924 3925 3926 3927 3928 3929 3930 3931 3932 3933 3934 3935 3936 3937 3938 3939 3940 3941 3942 3943 3944 3945 3946 3947 3948 3949 3950 3951 3952 3953 3954 3955 3956 3957 3958 3959 3960 3961 3962 3963 3964 3965 3966 3967 3968 3969 3970 3971 3972 3973 3974 3975 3976 3977 3978 3979 3980 3981 3982 3983 3984 3985 3986 3987 3988 3989 3990 3991 3992 3993 3994 3995 3996 3997 3998 3999 4000 4001 4002 4003 4004 4005 4006 4007 4008 4009 4010 4011 4012 4013 4014 4015 4016 4017 4018 4019 4020 4021 4022 4023 4024 4025 4026 4027 4028 4029 4030 4031 4032 4033 4034 4035 4036 4037 4038 4039 4040 4041 4042 4043 4044 4045 4046 4047 4048 4049 4050 4051 4052 4053 4054 4055 4056 4057 4058 4059 4060 4061 4062 4063 4064 4065 4066 4067 4068 4069 4070 4071 4072 4073 4074 4075 4076 4077 4078 4079 4080 4081 4082 4083 4084 4085 4086 4087 4088 4089 4090 4091 4092 4093 4094 4095 4096 4097 4098 4099 4100 4101 4102 4103 4104 4105 4106 4107 4108 4109 4110 4111 4112 4113 4114 4115 4116 4117 4118 4119 4120 4121 4122 4123 4124 4125 4126 4127 4128 4129 4130 4131 4132 4133 4134 4135 4136 4137 4138 4139 4140 4141 4142 4143 4144 4145 4146 4147 4148 4149 4150 4151 4152 4153 4154 4155 4156 4157 4158 4159 4160 4161 4162 4163 4164 4165 4166 4167 4168 4169 4170 4171 4172 4173 4174 4175 4176 4177 4178 4179 4180 4181 4182 4183 4184 4185 4186 4187 4188 4189 4190 4191 4192 4193 4194 4195 4196 4197 4198 4199 4200 4201 4202 4203 4204 4205 4206 4207 4208 4209 4210 4211 4212 4213 4214 4215 4216 4217 4218 4219 4220 4221 4222 4223 4224 4225 4226 4227 4228 4229 4230 4231 4232 4233 4234 4235 4236 4237 4238 4239 4240 4241 4242 4243 4244 4245 4246 4247 4248 4249 4250 4251 4252 4253 4254 4255 4256 4257 4258 4259 4260 4261 4262 4263 4264 4265 4266 4267 4268 4269 4270 4271 4272 4273 4274 4275 4276 4277 4278 4279 4280 4281 4282 4283 4284 4285 4286 4287 4288 4289 4290 4291 4292 4293 4294 4295 4296 4297 4298 4299 4300 4301 4302 4303 4304 4305 4306 4307 4308 4309 4310 4311 4312 4313 4314 4315 4316 4317 4318 4319 4320 4321 4322 4323 4324 4325 4326 4327 4328 4329 4330 4331 4332 4333 4334 4335 4336 4337 4338 4339 4340 4341 4342 4343 4344 4345 4346 4347 4348 4349 4350 4351 4352 4353 4354 4355 4356 4357 4358 4359 4360 4361 4362 4363 4364 4365 4366 4367 4368 4369 4370 4371 4372 4373 4374 4375 4376 4377 4378 4379 4380 4381 4382 4383 4384 4385 4386 4387 4388 4389 4390 4391 4392 4393 4394 4395 4396 4397 4398 4399 4400 4401 4402 4403 4404 4405 4406 4407 4408 4409 4410 4411 4412 4413 4414 4415 4416 4417 4418 4419 4420 4421 4422 4423 4424 4425 4426 4427 4428 4429 4430 4431 4432 4433 4434 4435 4436 4437 4438 4439 4440 4441 4442 4443 4444 4445 4446 4447 4448 4449 4450 4451 4452 4453 4454 4455 4456 4457 4458 4459 4460 4461 4462 4463 4464 4465 4466 4467 4468 4469 4470 4471 4472 4473 4474 4475 4476 4477 4478 4479 4480 4481 4482 4483 4484 4485 4486 4487 4488 4489 4490 4491 4492 4493 4494 4495 4496 4497 4498 4499 4500 4501 4502 4503 4504 4505 4506 4507 4508 4509 4510 4511 4512 4513 4514 4515 4516 4517 4518 4519 4520 4521 4522 4523 4524 4525 4526 4527 4528 4529 4530 4531 4532 4533 4534 4535 4536 4537 4538 4539 4540 4541 4542 4543 4544 4545 4546 4547 4548 4549 4550 4551 4552 4553 4554 4555 4556 4557 4558 4559 4560 4561 4562 4563 4564 4565 4566 4567 4568 4569 4570 4571 4572 4573 4574 4575 4576 4577 4578 4579 4580 4581 4582 4583 4584 4585 4586 4587 4588 4589 4590 4591 4592 4593 4594 4595 4596 4597 4598 4599 4600 4601 4602 4603 4604 4605 4606 4607 4608 4609 4610 4611 4612 4613 4614 4615 4616 4617 4618 4619 4620 4621 4622 4623 4624 4625 4626 4627 4628 4629 4630 4631 4632 4633 4634 4635 4636 4637 4638 4639 4640 4641 4642 4643 4644 4645 4646 4647 4648 4649 4650 4651 4652 4653 4654 4655 4656 4657 4658 4659 4660 4661 4662 4663 4664 4665 4666 4667 4668 4669 4670 4671 4672 4673 4674 4675 4676 4677 4678 4679 4680 4681 4682 4683 4684 4685 4686 4687 4688 4689 4690 4691 4692 4693 4694 4695 4696 4697 4698 4699 4700 4701 4702 4703 4704 4705 4706 4707 4708 4709 4710 4711 4712 4713 4714 4715 4716 4717 4718 4719 4720 4721 4722 4723 4724 4725 4726 4727 4728 4729 4730 4731 4732 4733 4734 4735 4736 4737 4738 4739 4740 4741 4742 4743 4744 4745 4746 4747 4748 4749 4750 4751 4752 4753 4754 4755 4756 4757 4758 4759 4760 4761 4762 4763 4764 4765 4766 4767 4768 4769 4770 4771 4772 4773 4774 4775 4776 4777 4778 4779 4780 4781 4782 4783 4784 4785 4786 4787 4788 4789 4790 4791 4792 4793 4794 4795 4796 4797 4798 4799 4800 4801 4802 4803 4804 4805 4806 4807 4808 4809 4810 4811 4812 4813 4814 4815 4816 4817 4818 4819 4820 4821 4822 4823 4824 4825 4826 4827 4828 4829 4830 4831 4832 4833 4834 4835 4836 4837 4838 4839 4840 4841 4842 4843 4844 4845 4846 4847 4848 4849 4850 4851 4852 4853 4854 4855 4856 4857 4858 4859 4860 4861 4862 4863 4864 4865 4866 4867 4868 4869 4870 4871 4872 4873 4874 4875 4876 4877 4878 4879 4880 4881 4882 4883 4884 4885 4886 4887 4888 4889 4890 4891 4892 4893 4894 4895 4896 4897 4898 4899 4900 4901 4902 4903 4904 4905 4906 4907 4908 4909 4910 4911 4912 4913 4914 4915 4916 4917 4918 4919 4920 4921 4922 4923 4924 4925 4926 4927 4928 4929 4930 4931 4932 4933 4934 4935 4936 4937 4938 4939 4940 4941 4942 4943 4944 4945 4946 4947 4948 4949 4950 4951 4952 4953 4954 4955 4956 4957 4958 4959 4960 4961 4962 4963 4964 4965 4966 4967 4968 4969 4970 4971 4972 4973 4974 4975 4976 4977 4978 4979 4980 4981 4982 4983 4984 4985 4986 4987 4988 4989 4990 4991 4992 4993 4994 4995 4996 4997 4998 4999 5000 5001 5002 5003 5004 5005 5006 5007 5008 5009 5010 5011 5012 5013 5014 5015 5016 5017 5018 5019 5020 5021 5022 5023 5024 5025 5026 5027 5028 5029 5030 5031 5032 5033 5034 5035 5036 5037 5038 5039 5040 5041 5042 5043 5044 5045 5046 5047 5048 5049 5050 5051 5052 5053 5054 5055 5056 5057 5058 5059 5060 5061 5062 5063 5064 5065 5066 5067 5068 5069 5070 5071 5072 5073 5074 5075 5076 5077 5078 5079 5080 5081 5082 5083 5084 5085 5086 5087 5088 5089 5090 5091 5092 5093 5094 5095 5096 5097 5098 5099 5100 5101 5102 5103 5104 5105 5106 5107 5108 5109 5110 5111 5112 5113 5114 5115 5116 5117 5118 5119 5120 5121 5122 5123 5124 5125 5126 5127 5128 5129 5130 5131 5132 5133 5134 5135 5136 5137 5138 5139 5140 5141 5142 5143 5144 5145 5146 5147 5148 5149 5150 5151 5152 5153 5154 5155 5156 5157 5158 5159 5160 5161 5162 5163 5164 5165 5166 5167 5168 5169 5170 5171 5172 5173 5174 5175 5176 5177 5178 5179 5180 5181 5182 5183 5184 5185 5186 5187 5188 5189 5190 5191 5192 5193 5194 5195 5196 5197 5198 5199 5200 5201 5202 5203 5204 5205 5206 5207 5208 5209 5210 5211 5212 5213 5214 5215 5216 5217 5218 5219 5220 5221 5222 5223 5224 5225 5226 5227 5228 5229 5230 5231 5232 5233 5234 5235 5236 5237 5238 5239 5240 5241 5242 5243 5244 5245 5246 5247 5248 5249 5250 5251 5252 5253 5254 5255 5256 5257 5258 5259 5260 5261 5262 5263 5264 5265 5266 5267 5268 5269 5270 5271 5272 5273 5274 5275 5276 5277 5278 5279 5280 5281 5282 5283 5284 5285 5286 5287 5288 5289 5290 5291 5292 5293 5294 5295 5296 5297 5298 5299 5300 5301 5302 5303 5304 5305 5306 5307 5308 5309 5310 5311 5312 5313 5314 5315 5316 5317 5318 5319 5320 5321 5322 5323 5324 5325 5326 5327 5328 5329 5330 5331 5332 5333 5334 5335 5336 5337 5338 5339 5340 5341 5342 5343 5344 5345 5346 5347 5348 5349 5350 5351 5352 5353 5354 5355 5356 5357 5358 5359 5360 5361 5362 5363 5364 5365 5366 5367 5368 5369 5370 5371 5372 5373 5374 5375 5376 5377 5378 5379 5380 5381 5382 5383 5384 5385 5386 5387 5388 5389 5390 5391 5392 5393 5394 5395 5396 5397 5398 5399 5400 5401 5402 5403 5404 5405 5406 5407 5408 5409 5410 5411 5412 5413 5414 5415 5416 5417 5418 5419 5420 5421 5422 5423 5424 5425 5426 5427 5428 5429 5430 5431 5432 5433 5434 5435 5436 5437 5438 5439 5440 5441 5442 5443 5444 5445 5446 5447 5448 5449 5450 5451 5452 5453 5454 5455 5456 5457 5458 5459 5460 5461 5462 5463 5464 5465 5466 5467 5468 5469 5470 5471 5472 5473 5474 5475 5476 5477 5478 5479 5480 5481 5482 5483 5484 5485 5486 5487 5488 5489 5490 5491 5492 5493 5494 5495 5496 5497 5498 5499 5500 5501 5502 5503 5504 5505 5506 5507 5508 5509 5510 5511 5512 5513 5514 5515 5516 5517 5518 5519 5520 5521 5522 5523 5524 5525 5526 5527 5528 5529 5530 5531 5532 5533 5534 5535 5536 5537 5538 5539 5540 5541 5542 5543 5544 5545 5546 5547 5548 5549 5550 5551 5552 5553 5554 5555 5556 5557 5558 5559 5560 5561 5562 5563 5564 5565 5566 5567 5568 5569 5570 5571 5572 5573 5574 5575 5576 5577 5578 5579 5580 5581 5582 5583 5584 5585 5586 5587 5588 5589 5590 5591 5592 5593 5594 5595 5596 5597 5598 5599 5600 5601 5602 5603 5604 5605 5606 5607 5608 5609 5610 5611 5612 5613 5614 5615 5616 5617 5618 5619 5620 5621 5622 5623 5624 5625 5626 5627 5628 5629 5630 5631 5632 5633 5634 5635 5636 5637 5638 5639 5640 5641 5642 5643 5644 5645 5646 5647 5648 5649 5650 5651 5652 5653 5654 5655 5656 5657 5658 5659 5660 5661 5662 5663 5664 5665 5666 5667 5668 5669 5670 5671 5672 5673 5674 5675 5676 5677 5678 5679 5680 5681 5682 5683 5684 5685 5686 5687 5688 5689 5690 5691 5692 5693 5694 5695 5696 5697 5698 5699 5700 5701 5702 5703 5704 5705 5706 5707 5708 5709 5710 5711 5712 5713 5714 5715 5716 5717 5718 5719 5720 5721 5722 5723 5724 5725 5726 5727 5728 5729 5730 5731 5732 5733 5734 5735 5736 5737 5738 5739 5740 5741 5742 5743 5744 5745 5746 5747 5748 5749 5750 5751 5752 5753 5754 5755 5756 5757 5758 5759 5760 5761 5762 5763 5764 5765 5766 5767 5768 5769 5770 5771 5772 5773 5774 5775 5776 5777 5778 5779 5780 5781 5782 5783 5784 5785 5786 5787 5788 5789 5790 5791 5792 5793 5794 5795 5796 5797 5798 5799 5800 5801 5802 5803 5804 5805 5806 5807 5808 5809 5810 5811 5812 5813 5814 5815 5816 5817 5818 5819 5820 5821 5822 5823 5824 5825 5826 5827 5828 5829 5830 5831 5832 5833 5834 5835 5836 5837 5838 5839 5840 5841 5842 5843 5844 5845 5846 5847 5848 5849 5850 5851 5852 5853 5854 5855 5856 5857 5858 5859 5860 5861 5862 5863 5864 5865 5866 5867 5868 5869 5870 5871 5872 5873 5874 5875 5876 5877 5878 5879 5880 5881 5882 5883 5884 5885 5886 5887 5888 5889 5890 5891 5892 5893 5894 5895 5896 5897 5898 5899 5900 5901 5902 5903 5904 5905 5906 5907 5908 5909 5910 5911 5912 5913 5914 5915 5916 5917 5918 5919 5920 5921 5922 5923 5924 5925 5926 5927 5928 5929 5930 5931 5932 5933 5934 5935 5936 5937 5938 5939 5940 5941 5942 5943 5944 5945 5946 5947 5948 5949 5950 5951 5952 5953 5954 5955 5956 5957 5958 5959 5960 5961 5962 5963 5964 5965 5966 5967 5968 5969 5970 5971 5972 5973 5974 5975 5976 5977 5978 5979 5980 5981 5982 5983 5984 5985 5986 5987 5988 5989 5990 5991 5992 5993 5994 5995 5996 5997 5998 5999 6000 6001 6002 6003 6004 6005 6006 6007 6008 6009 6010 6011 6012 6013 6014 6015 6016 6017 6018 6019 6020 6021 6022 6023 6024 6025 6026 6027 6028 6029 6030 6031 6032 6033 6034 6035 6036 6037 6038 6039 6040 6041 6042 6043 6044 6045 6046 6047 6048 6049 6050 6051 6052 6053 6054 6055 6056 6057 6058 6059 6060 6061 6062 6063 6064 6065 6066 6067 6068 6069 6070 6071 6072 6073 6074 6075 6076 6077 6078 6079 6080 6081 6082 6083 6084 6085 6086 6087 6088 6089 6090 6091 6092 6093 6094 6095 6096 6097 6098 6099 6100 6101 6102 6103 6104 6105 6106 6107 6108 6109 6110 6111 6112 6113 6114 6115 6116 6117 6118 6119 6120 6121 6122 6123 6124 6125 6126 6127 6128 6129 6130 6131 6132 6133 6134 6135 6136 6137 6138 6139 6140 6141 6142 6143 6144 6145 6146 6147 6148 6149 6150 6151 6152 6153 6154 6155 6156 6157 6158 6159 6160 6161 6162 6163 6164 6165 6166 6167 6168 6169 6170 6171 6172 6173 6174 6175 6176 6177 6178 6179 6180 6181 6182 6183 6184 6185 6186 6187 6188 6189 6190 6191 6192 6193 6194 6195 6196 6197 6198 6199 6200 6201 6202 6203 6204 6205 6206 6207 6208 6209 6210 6211 6212 6213 6214 6215 6216 6217 6218 6219 6220 6221 6222 6223 6224 6225 6226 6227 6228 6229 6230 6231 6232 6233 6234 6235 6236 6237 6238 6239 6240 6241 6242 6243 6244 6245 6246 6247 6248 6249 6250 6251 6252 6253 6254 6255 6256 6257 6258 6259 6260 6261 6262 6263 6264 6265 6266 6267 6268 6269 6270 6271 6272 6273 6274 6275 6276 6277 6278 6279 6280 6281 6282 6283 6284 6285 6286 6287 6288 6289 6290 6291 6292 6293 6294 6295 6296 6297 6298 6299 6300 6301 6302 6303 6304 6305 6306 6307 6308 6309 6310 6311 6312 6313 6314 6315 6316 6317 6318 6319 6320 6321 6322 6323 6324 6325 6326 6327 6328 6329 6330 6331 6332 6333 6334 6335 6336 6337 6338 6339 6340 6341 6342 6343 6344 6345 6346 6347 6348 6349 6350 6351 6352 6353 6354 6355 6356 6357 6358 6359 6360 6361 6362 6363 6364 6365 6366 6367 6368 6369 6370 6371 6372 6373 6374 6375 6376 6377 6378 6379 6380 6381 6382 6383 6384 6385 6386 6387 6388 6389 6390 6391 6392 6393 6394 6395 6396 6397 6398 6399 6400 6401 6402 6403 6404 6405 6406 6407 6408 6409 6410 6411 6412 6413 6414 6415 6416 6417 6418 6419 6420 6421 6422 6423 6424 6425 6426 6427 6428 6429 6430 6431 6432 6433 6434 6435 6436 6437 6438 6439 6440 6441 6442 6443 6444 6445 6446 6447 6448 6449 6450 6451 6452 6453 6454 6455 6456 6457 6458 6459 6460 6461 6462 6463 6464 6465 6466 6467 6468 6469 6470 6471 6472 6473 6474 6475 6476 6477 6478 6479 6480 6481 6482 6483 6484 6485 6486 6487 6488 6489 6490 6491 6492 6493 6494 6495 6496 6497 6498 6499 6500 6501 6502 6503 6504 6505 6506 6507 6508 6509 6510 6511 6512 6513 6514 6515 6516 6517 6518 6519 6520 6521 6522 6523 6524 6525 6526 6527 6528 6529 6530 6531 6532 6533 6534 6535 6536 6537 6538 6539 6540 6541 6542 6543 6544 6545 6546 6547 6548 6549 6550 6551 6552 6553 6554 6555 6556 6557 6558 6559 6560 6561 6562 6563 6564 6565 6566 6567 6568 6569 6570 6571 6572 6573 6574 6575 6576 6577 6578 6579 6580 6581 6582 6583 6584 6585 6586 6587 6588 6589 6590 6591 6592 6593 6594 6595 6596 6597 6598 6599 6600 6601 6602 6603 6604 6605 6606 6607 6608 6609 6610 6611 6612 6613 6614 6615 6616 6617 6618 6619 6620 6621 6622 6623 6624 6625 6626 6627 6628 6629 6630 6631 6632 6633 6634 6635 6636 6637 6638 6639 6640 6641 6642 6643 6644 6645 6646 6647 6648 6649 6650 6651 6652 6653 6654 6655 6656 6657 6658 6659 6660 6661 6662 6663 6664 6665 6666 6667 6668 6669 6670 6671 6672 6673 6674 6675 6676 6677 6678 6679 6680 6681 6682 6683 6684 6685 6686 6687 6688 6689 6690 6691 6692 6693 6694 6695 6696 6697 6698 6699 6700 6701 6702 6703 6704 6705 6706 6707 6708 6709 6710 6711 6712 6713 6714 6715 6716 6717 6718 6719 6720 6721 6722 6723 6724 6725 6726 6727 6728 6729 6730 6731 6732 6733 6734 6735 6736 6737 6738 6739 6740 6741 6742 6743 6744 6745 6746 6747 6748 6749 6750 6751 6752 6753 6754 6755 6756 6757 6758 6759 6760 6761 6762 6763 6764 6765 6766 6767 6768 6769 6770 6771 6772 6773 6774 6775 6776 6777 6778 6779 6780 6781 6782 6783 6784 6785 6786 6787 6788 6789 6790 6791 6792 6793 6794 6795 6796 6797 6798 6799 6800 6801 6802 6803 6804 6805 6806 6807 6808 6809 6810 6811 6812 6813 6814 6815 6816 6817 6818 6819 6820 6821 6822 6823 6824 6825 6826 6827 6828 6829 6830 6831 6832 6833 6834 6835 6836 6837 6838 6839 6840 6841 6842 6843 6844 6845 6846 6847 6848 6849 6850 6851 6852 6853 6854 6855 6856 6857 6858 6859 6860 6861 6862 6863 6864 6865 6866 6867 6868 6869 6870 6871 6872 6873 6874 6875 6876 6877 6878 6879 6880 6881 6882 6883 6884 6885 6886 6887 6888 6889 6890 6891 6892 6893 6894 6895 6896 6897 6898 6899 6900 6901 6902 6903 6904 6905 6906 6907 6908 6909 6910 6911 6912 6913 6914 6915 6916 6917 6918 6919 6920 6921 6922 6923 6924 6925 6926 6927 6928 6929 6930 6931 6932 6933 6934 6935 6936 6937 6938 6939 6940 6941 6942 6943 6944 6945 6946 6947 6948 6949 6950 6951 6952 6953 6954 6955 6956 6957 6958 6959 6960 6961 6962 6963 6964 6965 6966 6967 6968 6969 6970 6971 6972 6973 6974 6975 6976 6977 6978 6979 6980 6981 6982 6983 6984 6985 6986 6987 6988 6989 6990 6991 6992 6993 6994 6995 6996 6997 6998 6999 7000 7001 7002 7003 7004 7005 7006 7007 7008 7009 7010 7011 7012 7013 7014 7015 7016 7017 7018 7019 7020 7021 7022 7023 7024 7025 7026 7027 7028 7029 7030 7031 7032 7033 7034 7035 7036 7037 7038 7039 7040 7041 7042 7043 7044 7045 7046 7047 7048 7049 7050 7051 7052 7053 7054 7055 7056 7057 7058 7059 7060 7061 7062 7063 7064 7065 7066 7067 7068 7069 7070 7071 7072 7073 7074 7075 7076 7077 7078 7079 7080 7081 7082 7083 7084 7085 7086 7087 7088 7089 7090 7091 7092 7093 7094 7095 7096 7097 7098 7099 7100 7101 7102 7103 7104 7105 7106 7107 7108 7109 7110 7111 7112 7113 7114 7115 7116 7117 7118 7119 7120 7121 7122 7123 7124 7125 7126 7127 7128 7129 7130 7131 7132 7133 7134 7135 7136 7137 7138 7139 7140 7141 7142 7143 7144 7145 7146 7147 7148 7149 7150 7151 7152 7153 7154 7155 7156 7157 7158 7159 7160 7161 7162 7163 7164 7165 7166 7167 7168 7169 7170 7171 7172 7173 7174 7175 7176 7177 7178 7179 7180 7181 7182 7183 7184 7185 7186 7187 7188 7189 7190 7191 7192 7193 7194 7195 7196 7197 7198 7199 7200 7201 7202 7203 7204 7205 7206 7207 7208 7209 7210 7211 7212 7213 7214 7215 7216 7217 7218 7219 7220 7221 7222 7223 7224 7225 7226 7227 7228 7229 7230 7231 7232 7233 7234 7235 7236 7237 7238 7239 7240 7241 7242 7243 7244 7245 7246 7247 7248 7249 7250 7251 7252 7253 7254 7255 7256 7257 7258 7259 7260 7261 7262 7263 7264 7265 7266 7267 7268 7269 7270 7271 7272 7273 7274 7275 7276 7277 7278 7279 7280 7281 7282 7283 7284 7285 7286 7287 7288 7289 7290 7291 7292 7293 7294 7295 7296 7297 7298 7299 7300 7301 7302 7303 7304 7305 7306 7307 7308 7309 7310 7311 7312 7313 7314 7315 7316 7317 7318 7319 7320 7321 7322 7323 7324 7325 7326 7327 7328 7329 7330 7331 7332 7333 7334 7335 7336 7337 7338 7339 7340 7341 7342 7343 7344 7345 7346 7347 7348 7349 7350 7351 7352 7353 7354 7355 7356 7357 7358 7359 7360 7361 7362 7363 7364 7365 7366 7367 7368 7369 7370 7371 7372 7373 7374 7375 7376 7377 7378 7379 7380 7381 7382 7383 7384 7385 7386 7387 7388 7389 7390 7391 7392 7393 7394 7395 7396 7397 7398 7399 7400 7401 7402 7403 7404 7405 7406 7407 7408 7409 7410 7411 7412 7413 7414 7415 7416 7417 7418 7419 7420 7421 7422 7423 7424 7425 7426 7427 7428 7429 7430 7431 7432 7433 7434 7435 7436 7437 7438 7439 7440 7441 7442 7443 7444 7445 7446 7447 7448 7449 7450 7451 7452 7453 7454 7455 7456 7457 7458 7459 7460 7461 7462 7463 7464 7465 7466 7467 7468 7469 7470 7471 7472 7473 7474 7475 7476 7477 7478 7479 7480 7481 7482 7483 7484 7485 7486 7487 7488 7489 7490 7491 7492 7493 7494 7495 7496 7497 7498 7499 7500 7501 7502 7503 7504 7505 7506 7507 7508 7509 7510 7511 7512 7513 7514 7515 7516 7517 7518 7519 7520 7521 7522 7523 7524 7525 7526 7527 7528 7529 7530 7531 7532 7533 7534 7535 7536 7537 7538 7539 7540 7541 7542 7543 7544 7545 7546 7547 7548 7549 7550 7551 7552 7553 7554 7555 7556 7557 7558 7559 7560 7561 7562 7563 7564 7565 7566 7567 7568 7569 7570 7571 7572 7573 7574 7575 7576 7577 7578 7579 7580 7581 7582 7583 7584 7585 7586 7587 7588 7589 7590 7591 7592 7593 7594 7595 7596 7597 7598 7599 7600 7601 7602 7603 7604 7605 7606 7607 7608 7609 7610 7611 7612 7613 7614 7615 7616 7617 7618 7619 7620 7621 7622 7623 7624 7625 7626 7627 7628 7629 7630 7631 7632 7633 7634 7635 7636 7637 7638 7639 7640 7641 7642 7643 7644 7645 7646 7647 7648 7649 7650 7651 7652 7653 7654 7655 7656 7657 7658 7659 7660 7661 7662 7663 7664 7665 7666 7667 7668 7669 7670 7671 7672 7673 7674 7675 7676 7677 7678 7679 7680 7681 7682 7683 7684 7685 7686 7687 7688 7689 7690 7691 7692 7693 7694 7695 7696 7697 7698 7699 7700 7701 7702 7703 7704 7705 7706 7707 7708 7709 7710 7711 7712 7713 7714 7715 7716 7717 7718 7719 7720 7721 7722 7723 7724 7725 7726 7727 7728 7729 7730 7731 7732 7733 7734 7735 7736 7737 7738 7739 7740 7741 7742 7743 7744 7745 7746 7747 7748 7749 7750 7751 7752 7753 7754 7755 7756 7757 7758 7759 7760 7761 7762 7763 7764 7765 7766 7767 7768 7769 7770 7771 7772 7773 7774 7775 7776 7777 7778 7779 7780 7781 7782 7783 7784 7785 7786 7787 7788 7789 7790 7791 7792 7793 7794 7795 7796 7797 7798 7799 7800 7801 7802 7803 7804 7805 7806 7807 7808 7809 7810 7811 7812 7813 7814 7815 7816 7817 7818 7819 7820 7821 7822 7823 7824 7825 7826 7827 7828 7829 7830 7831 7832 7833 7834 7835 7836 7837 7838 7839 7840 7841 7842 7843 7844 7845 7846 7847 7848 7849 7850 7851 7852 7853 7854 7855 7856 7857 7858 7859 7860 7861 7862 7863 7864 7865 7866 7867 7868 7869 7870 7871 7872 7873 7874 7875 7876 7877 7878 7879 7880 7881 7882 7883 7884 7885 7886 7887 7888 7889 7890 7891 7892 7893 7894 7895 7896 7897 7898 7899 7900 7901 7902 7903 7904 7905 7906 7907 7908 7909 7910 7911 7912 7913 7914 7915 7916 7917 7918 7919 7920 7921 7922 7923 7924 7925 7926 7927 7928 7929 7930 7931 7932 7933 7934 7935 7936 7937 7938 7939 7940 7941 7942 7943 7944 7945 7946 7947 7948 7949 7950 7951 7952 7953 7954 7955 7956 7957 7958 7959 7960 7961 7962 7963 7964 7965 7966 7967 7968 7969 7970 7971 7972 7973 7974 7975 7976 7977 7978 7979 7980 7981 7982 7983 7984 7985 7986 7987 7988 7989 7990 7991 7992 7993 7994 7995 7996 7997 7998 7999 8000 8001 8002 8003 8004 8005 8006 8007 8008 8009 8010 8011 8012 8013 8014 8015 8016 8017 8018 8019 8020 8021 8022 8023 8024 8025 8026 8027 8028 8029 8030 8031 8032 8033 8034 8035 8036 8037 8038 8039 8040 8041 8042 8043 8044 8045 8046 8047 8048 8049 8050 8051 8052 8053 8054 8055 8056 8057 8058 8059 8060 8061 8062 8063 8064 8065 8066 8067 8068 8069 8070 8071 8072 8073 8074 8075 8076 8077 8078 8079 8080 8081 8082 8083 8084 8085 8086 8087 8088 8089 8090 8091 8092 8093 8094 8095 8096 8097 8098 8099 8100 8101 8102 8103 8104 8105 8106 8107 8108 8109 8110 8111 8112 8113 8114 8115 8116 8117 8118 8119 8120 8121 8122 8123 8124 8125 8126 8127 8128 8129 8130 8131 8132 8133 8134 8135 8136 8137 8138 8139 8140 8141 8142 8143 8144 8145 8146 8147 8148 8149 8150 8151 8152 8153 8154 8155 8156 8157 8158 8159 8160 8161 8162 8163 8164 8165 8166 8167 8168 8169 8170 8171 8172 8173 8174 8175 8176 8177 8178 8179 8180 8181 8182 8183 8184 8185 8186 8187 8188 8189 8190 8191 8192 8193 8194 8195 8196 8197 8198 8199 8200 8201 8202 8203 8204 8205 8206 8207 8208 8209 8210 8211 8212 8213 8214 8215 8216 8217 8218 8219 8220 8221 8222 8223 8224 8225 8226 8227 8228 8229 8230 8231 8232 8233 8234 8235 8236 8237 8238 8239 8240 8241 8242 8243 8244 8245 8246 8247 8248 8249 8250 8251 8252 8253 8254 8255 8256 8257 8258 8259 8260 8261 8262 8263 8264 8265 8266 8267 8268 8269 8270 8271 8272 8273 8274 8275 8276 8277 8278 8279 8280 8281 8282 8283 8284 8285 8286 8287 8288 8289 8290 8291 8292 8293 8294 8295 8296 8297 8298 8299 8300 8301 8302 8303 8304 8305 8306 8307 8308 8309 8310 8311 8312 8313 8314 8315 8316 8317 8318 8319 8320 8321 8322 8323 8324 8325 8326 8327 8328 8329 8330 8331 8332 8333 8334 8335 8336 8337 8338 8339 8340 8341 8342 8343 8344 8345 8346 8347 8348 8349 8350 8351 8352 8353 8354 8355 8356 8357 8358 8359 8360 8361 8362 8363 8364 8365 8366 8367 8368 8369 8370 8371 8372 8373 8374 8375 8376 8377 8378 8379 8380 8381 8382 8383 8384 8385 8386 8387 8388 8389 8390 8391 8392 8393 8394 8395 8396 8397 8398 8399 8400 8401 8402 8403 8404 8405 8406 8407 8408 8409 8410 8411 8412 8413 8414 8415 8416 8417 8418 8419 8420 8421 8422 8423 8424 8425 8426 8427 8428 8429 8430 8431 8432 8433 8434 8435 8436 8437 8438 8439 8440 8441 8442 8443 8444 8445 8446 8447 8448 8449 8450 8451 8452 8453 8454 8455 8456 8457 8458 8459 8460 8461 8462 8463 8464 8465 8466 8467 8468 8469 8470 8471 8472 8473 8474 8475 8476 8477 8478 8479 8480 8481 8482 8483 8484 8485 8486 8487 8488 8489 8490 8491 8492 8493 8494 8495 8496 8497 8498 8499 8500 8501 8502 8503 8504 8505 8506 8507 8508 8509 8510 8511 8512 8513 8514 8515 8516 8517 8518 8519 8520 8521 8522 8523 8524 8525 8526 8527 8528 8529 8530 8531 8532 8533 8534 8535 8536 8537 8538 8539 8540 8541 8542 8543 8544 8545 8546 8547 8548 8549 8550 8551 8552 8553 8554 8555 8556 8557 8558 8559 8560 8561 8562 8563 8564 8565 8566 8567 8568 8569 8570 8571 8572 8573 8574 8575 8576 8577 8578 8579 8580 8581 8582 8583 8584 8585 8586 8587 8588 8589 8590 8591 8592 8593 8594 8595 8596 8597 8598 8599 8600 8601 8602 8603 8604 8605 8606 8607 8608 8609 8610 8611 8612 8613 8614 8615 8616 8617 8618 8619 8620 8621 8622 8623 8624 8625 8626 8627 8628 8629 8630 8631 8632 8633 8634 8635 8636 8637 8638 8639 8640 8641 8642 8643 8644 8645 8646 8647 8648 8649 8650 8651 8652 8653 8654 8655 8656 8657 8658 8659 8660 8661 8662 8663 8664 8665 8666 8667 8668 8669 8670 8671 8672 8673 8674 8675 8676 8677 8678 8679 8680 8681 8682 8683 8684 8685 8686 8687 8688 8689 8690 8691 8692 8693 8694 8695 8696 8697 8698 8699 8700 8701 8702 8703 8704 8705 8706 8707 8708 8709 8710 8711 8712 8713 8714 8715 8716 8717 8718 8719 8720 8721 8722 8723 8724 8725 8726 8727 8728 8729 8730 8731 8732 8733 8734 8735 8736 8737 8738 8739 8740 8741 8742 8743 8744 8745 8746 8747 8748 8749 8750 8751 8752 8753 8754 8755 8756 8757 8758 8759 8760 8761 8762 8763 8764 8765 8766 8767 8768 8769 8770 8771 8772 8773 8774 8775 8776 8777 8778 8779 8780 8781 8782 8783 8784 8785 8786 8787 8788 8789 8790 8791 8792 8793 8794 8795 8796 8797 8798 8799 8800 8801 8802 8803 8804 8805 8806 8807 8808 8809 8810 8811 8812 8813 8814 8815 8816 8817 8818 8819 8820 8821 8822 8823 8824 8825 8826 8827 8828 8829 8830 8831 8832 8833 8834 8835 8836 8837 8838 8839 8840 8841 8842 8843 8844 8845 8846 8847 8848 8849 8850 8851 8852 8853 8854 8855 8856 8857 8858 8859 8860 8861 8862 8863 8864 8865 8866 8867 8868 8869 8870 8871 8872 8873 8874 8875 8876 8877 8878 8879 8880 8881 8882 8883 8884 8885 8886 8887 8888 8889 8890 8891 8892 8893 8894 8895 8896 8897 8898 8899 8900 8901 8902 8903 8904 8905 8906 8907 8908 8909 8910 8911 8912 8913 8914 8915 8916 8917 8918 8919 8920 8921 8922 8923 8924 8925 8926 8927 8928 8929 8930 8931 8932 8933 8934 8935 8936 8937 8938 8939 8940 8941 8942 8943 8944 8945 8946 8947 8948 8949 8950 8951 8952 8953 8954 8955 8956 8957 8958 8959 8960 8961 8962 8963 8964 8965 8966 8967 8968 8969 8970 8971 8972 8973 8974 8975 8976 8977 8978 8979 8980 8981 8982 8983 8984 8985 8986 8987 8988 8989 8990 8991 8992 8993 8994 8995 8996 8997 8998 8999 9000 9001 9002 9003 9004 9005 9006 9007 9008 9009 9010 9011 9012 9013 9014 9015 9016 9017 9018 9019 9020 9021 9022 9023 9024 9025 9026 9027 9028 9029 9030 9031 9032 9033 9034 9035 9036 9037 9038 9039 9040 9041 9042 9043 9044 9045 9046 9047 9048 9049 9050 9051 9052 9053 9054 9055 9056 9057 9058 9059 9060 9061 9062 9063 9064 9065 9066 9067 9068 9069 9070 9071 9072 9073 9074 9075 9076 9077 9078 9079 9080 9081 9082 9083 9084 9085 9086 9087 9088 9089 9090 9091 9092 9093 9094 9095 9096 9097 9098 9099 9100 9101 9102 9103 9104 9105 9106 9107 9108 9109 9110 9111 9112 9113 9114 9115 9116 9117 9118 9119 9120 9121 9122 9123 9124 9125 9126 9127 9128 9129 9130 9131 9132 9133 9134 9135 9136 9137 9138 9139 9140 9141 9142 9143 9144 9145 9146 9147 9148 9149 9150 9151 9152 9153 9154 9155 9156 9157 9158 9159 9160 9161 9162 9163 9164 9165 9166 9167 9168 9169 9170 9171 9172 9173 9174 9175 9176 9177 9178 9179 9180 9181 9182 9183 9184 9185 9186 9187 9188 9189 9190 9191 9192 9193 9194 9195 9196 9197 9198 9199 9200 9201 9202 9203 9204 9205 9206 9207 9208 9209 9210 9211 9212 9213 9214 9215 9216 9217 9218 9219 9220 9221 9222 9223 9224 9225 9226 9227 9228 9229 9230 9231 9232 9233 9234 9235 9236 9237 9238 9239 9240 9241 9242 9243 9244 9245 9246 9247 9248 9249 9250 9251 9252 9253 9254 9255 9256 9257 9258 9259 9260 9261 9262 9263 9264 9265 9266 9267 9268 9269 9270 9271 9272 9273 9274 9275 9276 9277 9278 9279 9280 9281 9282 9283 9284 9285 9286 9287 9288 9289 9290 9291 9292 9293 9294 9295 9296 9297 9298 9299 9300 9301 9302 9303 9304 9305 9306 9307 9308 9309 9310 9311 9312 9313 9314 9315 9316 9317 9318 9319 9320 9321 9322 9323 9324 9325 9326 9327 9328 9329 9330 9331 9332 9333 9334 9335 9336 9337 9338 9339 9340 9341 9342 9343 9344 9345 9346 9347 9348 9349 9350 9351 9352 9353 9354 9355 9356 9357 9358 9359 9360 9361 9362 9363 9364 9365 9366 9367 9368 9369 9370 9371 9372 9373 9374 9375 9376 9377 9378 9379 9380 9381 9382 9383 9384 9385 9386 9387 9388 9389 9390 9391 9392 9393 9394 9395 9396 9397 9398 9399 9400 9401 9402 9403 9404 9405 9406 9407 9408 9409 9410 9411 9412 9413 9414 9415 9416 9417 9418 9419 9420 9421 9422 9423 9424 9425 9426 9427 9428 9429 9430 9431 9432 9433 9434 9435 9436 9437 9438 9439 9440 9441 9442 9443 9444 9445 9446 9447 9448 9449 9450 9451 9452 9453 9454 9455 9456 9457 9458 9459 9460 9461 9462 9463 9464 9465 9466 9467 9468 9469 9470 9471 9472 9473 9474 9475 9476 9477 9478 9479 9480 9481 9482 9483 9484 9485 9486 9487 9488 9489 9490 9491 9492 9493 9494 9495 9496 9497 9498 9499 9500 9501 9502 9503 9504 9505 9506 9507 9508 9509 9510 9511 9512 9513 9514 9515 9516 9517 9518 9519 9520 9521 9522 9523 9524 9525 9526 9527 9528 9529 9530 9531 9532 9533 9534 9535 9536 9537 9538 9539 9540 9541 9542 9543 9544 9545 9546 9547 9548 9549 9550 9551 9552 9553 9554 9555 9556 9557 9558 9559 9560 9561 9562 9563 9564 9565 9566 9567 9568 9569 9570 9571 9572 9573 9574 9575 9576 9577 9578 9579 9580 9581 9582 9583 9584 9585 9586 9587 9588 9589 9590 9591 9592 9593 9594 9595 9596 9597 9598 9599 9600 9601 9602 9603 9604 9605 9606 9607 9608 9609 9610 9611 9612 9613 9614 9615 9616 9617 9618 9619 9620 9621 9622 9623 9624 9625 9626 9627 9628 9629 9630 9631 9632 9633 9634 9635 9636 9637 9638 9639 9640 9641 9642 9643 9644 9645 9646 9647 9648 9649 9650 9651 9652 9653 9654 9655 9656 9657 9658 9659 9660 9661 9662 9663 9664 9665 9666 9667 9668 9669 9670 9671 9672 9673 9674 9675 9676 9677 9678 9679 9680 9681 9682 9683 9684 9685 9686 9687 9688 9689 9690 9691 9692 9693 9694 9695 9696 9697 9698 9699 9700 9701 9702 9703 9704 9705 9706 9707 9708 9709 9710 9711 9712 9713 9714 9715 9716 9717 9718 9719 9720 9721 9722 9723 9724 9725 9726 9727 9728 9729 9730 9731 9732 9733 9734 9735 9736 9737 9738 9739 9740 9741 9742 9743 9744 9745 9746 9747 9748 9749 9750 9751 9752 9753 9754 9755 9756 9757 9758 9759 9760 9761 9762 9763 9764 9765 9766 9767 9768 9769 9770 9771 9772 9773 9774 9775 9776 9777 9778 9779 9780 9781 9782 9783 9784 9785 9786 9787 9788 9789 9790 9791 9792 9793 9794 9795 9796 9797 9798 9799 9800 9801 9802 9803 9804 9805 9806 9807 9808 9809 9810 9811 9812 9813 9814 9815 9816 9817 9818 9819 9820 9821 9822 9823 9824 9825 9826 9827 9828 9829 9830 9831 9832 9833 9834 9835 9836 9837 9838 9839 9840 9841 9842 9843 9844 9845 9846 9847 9848 9849 9850 9851 9852 9853 9854 9855 9856 9857 9858 9859 9860 9861 9862 9863 9864 9865 9866 9867 9868 9869 9870 9871 9872 9873 9874 9875 9876 9877 9878 9879 9880 9881 9882 9883 9884 9885 9886 9887 9888 9889 9890 9891 9892 9893 9894 9895 9896 9897 9898 9899 9900 9901 9902 9903 9904 9905 9906 9907 9908 9909 9910 9911 9912 9913 9914 9915 9916 9917 9918 9919 9920 9921 9922 9923 9924 9925 9926 9927 9928 9929 9930 9931 9932 9933 9934 9935 9936 9937 9938 9939 9940 9941 9942 9943 9944 9945 9946 9947 9948 9949 9950 9951 9952 9953 9954 9955 9956 9957 9958 9959 9960 9961 9962 9963 9964 9965 9966 9967 9968 9969 9970 9971 9972 9973 9974 9975 9976 9977 9978 9979 9980 9981 9982 9983 9984 9985 9986 9987 9988 9989 9990 9991 9992 9993 9994 9995 9996 9997 9998 9999 10000 10001 10002 10003 10004 10005 10006 10007 10008 10009 10010 10011 10012 10013 10014 10015 10016 10017 10018 10019 10020 10021 10022 10023 10024 10025 10026 10027 10028 10029 10030 10031 10032 10033 10034 10035 10036 10037 10038 10039 10040 10041 10042 10043 10044 10045 10046 10047 10048 10049 10050 10051 10052 10053 10054 10055 10056 10057 10058 10059 10060 10061 10062 10063 10064 10065 10066 10067 10068 10069 10070 10071 10072 10073 10074 10075 10076 10077 10078 10079 10080 10081 10082 10083 10084 10085 10086 10087 10088 10089 10090 10091 10092 10093 10094 10095 10096 10097 10098 10099 10100 10101 10102 10103 10104 10105 10106 10107 10108 10109 10110 10111 10112 10113 10114 10115 10116 10117 10118 10119 10120 10121 10122 10123 10124 10125 10126 10127 10128 10129 10130 10131 10132 10133 10134 10135 10136 10137 10138 10139 10140 10141 10142 10143 10144 10145 10146 10147 10148 10149 10150 10151 10152 10153 10154 10155 10156 10157 10158 10159 10160 10161 10162 10163 10164 10165 10166 10167 10168 10169 10170 10171 10172 10173 10174 10175 10176 10177 10178 10179 10180 10181 10182 10183 10184 10185 10186 10187 10188 10189 10190 10191 10192 10193 10194 10195 10196 10197 10198 10199 10200 10201 10202 10203 10204 10205 10206 10207 10208 10209 10210 10211 10212 10213 10214 10215 10216 10217 10218 10219 10220 10221 10222 10223 10224 10225 10226 10227 10228 10229 10230 10231 10232 10233 10234 10235 10236 10237 10238 10239 10240 10241 10242 10243 10244 10245 10246 10247 10248 10249 10250 10251 10252 10253 10254 10255 10256 10257 10258 10259 10260 10261 10262 10263 10264 10265 10266 10267 10268 10269 10270 10271 10272 10273 10274 10275 10276 10277 10278 10279 10280 10281 10282 10283 10284 10285 10286 10287 10288 10289 10290 10291 10292 10293 10294 10295 10296 10297 10298 10299 10300 10301 10302 10303 10304 10305 10306 10307 10308 10309 10310 10311 10312 10313 10314 10315 10316 10317 10318 10319 10320 10321 10322 10323 10324 10325 10326 10327 10328 10329 10330 10331 10332 10333 10334 10335 10336 10337 10338 10339 10340 10341 10342 10343 10344 10345 10346 10347 10348 10349 10350 10351 10352 10353 10354 10355 10356 10357 10358 10359 10360 10361 10362 10363 10364 10365 10366 10367 10368 10369 10370 10371 10372 10373 10374 10375 10376 10377 10378 10379 10380 10381 10382 10383 10384 10385 10386 10387 10388 10389 10390 10391 10392 10393 10394 10395 10396 10397 10398 10399 10400 10401 10402 10403 10404 10405 10406 10407 10408 10409 10410 10411 10412 10413 10414 10415 10416 10417 10418 10419 10420 10421 10422 10423 10424 10425 10426 10427 10428 10429 10430 10431 10432 10433 10434 10435 10436 10437 10438 10439 10440 10441 10442 10443 10444 10445 10446 10447 10448 10449 10450 10451 10452 10453 10454 10455 10456 10457 10458 10459 10460 10461 10462 10463 10464 10465 10466 10467 10468 10469 10470 10471 10472 10473 10474 10475 10476 10477 10478 10479 10480 10481 10482 10483 10484 10485 10486 10487 10488 10489 10490 10491 10492 10493 10494 10495 10496 10497 10498 10499 10500 10501 10502 10503 10504 10505 10506 10507 10508 10509 10510 10511 10512 10513 10514 10515 10516 10517 10518 10519 10520 10521 10522 10523 10524 10525 10526 10527 10528 10529 10530 10531 10532 10533 10534 10535 10536 10537 10538 10539 10540 10541 10542 10543 10544 10545 10546 10547 10548 10549 10550 10551 10552 10553 10554 10555 10556 10557 10558 10559 10560 10561 10562 10563 10564 10565 10566 10567 10568 10569 10570 10571 10572 10573 10574 10575 10576 10577 10578 10579 10580 10581 10582 10583 10584 10585 10586 10587 10588 10589 10590 10591 10592 10593 10594 10595 10596 10597 10598 10599 10600 10601 10602 10603 10604 10605 10606 10607 10608 10609 10610 10611 10612 10613 10614 10615 10616 10617 10618 10619 10620 10621 10622 10623 10624 10625 10626 10627 10628 10629 10630 10631 10632 10633 10634 10635 10636 10637 10638 10639 10640 10641 10642 10643 10644 10645 10646 10647 10648 10649 10650 10651 10652 10653 10654 10655 10656 10657 10658 10659 10660 10661 10662 10663 10664 10665 10666 10667 10668 10669 10670 10671 10672 10673 10674 10675 10676 10677 10678 10679 10680 10681 10682 10683 10684 10685 10686 10687 10688 10689 10690 10691 10692 10693 10694 10695 10696 10697 10698 10699 10700 10701 10702 10703 10704 10705 10706 10707 10708 10709 10710 10711 10712 10713 10714 10715 10716 10717 10718 10719 10720 10721 10722 10723 10724 10725 10726 10727 10728 10729 10730 10731 10732 10733 10734 10735 10736 10737 10738 10739 10740 10741 10742 10743 10744 10745 10746 10747 10748 10749 10750 10751 10752 10753 10754 10755 10756 10757 10758 10759 10760 10761 10762 10763 10764 10765 10766 10767 10768 10769 10770 10771 10772 10773 10774 10775 10776 10777 10778 10779 10780 10781 10782 10783 10784 10785 10786 10787 10788 10789 10790 10791 10792 10793 10794 10795 10796 10797 10798 10799 10800 10801 10802 10803 10804 10805 10806 10807 10808 10809 10810 10811 10812 10813 10814 10815 10816 10817 10818 10819 10820 10821 10822 10823 10824 10825 10826 10827 10828 10829 10830 10831 10832 10833 10834 10835 10836 10837 10838 10839 10840 10841 10842 10843 10844 10845 10846 10847 10848 10849 10850 10851 10852 10853 10854 10855 10856 10857 10858 10859 10860 10861 10862 10863 10864 10865 10866 10867 10868 10869 10870 10871 10872 10873 10874 10875 10876 10877 10878 10879 10880 10881 10882 10883 10884 10885 10886 10887 10888 10889 10890 10891 10892 10893 10894 10895 10896 10897 10898 10899 10900 10901 10902 10903 10904 10905 10906 10907 10908 10909 10910 10911 10912 10913 10914 10915 10916 10917 10918 10919 10920 10921 10922 10923 10924 10925 10926 10927 10928 10929 10930 10931 10932 10933 10934 10935 10936 10937 10938 10939 10940 10941 10942 10943 10944 10945 10946 10947 10948 10949 10950 10951 10952 10953 10954 10955 10956 10957 10958 10959 10960 10961 10962 10963 10964 10965 10966 10967 10968 10969 10970 10971 10972 10973 10974 10975 10976 10977 10978 10979 10980 10981 10982 10983 10984 10985 10986 10987 10988 10989 10990 10991 10992 10993 10994 10995 10996 10997 10998 10999 11000 11001 11002 11003 11004 11005 11006 11007 11008 11009 11010 11011 11012 11013 11014 11015 11016 11017 11018 11019 11020 11021 11022 11023 11024 11025 11026 11027 11028 11029 11030 11031 11032 11033 11034 11035 11036 11037 11038 11039 11040 11041 11042 11043 11044 11045 11046 11047 11048 11049 11050 11051 11052 11053 11054 11055 11056 11057 11058 11059 11060 11061 11062 11063 11064 11065 11066 11067 11068 11069 11070 11071 11072 11073 11074 11075 11076 11077 11078 11079 11080 11081 11082 11083 11084 11085 11086 11087 11088 11089 11090 11091 11092 11093 11094 11095 11096 11097 11098 11099 11100 11101 11102 11103 11104 11105 11106 11107 11108 11109 11110 11111 11112 11113 11114 11115 11116 11117 11118 11119 11120 11121 11122 11123 11124 11125 11126 11127 11128 11129 11130 11131 11132 11133 11134 11135 11136 11137 11138 11139 11140 11141 11142 11143 11144 11145 11146 11147 11148 11149 11150 11151 11152 11153 11154 11155 11156 11157 11158 11159 11160 11161 11162 11163 11164 11165 11166 11167 11168 11169 11170 11171 11172 11173 11174 11175 11176 11177 11178 11179 11180 11181 11182 11183 11184 11185 11186 11187 11188 11189 11190 11191 11192 11193 11194 11195 11196 11197 11198 11199 11200 11201 11202 11203 11204 11205 11206 11207 11208 11209 11210 11211 11212 11213 11214 11215 11216 11217 11218 11219 11220 11221 11222 11223 11224 11225 11226 11227 11228 11229 11230 11231 11232 11233 11234 11235 11236 11237 11238 11239 11240 11241 11242 11243 11244 11245 11246 11247 11248 11249 11250 11251 11252 11253 11254 11255 11256 11257 11258 11259 11260 11261 11262 11263 11264 11265 11266 11267 11268 11269 11270 11271 11272 11273 11274 11275 11276 11277 11278 11279 11280 11281 11282 11283 11284 11285 11286 11287 11288 11289 11290 11291 11292 11293 11294 11295 11296 11297 11298 11299 11300 11301 11302 11303 11304 11305 11306 11307 11308 11309 11310 11311 11312 11313 11314 11315 11316 11317 11318 11319 11320 11321 11322 11323 11324 11325 11326 11327 11328 11329 11330 11331 11332 11333 11334 11335 11336 11337 11338 11339 11340 11341 11342 11343 11344 11345 11346 11347 11348 11349 11350 11351 11352 11353 11354 11355 11356 11357 11358 11359 11360 11361 11362 11363 11364 11365 11366 11367 11368 11369 11370 11371 11372 11373 11374 11375 11376 11377 11378 11379 11380 11381 11382 11383 11384 11385 11386 11387 11388 11389 11390 11391 11392 11393 11394 11395 11396 11397 11398 11399 11400 11401 11402 11403 11404 11405 11406 11407 11408 11409 11410 11411 11412 11413 11414 11415 11416 11417 11418 11419 11420 11421 11422 11423 11424 11425 11426 11427 11428 11429 11430 11431 11432 11433 11434 11435 11436 11437 11438 11439 11440 11441 11442 11443 11444 11445 11446 11447 11448 11449 11450 11451 11452 11453 11454 11455 11456 11457 11458 11459 11460 11461 11462 11463 11464 11465 11466 11467 11468 11469 11470 11471 11472 11473 11474 11475 11476 11477 11478 11479 11480 11481 11482 11483 11484 11485 11486 11487 11488 11489 11490 11491 11492 11493 11494 11495 11496 11497 11498 11499 11500 11501 11502 11503 11504 11505 11506 11507 11508 11509 11510 11511 11512 11513 11514 11515 11516 11517 11518 11519 11520 11521 11522 11523 11524 11525 11526 11527 11528 11529 11530 11531 11532 11533 11534 11535 11536 11537 11538 11539 11540 11541 11542 11543 11544 11545 11546 11547 11548 11549 11550 11551 11552 11553 11554 11555 11556 11557 11558 11559 11560 11561 11562 11563 11564 11565 11566 11567 11568 11569 11570 11571 11572 11573 11574 11575 11576 11577 11578 11579 11580 11581 11582 11583 11584 11585 11586 11587 11588 11589 11590 11591 11592 11593 11594 11595 11596 11597 11598 11599 11600 11601 11602 11603 11604 11605 11606 11607 11608 11609 11610 11611 11612 11613 11614 11615 11616 11617 11618 11619 11620 11621 11622 11623 11624 11625 11626 11627 11628 11629 11630 11631 11632 11633 11634 11635 11636 11637 11638 11639 11640 11641 11642 11643 11644 11645 11646 11647 11648 11649 11650 11651 11652 11653 11654 11655 11656 11657 11658 11659 11660 11661 11662 11663 11664 11665 11666 11667 11668 11669 11670 11671 11672 11673 11674 11675 11676 11677 11678 11679 11680 11681 11682 11683 11684 11685 11686 11687 11688 11689 11690 11691 11692 11693 11694 11695 11696 11697 11698 11699 11700 11701 11702 11703 11704 11705 11706 11707 11708 11709 11710 11711 11712 11713 11714 11715 11716 11717 11718 11719 11720 11721 11722 11723 11724 11725 11726 11727 11728 11729 11730 11731 11732 11733 11734 11735 11736 11737 11738 11739 11740 11741 11742 11743 11744 11745 11746 11747 11748 11749 11750 11751 11752 11753 11754 11755 11756 11757 11758 11759 11760 11761 11762 11763 11764 11765 11766 11767 11768 11769 11770 11771 11772 11773 11774 11775 11776 11777 11778 11779 11780 11781 11782 11783 11784 11785 11786 11787 11788 11789 11790 11791 11792 11793 11794 11795 11796 11797 11798 11799 11800 11801 11802 11803 11804 11805 11806 11807 11808 11809 11810 11811 11812 11813 11814 11815 11816 11817 11818 11819 11820 11821 11822 11823 11824 11825 11826 11827 11828 11829 11830 11831 11832 11833 11834 11835 11836 11837 11838 11839 11840 11841 11842 11843 11844 11845 11846 11847 11848 11849 11850 11851 11852 11853 11854 11855 11856 11857 11858 11859 11860 11861 11862 11863 11864 11865 11866 11867 11868 11869 11870 11871 11872 11873 11874 11875 11876 11877 11878 11879 11880 11881 11882 11883 11884 11885 11886 11887 11888 11889 11890 11891 11892 11893 11894 11895 11896 11897 11898 11899 11900 11901 11902 11903 11904 11905 11906 11907 11908 11909 11910 11911 11912 11913 11914 11915 11916 11917 11918 11919 11920 11921 11922 11923 11924 11925 11926 11927 11928 11929 11930 11931 11932 11933 11934 11935 11936 11937 11938 11939 11940 11941 11942 11943 11944 11945 11946 11947 11948 11949 11950 11951 11952 11953 11954 11955 11956 11957 11958 11959 11960 11961 11962 11963 11964 11965 11966 11967 11968 11969 11970 11971 11972 11973 11974 11975 11976 11977 11978 11979 11980 11981 11982 11983 11984 11985 11986 11987 11988 11989 11990 11991 11992 11993 11994 11995 11996 11997 11998 11999 12000 12001 12002 12003 12004 12005 12006 12007 12008 12009 12010 12011 12012 12013 12014 12015 12016 12017 12018 12019 12020 12021 12022 12023 12024 12025 12026 12027 12028 12029 12030 12031 12032 12033 12034 12035 12036 12037 12038 12039 12040 12041 12042 12043 12044 12045 12046 12047 12048 12049 12050 12051 12052 12053 12054 12055 12056 12057 12058 12059 12060 12061 12062 12063 12064 12065 12066 12067 12068 12069 12070 12071 12072 12073 12074 12075 12076 12077 12078 12079 12080 12081 12082 12083 12084 12085 12086 12087 12088 12089 12090 12091 12092 12093 12094 12095 12096 12097 12098 12099 12100 12101 12102 12103 12104 12105 12106 12107 12108 12109 12110 12111 12112 12113 12114 12115 12116 12117 12118 12119 12120 12121 12122 12123 12124 12125 12126 12127 12128 12129 12130 12131 12132 12133 12134 12135 12136 12137 12138 12139 12140 12141 12142 12143 12144 12145 12146 12147 12148 12149 12150 12151 12152 12153 12154 12155 12156 12157 12158 12159 12160 12161 12162 12163 12164 12165 12166 12167 12168 12169 12170 12171 12172 12173 12174 12175 12176 12177 12178 12179 12180 12181 12182 12183 12184 12185 12186 12187 12188 12189 12190 12191 12192 12193 12194 12195 12196 12197 12198 12199 12200 12201 12202 12203 12204 12205 12206 12207 12208 12209 12210 12211 12212 12213 12214 12215 12216 12217 12218 12219 12220 12221 12222 12223 12224 12225 12226 12227 12228 12229 12230 12231 12232 12233 12234 12235 12236 12237 12238 12239 12240 12241 12242 12243 12244 12245 12246 12247 12248 12249 12250 12251 12252 12253 12254 12255 12256 12257 12258 12259 12260 12261 12262 12263 12264 12265 12266 12267 12268 12269 12270 12271 12272 12273 12274 12275 12276 12277 12278 12279 12280 12281 12282 12283 12284 12285 12286 12287 12288 12289 12290 12291 12292 12293 12294 12295 12296 12297 12298 12299 12300 12301 12302 12303 12304 12305 12306 12307 12308 12309 12310 12311 12312 12313 12314 12315 12316 12317 12318 12319 12320 12321 12322 12323 12324 12325 12326 12327 12328 12329 12330 12331 12332 12333 12334 12335 12336 12337 12338 12339 12340 12341 12342 12343 12344 12345 12346 12347 12348 12349 12350 12351 12352 12353 12354 12355 12356 12357 12358 12359 12360 12361 12362 12363 12364 12365 12366 12367 12368 12369 12370 12371 12372 12373 12374 12375 12376 12377 12378 12379 12380 12381 12382 12383 12384 12385 12386 12387 12388 12389 12390 12391 12392 12393 12394 12395 12396 12397 12398 12399 12400 12401 12402 12403 12404 12405 12406 12407 12408 12409 12410 12411 12412 12413 12414 12415 12416 12417 12418 12419 12420 12421 12422 12423 12424 12425 12426 12427 12428 12429 12430 12431 12432 12433 12434 12435 12436 12437 12438 12439 12440 12441 12442 12443 12444 12445 12446 12447 12448 12449 12450 12451 12452 12453 12454 12455 12456 12457 12458 12459 12460 12461 12462 12463 12464 12465 12466 12467 12468 12469 12470 12471 12472 12473 12474 12475 12476 12477 12478 12479 12480 12481 12482 12483 12484 12485 12486 12487 12488 12489 12490 12491 12492 12493 12494 12495 12496 12497 12498 12499 12500 12501 12502 12503 12504 12505 12506 12507 12508 12509 12510 12511 12512 12513 12514 12515 12516 12517 12518 12519 12520 12521 12522 12523 12524 12525 12526 12527 12528 12529 12530 12531 12532 12533 12534 12535 12536 12537 12538 12539 12540 12541 12542 12543 12544 12545 12546 12547 12548 12549 12550 12551 12552 12553 12554 12555 12556 12557 12558 12559 12560 12561 12562 12563 12564 12565 12566 12567 12568 12569 12570 12571 12572 12573 12574 12575 12576 12577 12578 12579 12580 12581 12582 12583 12584 12585 12586 12587 12588 12589 12590 12591 12592 12593 12594 12595 12596 12597 12598 12599 12600 12601 12602 12603 12604 12605 12606 12607 12608 12609 12610 12611 12612 12613 12614 12615 12616 12617 12618 12619 12620 12621 12622 12623 12624 12625 12626 12627 12628 12629 12630 12631 12632 12633 12634 12635 12636 12637 12638 12639 12640 12641 12642 12643 12644 12645 12646 12647 12648 12649 12650 12651 12652 12653 12654 12655 12656 12657 12658 12659 12660 12661 12662 12663 12664 12665 12666 12667 12668 12669 12670 12671 12672 12673 12674 12675 12676 12677 12678 12679 12680 12681 12682 12683 12684 12685 12686 12687 12688 12689 12690 12691 12692 12693 12694 12695 12696 12697 12698 12699 12700 12701 12702 12703 12704 12705 12706 12707 12708 12709 12710 12711 12712 12713 12714 12715 12716 12717 12718 12719 12720 12721 12722 12723 12724 12725 12726 12727 12728 12729 12730 12731 12732 12733 12734 12735 12736 12737 12738 12739 12740 12741 12742 12743 12744 12745 12746 12747 12748 12749 12750 12751 12752 12753 12754 12755 12756 12757 12758 12759 12760 12761 12762 12763 12764 12765 12766 12767 12768 12769 12770 12771 12772 12773 12774 12775 12776 12777 12778 12779 12780 12781 12782 12783 12784 12785 12786 12787 12788 12789 12790 12791 12792 12793 12794 12795 12796 12797 12798 12799 12800 12801 12802 12803 12804 12805 12806 12807 12808 12809 12810 12811 12812 12813 12814 12815 12816 12817 12818 12819 12820 12821 12822 12823 12824 12825 12826 12827 12828 12829 12830 12831 12832 12833 12834 12835 12836 12837 12838 12839 12840 12841 12842 12843 12844 12845 12846 12847 12848 12849 12850 12851 12852 12853 12854 12855 12856 12857 12858 12859 12860 12861 12862 12863 12864 12865 12866 12867 12868 12869 12870 12871 12872 12873 12874 12875 12876 12877 12878 12879 12880 12881 12882 12883 12884 12885 12886 12887 12888 12889 12890 12891 12892 12893 12894 12895 12896 12897 12898 12899 12900 12901 12902 12903 12904 12905 12906 12907 12908 12909 12910 12911 12912 12913 12914 12915 12916 12917 12918 12919 12920 12921 12922 12923 12924 12925 12926 12927 12928 12929 12930 12931 12932 12933 12934 12935 12936 12937 12938 12939 12940 12941 12942 12943 12944 12945 12946 12947 12948 12949 12950 12951 12952 12953 12954 12955 12956 12957 12958 12959 12960 12961 12962 12963 12964 12965 12966 12967 12968 12969 12970 12971 12972 12973 12974 12975 12976 12977 12978 12979 12980 12981 12982 12983 12984 12985 12986 12987 12988 12989 12990 12991 12992 12993 12994 12995 12996 12997 12998 12999 13000 13001 13002 13003 13004 13005 13006 13007 13008 13009 13010 13011 13012 13013 13014 13015 13016 13017 13018 13019 13020 13021 13022 13023 13024 13025 13026 13027 13028 13029 13030 13031 13032 13033 13034 13035 13036 13037 13038 13039 13040 13041 13042 13043 13044 13045 13046 13047 13048 13049 13050 13051 13052 13053 13054 13055 13056 13057 13058 13059 13060 13061 13062 13063 13064 13065 13066 13067 13068 13069 13070 13071 13072 13073 13074 13075 13076 13077 13078 13079 13080 13081 13082 13083 13084 13085 13086 13087 13088 13089 13090 13091 13092 13093 13094 13095 13096 13097 13098 13099 13100 13101 13102 13103 13104 13105 13106 13107 13108 13109 13110 13111 13112 13113 13114 13115 13116 13117 13118 13119 13120 13121 13122 13123 13124 13125 13126 13127 13128 13129 13130 13131 13132 13133 13134 13135 13136 13137 13138 13139 13140 13141 13142 13143 13144 13145 13146 13147 13148 13149 13150 13151 13152 13153 13154 13155 13156 13157 13158 13159 13160 13161 13162 13163 13164 13165 13166 13167 13168 13169 13170 13171 13172 13173 13174 13175 13176 13177 13178 13179 13180 13181 13182 13183 13184 13185 13186 13187 13188 13189 13190 13191 13192 13193 13194 13195 13196 13197 13198 13199 13200 13201 13202 13203 13204 13205 13206 13207 13208 13209 13210 13211 13212 13213 13214 13215 13216 13217 13218 13219 13220 13221 13222 13223 13224 13225 13226 13227 13228 13229 13230 13231 13232 13233 13234 13235 13236 13237 13238 13239 13240 13241 13242 13243 13244 13245 13246 13247 13248 13249 13250 13251 13252 13253 13254 13255 13256 13257 13258 13259 13260 13261 13262 13263 13264 13265 13266 13267 13268 13269 13270 13271 13272 13273 13274 13275 13276 13277 13278 13279 13280 13281 13282 13283 13284 13285 13286 13287 13288 13289 13290 13291 13292 13293 13294 13295 13296 13297 13298 13299 13300 13301 13302 13303 13304 13305 13306 13307 13308 13309 13310 13311 13312 13313 13314 13315 13316 13317 13318 13319 13320 13321 13322 13323 13324 13325 13326 13327 13328 13329 13330 13331 13332 13333 13334 13335 13336 13337 13338 13339 13340 13341 13342 13343 13344 13345 13346 13347 13348 13349 13350 13351 13352 13353 13354 13355 13356 13357 13358 13359 13360 13361 13362 13363 13364 13365 13366 13367 13368 13369 13370 13371 13372 13373 13374 13375 13376 13377 13378 13379 13380 13381 13382 13383 13384 13385 13386 13387 13388 13389 13390 13391 13392 13393 13394 13395 13396 13397 13398 13399 13400 13401 13402 13403 13404 13405 13406 13407 13408 13409 13410 13411 13412 13413 13414 13415 13416 13417 13418 13419 13420 13421 13422 13423 13424 13425 13426 13427 13428 13429 13430 13431 13432 13433 13434 13435 13436 13437 13438 13439 13440 13441 13442 13443 13444 13445 13446 13447 13448 13449 13450 13451 13452 13453 13454 13455 13456 13457 13458 13459 13460 13461 13462 13463 13464 13465 13466 13467 13468 13469 13470 13471 13472 13473 13474 13475 13476 13477 13478 13479 13480 13481 13482 13483 13484 13485 13486 13487 13488 13489 13490 13491 13492 13493 13494 13495 13496 13497 13498 13499 13500 13501 13502 13503 13504 13505 13506 13507 13508 13509 13510 13511 13512 13513 13514 13515 13516 13517 13518 13519 13520 13521 13522 13523 13524 13525 13526 13527 13528 13529 13530 13531 13532 13533 13534 13535 13536 13537 13538 13539 13540 13541 13542 13543 13544 13545 13546 13547 13548 13549 13550 13551 13552 13553 13554 13555 13556 13557 13558 13559 13560 13561 13562 13563 13564 13565 13566 13567 13568 13569 13570 13571 13572 13573 13574 13575 13576 13577 13578 13579 13580 13581 13582 13583 13584 13585 13586 13587 13588 13589 13590 13591 13592 13593 13594 13595 13596 13597 13598 13599 13600 13601 13602 13603 13604 13605 13606 13607 13608 13609 13610 13611 13612 13613 13614 13615 13616 13617 13618 13619 13620 13621 13622 13623 13624 13625 13626 13627 13628 13629 13630 13631 13632 13633 13634 13635 13636 13637 13638 13639 13640 13641 13642 13643 13644 13645 13646 13647 13648 13649 13650 13651 13652 13653 13654 13655 13656 13657 13658 13659 13660 13661 13662 13663 13664 13665 13666 13667 13668 13669 13670 13671 13672 13673 13674 13675 13676 13677 13678 13679 13680 13681 13682 13683 13684 13685 13686 13687 13688 13689 13690 13691 13692 13693 13694 13695 13696 13697 13698 13699 13700 13701 13702 13703 13704 13705 13706 13707 13708 13709 13710 13711 13712 13713 13714 13715 13716 13717 13718 13719 13720 13721 13722 13723 13724 13725 13726 13727 13728 13729 13730 13731 13732 13733 13734 13735 13736 13737 13738 13739 13740 13741 13742 13743 13744 13745 13746 13747 13748 13749 13750 13751 13752 13753 13754 13755 13756 13757 13758 13759 13760 13761 13762 13763 13764 13765 13766 13767 13768 13769 13770 13771 13772 13773 13774 13775 13776 13777 13778 13779 13780 13781 13782 13783 13784 13785 13786 13787 13788 13789 13790 13791 13792 13793 13794 13795 13796 13797 13798 13799 13800 13801 13802 13803 13804 13805 13806 13807 13808 13809 13810 13811 13812 13813 13814 13815 13816 13817 13818 13819 13820 13821 13822 13823 13824 13825 13826 13827 13828 13829 13830 13831 13832 13833 13834 13835 13836 13837 13838 13839 13840 13841 13842 13843 13844 13845 13846 13847 13848 13849 13850 13851 13852 13853 13854 13855 13856 13857 13858 13859 13860 13861 13862 13863 13864 13865 13866 13867 13868 13869 13870 13871 13872 13873 13874 13875 13876 13877 13878 13879 13880 13881 13882 13883 13884 13885 13886 13887 13888 13889 13890 13891 13892 13893 13894 13895 13896 13897 13898 13899 13900 13901 13902 13903 13904 13905 13906 13907 13908 13909 13910 13911 13912 13913 13914 13915 13916 13917 13918 13919 13920 13921 13922 13923 13924 13925 13926 13927 13928 13929 13930 13931 13932 13933 13934 13935 13936 13937 13938 13939 13940 13941 13942 13943 13944 13945 13946 13947 13948 13949 13950 13951 13952 13953 13954 13955 13956 13957 13958 13959 13960 13961 13962 13963 13964 13965 13966 13967 13968 13969 13970 13971 13972 13973 13974 13975 13976 13977 13978 13979 13980 13981 13982 13983 13984 13985 13986 13987 13988 13989 13990 13991 13992 13993 13994 13995 13996 13997 13998 13999 14000 14001 14002 14003 14004 14005 14006 14007 14008 14009 14010 14011 14012 14013 14014 14015 14016 14017 14018 14019 14020 14021 14022 14023 14024 14025 14026 14027 14028 14029 14030 14031 14032 14033 14034 14035 14036 14037 14038 14039 14040 14041 14042 14043 14044 14045 14046 14047 14048 14049 14050 14051 14052 14053 14054 14055 14056 14057 14058 14059 14060 14061 14062 14063 14064 14065 14066 14067 14068 14069 14070 14071 14072 14073 14074 14075 14076 14077 14078 14079 14080 14081 14082 14083 14084 14085 14086 14087 14088 14089 14090 14091 14092 14093 14094 14095 14096 14097 14098 14099 14100 14101 14102 14103 14104 14105 14106 14107 14108 14109 14110 14111 14112 14113 14114 14115 14116 14117 14118 14119 14120 14121 14122 14123 14124 14125 14126 14127 14128 14129 14130 14131 14132 14133 14134 14135 14136 14137 14138 14139 14140 14141 14142 14143 14144 14145 14146 14147 14148 14149 14150 14151 14152 14153 14154 14155 14156 14157 14158 14159 14160 14161 14162 14163 14164 14165 14166 14167 14168 14169 14170 14171 14172 14173 14174 14175 14176 14177 14178 14179 14180 14181 14182 14183 14184 14185 14186 14187 14188 14189 14190 14191 14192 14193 14194 14195 14196 14197 14198 14199 14200 14201 14202 14203 14204 14205 14206 14207 14208 14209 14210 14211 14212 14213 14214 14215 14216 14217 14218 14219 14220 14221 14222 14223 14224 14225 14226 14227 14228 14229 14230 14231 14232 14233 14234 14235 14236 14237 14238 14239 14240 14241 14242 14243 14244 14245 14246 14247 14248 14249 14250 14251 14252 14253 14254 14255 14256 14257 14258 14259 14260 14261 14262 14263 14264 14265 14266 14267 14268 14269 14270 14271 14272 14273 14274 14275 14276 14277 14278 14279 14280 14281 14282 14283 14284 14285 14286 14287 14288 14289 14290 14291 14292 14293 14294 14295 14296 14297 14298 14299 14300 14301 14302 14303 14304 14305 14306 14307 14308 14309 14310 14311 14312 14313 14314 14315 14316 14317 14318 14319 14320 14321 14322 14323 14324 14325 14326 14327 14328 14329 14330 14331 14332 14333 14334 14335 14336 14337 14338 14339 14340 14341 14342 14343 14344 14345 14346 14347 14348 14349 14350 14351 14352 14353 14354 14355 14356 14357 14358 14359 14360 14361 14362 14363 14364 14365 14366 14367 14368 14369 14370 14371 14372 14373 14374 14375 14376 14377 14378 14379 14380 14381 14382 14383 14384 14385 14386 14387 14388 14389 14390 14391 14392 14393 14394 14395 14396 14397 14398 14399 14400 14401 14402 14403 14404 14405 14406 14407 14408 14409 14410 14411 14412 14413 14414 14415 14416 14417 14418 14419 14420 14421 14422 14423 14424 14425 14426 14427 14428 14429 14430 14431 14432 14433 14434 14435 14436 14437 14438 14439 14440 14441 14442 14443 14444 14445 14446 14447 14448 14449 14450 14451 14452 14453 14454 14455 14456 14457 14458 14459 14460 14461 14462 14463 14464 14465 14466 14467 14468 14469 14470 14471 14472 14473 14474 14475 14476 14477 14478 14479 14480 14481 14482 14483 14484 14485 14486 14487 14488 14489 14490 14491 14492 14493 14494 14495 14496 14497 14498 14499 14500 14501 14502 14503 14504 14505 14506 14507 14508 14509 14510 14511 14512 14513 14514 14515 14516 14517 14518 14519 14520 14521 14522 14523 14524 14525 14526 14527 14528 14529 14530 14531 14532 14533 14534 14535 14536 14537 14538 14539 14540 14541 14542 14543 14544 14545 14546 14547 14548 14549 14550 14551 14552 14553 14554 14555 14556 14557 14558 14559 14560 14561 14562 14563 14564 14565 14566 14567 14568 14569 14570 14571 14572 14573 14574 14575 14576 14577 14578 14579 14580 14581 14582 14583 14584 14585 14586 14587 14588 14589 14590 14591 14592 14593 14594 14595 14596 14597 14598 14599 14600 14601 14602 14603 14604 14605 14606 14607 14608 14609 14610 14611 14612 14613 14614 14615 14616 14617 14618 14619 14620 14621 14622 14623 14624 14625 14626 14627 14628 14629 14630 14631 14632 14633 14634 14635 14636 14637 14638 14639 14640 14641 14642 14643 14644 14645 14646 14647 14648 14649 14650 14651 14652 14653 14654 14655 14656 14657 14658 14659 14660 14661 14662 14663 14664 14665 14666 14667 14668 14669 14670 14671 14672 14673 14674 14675 14676 14677 14678 14679 14680 14681 14682 14683 14684 14685 14686 14687 14688 14689 14690 14691 14692 14693 14694 14695 14696 14697 14698 14699 14700 14701 14702 14703 14704 14705 14706 14707 14708 14709 14710 14711 14712 14713 14714 14715 14716 14717 14718 14719 14720 14721 14722 14723 14724 14725 14726 14727 14728 14729 14730 14731 14732 14733 14734 14735 14736 14737 14738 14739 14740 14741 14742 14743 14744 14745 14746 14747 14748 14749 14750 14751 14752 14753 14754 14755 14756 14757 14758 14759 14760 14761 14762 14763 14764 14765 14766 14767 14768 14769 14770 14771 14772 14773 14774 14775 14776 14777 14778 14779 14780 14781 14782 14783 14784 14785 14786 14787 14788 14789 14790 14791 14792 14793 14794 14795 14796 14797 14798 14799 14800 14801 14802 14803 14804 14805 14806 14807 14808 14809 14810 14811 14812 14813 14814 14815 14816 14817 14818 14819 14820 14821 14822 14823 14824 14825 14826 14827 14828 14829 14830 14831 14832 14833 14834 14835 14836 14837 14838 14839 14840 14841 14842 14843 14844 14845 14846 14847 14848 14849 14850 14851 14852 14853 14854 14855 14856 14857 14858 14859 14860 14861 14862 14863 14864 14865 14866 14867 14868 14869 14870 14871 14872 14873 14874 14875 14876 14877 14878 14879 14880 14881 14882 14883 14884 14885 14886 14887 14888 14889 14890 14891 14892 14893 14894 14895 14896 14897 14898 14899 14900 14901 14902 14903 14904 14905 14906 14907 14908 14909 14910 14911 14912 14913 14914 14915 14916 14917 14918 14919 14920 14921 14922 14923 14924 14925 14926 14927 14928 14929 14930 14931 14932 14933 14934 14935 14936 14937 14938 14939 14940 14941 14942 14943 14944 14945 14946 14947 14948 14949 14950 14951 14952 14953 14954 14955 14956 14957 14958 14959 14960 14961 14962 14963 14964 14965 14966 14967 14968 14969 14970 14971 14972 14973 14974 14975 14976 14977 14978 14979 14980 14981 14982 14983 14984 14985 14986 14987 14988 14989 14990 14991 14992 14993 14994 14995 14996 14997 14998 14999 15000 15001 15002 15003 15004 15005 15006 15007 15008 15009 15010 15011 15012 15013 15014 15015 15016 15017 15018 15019 15020 15021 15022 15023 15024 15025 15026 15027 15028 15029 15030 15031 15032 15033 15034 15035 15036 15037 15038 15039 15040 15041 15042 15043 15044 15045 15046 15047 15048 15049 15050 15051 15052 15053 15054 15055 15056 15057 15058 15059 15060 15061 15062 15063 15064 15065 15066 15067 15068 15069 15070 15071 15072 15073 15074 15075 15076 15077 15078 15079 15080 15081 15082 15083 15084 15085 15086 15087 15088 15089 15090 15091 15092 15093 15094 15095 15096 15097 15098 15099 15100 15101 15102 15103 15104 15105 15106 15107 15108 15109 15110 15111 15112 15113 15114 15115 15116 15117 15118 15119 15120 15121 15122 15123 15124 15125 15126 15127 15128 15129 15130 15131 15132 15133 15134 15135 15136 15137 15138 15139 15140 15141 15142 15143 15144 15145 15146 15147 15148 15149 15150 15151 15152 15153 15154 15155 15156 15157 15158 15159 15160 15161 15162 15163 15164 15165 15166 15167 15168 15169 15170 15171 15172 15173 15174 15175 15176 15177 15178 15179 15180 15181 15182 15183 15184 15185 15186 15187 15188 15189 15190 15191 15192 15193 15194 15195 15196 15197 15198 15199 15200 15201 15202 15203 15204 15205 15206 15207 15208 15209 15210 15211 15212 15213 15214 15215 15216 15217 15218 15219 15220 15221 15222 15223 15224 15225 15226 15227 15228 15229 15230 15231 15232 15233 15234 15235 15236 15237 15238 15239 15240 15241 15242 15243 15244 15245 15246 15247 15248 15249 15250 15251 15252 15253 15254 15255 15256 15257 15258 15259 15260 15261 15262 15263 15264 15265 15266 15267 15268 15269 15270 15271 15272 15273 15274 15275 15276 15277 15278 15279 15280 15281 15282 15283 15284 15285 15286 15287 15288 15289 15290 15291 15292 15293 15294 15295 15296 15297 15298 15299 15300 15301 15302 15303 15304 15305 15306 15307 15308 15309 15310 15311 15312 15313 15314 15315 15316 15317 15318 15319 15320 15321 15322 15323 15324 15325 15326 15327 15328 15329 15330 15331 15332 15333 15334 15335 15336 15337 15338 15339 15340 15341 15342 15343 15344 15345 15346 15347 15348 15349 15350 15351 15352 15353 15354 15355 15356 15357 15358 15359 15360 15361 15362 15363 15364 15365 15366 15367 15368 15369 15370 15371 15372 15373 15374 15375 15376 15377 15378 15379 15380 15381 15382 15383 15384 15385 15386 15387 15388 15389 15390 15391 15392 15393 15394 15395 15396 15397 15398 15399 15400 15401 15402 15403 15404 15405 15406 15407 15408 15409 15410 15411 15412 15413 15414 15415 15416 15417 15418 15419 15420 15421 15422 15423 15424 15425 15426 15427 15428 15429 15430 15431 15432 15433 15434 15435 15436 15437 15438 15439 15440 15441 15442 15443 15444 15445 15446 15447 15448 15449 15450 15451 15452 15453 15454 15455 15456 15457 15458 15459 15460 15461 15462 15463 15464 15465 15466 15467 15468 15469 15470 15471 15472 15473 15474 15475 15476 15477 15478 15479 15480 15481 15482 15483 15484 15485 15486 15487 15488 15489 15490 15491 15492 15493 15494 15495 15496 15497 15498 15499 15500 15501 15502 15503 15504 15505 15506 15507 15508 15509 15510 15511 15512 15513 15514 15515 15516 15517 15518 15519 15520 15521 15522 15523 15524 15525 15526 15527 15528 15529 15530 15531 15532 15533 15534 15535 15536 15537 15538 15539 15540 15541 15542 15543 15544 15545 15546 15547 15548 15549 15550 15551 15552 15553 15554 15555 15556 15557 15558 15559 15560 15561 15562 15563 15564 15565 15566 15567 15568 15569 15570 15571 15572 15573 15574 15575 15576 15577 15578 15579 15580 15581 15582 15583 15584 15585 15586 15587 15588 15589 15590 15591 15592 15593 15594 15595 15596 15597 15598 15599 15600 15601 15602 15603 15604 15605 15606 15607 15608 15609 15610 15611 15612 15613 15614 15615 15616 15617 15618 15619 15620 15621 15622 15623 15624 15625 15626 15627 15628 15629 15630 15631 15632 15633 15634 15635 15636 15637 15638 15639 15640 15641 15642 15643 15644 15645 15646 15647 15648 15649 15650 15651 15652 15653 15654 15655 15656 15657 15658 15659 15660 15661 15662 15663 15664 15665 15666 15667 15668 15669 15670 15671 15672 15673 15674 15675 15676 15677 15678 15679 15680 15681 15682 15683 15684 15685 15686 15687 15688 15689 15690 15691 15692 15693 15694 15695 15696 15697 15698 15699 15700 15701 15702 15703 15704 15705 15706 15707 15708 15709 15710 15711 15712 15713 15714 15715 15716 15717 15718 15719 15720 15721 15722 15723 15724 15725 15726 15727 15728 15729 15730 15731 15732 15733 15734 15735 15736 15737 15738 15739 15740 15741 15742 15743 15744 15745 15746 15747 15748 15749 15750 15751 15752 15753 15754 15755 15756 15757 15758 15759 15760 15761 15762 15763 15764 15765 15766 15767 15768 15769 15770 15771 15772 15773 15774 15775 15776 15777 15778 15779 15780 15781 15782 15783 15784 15785 15786 15787 15788 15789 15790 15791 15792 15793 15794 15795 15796 15797 15798 15799 15800 15801 15802 15803 15804 15805 15806 15807 15808 15809 15810 15811 15812 15813 15814 15815 15816 15817 15818 15819 15820 15821 15822 15823 15824 15825 15826 15827 15828 15829 15830 15831 15832 15833 15834 15835 15836 15837 15838 15839 15840 15841 15842 15843 15844 15845 15846 15847 15848 15849 15850 15851 15852 15853 15854 15855 15856 15857 15858 15859 15860 15861 15862 15863 15864 15865 15866 15867 15868 15869 15870 15871 15872 15873 15874 15875 15876 15877 15878 15879 15880 15881 15882 15883 15884 15885 15886 15887 15888 15889 15890 15891 15892 15893 15894 15895 15896 15897 15898 15899 15900 15901 15902 15903 15904 15905 15906 15907 15908 15909 15910 15911 15912 15913 15914 15915 15916 15917 15918 15919 15920 15921 15922 15923 15924 15925 15926 15927 15928 15929 15930 15931 15932 15933 15934 15935 15936 15937 15938 15939 15940 15941 15942 15943 15944 15945 15946 15947 15948 15949 15950 15951 15952 15953 15954 15955 15956 15957 15958 15959 15960 15961 15962 15963 15964 15965 15966 15967 15968 15969 15970 15971 15972 15973 15974 15975 15976 15977 15978 15979 15980 15981 15982 15983 15984 15985 15986 15987 15988 15989 15990 15991 15992 15993 15994 15995 15996 15997 15998 15999 16000 16001 16002 16003 16004 16005 16006 16007 16008 16009 16010 16011 16012 16013 16014 16015 16016 16017 16018 16019 16020 16021 16022 16023 16024 16025 16026 16027 16028 16029 16030 16031 16032 16033 16034 16035 16036 16037 16038 16039 16040 16041 16042 16043 16044 16045 16046 16047 16048 16049 16050 16051 16052 16053 16054 16055 16056 16057 16058 16059 16060 16061 16062 16063 16064 16065 16066 16067 16068 16069 16070 16071 16072 16073 16074 16075 16076 16077 16078 16079 16080 16081 16082 16083 16084 16085 16086 16087 16088 16089 16090 16091 16092 16093 16094 16095 16096 16097 16098 16099 16100 16101 16102 16103 16104 16105 16106 16107 16108 16109 16110 16111 16112 16113 16114 16115 16116 16117 16118 16119 16120 16121 16122 16123 16124 16125 16126 16127 16128 16129 16130 16131 16132 16133 16134 16135 16136 16137 16138 16139 16140 16141 16142 16143 16144 16145 16146 16147 16148 16149 16150 16151 16152 16153 16154 16155 16156 16157 16158 16159 16160 16161 16162 16163 16164 16165 16166 16167 16168 16169 16170 16171 16172 16173 16174 16175 16176 16177 16178 16179 16180 16181 16182 16183 16184 16185 16186 16187 16188 16189 16190 16191 16192 16193 16194 16195 16196 16197 16198 16199 16200 16201 16202 16203 16204 16205 16206 16207 16208 16209 16210 16211 16212 16213 16214 16215 16216 16217 16218 16219 16220 16221 16222 16223 16224 16225 16226 16227 16228 16229 16230 16231 16232 16233 16234 16235 16236 16237 16238 16239 16240 16241 16242 16243 16244 16245 16246 16247 16248 16249 16250 16251 16252 16253 16254 16255 16256 16257 16258 16259 16260 16261 16262 16263 16264 16265 16266 16267 16268 16269 16270 16271 16272 16273 16274 16275 16276 16277 16278 16279 16280 16281 16282 16283 16284 16285 16286 16287 16288 16289 16290 16291 16292 16293 16294 16295 16296 16297 16298 16299 16300 16301 16302 16303 16304 16305 16306 16307 16308 16309 16310 16311 16312 16313 16314 16315 16316 16317 16318 16319 16320 16321 16322 16323 16324 16325 16326 16327 16328 16329 16330 16331 16332 16333 16334 16335 16336 16337 16338 16339 16340 16341 16342 16343 16344 16345 16346 16347 16348 16349 16350 16351 16352 16353 16354 16355 16356 16357 16358 16359 16360 16361 16362 16363 16364 16365 16366 16367 16368 16369 16370 16371 16372 16373 16374 16375 16376 16377 16378 16379 16380 16381 16382 16383 16384 16385 16386 16387 16388 16389 16390 16391 16392 16393 16394 16395 16396 16397 16398 16399 16400 16401 16402 16403 16404 16405 16406 16407 16408 16409 16410 16411 16412 16413 16414 16415 16416 16417 16418 16419 16420 16421 16422 16423 16424 16425 16426 16427 16428 16429 16430 16431 16432 16433 16434 16435 16436 16437 16438 16439 16440 16441 16442 16443 16444 16445 16446 16447 16448 16449 16450 16451 16452 16453 16454 16455 16456 16457 16458 16459 16460 16461 16462 16463 16464 16465 16466 16467 16468 16469 16470 16471 16472 16473 16474 16475 16476 16477 16478 16479 16480 16481 16482 16483 16484 16485 16486 16487 16488 16489 16490 16491 16492 16493 16494 16495 16496 16497 16498 16499 16500 16501 16502 16503 16504 16505 16506 16507 16508 16509 16510 16511 16512 16513 16514 16515 16516 16517 16518 16519 16520 16521 16522 16523 16524 16525 16526 16527 16528 16529 16530 16531 16532 16533 16534 16535 16536 16537 16538 16539 16540 16541 16542 16543 16544 16545 16546 16547 16548 16549 16550 16551 16552 16553 16554 16555 16556 16557 16558 16559 16560 16561 16562 16563 16564 16565 16566 16567 16568 16569 16570 16571 16572 16573 16574 16575 16576 16577 16578 16579 16580 16581 16582 16583 16584 16585 16586 16587 16588 16589 16590 16591 16592 16593 16594 16595 16596 16597 16598 16599 16600 16601 16602 16603 16604 16605 16606 16607 16608 16609 16610 16611 16612 16613 16614 16615 16616 16617 16618 16619 16620 16621 16622 16623 16624 16625 16626 16627 16628 16629 16630 16631 16632 16633 16634 16635 16636 16637 16638 16639 16640 16641 16642 16643 16644 16645 16646 16647 16648 16649 16650 16651 16652 16653 16654 16655 16656 16657 16658 16659 16660 16661 16662 16663 16664 16665 16666 16667 16668 16669 16670 16671 16672 16673 16674 16675 16676 16677 16678 16679 16680 16681 16682 16683 16684 16685 16686 16687 16688 16689 16690 16691 16692 16693 16694 16695 16696 16697 16698 16699 16700 16701 16702 16703 16704 16705 16706 16707 16708 16709 16710 16711 16712 16713 16714 16715 16716 16717 16718 16719 16720 16721 16722 16723 16724 16725 16726 16727 16728 16729 16730 16731 16732 16733 16734 16735 16736 16737 16738 16739 16740 16741 16742 16743 16744 16745 16746 16747 16748 16749 16750 16751 16752 16753 16754 16755 16756 16757 16758 16759 16760 16761 16762 16763 16764 16765 16766 16767 16768 16769 16770 16771 16772 16773 16774 16775 16776 16777 16778 16779 16780 16781 16782 16783 16784 16785 16786 16787 16788 16789 16790 16791 16792 16793 16794 16795 16796 16797 16798 16799 16800 16801 16802 16803 16804 16805 16806 16807 16808 16809 16810 16811 16812 16813 16814 16815 16816 16817 16818 16819 16820 16821 16822 16823 16824 16825 16826 16827 16828 16829 16830 16831 16832 16833 16834 16835 16836 16837 16838 16839 16840 16841 16842 16843 16844 16845 16846 16847 16848 16849 16850 16851 16852 16853 16854 16855 16856 16857 16858 16859 16860 16861 16862 16863 16864 16865 16866 16867 16868 16869 16870 16871 16872 16873 16874 16875 16876 16877 16878 16879 16880 16881 16882 16883 16884 16885 16886 16887 16888 16889 16890 16891 16892 16893 16894 16895 16896 16897 16898 16899 16900 16901 16902 16903 16904 16905 16906 16907 16908 16909 16910 16911 16912 16913 16914 16915 16916 16917 16918 16919 16920 16921 16922 16923 16924 16925 16926 16927 16928 16929 16930 16931 16932 16933 16934 16935 16936 16937 16938 16939 16940 16941 16942 16943 16944 16945 16946 16947 16948 16949 16950 16951 16952 16953 16954 16955 16956 16957 16958 16959 16960 16961 16962 16963 16964 16965 16966 16967 16968 16969 16970 16971 16972 16973 16974 16975 16976 16977 16978 16979 16980 16981 16982 16983 16984 16985 16986 16987 16988 16989 16990 16991 16992 16993 16994 16995 16996 16997 16998 16999 17000 17001 17002 17003 17004 17005 17006 17007 17008 17009 17010 17011 17012 17013 17014 17015 17016 17017 17018 17019 17020 17021 17022 17023 17024 17025 17026 17027 17028 17029 17030 17031 17032 17033 17034 17035 17036 17037 17038 17039 17040 17041 17042 17043 17044 17045 17046 17047 17048 17049 17050 17051 17052 17053 17054 17055 17056 17057 17058 17059 17060 17061 17062 17063 17064 17065 17066 17067 17068 17069 17070 17071 17072 17073 17074 17075 17076 17077 17078 17079 17080 17081 17082 17083 17084 17085 17086 17087 17088 17089 17090 17091 17092 17093 17094 17095 17096 17097 17098 17099 17100 17101 17102 17103 17104 17105 17106 17107 17108 17109 17110 17111 17112 17113 17114 17115 17116 17117 17118 17119 17120 17121 17122 17123 17124 17125 17126 17127 17128 17129 17130 17131 17132 17133 17134 17135 17136 17137 17138 17139 17140 17141 17142 17143 17144 17145 17146 17147 17148 17149 17150 17151 17152 17153 17154 17155 17156 17157 17158 17159 17160 17161 17162 17163 17164 17165 17166 17167 17168 17169 17170 17171 17172 17173 17174 17175 17176 17177 17178 17179 17180 17181 17182 17183 17184 17185 17186 17187 17188 17189 17190 17191 17192 17193 17194 17195 17196 17197 17198 17199 17200 17201 17202 17203 17204 17205 17206 17207 17208 17209 17210 17211 17212 17213 17214 17215 17216 17217 17218 17219 17220 17221 17222 17223 17224 17225 17226 17227 17228 17229 17230 17231 17232 17233 17234 17235 17236 17237 17238 17239 17240 17241 17242 17243 17244 17245 17246 17247 17248 17249 17250 17251 17252 17253 17254 17255 17256 17257 17258 17259 17260 17261 17262 17263 17264 17265 17266 17267 17268 17269 17270 17271 17272 17273 17274 17275 17276 17277 17278 17279 17280 17281 17282 17283 17284 17285 17286 17287 17288 17289 17290 17291 17292 17293 17294 17295 17296 17297 17298 17299 17300 17301 17302 17303 17304 17305 17306 17307 17308 17309 17310 17311 17312 17313 17314 17315 17316 17317 17318 17319 17320 17321 17322 17323 17324 17325 17326 17327 17328 17329 17330 17331 17332 17333 17334 17335 17336 17337 17338 17339 17340 17341 17342 17343 17344 17345 17346 17347 17348 17349 17350 17351 17352 17353 17354 17355 17356 17357 17358 17359 17360 17361 17362 17363 17364 17365 17366 17367 17368 17369 17370 17371 17372 17373 17374 17375 17376 17377 17378 17379 17380 17381 17382 17383 17384 17385 17386 17387 17388 17389 17390 17391 17392 17393 17394 17395 17396 17397 17398 17399 17400 17401 17402 17403 17404 17405 17406 17407 17408 17409 17410 17411 17412 17413 17414 17415 17416 17417 17418 17419 17420 17421 17422 17423 17424 17425 17426 17427 17428 17429 17430 17431 17432 17433 17434 17435 17436 17437 17438 17439 17440 17441 17442 17443 17444 17445 17446 17447 17448 17449 17450 17451 17452 17453 17454 17455 17456 17457 17458 17459 17460 17461 17462 17463 17464 17465 17466 17467 17468 17469 17470 17471 17472 17473 17474 17475 17476 17477 17478 17479 17480 17481 17482 17483 17484 17485 17486 17487 17488 17489 17490 17491 17492 17493 17494 17495 17496 17497 17498 17499 17500 17501 17502 17503 17504 17505 17506 17507 17508 17509 17510 17511 17512 17513 17514 17515 17516 17517 17518 17519 17520 17521 17522 17523 17524 17525 17526 17527 17528 17529 17530 17531 17532 17533 17534 17535 17536 17537 17538 17539 17540 17541 17542 17543 17544 17545 17546 17547 17548 17549 17550 17551 17552 17553 17554 17555 17556 17557 17558 17559 17560 17561 17562 17563 17564 17565 17566 17567 17568 17569 17570 17571 17572 17573 17574 17575 17576 17577 17578 17579 17580 17581 17582 17583 17584 17585 17586 17587 17588 17589 17590 17591 17592 17593 17594 17595 17596 17597 17598 17599 17600 17601 17602 17603 17604 17605 17606 17607 17608 17609 17610 17611 17612 17613 17614 17615 17616 17617 17618 17619 17620 17621 17622 17623 17624 17625 17626 17627 17628 17629 17630 17631 17632 17633 17634 17635 17636 17637 17638 17639 17640 17641 17642 17643 17644 17645 17646 17647 17648 17649 17650 17651 17652 17653 17654 17655 17656 17657 17658 17659 17660 17661 17662 17663 17664 17665 17666 17667 17668 17669 17670 17671 17672 17673 17674 17675 17676 17677 17678 17679 17680 17681 17682 17683 17684 17685 17686 17687 17688 17689 17690 17691 17692 17693 17694 17695 17696 17697 17698 17699 17700 17701 17702 17703 17704 17705 17706 17707 17708 17709 17710 17711 17712 17713 17714 17715 17716 17717 17718 17719 17720 17721 17722 17723 17724 17725 17726 17727 17728 17729 17730 17731 17732 17733 17734 17735 17736 17737 17738 17739 17740 17741 17742 17743 17744 17745 17746 17747 17748 17749 17750 17751 17752 17753 17754 17755 17756 17757 17758 17759 17760 17761 17762 17763 17764 17765 17766 17767 17768 17769 17770 17771 17772 17773 17774 17775 17776 17777 17778 17779 17780 17781 17782 17783 17784 17785 17786 17787 17788 17789 17790 17791 17792 17793 17794 17795 17796 17797 17798 17799 17800 17801 17802 17803 17804 17805 17806 17807 17808 17809 17810 17811 17812 17813 17814 17815 17816 17817 17818 17819 17820 17821 17822 17823 17824 17825 17826 17827 17828 17829 17830 17831 17832 17833 17834 17835 17836 17837 17838 17839 17840 17841 17842 17843 17844 17845 17846 17847 17848 17849 17850 17851 17852 17853 17854 17855 17856 17857 17858 17859 17860 17861 17862 17863 17864 17865 17866 17867 17868 17869 17870 17871 17872 17873 17874 17875 17876 17877 17878 17879 17880 17881 17882 17883 17884 17885 17886 17887 17888 17889 17890 17891 17892 17893 17894 17895 17896 17897 17898 17899 17900 17901 17902 17903 17904 17905 17906 17907 17908 17909 17910 17911 17912 17913 17914 17915 17916 17917 17918 17919 17920 17921 17922 17923 17924 17925 17926 17927 17928 17929 17930 17931 17932 17933 17934 17935 17936 17937 17938 17939 17940 17941 17942 17943 17944 17945 17946 17947 17948 17949 17950 17951 17952 17953 17954 17955 17956 17957 17958 17959 17960 17961 17962 17963 17964 17965 17966 17967 17968 17969 17970 17971 17972 17973 17974 17975 17976 17977 17978 17979 17980 17981 17982 17983 17984 17985 17986 17987 17988 17989 17990 17991 17992 17993 17994 17995 17996 17997 17998 17999 18000 18001 18002 18003 18004 18005 18006 18007 18008 18009 18010 18011 18012 18013 18014 18015 18016 18017 18018 18019 18020 18021 18022 18023 18024 18025 18026 18027 18028 18029 18030 18031 18032 18033 18034 18035 18036 18037 18038 18039 18040 18041 18042 18043 18044 18045 18046 18047 18048 18049 18050 18051 18052 18053 18054 18055 18056 18057 18058 18059 18060 18061 18062 18063 18064 18065 18066 18067 18068 18069 18070 18071 18072 18073 18074 18075 18076 18077 18078 18079 18080 18081 18082 18083 18084 18085 18086 18087 18088 18089 18090 18091 18092 18093 18094 18095 18096 18097 18098 18099 18100 18101 18102 18103 18104 18105 18106 18107 18108 18109 18110 18111 18112 18113 18114 18115 18116 18117 18118 18119 18120 18121 18122 18123 18124 18125 18126 18127 18128 18129 18130 18131 18132 18133 18134 18135 18136 18137 18138 18139 18140 18141 18142 18143 18144 18145 18146 18147 18148 18149 18150 18151 18152 18153 18154 18155 18156 18157 18158 18159 18160 18161 18162 18163 18164 18165 18166 18167 18168 18169 18170 18171 18172 18173 18174 18175 18176 18177 18178 18179 18180 18181 18182 18183 18184 18185 18186 18187 18188 18189 18190 18191 18192 18193 18194 18195 18196 18197 18198 18199 18200 18201 18202 18203 18204 18205 18206 18207 18208 18209 18210 18211 18212 18213 18214 18215 18216 18217 18218 18219 18220 18221 18222 18223 18224 18225 18226 18227 18228 18229 18230 18231 18232 18233 18234 18235 18236 18237 18238 18239 18240 18241 18242 18243 18244 18245 18246 18247 18248 18249 18250 18251 18252 18253 18254 18255 18256 18257 18258 18259 18260 18261 18262 18263 18264 18265 18266 18267 18268 18269 18270 18271 18272 18273 18274 18275 18276 18277 18278 18279 18280 18281 18282 18283 18284 18285 18286 18287 18288 18289 18290 18291 18292 18293 18294 18295 18296 18297 18298 18299 18300 18301 18302 18303 18304 18305 18306 18307 18308 18309 18310 18311 18312 18313 18314 18315 18316 18317 18318 18319 18320 18321 18322 18323 18324 18325 18326 18327 18328 18329 18330 18331 18332 18333 18334 18335 18336 18337 18338 18339 18340 18341 18342 18343 18344 18345 18346 18347 18348 18349 18350 18351 18352 18353 18354 18355 18356 18357 18358 18359 18360 18361 18362 18363 18364 18365 18366 18367 18368 18369 18370 18371 18372 18373 18374 18375 18376 18377 18378 18379 18380 18381 18382 18383 18384 18385 18386 18387 18388 18389 18390 18391 18392 18393 18394 18395 18396 18397 18398 18399 18400 18401 18402 18403 18404 18405 18406 18407 18408 18409 18410 18411 18412 18413 18414 18415 18416 18417 18418 18419 18420 18421 18422 18423 18424 18425 18426 18427 18428 18429 18430 18431 18432 18433 18434 18435 18436 18437 18438 18439 18440 18441 18442 18443 18444 18445 18446 18447 18448 18449 18450 18451 18452 18453 18454 18455 18456 18457 18458 18459 18460 18461 18462 18463 18464 18465 18466 18467 18468 18469 18470 18471 18472 18473 18474 18475 18476 18477 18478 18479 18480 18481 18482 18483 18484 18485 18486 18487 18488 18489 18490 18491 18492 18493 18494 18495 18496 18497 18498 18499 18500 18501 18502 18503 18504 18505 18506 18507 18508 18509 18510 18511 18512 18513 18514 18515 18516 18517 18518 18519 18520 18521 18522 18523 18524 18525 18526 18527 18528 18529 18530 18531 18532 18533 18534 18535 18536 18537 18538 18539 18540 18541 18542 18543 18544 18545 18546 18547 18548 18549 18550 18551 18552 18553 18554 18555 18556 18557 18558 18559 18560 18561 18562 18563 18564 18565 18566 18567 18568 18569 18570 18571 18572 18573 18574 18575 18576 18577 18578 18579 18580 18581 18582 18583 18584 18585 18586 18587 18588 18589 18590 18591 18592 18593 18594 18595 18596 18597 18598 18599 18600 18601 18602 18603 18604 18605 18606 18607 18608 18609 18610 18611 18612 18613 18614 18615 18616 18617 18618 18619 18620 18621 18622 18623 18624 18625 18626 18627 18628 18629 18630 18631 18632 18633 18634 18635 18636 18637 18638 18639 18640 18641 18642 18643 18644 18645 18646 18647 18648 18649 18650 18651 18652 18653 18654 18655 18656 18657 18658 18659 18660 18661 18662 18663 18664 18665 18666 18667 18668 18669 18670 18671 18672 18673 18674 18675 18676 18677 18678 18679 18680 18681 18682 18683 18684 18685 18686 18687 18688 18689 18690 18691 18692 18693 18694 18695 18696 18697 18698 18699 18700 18701 18702 18703 18704 18705 18706 18707 18708 18709 18710 18711 18712 18713 18714 18715 18716 18717 18718 18719 18720 18721 18722 18723 18724 18725 18726 18727 18728 18729 18730 18731 18732 18733 18734 18735 18736 18737 18738 18739 18740 18741 18742 18743 18744 18745 18746 18747 18748 18749 18750 18751 18752 18753 18754 18755 18756 18757 18758 18759 18760 18761 18762 18763 18764 18765 18766 18767 18768 18769 18770 18771 18772 18773 18774 18775 18776 18777 18778 18779 18780 18781 18782 18783 18784 18785 18786 18787 18788 18789 18790 18791 18792 18793 18794 18795 18796 18797 18798 18799 18800 18801 18802 18803 18804 18805 18806 18807 18808 18809 18810 18811 18812 18813 18814 18815 18816 18817 18818 18819 18820 18821 18822 18823 18824 18825 18826 18827 18828 18829 18830 18831 18832 18833 18834 18835 18836 18837 18838 18839 18840 18841 18842 18843 18844 18845 18846 18847 18848 18849 18850 18851 18852 18853 18854 18855 18856 18857 18858 18859 18860 18861 18862 18863 18864 18865 18866 18867 18868 18869 18870 18871 18872 18873 18874 18875 18876 18877 18878 18879 18880 18881 18882 18883 18884 18885 18886 18887 18888 18889 18890 18891 18892 18893 18894 18895 18896 18897 18898 18899 18900 18901 18902 18903 18904 18905 18906 18907 18908 18909 18910 18911 18912 18913 18914 18915 18916 18917 18918 18919 18920 18921 18922 18923 18924 18925 18926 18927 18928 18929 18930 18931 18932 18933 18934 18935 18936 18937 18938 18939 18940 18941 18942 18943 18944 18945 18946 18947 18948 18949 18950 18951 18952 18953 18954 18955 18956 18957 18958 18959 18960 18961 18962 18963 18964 18965 18966 18967 18968 18969 18970 18971 18972 18973 18974 18975 18976 18977 18978 18979 18980 18981 18982 18983 18984 18985 18986 18987 18988 18989 18990 18991 18992 18993 18994 18995 18996 18997 18998 18999 19000 19001 19002 19003 19004 19005 19006 19007 19008 19009 19010 19011 19012 19013 19014 19015 19016 19017 19018 19019 19020 19021 19022 19023 19024 19025 19026 19027 19028 19029 19030 19031 19032 19033 19034 19035 19036 19037 19038 19039 19040 19041 19042 19043 19044 19045 19046 19047 19048 19049 19050 19051 19052 19053 19054 19055 19056 19057 19058 19059 19060 19061 19062 19063 19064 19065 19066 19067 19068 19069 19070 19071 19072 19073 19074 19075 19076 19077 19078 19079 19080 19081 19082 19083 19084 19085 19086 19087 19088 19089 19090 19091 19092 19093 19094 19095 19096 19097 19098 19099 19100 19101 19102 19103 19104 19105 19106 19107 19108 19109 19110 19111 19112 19113 19114 19115 19116 19117 19118 19119 19120 19121 19122 19123 19124 19125 19126 19127 19128 19129 19130 19131 19132 19133 19134 19135 19136 19137 19138 19139 19140 19141 19142 19143 19144 19145 19146 19147 19148 19149 19150 19151 19152 19153 19154 19155 19156 19157 19158 19159 19160 19161 19162 19163 19164 19165 19166 19167 19168 19169 19170 19171 19172 19173 19174 19175 19176 19177 19178 19179 19180 19181 19182 19183 19184 19185 19186 19187 19188 19189 19190 19191 19192 19193 19194 19195 19196 19197 19198 19199 19200 19201 19202 19203 19204 19205 19206 19207 19208 19209 19210 19211 19212 19213 19214 19215 19216 19217 19218 19219 19220 19221 19222 19223 19224 19225 19226 19227 19228 19229 19230 19231 19232 19233 19234 19235 19236 19237 19238 19239 19240 19241 19242 19243 19244 19245 19246 19247 19248 19249 19250 19251 19252 19253 19254 19255 19256 19257 19258 19259 19260 19261 19262 19263 19264 19265 19266 19267 19268 19269 19270 19271 19272 19273 19274 19275 19276 19277 19278 19279 19280 19281 19282 19283 19284 19285 19286 19287 19288 19289 19290 19291 19292 19293 19294 19295 19296 19297 19298 19299 19300 19301 19302 19303 19304 19305 19306 19307 19308 19309 19310 19311 19312 19313 19314 19315 19316 19317 19318 19319 19320 19321 19322 19323 19324 19325 19326 19327 19328 19329 19330 19331 19332 19333 19334 19335 19336 19337 19338 19339 19340 19341 19342 19343 19344 19345 19346 19347 19348 19349 19350 19351 19352 19353 19354 19355 19356 19357 19358 19359 19360 19361 19362 19363 19364 19365 19366 19367 19368 19369 19370 19371 19372 19373 19374 19375 19376 19377 19378 19379 19380 19381 19382 19383 19384 19385 19386 19387 19388 19389 19390 19391 19392 19393 19394 19395 19396 19397 19398 19399 19400 19401 19402 19403 19404 19405 19406 19407 19408 19409 19410 19411 19412 19413 19414 19415 19416 19417 19418 19419 19420 19421 19422 19423 19424 19425 19426 19427 19428 19429 19430 19431 19432 19433 19434 19435 19436 19437 19438 19439 19440 19441 19442 19443 19444 19445 19446 19447 19448 19449 19450 19451 19452 19453 19454 19455 19456 19457 19458 19459 19460 19461 19462 19463 19464 19465 19466 19467 19468 19469 19470 19471 19472 19473 19474 19475 19476 19477 19478 19479 19480 19481 19482 19483 19484 19485 19486 19487 19488 19489 19490 19491 19492 19493 19494 19495 19496 19497 19498 19499 19500 19501 19502 19503 19504 19505 19506 19507 19508 19509 19510 19511 19512 19513 19514 19515 19516 19517 19518 19519 19520 19521 19522 19523 19524 19525 19526 19527 19528 19529 19530 19531 19532 19533 19534 19535 19536 19537 19538 19539 19540 19541 19542 19543 19544 19545 19546 19547 19548 19549 19550 19551 19552 19553 19554 19555 19556 19557 19558 19559 19560 19561 19562 19563 19564 19565 19566 19567 19568 19569 19570 19571 19572 19573 19574 19575 19576 19577 19578 19579 19580 19581 19582 19583 19584 19585 19586 19587 19588 19589 19590 19591 19592 19593 19594 19595 19596 19597 19598 19599 19600 19601 19602 19603 19604 19605 19606 19607 19608 19609 19610 19611 19612 19613 19614 19615 19616 19617 19618 19619 19620 19621 19622 19623 19624 19625 19626 19627 19628 19629 19630 19631 19632 19633 19634 19635 19636 19637 19638 19639 19640 19641 19642 19643 19644 19645 19646 19647 19648 19649 19650 19651 19652 19653 19654 19655 19656 19657 19658 19659 19660 19661 19662 19663 19664 19665 19666 19667 19668 19669 19670 19671 19672 19673 19674 19675 19676 19677 19678 19679 19680 19681 19682 19683 19684 19685 19686 19687 19688 19689 19690 19691 19692 19693 19694 19695 19696 19697 19698 19699 19700 19701 19702 19703 19704 19705 19706 19707 19708 19709 19710 19711 19712 19713 19714 19715 19716 19717 19718 19719 19720 19721 19722 19723 19724 19725 19726 19727 19728 19729 19730 19731 19732 19733 19734 19735 19736 19737 19738 19739 19740 19741 19742 19743 19744 19745 19746 19747 19748 19749 19750 19751 19752 19753 19754 19755 19756 19757 19758 19759 19760 19761 19762 19763 19764 19765 19766 19767 19768 19769 19770 19771 19772 19773 19774 19775 19776 19777 19778 19779 19780 19781 19782 19783 19784 19785 19786 19787 19788 19789 19790 19791 19792 19793 19794 19795 19796 19797 19798 19799 19800 19801 19802 19803 19804 19805 19806 19807 19808 19809 19810 19811 19812 19813 19814 19815 19816 19817 19818 19819 19820 19821 19822 19823 19824 19825 19826 19827 19828 19829 19830 19831 19832 19833 19834 19835 19836 19837 19838 19839 19840 19841 19842 19843 19844 19845 19846 19847 19848 19849 19850 19851 19852 19853 19854 19855 19856 19857 19858 19859 19860 19861 19862 19863 19864 19865 19866 19867 19868 19869 19870 19871 19872 19873 19874 19875 19876 19877 19878 19879 19880 19881 19882 19883 19884 19885 19886 19887 19888 19889 19890 19891 19892 19893 19894 19895 19896 19897 19898 19899 19900 19901 19902 19903 19904 19905 19906 19907 19908 19909 19910 19911 19912 19913 19914 19915 19916 19917 19918 19919 19920 19921 19922 19923 19924 19925 19926 19927 19928 19929 19930 19931 19932 19933 19934 19935 19936 19937 19938 19939 19940 19941 19942 19943 19944 19945 19946 19947 19948 19949 19950 19951 19952 19953 19954 19955 19956 19957 19958 19959 19960 19961 19962 19963 19964 19965 19966 19967 19968 19969 19970 19971 19972 19973 19974 19975 19976 19977 19978 19979 19980 19981 19982 19983 19984 19985 19986 19987 19988 19989 19990 19991 19992 19993 19994 19995 19996 19997 19998 19999 20000 20001 20002 20003 20004 20005 20006 20007 20008 20009 20010 20011 20012 20013 20014 20015 20016 20017 20018 20019 20020 20021 20022 20023 20024 20025 20026 20027 20028 20029 20030 20031 20032 20033 20034 20035 20036 20037 20038 20039 20040 20041 20042 20043 20044 20045 20046 20047 20048 20049 20050 20051 20052 20053 20054 20055 20056 20057 20058 20059 20060 20061 20062 20063 20064 20065 20066 20067 20068 20069 20070 20071 20072 20073 20074 20075 20076 20077 20078 20079 20080 20081 20082 20083 20084 20085 20086 20087 20088 20089 20090 20091 20092 20093 20094 20095 20096 20097 20098 20099 20100 20101 20102 20103 20104 20105 20106 20107 20108 20109 20110 20111 20112 20113 20114 20115 20116 20117 20118 20119 20120 20121 20122 20123 20124 20125 20126 20127 20128 20129 20130 20131 20132 20133 20134 20135 20136 20137 20138 20139 20140 20141 20142 20143 20144 20145 20146 20147 20148 20149 20150 20151 20152 20153 20154 20155 20156 20157 20158 20159 20160 20161 20162 20163 20164 20165 20166 20167 20168 20169 20170 20171 20172 20173 20174 20175 20176 20177 20178 20179 20180 20181 20182 20183 20184 20185 20186 20187 20188 20189 20190 20191 20192 20193 20194 20195 20196 20197 20198 20199 20200 20201 20202 20203 20204 20205 20206 20207 20208 20209 20210 20211 20212 20213 20214 20215 20216 20217 20218 20219 20220 20221 20222 20223 20224 20225 20226 20227 20228 20229 20230 20231 20232 20233 20234 20235 20236 20237 20238 20239 20240 20241 20242 20243 20244 20245 20246 20247 20248 20249 20250 20251 20252 20253 20254 20255 20256 20257 20258 20259 20260 20261 20262 20263 20264 20265 20266 20267 20268 20269 20270 20271 20272 20273 20274 20275 20276 20277 20278 20279 20280 20281 20282 20283 20284 20285 20286 20287 20288 20289 20290 20291 20292 20293 20294 20295 20296 20297 20298 20299 20300 20301 20302 20303 20304 20305 20306 20307 20308 20309 20310 20311 20312 20313 20314 20315 20316 20317 20318 20319 20320 20321 20322 20323 20324 20325 20326 20327 20328 20329 20330 20331 20332 20333 20334 20335 20336 20337 20338 20339 20340 20341 20342 20343 20344 20345 20346 20347 20348 20349 20350 20351 20352 20353 20354 20355 20356 20357 20358 20359 20360 20361 20362 20363 20364 20365 20366 20367 20368 20369 20370 20371 20372 20373 20374 20375 20376 20377 20378 20379 20380 20381 20382 20383 20384 20385 20386 20387 20388 20389 20390 20391 20392 20393 20394 20395 20396 20397 20398 20399 20400 20401 20402 20403 20404 20405 20406 20407 20408 20409 20410 20411 20412 20413 20414 20415 20416 20417 20418 20419 20420 20421 20422 20423 20424 20425 20426 20427 20428 20429 20430 20431 20432 20433 20434 20435 20436 20437 20438 20439 20440 20441 20442 20443 20444 20445 20446 20447 20448 20449 20450 20451 20452 20453 20454 20455 20456 20457 20458 20459 20460 20461 20462 20463 20464 20465 20466 20467 20468 20469 20470 20471 20472 20473 20474 20475 20476 20477 20478 20479 20480 20481 20482 20483 20484 20485 20486 20487 20488 20489 20490 20491 20492 20493 20494 20495 20496 20497 20498 20499 20500 20501 20502 20503 20504 20505 20506 20507 20508 20509 20510 20511 20512 20513 20514 20515 20516 20517 20518 20519 20520 20521 20522 20523 20524 20525 20526 20527 20528 20529 20530 20531 20532 20533 20534 20535 20536 20537 20538 20539 20540 20541 20542 20543 20544 20545 20546 20547 20548 20549 20550 20551 20552 20553 20554 20555 20556 20557 20558 20559 20560 20561 20562 20563 20564 20565 20566 20567 20568 20569 20570 20571 20572 20573 20574 20575 20576 20577 20578 20579 20580 20581 20582 20583 20584 20585 20586 20587 20588 20589 20590 20591 20592 20593 20594 20595 20596 20597 20598 20599 20600 20601 20602 20603 20604 20605 20606 20607 20608 20609 20610 20611 20612 20613 20614 20615 20616 20617 20618 20619 20620 20621 20622 20623 20624 20625 20626 20627 20628 20629 20630 20631 20632 20633 20634 20635 20636 20637 20638 20639 20640 20641 20642 20643 20644 20645 20646 20647 20648 20649 20650 20651 20652 20653 20654 20655 20656 20657 20658 20659 20660 20661 20662 20663 20664 20665 20666 20667 20668 20669 20670 20671 20672 20673 20674 20675 20676 20677 20678 20679 20680 20681 20682 20683 20684 20685 20686 20687 20688 20689 20690 20691 20692 20693 20694 20695 20696 20697 20698 20699 20700 20701 20702 20703 20704 20705 20706 20707 20708 20709 20710 20711 20712 20713 20714 20715 20716 20717 20718 20719 20720 20721 20722 20723 20724 20725 20726 20727 20728 20729 20730 20731 20732 20733 20734 20735 20736 20737 20738 20739 20740 20741 20742 20743 20744 20745 20746 20747 20748 20749 20750 20751 20752 20753 20754 20755 20756 20757 20758 20759 20760 20761 20762 20763 20764 20765 20766 20767 20768 20769 20770 20771 20772 20773 20774 20775 20776 20777 20778 20779 20780 20781 20782 20783 20784 20785 20786 20787 20788 20789 20790 20791 20792 20793 20794 20795 20796 20797 20798 20799 20800 20801 20802 20803 20804 20805 20806 20807 20808 20809 20810 20811 20812 20813 20814 20815 20816 20817 20818 20819 20820 20821 20822 20823 20824 20825 20826 20827 20828 20829 20830 20831 20832 20833 20834 20835 20836 20837 20838 20839 20840 20841 20842 20843 20844 20845 20846 20847 20848 20849 20850 20851 20852 20853 20854 20855 20856 20857 20858 20859 20860 20861 20862 20863 20864 20865 20866 20867 20868 20869 20870 20871 20872 20873 20874 20875 20876 20877 20878 20879 20880 20881 20882 20883 20884 20885 20886 20887 20888 20889 20890 20891 20892 20893 20894 20895 20896 20897 20898 20899 20900 20901 20902 20903 20904 20905 20906 20907 20908 20909 20910 20911 20912 20913 20914 20915 20916 20917 20918 20919 20920 20921 20922 20923 20924 20925 20926 20927 20928 20929 20930 20931 20932 20933 20934 20935 20936 20937 20938 20939 20940 20941 20942 20943 20944 20945 20946 20947 20948 20949 20950 20951 20952 20953 20954 20955 20956 20957 20958 20959 20960 20961 20962 20963 20964 20965 20966 20967 20968 20969 20970 20971 20972 20973 20974 20975 20976 20977 20978 20979 20980 20981 20982 20983 20984 20985 20986 20987 20988 20989 20990 20991 20992 20993 20994 20995 20996 20997 20998 20999 21000 21001 21002 21003 21004 21005 21006 21007 21008 21009 21010 21011 21012 21013 21014 21015 21016 21017 21018 21019 21020 21021 21022 21023 21024 21025 21026 21027 21028 21029 21030 21031 21032 21033 21034 21035 21036 21037 21038 21039 21040 21041 21042 21043 21044 21045 21046 21047 21048 21049 21050 21051 21052 21053 21054 21055 21056 21057 21058 21059 21060 21061 21062 21063 21064 21065 21066 21067 21068 21069 21070 21071 21072 21073 21074 21075 21076 21077 21078 21079 21080 21081 21082 21083 21084 21085 21086 21087 21088 21089 21090 21091 21092 21093 21094 21095 21096 21097 21098 21099 21100 21101 21102 21103 21104 21105 21106 21107 21108 21109 21110 21111 21112 21113 21114 21115 21116 21117 21118 21119 21120 21121 21122 21123 21124 21125 21126 21127 21128 21129 21130 21131 21132 21133 21134 21135 21136 21137 21138 21139 21140 21141 21142 21143 21144 21145 21146 21147 21148 21149 21150 21151 21152 21153 21154 21155 21156 21157 21158 21159 21160 21161 21162 21163 21164 21165 21166 21167 21168 21169 21170 21171 21172 21173 21174 21175 21176 21177 21178 21179 21180 21181 21182 21183 21184 21185 21186 21187 21188 21189 21190 21191 21192 21193 21194 21195 21196 21197 21198 21199 21200 21201 21202 21203 21204 21205 21206 21207 21208 21209 21210 21211 21212 21213 21214 21215 21216 21217 21218 21219 21220 21221 21222 21223 21224 21225 21226 21227 21228 21229 21230 21231 21232 21233 21234 21235 21236 21237 21238 21239 21240 21241 21242 21243 21244 21245 21246 21247 21248 21249 21250 21251 21252 21253 21254 21255 21256 21257 21258 21259 21260 21261 21262 21263 21264 21265 21266 21267 21268 21269 21270 21271 21272 21273 21274 21275 21276 21277 21278 21279 21280 21281 21282 21283 21284 21285 21286 21287 21288 21289 21290 21291 21292 21293 21294 21295 21296 21297 21298 21299 21300 21301 21302 21303 21304 21305 21306 21307 21308 21309 21310 21311 21312 21313 21314 21315 21316 21317 21318 21319 21320 21321 21322 21323 21324 21325 21326 21327 21328 21329 21330 21331 21332 21333 21334 21335 21336 21337 21338 21339 21340 21341 21342 21343 21344 21345 21346 21347 21348 21349 21350 21351 21352 21353 21354 21355 21356 21357 21358 21359 21360 21361 21362 21363 21364 21365 21366 21367 21368 21369 21370 21371 21372 21373 21374 21375 21376 21377 21378 21379 21380 21381 21382 21383 21384 21385 21386 21387 21388 21389 21390 21391 21392 21393 21394 21395 21396 21397 21398 21399 21400 21401 21402 21403 21404 21405 21406 21407 21408 21409 21410 21411 21412 21413 21414 21415 21416 21417 21418 21419 21420 21421 21422 21423 21424 21425 21426 21427 21428 21429 21430 21431 21432 21433 21434 21435 21436 21437 21438 21439 21440 21441 21442 21443 21444 21445 21446 21447 21448 21449 21450 21451 21452 21453 21454 21455 21456 21457 21458 21459 21460 21461 21462 21463 21464 21465 21466 21467 21468 21469 21470 21471 21472 21473 21474 21475 21476 21477 21478 21479 21480 21481 21482 21483 21484 21485 21486 21487 21488 21489 21490 21491 21492 21493 21494 21495 21496 21497 21498 21499 21500 21501 21502 21503 21504 21505 21506 21507 21508 21509 21510 21511 21512 21513 21514 21515 21516 21517 21518 21519 21520 21521 21522 21523 21524 21525 21526 21527 21528 21529 21530 21531 21532 21533 21534 21535 21536 21537 21538 21539 21540 21541 21542 21543 21544 21545 21546 21547 21548 21549 21550 21551 21552 21553 21554 21555 21556 21557 21558 21559 21560 21561 21562 21563 21564 21565 21566 21567 21568 21569 21570 21571 21572 21573 21574 21575 21576 21577 21578 21579 21580 21581 21582 21583 21584 21585 21586 21587 21588 21589 21590 21591 21592 21593 21594 21595 21596 21597 21598 21599 21600 21601 21602 21603 21604 21605 21606 21607 21608 21609 21610 21611 21612 21613 21614 21615 21616 21617 21618 21619 21620 21621 21622 21623 21624 21625 21626 21627 21628 21629 21630 21631 21632 21633 21634 21635 21636 21637 21638 21639 21640 21641 21642 21643 21644 21645 21646 21647 21648 21649 21650 21651 21652 21653 21654 21655 21656 21657 21658 21659 21660 21661 21662 21663 21664 21665 21666 21667 21668 21669 21670 21671 21672 21673 21674 21675 21676 21677 21678 21679 21680 21681 21682 21683 21684 21685 21686 21687 21688 21689 21690 21691 21692 21693 21694 21695 21696 21697 21698 21699 21700 21701 21702 21703 21704 21705 21706 21707 21708 21709 21710 21711 21712 21713 21714 21715 21716 21717 21718 21719 21720 21721 21722 21723 21724 21725 21726 21727 21728 21729 21730 21731 21732 21733 21734 21735 21736 21737 21738 21739 21740 21741 21742 21743 21744 21745 21746 21747 21748 21749 21750 21751 21752 21753 21754 21755 21756 21757 21758 21759 21760 21761 21762 21763 21764 21765 21766 21767 21768 21769 21770 21771 21772 21773 21774 21775 21776 21777 21778 21779 21780 21781 21782 21783 21784 21785 21786 21787 21788 21789 21790 21791 21792 21793 21794 21795 21796 21797 21798 21799 21800 21801 21802 21803 21804 21805 21806 21807 21808 21809 21810 21811 21812 21813 21814 21815 21816 21817 21818 21819 21820 21821 21822 21823 21824 21825 21826 21827 21828 21829 21830 21831 21832 21833 21834 21835 21836 21837 21838 21839 21840 21841 21842 21843 21844 21845 21846 21847 21848 21849 21850 21851 21852 21853 21854 21855 21856 21857 21858 21859 21860 21861 21862 21863 21864 21865 21866 21867 21868 21869 21870 21871 21872 21873 21874 21875 21876 21877 21878 21879 21880 21881 21882 21883 21884 21885 21886 21887 21888 21889 21890 21891 21892 21893 21894 21895 21896 21897 21898 21899 21900 21901 21902 21903 21904 21905 21906 21907 21908 21909 21910 21911 21912 21913 21914 21915 21916 21917 21918 21919 21920 21921 21922 21923 21924 21925 21926 21927 21928 21929 21930 21931 21932 21933 21934 21935 21936 21937 21938 21939 21940 21941 21942 21943 21944 21945 21946 21947 21948 21949 21950 21951 21952 21953 21954 21955 21956 21957 21958 21959 21960 21961 21962 21963 21964 21965 21966 21967 21968 21969 21970 21971 21972 21973 21974 21975 21976 21977 21978 21979 21980 21981 21982 21983 21984 21985 21986 21987 21988 21989 21990 21991 21992 21993 21994 21995 21996 21997 21998 21999 22000 22001 22002 22003 22004 22005 22006 22007 22008 22009 22010 22011 22012 22013 22014 22015 22016 22017 22018 22019 22020 22021 22022 22023 22024 22025 22026 22027 22028 22029 22030 22031 22032 22033 22034 22035 22036 22037 22038 22039 22040 22041 22042 22043 22044 22045 22046 22047 22048 22049 22050 22051 22052 22053 22054 22055 22056 22057 22058 22059 22060 22061 22062 22063 22064 22065 22066 22067 22068 22069 22070 22071 22072 22073 22074 22075 22076 22077 22078 22079 22080 22081 22082 22083 22084 22085 22086 22087 22088 22089 22090 22091 22092 22093 22094 22095 22096 22097 22098 22099 22100 22101 22102 22103 22104 22105 22106 22107 22108 22109 22110 22111 22112 22113 22114 22115 22116 22117 22118 22119 22120 22121 22122 22123 22124 22125 22126 22127 22128 22129 22130 22131 22132 22133 22134 22135 22136 22137 22138 22139 22140 22141 22142 22143 22144 22145 22146 22147 22148 22149 22150 22151 22152 22153 22154 22155 22156 22157 22158 22159 22160 22161 22162 22163 22164 22165 22166 22167 22168 22169 22170 22171 22172 22173 22174 22175 22176 22177 22178 22179 22180 22181 22182 22183 22184 22185 22186 22187 22188 22189 22190 22191 22192 22193 22194 22195 22196 22197 22198 22199 22200 22201 22202 22203 22204 22205 22206 22207 22208 22209 22210 22211 22212 22213 22214 22215 22216 22217 22218 22219 22220 22221 22222 22223 22224 22225 22226 22227 22228 22229 22230 22231 22232 22233 22234 22235 22236 22237 22238 22239 22240 22241 22242 22243 22244 22245 22246 22247 22248 22249 22250 22251 22252 22253 22254 22255 22256 22257 22258 22259 22260 22261 22262 22263 22264 22265 22266 22267 22268 22269 22270 22271 22272 22273 22274 22275 22276 22277 22278 22279 22280 22281 22282 22283 22284 22285 22286 22287 22288 22289 22290 22291 22292 22293 22294 22295 22296 22297 22298 22299 22300 22301 22302 22303 22304 22305 22306 22307 22308 22309 22310 22311 22312 22313 22314 22315 22316 22317 22318 22319 22320 22321 22322 22323 22324 22325 22326 22327 22328 22329 22330 22331 22332 22333 22334 22335 22336 22337 22338 22339 22340 22341 22342 22343 22344 22345 22346 22347 22348 22349 22350 22351 22352 22353 22354 22355 22356 22357 22358 22359 22360 22361 22362 22363 22364 22365 22366 22367 22368 22369 22370 22371 22372 22373 22374 22375 22376 22377 22378 22379 22380 22381 22382 22383 22384 22385 22386 22387 22388 22389 22390 22391 22392 22393 22394 22395 22396 22397 22398 22399 22400 22401 22402 22403 22404 22405 22406 22407 22408 22409 22410 22411 22412 22413 22414 22415 22416 22417 22418 22419 22420 22421 22422 22423 22424 22425 22426 22427 22428 22429 22430 22431 22432 22433 22434 22435 22436 22437 22438 22439 22440 22441 22442 22443 22444 22445 22446 22447 22448 22449 22450 22451 22452 22453 22454 22455 22456 22457 22458 22459 22460 22461 22462 22463 22464 22465 22466 22467 22468 22469 22470 22471 22472 22473 22474 22475 22476 22477 22478 22479 22480 22481 22482 22483 22484 22485 22486 22487 22488 22489 22490 22491 22492 22493 22494 22495 22496 22497 22498 22499 22500 22501 22502 22503 22504 22505 22506 22507 22508 22509 22510 22511 22512 22513 22514 22515 22516 22517 22518 22519 22520 22521 22522 22523 22524 22525 22526 22527 22528 22529 22530 22531 22532 22533 22534 22535 22536 22537 22538 22539 22540 22541 22542 22543 22544 22545 22546 22547 22548 22549 22550 22551 22552 22553 22554 22555 22556 22557 22558 22559 22560 22561 22562 22563 22564 22565 22566 22567 22568 22569 22570 22571 22572 22573 22574 22575 22576 22577 22578 22579 22580 22581 22582 22583 22584 22585 22586 22587 22588 22589 22590 22591 22592 22593 22594 22595 22596 22597 22598 22599 22600 22601 22602 22603 22604 22605 22606 22607 22608 22609 22610 22611 22612 22613 22614 22615 22616 22617 22618 22619 22620 22621 22622 22623 22624 22625 22626 22627 22628 22629 22630 22631 22632 22633 22634 22635 22636 22637 22638 22639 22640 22641 22642 22643 22644 22645 22646 22647 22648 22649 22650 22651 22652 22653 22654 22655 22656 22657 22658 22659 22660 22661 22662 22663 22664 22665 22666 22667 22668 22669 22670 22671 22672 22673 22674 22675 22676 22677 22678 22679 22680 22681 22682 22683 22684 22685 22686 22687 22688 22689 22690 22691 22692 22693 22694 22695 22696 22697 22698 22699 22700 22701 22702 22703 22704 22705 22706 22707 22708 22709 22710 22711 22712 22713 22714 22715 22716 22717 22718 22719 22720 22721 22722 22723 22724 22725 22726 22727 22728 22729 22730 22731 22732 22733 22734 22735 22736 22737 22738 22739 22740 22741 22742 22743 22744 22745 22746 22747 22748 22749 22750 22751 22752 22753 22754 22755 22756 22757 22758 22759 22760 22761 22762 22763 22764 22765 22766 22767 22768 22769 22770 22771 22772 22773 22774 22775 22776 22777 22778 22779 22780 22781 22782 22783 22784 22785 22786 22787 22788 22789 22790 22791 22792 22793 22794 22795 22796 22797 22798 22799 22800 22801 22802 22803 22804 22805 22806 22807 22808 22809 22810 22811 22812 22813 22814 22815 22816 22817 22818 22819 22820 22821 22822 22823 22824 22825 22826 22827 22828 22829 22830 22831 22832 22833 22834 22835 22836 22837 22838 22839 22840 22841 22842 22843 22844 22845 22846 22847 22848 22849 22850 22851 22852 22853 22854 22855 22856 22857 22858 22859 22860 22861 22862 22863 22864 22865 22866 22867 22868 22869 22870 22871 22872 22873 22874 22875 22876 22877 22878 22879 22880 22881 22882 22883 22884 22885 22886 22887 22888 22889 22890 22891 22892 22893 22894 22895 22896 22897 22898 22899 22900 22901 22902 22903 22904 22905 22906 22907 22908 22909 22910 22911 22912 22913 22914 22915 22916 22917 22918 22919 22920 22921 22922 22923 22924 22925 22926 22927 22928 22929 22930 22931 22932 22933 22934 22935 22936 22937 22938 22939 22940 22941 22942 22943 22944 22945 22946 22947 22948 22949 22950 22951 22952 22953 22954 22955 22956 22957 22958 22959 22960 22961 22962 22963 22964 22965 22966 22967 22968 22969 22970 22971 22972 22973 22974 22975 22976 22977 22978 22979 22980 22981 22982 22983 22984 22985 22986 22987 22988 22989 22990 22991 22992 22993 22994 22995 22996 22997 22998 22999 23000 23001 23002 23003 23004 23005 23006 23007 23008 23009 23010 23011 23012 23013 23014 23015 23016 23017 23018 23019 23020 23021 23022 23023 23024 23025 23026 23027 23028 23029 23030 23031 23032 23033 23034 23035 23036 23037 23038 23039 23040 23041 23042 23043 23044 23045 23046 23047 23048 23049 23050 23051 23052 23053 23054 23055 23056 23057 23058 23059 23060 23061 23062 23063 23064 23065 23066 23067 23068 23069 23070 23071 23072 23073 23074 23075 23076 23077 23078 23079 23080 23081 23082 23083 23084 23085 23086 23087 23088 23089 23090 23091 23092 23093 23094 23095 23096 23097 23098 23099 23100 23101 23102 23103 23104 23105 23106 23107 23108 23109 23110 23111 23112 23113 23114 23115 23116 23117 23118 23119 23120 23121 23122 23123 23124 23125 23126 23127 23128 23129 23130 23131 23132 23133 23134 23135 23136 23137 23138 23139 23140 23141 23142 23143 23144 23145 23146 23147 23148 23149 23150 23151 23152 23153 23154 23155 23156 23157 23158 23159 23160 23161 23162 23163 23164 23165 23166 23167 23168 23169 23170 23171 23172 23173 23174 23175 23176 23177 23178 23179 23180 23181 23182 23183 23184 23185 23186 23187 23188 23189 23190 23191 23192 23193 23194 23195 23196 23197 23198 23199 23200 23201 23202 23203 23204 23205 23206 23207 23208 23209 23210 23211 23212 23213 23214 23215 23216 23217 23218 23219 23220 23221 23222 23223 23224 23225 23226 23227 23228 23229 23230 23231 23232 23233 23234 23235 23236 23237 23238 23239 23240 23241 23242 23243 23244 23245 23246 23247 23248 23249 23250 23251 23252 23253 23254 23255 23256 23257 23258 23259 23260 23261 23262 23263 23264 23265 23266 23267 23268 23269 23270 23271 23272 23273 23274 23275 23276 23277 23278 23279 23280 23281 23282 23283 23284 23285 23286 23287 23288 23289 23290 23291 23292 23293 23294 23295 23296 23297 23298 23299 23300 23301 23302 23303 23304 23305 23306 23307 23308 23309 23310 23311 23312 23313 23314 23315 23316 23317 23318 23319 23320 23321 23322 23323 23324 23325 23326 23327 23328 23329 23330 23331 23332 23333 23334 23335 23336 23337 23338 23339 23340 23341 23342 23343 23344 23345 23346 23347 23348 23349 23350 23351 23352 23353 23354 23355 23356 23357 23358 23359 23360 23361 23362 23363 23364 23365 23366 23367 23368 23369 23370 23371 23372 23373 23374 23375 23376 23377 23378 23379 23380 23381 23382 23383 23384 23385 23386 23387 23388 23389 23390 23391 23392 23393 23394 23395 23396 23397 23398 23399 23400 23401 23402 23403 23404 23405 23406 23407 23408 23409 23410 23411 23412 23413 23414 23415 23416 23417 23418 23419 23420 23421 23422 23423 23424 23425 23426 23427 23428 23429 23430 23431 23432 23433 23434 23435 23436 23437 23438 23439 23440 23441 23442 23443 23444 23445 23446 23447 23448 23449 23450 23451 23452 23453 23454 23455 23456 23457 23458 23459 23460 23461 23462 23463 23464 23465 23466 23467 23468 23469 23470 23471 23472 23473 23474 23475 23476 23477 23478 23479 23480 23481 23482 23483 23484 23485 23486 23487 23488 23489 23490 23491 23492 23493 23494 23495 23496 23497 23498 23499 23500 23501 23502 23503 23504 23505 23506 23507 23508 23509 23510 23511 23512 23513 23514 23515 23516 23517 23518 23519 23520 23521 23522 23523 23524 23525 23526 23527 23528 23529 23530 23531 23532 23533 23534 23535 23536 23537 23538 23539 23540 23541 23542 23543 23544 23545 23546 23547 23548 23549 23550 23551 23552 23553 23554 23555 23556 23557 23558 23559 23560 23561 23562 23563 23564 23565 23566 23567 23568 23569 23570 23571 23572 23573 23574 23575 23576 23577 23578 23579 23580 23581 23582 23583 23584 23585 23586 23587 23588 23589 23590 23591 23592 23593 23594 23595 23596 23597 23598 23599 23600 23601 23602 23603 23604 23605 23606 23607 23608 23609 23610 23611 23612 23613 23614 23615 23616 23617 23618 23619 23620 23621 23622 23623 23624 23625 23626 23627 23628 23629 23630 23631 23632 23633 23634 23635 23636 23637 23638 23639 23640 23641 23642 23643 23644 23645 23646 23647 23648 23649 23650 23651 23652 23653 23654 23655 23656 23657 23658 23659 23660 23661 23662 23663 23664 23665 23666 23667 23668 23669 23670 23671 23672 23673 23674 23675 23676 23677 23678 23679 23680 23681 23682 23683 23684 23685 23686 23687 23688 23689 23690 23691 23692 23693 23694 23695 23696 23697 23698 23699 23700 23701 23702 23703 23704 23705 23706 23707 23708 23709 23710 23711 23712 23713 23714 23715 23716 23717 23718 23719 23720 23721 23722 23723 23724 23725 23726 23727 23728 23729 23730 23731 23732 23733 23734 23735 23736 23737 23738 23739 23740 23741 23742 23743 23744 23745 23746 23747 23748 23749 23750 23751 23752 23753 23754 23755 23756 23757 23758 23759 23760 23761 23762 23763 23764 23765 23766 23767 23768 23769 23770 23771 23772 23773 23774 23775 23776 23777 23778 23779 23780 23781 23782 23783 23784 23785 23786 23787 23788 23789 23790 23791 23792 23793 23794 23795 23796 23797 23798 23799 23800 23801 23802 23803 23804 23805 23806 23807 23808 23809 23810 23811 23812 23813 23814 23815 23816 23817 23818 23819 23820 23821 23822 23823 23824 23825 23826 23827 23828 23829 23830 23831 23832 23833 23834 23835 23836 23837 23838 23839 23840 23841 23842 23843 23844 23845 23846 23847 23848 23849 23850 23851 23852 23853 23854 23855 23856 23857 23858 23859 23860 23861 23862 23863 23864 23865 23866 23867 23868 23869 23870 23871 23872 23873 23874 23875 23876 23877 23878 23879 23880 23881 23882 23883 23884 23885 23886 23887 23888 23889 23890 23891 23892 23893 23894 23895 23896 23897 23898 23899 23900 23901 23902 23903 23904 23905 23906 23907 23908 23909 23910 23911 23912 23913 23914 23915 23916 23917 23918 23919 23920 23921 23922 23923 23924 23925 23926 23927 23928 23929 23930 23931 23932 23933 23934 23935 23936 23937 23938 23939 23940 23941 23942 23943 23944 23945 23946 23947 23948 23949 23950 23951 23952 23953 23954 23955 23956 23957 23958 23959 23960 23961 23962 23963 23964 23965 23966 23967 23968 23969 23970 23971 23972 23973 23974 23975 23976 23977 23978 23979 23980 23981 23982 23983 23984 23985 23986 23987 23988 23989 23990 23991 23992 23993 23994 23995 23996 23997 23998 23999 24000 24001 24002 24003 24004 24005 24006 24007 24008 24009 24010 24011 24012 24013 24014 24015 24016 24017 24018 24019 24020 24021 24022 24023 24024 24025 24026 24027 24028 24029 24030 24031 24032 24033 24034 24035 24036 24037 24038 24039 24040 24041 24042 24043 24044 24045 24046 24047 24048 24049 24050 24051 24052 24053 24054 24055 24056 24057 24058 24059 24060 24061 24062 24063 24064 24065 24066 24067 24068 24069 24070 24071 24072 24073 24074 24075 24076 24077 24078 24079 24080 24081 24082 24083 24084 24085 24086 24087 24088 24089 24090 24091 24092 24093 24094 24095 24096 24097 24098 24099 24100 24101 24102 24103 24104 24105 24106 24107 24108 24109 24110 24111 24112 24113 24114 24115 24116 24117 24118 24119 24120 24121 24122 24123 24124 24125 24126 24127 24128 24129 24130 24131 24132 24133 24134 24135 24136 24137 24138 24139 24140 24141 24142 24143 24144 24145 24146 24147 24148 24149 24150 24151 24152 24153 24154 24155 24156 24157 24158 24159 24160 24161 24162 24163 24164 24165 24166 24167 24168 24169 24170 24171 24172 24173 24174 24175 24176 24177 24178 24179 24180 24181 24182 24183 24184 24185 24186 24187 24188 24189 24190 24191 24192 24193 24194 24195 24196 24197 24198 24199 24200 24201 24202 24203 24204 24205 24206 24207 24208 24209 24210 24211 24212 24213 24214 24215 24216 24217 24218 24219 24220 24221 24222 24223 24224 24225 24226 24227 24228 24229 24230 24231 24232 24233 24234 24235 24236 24237 24238 24239 24240 24241 24242 24243 24244 24245 24246 24247 24248 24249 24250 24251 24252 24253 24254 24255 24256 24257 24258 24259 24260 24261 24262 24263 24264 24265 24266 24267 24268 24269 24270 24271 24272 24273 24274 24275 24276 24277 24278 24279 24280 24281 24282 24283 24284 24285 24286 24287 24288 24289 24290 24291 24292 24293 24294 24295 24296 24297 24298 24299 24300 24301 24302 24303 24304 24305 24306 24307 24308 24309 24310 24311 24312 24313 24314 24315 24316 24317 24318 24319 24320 24321 24322 24323 24324 24325 24326 24327 24328 24329 24330 24331 24332 24333 24334 24335 24336 24337 24338 24339 24340 24341 24342 24343 24344 24345 24346 24347 24348 24349 24350 24351 24352 24353 24354 24355 24356 24357 24358 24359 24360 24361 24362 24363 24364 24365 24366 24367 24368 24369 24370 24371 24372 24373 24374 24375 24376 24377 24378 24379 24380 24381 24382 24383 24384 24385 24386 24387 24388 24389 24390 24391 24392 24393 24394 24395 24396 24397 24398 24399 24400 24401 24402 24403 24404 24405 24406 24407 24408 24409 24410 24411 24412 24413 24414 24415 24416 24417 24418 24419 24420 24421 24422 24423 24424 24425 24426 24427 24428 24429 24430 24431 24432 24433 24434 24435 24436 24437 24438 24439 24440 24441 24442 24443 24444 24445 24446 24447 24448 24449 24450 24451 24452 24453 24454 24455 24456 24457 24458 24459 24460 24461 24462 24463 24464 24465 24466 24467 24468 24469 24470 24471 24472 24473 24474 24475 24476 24477 24478 24479 24480 24481 24482 24483 24484 24485 24486 24487 24488 24489 24490 24491 24492 24493 24494 24495 24496 24497 24498 24499 24500 24501 24502 24503 24504 24505 24506 24507 24508 24509 24510 24511 24512 24513 24514 24515 24516 24517 24518 24519 24520 24521 24522 24523 24524 24525 24526 24527 24528 24529 24530 24531 24532 24533 24534 24535 24536 24537 24538 24539 24540 24541 24542 24543 24544 24545 24546 24547 24548 24549 24550 24551 24552 24553 24554 24555 24556 24557 24558 24559 24560 24561 24562 24563 24564 24565 24566 24567 24568 24569 24570 24571 24572 24573 24574 24575 24576 24577 24578 24579 24580 24581 24582 24583 24584 24585 24586 24587 24588 24589 24590 24591 24592 24593 24594 24595 24596 24597 24598 24599 24600 24601 24602 24603 24604 24605 24606 24607 24608 24609 24610 24611 24612 24613 24614 24615 24616 24617 24618 24619 24620 24621 24622 24623 24624 24625 24626 24627 24628 24629 24630 24631 24632 24633 24634 24635 24636 24637 24638 24639 24640 24641 24642 24643 24644 24645 24646 24647 24648 24649 24650 24651 24652 24653 24654 24655 24656 24657 24658 24659 24660 24661 24662 24663 24664 24665 24666 24667 24668 24669 24670 24671 24672 24673 24674 24675 24676 24677 24678 24679 24680 24681 24682 24683 24684 24685 24686 24687 24688 24689 24690 24691 24692 24693 24694 24695 24696 24697 24698 24699 24700 24701 24702 24703 24704 24705 24706 24707 24708 24709 24710 24711 24712 24713 24714 24715 24716 24717 24718 24719 24720 24721 24722 24723 24724 24725 24726 24727 24728 24729 24730 24731 24732 24733 24734 24735 24736 24737 24738 24739 24740 24741 24742 24743 24744 24745 24746 24747 24748 24749 24750 24751 24752 24753 24754 24755 24756 24757 24758 24759 24760 24761 24762 24763 24764 24765 24766 24767 24768 24769 24770 24771 24772 24773 24774 24775 24776 24777 24778 24779 24780 24781 24782 24783 24784 24785 24786 24787 24788 24789 24790 24791 24792 24793 24794 24795 24796 24797 24798 24799 24800 24801 24802 24803 24804 24805 24806 24807 24808 24809 24810 24811 24812 24813 24814 24815 24816 24817 24818 24819 24820 24821 24822 24823 24824 24825 24826 24827 24828 24829 24830 24831 24832 24833 24834 24835 24836 24837 24838 24839 24840 24841 24842 24843 24844 24845 24846 24847 24848 24849 24850 24851 24852 24853 24854 24855 24856 24857 24858 24859 24860 24861 24862 24863 24864 24865 24866 24867 24868 24869 24870 24871 24872 24873 24874 24875 24876 24877 24878 24879 24880 24881 24882 24883 24884 24885 24886 24887 24888 24889 24890 24891 24892 24893 24894 24895 24896 24897 24898 24899 24900 24901 24902 24903 24904 24905 24906 24907 24908 24909 24910 24911 24912 24913 24914 24915 24916 24917 24918 24919 24920 24921 24922 24923 24924 24925 24926 24927 24928 24929 24930 24931 24932 24933 24934 24935 24936 24937 24938 24939 24940 24941 24942 24943 24944 24945 24946 24947 24948 24949 24950 24951 24952 24953 24954 24955 24956 24957 24958 24959 24960 24961 24962 24963 24964 24965 24966 24967 24968 24969 24970 24971 24972 24973 24974 24975 24976 24977 24978 24979 24980 24981 24982 24983 24984 24985 24986 24987 24988 24989 24990 24991 24992 24993 24994 24995 24996 24997 24998 24999 25000 25001 25002 25003 25004 25005 25006 25007 25008 25009 25010 25011 25012 25013 25014 25015 25016 25017 25018 25019 25020 25021 25022 25023 25024 25025 25026 25027 25028 25029 25030 25031 25032 25033 25034 25035 25036 25037 25038 25039 25040 25041 25042 25043 25044 25045 25046 25047 25048 25049 25050 25051 25052 25053 25054 25055 25056 25057 25058 25059 25060 25061 25062 25063 25064 25065 25066 25067 25068 25069 25070 25071 25072 25073 25074 25075 25076 25077 25078 25079 25080 25081 25082 25083 25084 25085 25086 25087 25088 25089 25090 25091 25092 25093 25094 25095 25096 25097 25098 25099 25100 25101 25102 25103 25104 25105 25106 25107 25108 25109 25110 25111 25112 25113 25114 25115 25116 25117 25118 25119 25120 25121 25122 25123 25124 25125 25126 25127 25128 25129 25130 25131 25132 25133 25134 25135 25136 25137 25138 25139 25140 25141 25142 25143 25144 25145 25146 25147 25148 25149 25150 25151 25152 25153 25154 25155 25156 25157 25158 25159 25160 25161 25162 25163 25164 25165 25166 25167 25168 25169 25170 25171 25172 25173 25174 25175 25176 25177 25178 25179 25180 25181 25182 25183 25184 25185 25186 25187 25188 25189 25190 25191 25192 25193 25194 25195 25196 25197 25198 25199 25200 25201 25202 25203 25204 25205 25206 25207 25208 25209 25210 25211 25212 25213 25214 25215 25216 25217 25218 25219 25220 25221 25222 25223 25224 25225 25226 25227 25228 25229 25230 25231 25232 25233 25234 25235 25236 25237 25238 25239 25240 25241 25242 25243 25244 25245 25246 25247 25248 25249 25250 25251 25252 25253 25254 25255 25256 25257 25258 25259 25260 25261 25262 25263 25264 25265 25266 25267 25268 25269 25270 25271 25272 25273 25274 25275 25276 25277 25278 25279 25280 25281 25282 25283 25284 25285 25286 25287 25288 25289 25290 25291 25292 25293 25294 25295 25296 25297 25298 25299 25300 25301 25302 25303 25304 25305 25306 25307 25308 25309 25310 25311 25312 25313 25314 25315 25316 25317 25318 25319 25320 25321 25322 25323 25324 25325 25326 25327 25328 25329 25330 25331 25332 25333 25334 25335 25336 25337 25338 25339 25340 25341 25342 25343 25344 25345 25346 25347 25348 25349 25350 25351 25352 25353 25354 25355 25356 25357 25358 25359 25360 25361 25362 25363 25364 25365 25366 25367 25368 25369 25370 25371 25372 25373 25374 25375 25376 25377 25378 25379 25380 25381 25382 25383 25384 25385 25386 25387 25388 25389 25390 25391 25392 25393 25394 25395 25396 25397 25398 25399 25400 25401 25402 25403 25404 25405 25406 25407 25408 25409 25410 25411 25412 25413 25414 25415 25416 25417 25418 25419 25420 25421 25422 25423 25424 25425 25426 25427 25428 25429 25430 25431 25432 25433 25434 25435 25436 25437 25438 25439 25440 25441 25442 25443 25444 25445 25446 25447 25448 25449 25450 25451 25452 25453 25454 25455 25456 25457 25458 25459 25460 25461 25462 25463 25464 25465 25466 25467 25468 25469 25470 25471 25472 25473 25474 25475 25476 25477 25478 25479 25480 25481 25482 25483 25484 25485 25486 25487 25488 25489 25490 25491 25492 25493 25494 25495 25496 25497 25498 25499 25500 25501 25502 25503 25504 25505 25506 25507 25508 25509 25510 25511 25512 25513 25514 25515 25516 25517 25518 25519 25520 25521 25522 25523 25524 25525 25526 25527 25528 25529 25530 25531 25532 25533 25534 25535 25536 25537 25538 25539 25540 25541 25542 25543 25544 25545 25546 25547 25548 25549 25550 25551 25552 25553 25554 25555 25556 25557 25558 25559 25560 25561 25562 25563 25564 25565 25566 25567 25568 25569 25570 25571 25572 25573 25574 25575 25576 25577 25578 25579 25580 25581 25582 25583 25584 25585 25586 25587 25588 25589 25590 25591 25592 25593 25594 25595 25596 25597 25598 25599 25600 25601 25602 25603 25604 25605 25606 25607 25608 25609 25610 25611 25612 25613 25614 25615 25616 25617 25618 25619 25620 25621 25622 25623 25624 25625 25626 25627 25628 25629 25630 25631 25632 25633 25634 25635 25636 25637 25638 25639 25640 25641 25642 25643 25644 25645 25646 25647 25648 25649 25650 25651 25652 25653 25654 25655 25656 25657 25658 25659 25660 25661 25662 25663 25664 25665 25666 25667 25668 25669 25670 25671 25672 25673 25674 25675 25676 25677 25678 25679 25680 25681 25682 25683 25684 25685 25686 25687 25688 25689 25690 25691 25692 25693 25694 25695 25696 25697 25698 25699 25700 25701 25702 25703 25704 25705 25706 25707 25708 25709 25710 25711 25712 25713 25714 25715 25716 25717 25718 25719 25720 25721 25722 25723 25724 25725 25726 25727 25728 25729 25730 25731 25732 25733 25734 25735 25736 25737 25738 25739 25740 25741 25742 25743 25744 25745 25746 25747 25748 25749 25750 25751 25752 25753 25754 25755 25756 25757 25758 25759 25760 25761 25762 25763 25764 25765 25766 25767 25768 25769 25770 25771 25772 25773 25774 25775 25776 25777 25778 25779 25780 25781 25782 25783 25784 25785 25786 25787 25788 25789 25790 25791 25792 25793 25794 25795 25796 25797 25798 25799 25800 25801 25802 25803 25804 25805 25806 25807 25808 25809 25810 25811 25812 25813 25814 25815 25816 25817 25818 25819 25820 25821 25822 25823 25824 25825 25826 25827 25828 25829 25830 25831 25832 25833 25834 25835 25836 25837 25838 25839 25840 25841 25842 25843 25844 25845 25846 25847 25848 25849 25850 25851 25852 25853 25854 25855 25856 25857 25858 25859 25860 25861 25862 25863 25864 25865 25866 25867 25868 25869 25870 25871 25872 25873 25874 25875 25876 25877 25878 25879 25880 25881 25882 25883 25884 25885 25886 25887 25888 25889 25890 25891 25892 25893 25894 25895 25896 25897 25898 25899 25900 25901 25902 25903 25904 25905 25906 25907 25908 25909 25910 25911 25912 25913 25914 25915 25916 25917 25918 25919 25920 25921 25922 25923 25924 25925 25926 25927 25928 25929 25930 25931 25932 25933 25934 25935 25936 25937 25938 25939 25940 25941 25942 25943 25944 25945 25946 25947 25948 25949 25950 25951 25952 25953 25954 25955 25956 25957 25958 25959 25960 25961 25962 25963 25964 25965 25966 25967 25968 25969 25970 25971 25972 25973 25974 25975 25976 25977 25978 25979 25980 25981 25982 25983 25984 25985 25986 25987 25988 25989 25990 25991 25992 25993 25994 25995 25996 25997 25998 25999 26000 26001 26002 26003 26004 26005 26006 26007 26008 26009 26010 26011 26012 26013 26014 26015 26016 26017 26018 26019 26020 26021 26022 26023 26024 26025 26026 26027 26028 26029 26030 26031 26032 26033 26034 26035 26036 26037 26038 26039 26040 26041 26042 26043 26044 26045 26046 26047 26048 26049 26050 26051 26052 26053 26054 26055 26056 26057 26058 26059 26060 26061 26062 26063 26064 26065 26066 26067 26068 26069 26070 26071 26072 26073 26074 26075 26076 26077 26078 26079 26080 26081 26082 26083 26084 26085 26086 26087 26088 26089 26090 26091 26092 26093 26094 26095 26096 26097 26098 26099 26100 26101 26102 26103 26104 26105 26106 26107 26108 26109 26110 26111 26112 26113 26114 26115 26116 26117 26118 26119 26120 26121 26122 26123 26124 26125 26126 26127 26128 26129 26130 26131 26132 26133 26134 26135 26136 26137 26138 26139 26140 26141 26142 26143 26144 26145 26146 26147 26148 26149 26150 26151 26152 26153 26154 26155 26156 26157 26158 26159 26160 26161 26162 26163 26164 26165 26166 26167 26168 26169 26170 26171 26172 26173 26174 26175 26176 26177 26178 26179 26180 26181 26182 26183 26184 26185 26186 26187 26188 26189 26190 26191 26192 26193 26194 26195 26196 26197 26198 26199 26200 26201 26202 26203 26204 26205 26206 26207 26208 26209 26210 26211 26212 26213 26214 26215 26216 26217 26218 26219 26220 26221 26222 26223 26224 26225 26226 26227 26228 26229 26230 26231 26232 26233 26234 26235 26236 26237 26238 26239 26240 26241 26242 26243 26244 26245 26246 26247 26248 26249 26250 26251 26252 26253 26254 26255 26256 26257 26258 26259 26260 26261 26262 26263 26264 26265 26266 26267 26268 26269 26270 26271 26272 26273 26274 26275 26276 26277 26278 26279 26280 26281 26282 26283 26284 26285 26286 26287 26288 26289 26290 26291 26292 26293 26294 26295 26296 26297 26298 26299 26300 26301 26302 26303 26304 26305 26306 26307 26308 26309 26310 26311 26312 26313 26314 26315 26316 26317 26318 26319 26320 26321 26322 26323 26324 26325 26326 26327 26328 26329 26330 26331 26332 26333 26334 26335 26336 26337 26338 26339 26340 26341 26342 26343 26344 26345 26346 26347 26348 26349 26350 26351 26352 26353 26354 26355 26356 26357 26358 26359 26360 26361 26362 26363 26364 26365 26366 26367 26368 26369 26370 26371 26372 26373 26374 26375 26376 26377 26378 26379 26380 26381 26382 26383 26384 26385 26386 26387 26388 26389 26390 26391 26392 26393 26394 26395 26396 26397 26398 26399 26400 26401 26402 26403 26404 26405 26406 26407 26408 26409 26410 26411 26412 26413 26414 26415 26416 26417 26418 26419 26420 26421 26422 26423 26424 26425 26426 26427 26428 26429 26430 26431 26432 26433 26434 26435 26436 26437 26438 26439 26440 26441 26442 26443 26444 26445 26446 26447 26448 26449 26450 26451 26452 26453 26454 26455 26456 26457 26458 26459 26460 26461 26462 26463 26464 26465 26466 26467 26468 26469 26470 26471 26472 26473 26474 26475 26476 26477 26478 26479 26480 26481 26482 26483 26484 26485 26486 26487 26488 26489 26490 26491 26492 26493 26494 26495 26496 26497 26498 26499 26500 26501 26502 26503 26504 26505 26506 26507 26508 26509 26510 26511 26512 26513 26514 26515 26516 26517 26518 26519 26520 26521 26522 26523 26524 26525 26526 26527 26528 26529 26530 26531 26532 26533 26534 26535 26536 26537 26538 26539 26540 26541 26542 26543 26544 26545 26546 26547 26548 26549 26550 26551 26552 26553 26554 26555 26556 26557 26558 26559 26560 26561 26562 26563 26564 26565 26566 26567 26568 26569 26570 26571 26572 26573 26574 26575 26576 26577 26578 26579 26580 26581 26582 26583 26584 26585 26586 26587 26588 26589 26590 26591 26592 26593 26594 26595 26596 26597 26598 26599 26600 26601 26602 26603 26604 26605 26606 26607 26608 26609 26610 26611 26612 26613 26614 26615 26616 26617 26618 26619 26620 26621 26622 26623 26624 26625 26626 26627 26628 26629 26630 26631 26632 26633 26634 26635 26636 26637 26638 26639 26640 26641 26642 26643 26644 26645 26646 26647 26648 26649 26650 26651 26652 26653 26654 26655 26656 26657 26658 26659 26660 26661 26662 26663 26664 26665 26666 26667 26668 26669 26670 26671 26672 26673 26674 26675 26676 26677 26678 26679 26680 26681 26682 26683 26684 26685 26686 26687 26688 26689 26690 26691 26692 26693 26694 26695 26696 26697 26698 26699 26700 26701 26702 26703 26704 26705 26706 26707 26708 26709 26710 26711 26712 26713 26714 26715 26716 26717 26718 26719 26720 26721 26722 26723 26724 26725 26726 26727 26728 26729 26730 26731 26732 26733 26734 26735 26736 26737 26738 26739 26740 26741 26742 26743 26744 26745 26746 26747 26748 26749 26750 26751 26752 26753 26754 26755 26756 26757 26758 26759 26760 26761 26762 26763 26764 26765 26766 26767 26768 26769 26770 26771 26772 26773 26774 26775 26776 26777 26778 26779 26780 26781 26782 26783 26784 26785 26786 26787 26788 26789 26790 26791 26792 26793 26794 26795 26796 26797 26798 26799 26800 26801 26802 26803 26804 26805 26806 26807 26808 26809 26810 26811 26812 26813 26814 26815 26816 26817 26818 26819 26820 26821 26822 26823 26824 26825 26826 26827 26828 26829 26830 26831 26832 26833 26834 26835 26836 26837 26838 26839 26840 26841 26842 26843 26844 26845 26846 26847 26848 26849 26850 26851 26852 26853 26854 26855 26856 26857 26858 26859 26860 26861 26862 26863 26864 26865 26866 26867 26868 26869 26870 26871 26872 26873 26874 26875 26876 26877 26878 26879 26880 26881 26882 26883 26884 26885 26886 26887 26888 26889 26890 26891 26892 26893 26894 26895 26896 26897 26898 26899 26900 26901 26902 26903 26904 26905 26906 26907 26908 26909 26910 26911 26912 26913 26914 26915 26916 26917 26918 26919 26920 26921 26922 26923 26924 26925 26926 26927 26928 26929 26930 26931 26932 26933 26934 26935 26936 26937 26938 26939 26940 26941 26942 26943 26944 26945 26946 26947 26948 26949 26950 26951 26952 26953 26954 26955 26956 26957 26958 26959 26960 26961 26962 26963 26964 26965 26966 26967 26968 26969 26970 26971 26972 26973 26974 26975 26976 26977 26978 26979 26980 26981 26982 26983 26984 26985 26986 26987 26988 26989 26990 26991 26992 26993 26994 26995 26996 26997 26998 26999 27000 27001 27002 27003 27004 27005 27006 27007 27008 27009 27010 27011 27012 27013 27014 27015 27016 27017 27018 27019 27020 27021 27022 27023 27024 27025 27026 27027 27028 27029 27030 27031 27032 27033 27034 27035 27036 27037 27038 27039 27040 27041 27042 27043 27044 27045 27046 27047 27048 27049 27050 27051 27052 27053 27054 27055 27056 27057 27058 27059 27060 27061 27062 27063 27064 27065 27066 27067 27068 27069 27070 27071 27072 27073 27074 27075 27076 27077 27078 27079 27080 27081 27082 27083 27084 27085 27086 27087 27088 27089 27090 27091 27092 27093 27094 27095 27096 27097 27098 27099 27100 27101 27102 27103 27104 27105 27106 27107 27108 27109 27110 27111 27112 27113 27114 27115 27116 27117 27118 27119 27120 27121 27122 27123 27124 27125 27126 27127 27128 27129 27130 27131 27132 27133 27134 27135 27136 27137 27138 27139 27140 27141 27142 27143 27144 27145 27146 27147 27148 27149 27150 27151 27152 27153 27154 27155 27156 27157 27158 27159 27160 27161 27162 27163 27164 27165 27166 27167 27168 27169 27170 27171 27172 27173 27174 27175 27176 27177 27178 27179 27180 27181 27182 27183 27184 27185 27186 27187 27188 27189 27190 27191 27192 27193 27194 27195 27196 27197 27198 27199 27200 27201 27202 27203 27204 27205 27206 27207 27208 27209 27210 27211 27212 27213 27214 27215 27216 27217 27218 27219 27220 27221 27222 27223 27224 27225 27226 27227 27228 27229 27230 27231 27232 27233 27234 27235 27236 27237 27238 27239 27240 27241 27242 27243 27244 27245 27246 27247 27248 27249 27250 27251 27252 27253 27254 27255 27256 27257 27258 27259 27260 27261 27262 27263 27264 27265 27266 27267 27268 27269 27270 27271 27272 27273 27274 27275 27276 27277 27278 27279 27280 27281 27282 27283 27284 27285 27286 27287 27288 27289 27290 27291 27292 27293 27294 27295 27296 27297 27298 27299 27300 27301 27302 27303 27304 27305 27306 27307 27308 27309 27310 27311 27312 27313 27314 27315 27316 27317 27318 27319 27320 27321 27322 27323 27324 27325 27326 27327 27328 27329 27330 27331 27332 27333 27334 27335 27336 27337 27338 27339 27340 27341 27342 27343 27344 27345 27346 27347 27348 27349 27350 27351 27352 27353 27354 27355 27356 27357 27358 27359 27360 27361 27362 27363 27364 27365 27366 27367 27368 27369 27370 27371 27372 27373 27374 27375 27376 27377 27378 27379 27380 27381 27382 27383 27384 27385 27386 27387 27388 27389 27390 27391 27392 27393 27394 27395 27396 27397 27398 27399 27400 27401 27402 27403 27404 27405 27406 27407 27408 27409 27410 27411 27412 27413 27414 27415 27416 27417 27418 27419 27420 27421 27422 27423 27424 27425 27426 27427 27428 27429 27430 27431 27432 27433 27434 27435 27436 27437 27438 27439 27440 27441 27442 27443 27444 27445 27446 27447 27448 27449 27450 27451 27452 27453 27454 27455 27456 27457 27458 27459 27460 27461 27462 27463 27464 27465 27466 27467 27468 27469 27470 27471 27472 27473 27474 27475 27476 27477 27478 27479 27480 27481 27482 27483 27484 27485 27486 27487 27488 27489 27490 27491 27492 27493 27494 27495 27496 27497 27498 27499 27500 27501 27502 27503 27504 27505 27506 27507 27508 27509 27510 27511 27512 27513 27514 27515 27516 27517 27518 27519 27520 27521 27522 27523 27524 27525 27526 27527 27528 27529 27530 27531 27532 27533 27534 27535 27536 27537 27538 27539 27540 27541 27542 27543 27544 27545 27546 27547 27548 27549 27550 27551 27552 27553 27554 27555 27556 27557 27558 27559 27560 27561 27562 27563 27564 27565 27566 27567 27568 27569 27570 27571 27572 27573 27574 27575 27576 27577 27578 27579 27580 27581 27582 27583 27584 27585 27586 27587 27588 27589 27590 27591 27592 27593 27594 27595 27596 27597 27598 27599 27600 27601 27602 27603 27604 27605 27606 27607 27608 27609 27610 27611 27612 27613 27614 27615 27616 27617 27618 27619 27620 27621 27622 27623 27624 27625 27626 27627 27628 27629 27630 27631 27632 27633 27634 27635 27636 27637 27638 27639 27640 27641 27642 27643 27644 27645 27646 27647 27648 27649 27650 27651 27652 27653 27654 27655 27656 27657 27658 27659 27660 27661 27662 27663 27664 27665 27666 27667 27668 27669 27670 27671 27672 27673 27674 27675 27676 27677 27678 27679 27680 27681 27682 27683 27684 27685 27686 27687 27688 27689 27690 27691 27692 27693 27694 27695 27696 27697 27698 27699 27700 27701 27702 27703 27704 27705 27706 27707 27708 27709 27710 27711 27712 27713 27714 27715 27716 27717 27718 27719 27720 27721 27722 27723 27724 27725 27726 27727 27728 27729 27730 27731 27732 27733 27734 27735 27736 27737 27738 27739 27740 27741 27742 27743 27744 27745 27746 27747 27748 27749 27750 27751 27752 27753 27754 27755 27756 27757 27758 27759 27760 27761 27762 27763 27764 27765 27766 27767 27768 27769 27770 27771 27772 27773 27774 27775 27776 27777 27778 27779 27780 27781 27782 27783 27784 27785 27786 27787 27788 27789 27790 27791 27792 27793 27794 27795 27796 27797 27798 27799 27800 27801 27802 27803 27804 27805 27806 27807 27808 27809 27810 27811 27812 27813 27814 27815 27816 27817 27818 27819 27820 27821 27822 27823 27824 27825 27826 27827 27828 27829 27830 27831 27832 27833 27834 27835 27836 27837 27838 27839 27840 27841 27842 27843 27844 27845 27846 27847 27848 27849 27850 27851 27852 27853 27854 27855 27856 27857 27858 27859 27860 27861 27862 27863 27864 27865 27866 27867 27868 27869 27870 27871 27872 27873 27874 27875 27876 27877 27878 27879 27880 27881 27882 27883 27884 27885 27886 27887 27888 27889 27890 27891 27892 27893 27894 27895 27896 27897 27898 27899 27900 27901 27902 27903 27904 27905 27906 27907 27908 27909 27910 27911 27912 27913 27914 27915 27916 27917 27918 27919 27920 27921 27922 27923 27924 27925 27926 27927 27928 27929 27930 27931 27932 27933 27934 27935 27936 27937 27938 27939 27940 27941 27942 27943 27944 27945 27946 27947 27948 27949 27950 27951 27952 27953 27954 27955 27956 27957 27958 27959 27960 27961 27962 27963 27964 27965 27966 27967 27968 27969 27970 27971 27972 27973 27974 27975 27976 27977 27978 27979 27980 27981 27982 27983 27984 27985 27986 27987 27988 27989 27990 27991 27992 27993 27994 27995 27996 27997 27998 27999 28000 28001 28002 28003 28004 28005 28006 28007 28008 28009 28010 28011 28012 28013 28014 28015 28016 28017 28018 28019 28020 28021 28022 28023 28024 28025 28026 28027 28028 28029 28030 28031 28032 28033 28034 28035 28036 28037 28038 28039 28040 28041 28042 28043 28044 28045 28046 28047 28048 28049 28050 28051 28052 28053 28054 28055 28056 28057 28058 28059 28060 28061 28062 28063 28064 28065 28066 28067 28068 28069 28070 28071 28072 28073 28074 28075 28076 28077 28078 28079 28080 28081 28082 28083 28084 28085 28086 28087 28088 28089 28090 28091 28092 28093 28094 28095 28096 28097 28098 28099 28100 28101 28102 28103 28104 28105 28106 28107 28108 28109 28110 28111 28112 28113 28114 28115 28116 28117 28118 28119 28120 28121 28122 28123 28124 28125 28126 28127 28128 28129 28130 28131 28132 28133 28134 28135 28136 28137 28138 28139 28140 28141 28142 28143 28144 28145 28146 28147 28148 28149 28150 28151 28152 28153 28154 28155 28156 28157 28158 28159 28160 28161 28162 28163 28164 28165 28166 28167 28168 28169 28170 28171 28172 28173 28174 28175 28176 28177 28178 28179 28180 28181 28182 28183 28184 28185 28186 28187 28188 28189 28190 28191 28192 28193 28194 28195 28196 28197 28198 28199 28200 28201 28202 28203 28204 28205 28206 28207 28208 28209 28210 28211 28212 28213 28214 28215 28216 28217 28218 28219 28220 28221 28222 28223 28224 28225 28226 28227 28228 28229 28230 28231 28232 28233 28234 28235 28236 28237 28238 28239 28240 28241 28242 28243 28244 28245 28246 28247 28248 28249 28250 28251 28252 28253 28254 28255 28256 28257 28258 28259 28260 28261 28262 28263 28264 28265 28266 28267 28268 28269 28270 28271 28272 28273 28274 28275 28276 28277 28278 28279 28280 28281 28282 28283 28284 28285 28286 28287 28288 28289 28290 28291 28292 28293 28294 28295 28296 28297 28298 28299 28300 28301 28302 28303 28304 28305 28306 28307 28308 28309 28310 28311 28312 28313 28314 28315 28316 28317 28318 28319 28320 28321 28322 28323 28324 28325 28326 28327 28328 28329 28330 28331 28332 28333 28334 28335 28336 28337 28338 28339 28340 28341 28342 28343 28344 28345 28346 28347 28348 28349 28350 28351 28352 28353 28354 28355 28356 28357 28358 28359 28360 28361 28362 28363 28364 28365 28366 28367 28368 28369 28370 28371 28372 28373 28374 28375 28376 28377 28378 28379 28380 28381 28382 28383 28384 28385 28386 28387 28388 28389 28390 28391 28392 28393 28394 28395 28396 28397 28398 28399 28400 28401 28402 28403 28404 28405 28406 28407 28408 28409 28410 28411 28412 28413 28414 28415 28416 28417 28418 28419 28420 28421 28422 28423 28424 28425 28426 28427 28428 28429 28430 28431 28432 28433 28434 28435 28436 28437 28438 28439 28440 28441 28442 28443 28444 28445 28446 28447 28448 28449 28450 28451 28452 28453 28454 28455 28456 28457 28458 28459 28460 28461 28462 28463 28464 28465 28466 28467 28468 28469 28470 28471 28472 28473 28474 28475 28476 28477 28478 28479 28480 28481 28482 28483 28484 28485 28486 28487 28488 28489 28490 28491 28492 28493 28494 28495 28496 28497 28498 28499 28500 28501 28502 28503 28504 28505 28506 28507 28508 28509 28510 28511 28512 28513 28514 28515 28516 28517 28518 28519 28520 28521 28522 28523 28524 28525 28526 28527 28528 28529 28530 28531 28532 28533 28534 28535 28536 28537 28538 28539 28540 28541 28542 28543 28544 28545 28546 28547 28548 28549 28550 28551 28552 28553 28554 28555 28556 28557 28558 28559 28560 28561 28562 28563 28564 28565 28566 28567 28568 28569 28570 28571 28572 28573 28574 28575 28576 28577 28578 28579 28580 28581 28582 28583 28584 28585 28586 28587 28588 28589 28590 28591 28592 28593 28594 28595 28596 28597 28598 28599 28600 28601 28602 28603 28604 28605 28606 28607 28608 28609 28610 28611 28612 28613 28614 28615 28616 28617 28618 28619 28620 28621 28622 28623 28624 28625 28626 28627 28628 28629 28630 28631 28632 28633 28634 28635 28636 28637 28638 28639 28640 28641 28642 28643 28644 28645 28646 28647 28648 28649 28650 28651 28652 28653 28654 28655 28656 28657 28658 28659 28660 28661 28662 28663 28664 28665 28666 28667 28668 28669 28670 28671 28672 28673 28674 28675 28676 28677 28678 28679 28680 28681 28682 28683 28684 28685 28686 28687 28688 28689 28690 28691 28692 28693 28694 28695 28696 28697 28698 28699 28700 28701 28702 28703 28704 28705 28706 28707 28708 28709 28710 28711 28712 28713 28714 28715 28716 28717 28718 28719 28720 28721 28722 28723 28724 28725 28726 28727 28728 28729 28730 28731 28732 28733 28734 28735 28736 28737 28738 28739 28740 28741 28742 28743 28744 28745 28746 28747 28748 28749 28750 28751 28752 28753 28754 28755 28756 28757 28758 28759 28760 28761 28762 28763 28764 28765 28766 28767 28768 28769 28770 28771 28772 28773 28774 28775 28776 28777 28778 28779 28780 28781 28782 28783 28784 28785 28786 28787 28788 28789 28790 28791 28792 28793 28794 28795 28796 28797 28798 28799 28800 28801 28802 28803 28804 28805 28806 28807 28808 28809 28810 28811 28812 28813 28814 28815 28816 28817 28818 28819 28820 28821 28822 28823 28824 28825 28826 28827 28828 28829 28830 28831 28832 28833 28834 28835 28836 28837 28838 28839 28840 28841 28842 28843 28844 28845 28846 28847 28848 28849 28850 28851 28852 28853 28854 28855 28856 28857 28858 28859 28860 28861 28862 28863 28864 28865 28866 28867 28868 28869 28870 28871 28872 28873 28874 28875 28876 28877 28878 28879 28880 28881 28882 28883 28884 28885 28886 28887 28888 28889 28890 28891 28892 28893 28894 28895 28896 28897 28898 28899 28900 28901 28902 28903 28904 28905 28906 28907 28908 28909 28910 28911 28912 28913 28914 28915 28916 28917 28918 28919 28920 28921 28922 28923 28924 28925 28926 28927 28928 28929 28930 28931 28932 28933 28934 28935 28936 28937 28938 28939 28940 28941 28942 28943 28944 28945 28946 28947 28948 28949 28950 28951 28952 28953 28954 28955 28956 28957 28958 28959 28960 28961 28962 28963 28964 28965 28966 28967 28968 28969 28970 28971 28972 28973 28974 28975 28976 28977 28978 28979 28980 28981 28982 28983 28984 28985 28986 28987 28988 28989 28990 28991 28992 28993 28994 28995 28996 28997 28998 28999 29000 29001 29002 29003 29004 29005 29006 29007 29008 29009 29010 29011 29012 29013 29014 29015 29016 29017 29018 29019 29020 29021 29022 29023 29024 29025 29026 29027 29028 29029 29030 29031 29032 29033 29034 29035 29036 29037 29038 29039 29040 29041 29042 29043 29044 29045 29046 29047 29048 29049 29050 29051 29052 29053 29054 29055 29056 29057 29058 29059 29060 29061 29062 29063 29064 29065 29066 29067 29068 29069 29070 29071 29072 29073 29074 29075 29076 29077 29078 29079 29080 29081 29082 29083 29084 29085 29086 29087 29088 29089 29090 29091 29092 29093 29094 29095 29096 29097 29098 29099 29100 29101 29102 29103 29104 29105 29106 29107 29108 29109 29110 29111 29112 29113 29114 29115 29116 29117 29118 29119 29120 29121 29122 29123 29124 29125 29126 29127 29128 29129 29130 29131 29132 29133 29134 29135 29136 29137 29138 29139 29140 29141 29142 29143 29144 29145 29146 29147 29148 29149 29150 29151 29152 29153 29154 29155 29156 29157 29158 29159 29160 29161 29162 29163 29164 29165 29166 29167 29168 29169 29170 29171 29172 29173 29174 29175 29176 29177 29178 29179 29180 29181 29182 29183 29184 29185 29186 29187 29188 29189 29190 29191 29192 29193 29194 29195 29196 29197 29198 29199 29200 29201 29202 29203 29204 29205 29206 29207 29208 29209 29210 29211 29212 29213 29214 29215 29216 29217 29218 29219 29220 29221 29222 29223 29224 29225 29226 29227 29228 29229 29230 29231 29232 29233 29234 29235 29236 29237 29238 29239 29240 29241 29242 29243 29244 29245 29246 29247 29248 29249 29250 29251 29252 29253 29254 29255 29256 29257 29258 29259 29260 29261 29262 29263 29264 29265 29266 29267 29268 29269 29270 29271 29272 29273 29274 29275 29276 29277 29278 29279 29280 29281 29282 29283 29284 29285 29286 29287 29288 29289 29290 29291 29292 29293 29294 29295 29296 29297 29298 29299 29300 29301 29302 29303 29304 29305 29306 29307 29308 29309 29310 29311 29312 29313 29314 29315 29316 29317 29318 29319 29320 29321 29322 29323 29324 29325 29326 29327 29328 29329 29330 29331 29332 29333 29334 29335 29336 29337 29338 29339 29340 29341 29342 29343 29344 29345 29346 29347 29348 29349 29350 29351 29352 29353 29354 29355 29356 29357 29358 29359 29360 29361 29362 29363 29364 29365 29366 29367 29368 29369 29370 29371 29372 29373 29374 29375 29376 29377 29378 29379 29380 29381 29382 29383 29384 29385 29386 29387 29388 29389 29390 29391 29392 29393 29394 29395 29396 29397 29398 29399 29400 29401 29402 29403 29404 29405 29406 29407 29408 29409 29410 29411 29412 29413 29414 29415 29416 29417 29418 29419 29420 29421 29422 29423 29424 29425 29426 29427 29428 29429 29430 29431 29432 29433 29434 29435 29436 29437 29438 29439 29440 29441 29442 29443 29444 29445 29446 29447 29448 29449 29450 29451 29452 29453 29454 29455 29456 29457 29458 29459 29460 29461 29462 29463 29464 29465 29466 29467 29468 29469 29470 29471 29472 29473 29474 29475 29476 29477 29478 29479 29480 29481 29482 29483 29484 29485 29486 29487 29488 29489 29490 29491 29492 29493 29494 29495 29496 29497 29498 29499 29500 29501 29502 29503 29504 29505 29506 29507 29508 29509 29510 29511 29512 29513 29514 29515 29516 29517 29518 29519 29520 29521 29522 29523 29524 29525 29526 29527 29528 29529 29530 29531 29532 29533 29534 29535 29536 29537 29538 29539 29540 29541 29542 29543 29544 29545 29546 29547 29548 29549 29550 29551 29552 29553 29554 29555 29556 29557 29558 29559 29560 29561 29562 29563 29564 29565 29566 29567 29568 29569 29570 29571 29572 29573 29574 29575 29576 29577 29578 29579 29580 29581 29582 29583 29584 29585 29586 29587 29588 29589 29590 29591 29592 29593 29594 29595 29596 29597 29598 29599 29600 29601 29602 29603 29604 29605 29606 29607 29608 29609 29610 29611 29612 29613 29614 29615 29616 29617 29618 29619 29620 29621 29622 29623 29624 29625 29626 29627 29628 29629 29630 29631 29632 29633 29634 29635 29636 29637 29638 29639 29640 29641 29642 29643 29644 29645 29646 29647 29648 
</DataArray>
<DataArray type="UInt32" Name="offsets" format="ascii">
3 6 9 12 15 17 20 23 26 29 31 34 37 40 43 46 49 51 54 56 59 62 65 68 71 74 77 80 83 86 89 92 95 98 101 104 106 109 112 115 118 121 124 127 130 132 135 138 141 144 147 150 153 156 159 162 164 167 170 173 176 179 182 185 188 191 194 197 200 203 206 209 212 214 216 219 222 225 228 231 233 236 238 241 244 247 250 253 255 258 261 264 266 269 272 274 277 280 283 285 288 290 293 296 299 302 304 307 310 312 315 318 321 324 327 330 333 336 339 342 344 347 350 352 355 358 361 364 366 369 372 375 378 380 383 386 389 392 394 397 400 402 405 408 410 413 416 419 421 424 427 430 433 436 439 441 444 447 450 453 456 459 461 464 467 470 473 476 479 482 485 488 490 493 495 498 501 504 507 510 513 516 518 521 524 527 530 532 535 538 541 544 546 548 551 554 557 560 563 566 569 572 574 577 580 583 586 588 591 593 596 599 602 605 608 610 613 616 619 622 625 628 631 634 637 640 643 646 649 652 655 658 661 664 667 670 672 675 678 681 684 687 689 692 695 698 701 704 707 710 713 716 719 722 725 728 730 733 736 739 741 744 746 749 752 755 757 760 763 766 769 772 775 778 781 783 785 788 791 794 797 800 803 806 809 812 815 818 821 823 826 828 831 834 837 840 843 846 849 852 854 857 860 862 865 868 871 874 876 879 882 885 887 890 893 896 898 901 904 906 909 912 915 918 920 923 926 929 932 935 938 941 944 946 949 952 955 957 960 962 965 968 970 973 976 979 981 984 987 989 992 995 998 1001 1004 1007 1010 1013 1016 1019 1022 1025 1028 1031 1034 1037 1040 1042 1045 1048 1051 1054 1056 1059 1062 1064 1067 1070 1073 1076 1079 1082 1085 1088 1091 1093 1096 1099 1102 1104 1107 1110 1113 1116 1119 1122 1125 1128 1131 1134 1137 1140 1143 1146 1149 1152 1155 1158 1161 1164 1167 1170 1173 1176 1179 1182 1185 1188 1191 1194 1197 1199 1202 1205 1208 1211 1214 1217 1220 1222 1225 1228 1231 1234 1236 1239 1242 1245 1248 1251 1254 1257 1259 1262 1265 1268 1271 1274 1277 1280 1283 1286 1289 1292 1295 1298 1301 1304 1307 1310 1313 1316 1319 1321 1324 1326 1329 1332 1335 1338 1341 1344 1347 1350 1352 1355 1357 1360 1363 1366 1369 1371 1374 1376 1379 1382 1384 1386 1389 1392 1394 1396 1399 1402 1405 1408 1411 1414 1417 1420 1423 1426 1428 1431 1434 1437 1440 1443 1446 1449 1452 1455 1458 1461 1464 1467 1469 1472 1474 1477 1480 1483 1486 1489 1492 1495 1497 1500 1503 1506 1509 1512 1515 1518 1521 1524 1527 1530 1533 1535 1538 1540 1543 1546 1549 1552 1554 1557 1560 1562 1565 1568 1571 1574 1577 1580 1583 1586 1589 1592 1594 1597 1600 1603 1606 1609 1611 1614 1616 1619 1622 1624 1626 1629 1632 1635 1637 1639 1642 1645 1648 1651 1653 1656 1659 1661 1664 1667 1669 1671 1673 1675 1677 1680 1682 1685 1687 1690 1693 1695 1698 1700 1703 1706 1708 1710 1713 1716 1719 1722 1724 1727 1729 1731 1734 1737 1740 1742 1745 1748 1751 1754 1757 1759 1762 1765 1768 1771 1774 1777 1780 1783 1786 1789 1792 1794 1797 1799 1802 1804 1807 1810 1813 1816 1819 1821 1824 1827 1830 1833 1836 1839 1841 1844 1847 1850 1853 1856 1858 1861 1864 1867 1870 1873 1876 1879 1882 1885 1888 1891 1893 1896 1899 1902 1905 1908 1911 1914 1916 1918 1921 1924 1927 1930 1933 1936 1939 1942 1945 1948 1951 1954 1956 1959 1962 1965 1967 1970 1973 1976 1979 1982 1985 1988 1991 1994 1997 2000 2003 2006 2009 2012 2015 2018 2021 2024 2027 2030 2033 2036 2039 2041 2043 2046 2049 2052 2055 2058 2061 2063 2066 2069 2072 2075 2078 2081 2084 2087 2090 2093 2096 2099 2102 2105 2108 2111 2114 2117 2120 2123 2126 2129 2132 2135 2137 2140 2142 2145 2148 2151 2154 2157 2160 2162 2165 2168 2171 2174 2177 2180 2183 2186 2189 2192 2194 2197 2200 2203 2206 2209 2211 2214 2217 2219 2222 2225 2228 2231 2234 2237 2240 2243 2246 2249 2252 2254 2257 2260 2263 2266 2269 2271 2274 2277 2280 2282 2285 2288 2291 2293 2296 2299 2302 2305 2308 2311 2314 2317 2320 2323 2325 2328 2331 2334 2337 2340 2343 2346 2349 2352 2355 2358 2361 2364 2367 2370 2373 2375 2378 2381 2384 2386 2389 2392 2395 2398 2401 2403 2406 2409 2412 2415 2418 2421 2424 2427 2430 2433 2436 2438 2441 2444 2447 2450 2453 2456 2459 2462 2464 2467 2470 2473 2476 2479 2482 2485 2488 2491 2494 2497 2500 2503 2506 2509 2512 2515 2518 2521 2523 2526 2529 2532 2535 2538 2541 2543 2546 2549 2552 2555 2558 2561 2564 2567 2570 2573 2576 2579 2582 2585 2588 2591 2594 2597 2600 2603 2606 2609 2612 2615 2618 2620 2623 2626 2629 2632 2635 2638 2641 2644 2647 2650 2653 2656 2659 2662 2665 2668 2671 2673 2676 2678 2681 2684 2687 2690 2693 2695 2697 2700 2703 2706 2709 2712 2715 2718 2721 2723 2726 2729 2732 2735 2738 2741 2743 2746 2749 2752 2755 2758 2761 2764 2767 2770 2773 2776 2779 2782 2785 2788 2791 2794 2797 2800 2803 2805 2808 2811 2814 2817 2820 2823 2825 2828 2831 2833 2836 2839 2842 2845 2848 2851 2854 2857 2859 2862 2864 2867 2870 2872 2875 2878 2881 2883 2886 2889 2892 2895 2898 2901 2904 2907 2910 2913 2916 2919 2922 2925 2928 2931 2934 2937 2940 2943 2946 2949 2952 2955 2958 2961 2964 2967 2970 2973 2976 2979 2982 2985 2987 2990 2993 2996 2998 3001 3004 3007 3010 3012 3015 3018 3021 3024 3027 3030 3032 3035 3038 3041 3044 3046 3049 3052 3055 3058 3060 3063 3066 3069 3072 3074 3077 3080 3082 3085 3088 3091 3094 3097 3100 3102 3105 3107 3110 3113 3115 3118 3121 3124 3126 3129 3132 3135 3138 3141 3144 3147 3150 3153 3155 3158 3161 3164 3167 3170 3173 3176 3179 3181 3184 3187 3190 3193 3196 3199 3202 3205 3208 3211 3214 3217 3220 3223 3226 3229 3232 3235 3238 3241 3244 3247 3250 3253 3256 3259 3262 3265 3268 3271 3274 3277 3280 3283 3285 3288 3291 3294 3297 3299 3302 3305 3308 3311 3314 3317 3320 3323 3326 3329 3332 3335 3338 3341 3344 3347 3349 3352 3355 3357 3359 3362 3365 3368 3371 3374 3376 3379 3382 3385 3387 3389 3391 3394 3396 3399 3401 3403 3406 3409 3412 3415 3417 3420 3423 3426 3429 3432 3435 3438 3441 3444 3447 3449 3452 3455 3458 3461 3463 3466 3469 3471 3474 3477 3480 3483 3485 3488 3491 3494 3497 3500 3503 3506 3509 3512 3515 3518 3521 3523 3526 3529 3532 3535 3538 3541 3544 3547 3550 3553 3556 3559 3561 3564 3567 3570 3573 3576 3579 3582 3585 3588 3590 3593 3595 3598 3600 3603 3606 3609 3612 3615 3618 3621 3624 3627 3630 3633 3636 3639 3642 3645 3648 3651 3654 3657 3660 3663 3666 3669 3672 3675 3677 3680 3683 3686 3688 3691 3694 3697 3700 3703 3706 3709 3712 3714 3717 3720 3723 3726 3729 3732 3735 3737 3740 3742 3745 3748 3751 3754 3757 3760 3763 3766 3769 3771 3774 3777 3779 3781 3784 3787 3790 3793 3796 3799 3802 3805 3808 3811 3813 3816 3819 3822 3825 3828 3831 3834 3837 3840 3843 3846 3849 3852 3855 3858 3861 3863 3866 3869 3872 3874 3877 3880 3882 3885 3887 3890 3892 3895 3898 3901 3904 3907 3910 3913 3916 3918 3921 3924 3927 3930 3932 3934 3937 3940 3943 3946 3948 3951 3954 3957 3960 3963 3966 3969 3972 3975 3978 3981 3984 3987 3990 3993 3996 3999 4002 4005 4008 4011 4014 4017 4020 4023 4026 4029 4032 4034 4037 4039 4042 4045 4048 4051 4053 4056 4059 4062 4065 4068 4071 4074 4077 4080 4083 4086 4089 4091 4093 4096 4099 4102 4105 4108 4111 4114 4117 4120 4123 4126 4129 4132 4134 4137 4140 4143 4146 4149 4152 4155 4158 4161 4164 4166 4169 4172 4175 4178 4181 4184 4187 4190 4193 4196 4198 4201 4204 4207 4210 4212 4215 4218 4221 4224 4227 4230 4233 4236 4239 4241 4244 4247 4250 4252 4255 4258 4261 4264 4267 4270 4273 4276 4279 4282 4285 4288 4291 4294 4297 4300 4303 4306 4309 4312 4315 4318 4321 4324 4327 4330 4333 4336 4339 4342 4345 4348 4350 4353 4356 4359 4362 4365 4368 4371 4374 4377 4379 4382 4385 4388 4390 4392 4395 4397 4400 4403 4405 4408 4411 4414 4417 4420 4423 4426 4429 4431 4434 4437 4439 4441 4443 4445 4448 4451 4454 4457 4459 4461 4463 4466 4469 4472 4474 4477 4480 4483 4486 4489 4491 4494 4497 4500 4503 4506 4509 4512 4515 4517 4520 4522 4525 4528 4531 4534 4537 4540 4543 4546 4549 4552 4554 4557 4559 4562 4565 4568 4571 4574 4577 4580 4583 4586 4589 4592 4595 4598 4601 4604 4607 4610 4612 4615 4618 4621 4624 4627 4630 4633 4636 4639 4642 4645 4648 4651 4654 4657 4660 4662 4665 4668 4671 4674 4677 4680 4683 4686 4688 4691 4694 4697 4699 4702 4705 4708 4711 4713 4716 4719 4722 4725 4728 4731 4734 4737 4740 4742 4745 4748 4751 4753 4756 4759 4761 4764 4767 4770 4773 4776 4779 4782 4784 4787 4790 4793 4796 4799 4802 4805 4808 4811 4814 4817 4820 4823 4825 4828 4831 4834 4837 4840 4843 4846 4849 4852 4854 4857 4860 4862 4865 4868 4871 4874 4877 4880 4883 4886 4889 4891 4894 4897 4900 4902 4905 4908 4911 4914 4917 4919 4922 4925 4927 4930 4933 4935 4938 4941 4943 4946 4949 4952 4955 4958 4961 4964 4967 4970 4973 4976 4979 4982 4985 4988 4991 4994 4997 5000 5003 5006 5009 5012 5014 5017 5020 5023 5026 5029 5032 5035 5038 5041 5044 5046 5049 5052 5054 5057 5059 5062 5065 5068 5071 5074 5077 5079 5082 5084 5087 5090 5093 5096 5099 5102 5105 5108 5111 5114 5117 5120 5123 5126 5129 5132 5135 5137 5140 5143 5146 5149 5152 5155 5157 5160 5163 5166 5168 5171 5174 5177 5180 5183 5186 5189 5192 5194 5197 5200 5203 5206 5209 5212 5215 5218 5220 5223 5226 5229 5232 5235 5238 5241 5244 5247 5250 5253 5255 5258 5261 5264 5266 5269 5272 5275 5278 5280 5283 5286 5289 5292 5295 5298 5301 5304 5306 5309 5312 5315 5317 5320 5323 5326 5328 5331 5334 5337 5340 5343 5346 5349 5352 5355 5358 5360 5363 5365 5368 5371 5373 5376 5379 5382 5385 5388 5391 5394 5397 5400 5402 5405 5407 5410 5413 5416 5418 5420 5423 5426 5429 5431 5434 5437 5440 5443 5446 5449 5452 5455 5458 5461 5464 5467 5469 5472 5475 5478 5480 5483 5486 5489 5492 5495 5498 5500 5503 5506 5509 5512 5515 5518 5521 5524 5527 5530 5532 5535 5537 5540 5543 5546 5549 5552 5555 5557 5560 5563 5566 5569 5572 5575 5578 5580 5583 5586 5589 5592 5595 5598 5601 5603 5606 5609 5612 5614 5617 5620 5622 5625 5628 5631 5634 5637 5640 5642 5645 5648 5651 5654 5657 5659 5662 5665 5668 5671 5674 5677 5679 5682 5685 5688 5691 5694 5697 5700 5703 5705 5708 5710 5713 5716 5719 5722 5725 5728 5731 5733 5736 5739 5742 5744 5747 5750 5753 5756 5759 5762 5765 5768 5771 5774 5777 5780 5783 5786 5789 5792 5795 5798 5801 5804 5807 5810 5813 5816 5819 5822 5825 5828 5831 5834 5837 5839 5842 5844 5847 5850 5853 5856 5859 5862 5865 5868 5871 5874 5877 5880 5883 5886 5888 5891 5894 5897 5900 5903 5906 5909 5912 5915 5918 5921 5924 5927 5930 5933 5935 5938 5941 5943 5946 5949 5952 5955 5958 5961 5964 5967 5970 5973 5976 5979 5981 5984 5987 5990 5993 5996 5999 6002 6005 6008 6011 6014 6017 6020 6023 6026 6029 6032 6035 6038 6040 6043 6046 6049 6052 6055 6058 6061 6064 6067 6070 6073 6076 6079 6082 6085 6088 6091 6094 6097 6100 6103 6106 6109 6112 6115 6118 6121 6124 6127 6130 6133 6136 6139 6142 6145 6148 6151 6154 6157 6160 6163 6166 6169 6172 6175 6178 6181 6184 6187 6190 6193 6196 6199 6202 6204 6207 6210 6213 6216 6219 6222 6225 6228 6231 6234 6236 6239 6242 6244 6247 6250 6252 6255 6258 6261 6264 6267 6270 6273 6275 6278 6281 6283 6286 6289 6292 6295 6298 6301 6304 6307 6310 6312 6315 6317 6320 6323 6326 6329 6332 6335 6338 6340 6343 6346 6348 6351 6354 6357 6359 6362 6365 6368 6371 6373 6375 6378 6381 6384 6386 6389 6392 6395 6397 6399 6402 6405 6408 6410 6413 6415 6418 6420 6423 6426 6429 6432 6435 6438 6440 6443 6446 6449 6452 6455 6458 6461 6464 6467 6470 6473 6476 6479 6482 6485 6488 6491 6494 6497 6499 6502 6505 6508 6510 6513 6516 6519 6522 6525 6528 6531 6534 6537 6540 6543 6546 6548 6551 6554 6557 6560 6562 6565 6567 6570 6573 6576 6579 6582 6585 6587 6589 6592 6595 6598 6601 6604 6607 6610 6613 6616 6619 6622 6624 6627 6630 6633 6636 6638 6641 6644 6646 6649 6652 6655 6658 6661 6664 6667 6670 6672 6675 6678 6680 6683 6686 6689 6692 6695 6698 6701 6704 6707 6710 6713 6716 6719 6722 6725 6728 6731 6734 6737 6740 6743 6746 6749 6752 6754 6757 6760 6763 6766 6769 6772 6775 6778 6781 6784 6787 6790 6793 6795 6798 6801 6803 6806 6809 6812 6814 6817 6820 6823 6825 6827 6830 6833 6836 6839 6842 6845 6847 6850 6853 6856 6859 6861 6863 6865 6867 6870 6873 6876 6878 6881 6884 6886 6889 6892 6895 6897 6900 6903 6906 6909 6912 6915 6918 6921 6923 6926 6929 6931 6934 6937 6940 6943 6946 6949 6951 6954 6957 6960 6963 6966 6968 6971 6974 6977 6980 6983 6986 6989 6992 6995 6998 7001 7004 7007 7010 7013 7016 7019 7021 7024 7027 7030 7033 7036 7039 7042 7044 7047 7050 7053 7056 7059 7062 7065 7068 7071 7074 7077 7080 7083 7085 7088 7091 7094 7097 7100 7103 7106 7109 7112 7115 7117 7120 7123 7125 7128 7131 7134 7136 7139 7141 7144 7146 7149 7152 7155 7158 7161 7164 7167 7169 7172 7174 7177 7179 7182 7185 7187 7190 7192 7195 7198 7200 7202 7205 7208 7210 7212 7215 7218 7221 7224 7227 7230 7233 7236 7239 7242 7245 7248 7251 7254 7257 7259 7261 7264 7267 7270 7272 7274 7276 7279 7282 7285 7288 7291 7294 7296 7299 7301 7303 7306 7309 7312 7315 7317 7320 7323 7326 7328 7331 7334 7337 7339 7342 7344 7347 7350 7353 7355 7358 7361 7364 7367 7370 7373 7376 7379 7382 7385 7388 7391 7394 7397 7400 7402 7404 7407 7410 7413 7416 7418 7421 7424 7426 7429 7432 7434 7437 7440 7443 7446 7449 7452 7454 7457 7460 7463 7465 7468 7470 7473 7476 7478 7481 7484 7487 7490 7492 7495 7498 7500 7502 7505 7508 7511 7514 7517 7520 7523 7526 7529 7531 7534 7537 7540 7543 7546 7549 7552 7554 7556 7559 7562 7564 7567 7570 7573 7576 7578 7581 7584 7587 7590 7593 7595 7598 7601 7604 7607 7609 7612 7615 7618 7620 7623 7626 7629 7632 7635 7638 7641 7643 7646 7649 7652 7655 7657 7660 7663 7666 7669 7671 7674 7677 7680 7683 7686 7689 7692 7695 7698 7701 7704 7707 7710 7713 7716 7719 7722 7725 7727 7730 7732 7735 7738 7741 7744 7747 7750 7753 7756 7759 7762 7765 7767 7770 7773 7776 7779 7782 7785 7788 7791 7794 7797 7800 7803 7806 7809 7812 7815 7817 7820 7822 7825 7828 7830 7832 7835 7838 7841 7844 7847 7850 7853 7855 7858 7860 7862 7865 7867 7870 7873 7876 7879 7881 7884 7886 7889 7891 7893 7895 7898 7901 7903 7906 7909 7912 7914 7917 7920 7923 7926 7929 7932 7935 7938 7941 7944 7947 7950 7952 7955 7958 7961 7964 7967 7970 7973 7976 7979 7982 7985 7988 7991 7994 7997 8000 8002 8005 8007 8009 8012 8015 8018 8021 8023 8026 8029 8032 8035 8038 8041 8044 8047 8050 8053 8056 8059 8062 8065 8068 8071 8074 8077 8080 8083 8086 8089 8092 8095 8098 8101 8104 8107 8110 8113 8116 8119 8122 8125 8128 8131 8134 8137 8140 8143 8146 8149 8152 8155 8157 8160 8163 8166 8169 8172 8174 8177 8179 8182 8185 8188 8190 8193 8196 8199 8202 8205 8207 8210 8213 8216 8219 8222 8224 8227 8229 8232 8235 8237 8240 8243 8245 8248 8251 8254 8257 8260 8263 8266 8269 8272 8275 8278 8281 8284 8287 8289 8292 8294 8297 8300 8303 8306 8309 8312 8315 8318 8321 8324 8326 8329 8332 8335 8338 8341 8344 8347 8350 8353 8356 8359 8362 8365 8368 8371 8374 8377 8380 8383 8386 8389 8392 8395 8398 8401 8404 8407 8410 8413 8416 8419 8422 8425 8428 8431 8434 8437 8440 8443 8446 8449 8452 8455 8458 8461 8464 8467 8470 8473 8476 8479 8482 8485 8488 8491 8494 8497 8500 8503 8506 8509 8512 8515 8518 8521 8524 8527 8530 8533 8536 8539 8542 8544 8546 8548 8551 8553 8556 8559 8562 8565 8567 8570 8573 8576 8579 8582 8585 8587 8590 8593 8596 8599 8602 8605 8608 8610 8613 8616 8619 8622 8624 8627 8629 8632 8635 8638 8641 8644 8647 8650 8653 8656 8659 8662 8665 8668 8671 8674 8677 8680 8683 8686 8689 8691 8694 8696 8699 8701 8704 8707 8710 8712 8715 8717 8720 8723 8726 8729 8731 8734 8737 8740 8742 8745 8748 8751 8754 8757 8760 8762 8765 8768 8771 8774 8777 8780 8783 8786 8789 8792 8795 8798 8800 8803 8806 8808 8811 8814 8816 8819 8822 8825 8828 8830 8833 8836 8838 8841 8844 8846 8849 8851 8854 8857 8860 8862 8865 8867 8870 8873 8875 8877 8880 8883 8885 8888 8891 8893 8895 8898 8901 8903 8906 8908 8911 8914 8917 8919 8922 8924 8927 8930 8932 8935 8938 8941 8944 8947 8950 8953 8956 8959 8962 8965 8968 8971 8974 8977 8980 8983 8986 8989 8992 8995 8997 9000 9003 9006 9009 9012 9015 9018 9020 9023 9026 9029 9032 9035 9038 9041 9044 9047 9050 9053 9056 9059 9062 9065 9068 9071 9074 9077 9080 9083 9085 9088 9091 9093 9096 9099 9102 9105 9108 9111 9114 9117 9119 9122 9125 9128 9131 9133 9135 9138 9141 9143 9146 9148 9151 9154 9157 9160 9162 9165 9168 9171 9173 9176 9179 9182 9185 9187 9190 9193 9196 9199 9202 9204 9206 9209 9211 9213 9216 9219 9221 9224 9226 9229 9232 9235 9238 9241 9243 9246 9249 9252 9255 9258 9260 9263 9265 9268 9270 9273 9276 9278 9281 9283 9286 9289 9292 9295 9297 9300 9303 9306 9309 9312 9314 9317 9319 9322 9325 9328 9331 9334 9337 9340 9343 9346 9349 9352 9354 9357 9359 9362 9365 9368 9371 9374 9377 9380 9383 9386 9388 9391 9394 9397 9400 9403 9405 9408 9411 9414 9417 9419 9422 9425 9427 9429 9432 9435 9437 9440 9443 9446 9449 9452 9455 9458 9461 9464 9467 9470 9472 9475 9478 9481 9484 9487 9490 9493 9496 9499 9502 9505 9508 9510 9513 9516 9519 9522 9525 9527 9530 9533 9536 9539 9542 9545 9548 9550 9553 9556 9559 9562 9565 9568 9571 9574 9576 9579 9582 9585 9588 9590 9593 9596 9599 9602 9605 9608 9610 9613 9616 9619 9622 9624 9627 9630 9633 9635 9637 9639 9642 9645 9648 9651 9654 9657 9660 9663 9666 9669 9671 9674 9676 9679 9682 9684 9687 9690 9693 9696 9699 9702 9705 9707 9710 9713 9715 9718 9720 9723 9726 9729 9732 9735 9738 9741 9743 9746 9749 9752 9754 9757 9760 9763 9766 9769 9772 9775 9778 9781 9784 9787 9790 9792 9795 9798 9801 9804 9807 9810 9813 9816 9819 9822 9825 9828 9831 9834 9837 9840 9843 9846 9849 9852 9855 9858 9861 9864 9867 9870 9873 9875 9877 9880 9883 9885 9888 9891 9894 9897 9900 9902 9905 9908 9911 9913 9916 9919 9922 9925 9928 9931 9934 9937 9940 9942 9945 9948 9951 9954 9957 9960 9963 9966 9969 9972 9975 9978 9981 9984 9986 9989 9992 9995 9998 10001 10004 10007 10010 10013 10016 10019 10022 10024 10027 10030 10033 10036 10039 10042 10045 10047 10050 10053 10056 10059 10062 10065 10068 10071 10074 10077 10080 10083 10086 10089 10092 10095 10098 10101 10104 10107 10110 10113 10116 10119 10122 10125 10128 10131 10134 10137 10140 10143 10146 10149 10152 10155 10158 10161 10164 10167 10170 10173 10176 10179 10182 10185 10188 10191 10194 10197 10199 10202 10205 10208 10210 10213 10215 10218 10221 10224 10227 10230 10233 10236 10239 10241 10244 10247 10250 10253 10256 10259 10262 10265 10267 10269 10272 10275 10278 10281 10284 10287 10290 10293 10296 10299 10301 10303 10305 10308 10311 10314 10316 10319 10322 10325 10328 10330 10333 10336 10339 10342 10345 10348 10351 10354 10357 10360 10363 10366 10368 10371 10374 10377 10380 10383 10386 10389 10392 10394 10396 10399 10402 10404 10407 10410 10413 10416 10419 10422 10425 10428 10431 10434 10437 10440 10443 10445 10448 10451 10454 10457 10460 10462 10465 10468 10471 10474 10476 10479 10482 10485 10488 10490 10493 10496 10498 10501 10504 10507 10509 10512 10515 10518 10521 10524 10527 10530 10533 10535 10538 10541 10544 10546 10549 10552 10555 10557 10559 10562 10565 10567 10570 10573 10575 10578 10581 10583 10586 10588 10591 10594 10597 10600 10603 10606 10609 10612 10615 10618 10621 10624 10626 10629 10632 10635 10638 10641 10644 10647 10650 10652 10655 10658 10660 10663 10666 10669 10672 10674 10677 10680 10683 10686 10689 10692 10695 10698 10701 10703 10706 10709 10712 10715 10718 10721 10724 10727 10729 10732 10735 10738 10740 10743 10746 10749 10751 10754 10757 10760 10762 10765 10768 10771 10774 10777 10780 10783 10786 10789 10792 10795 10797 10800 10803 10806 10808 10811 10814 10817 10820 10823 10826 10829 10831 10834 10837 10840 10843 10846 10848 10851 10854 10857 10859 10862 10865 10868 10871 10874 10877 10880 10883 10886 10889 10892 10895 10897 10900 10903 10905 10908 10910 10913 10916 10919 10922 10925 10928 10931 10934 10937 10940 10942 10944 10947 10950 10953 10956 10959 10961 10964 10966 10968 10971 10973 10976 10978 10981 10984 10987 10990 10993 10996 10999 11002 11005 11008 11011 11014 11017 11020 11023 11026 11029 11032 11035 11038 11041 11044 11046 11049 11052 11055 11058 11061 11064 11067 11070 11072 11075 11078 11081 11084 11086 11089 11092 11095 11098 11101 11104 11107 11110 11113 11115 11118 11120 11123 11126 11129 11132 11135 11138 11141 11144 11147 11150 11153 11156 11158 11161 11164 11167 11170 11173 11176 11179 11182 11185 11187 11190 11192 11195 11198 11200 11203 11206 11208 11211 11214 11216 11219 11222 11225 11228 11230 11233 11236 11239 11242 11245 11248 11251 11254 11257 11260 11263 11266 11269 11272 11275 11278 11281 11284 11287 11290 11293 11295 11298 11301 11303 11306 11309 11311 11313 11316 11319 11322 11325 11327 11330 11333 11335 11338 11341 11344 11347 11350 11353 11356 11358 11361 11364 11367 11370 11373 11376 11378 11381 11384 11387 11389 11392 11394 11396 11399 11402 11405 11408 11411 11414 11417 11419 11422 11425 11428 11431 11434 11437 11440 11442 11445 11448 11451 11454 11457 11460 11463 11466 11469 11472 11475 11478 11481 11484 11487 11490 11492 11495 11498 11501 11504 11506 11509 11512 11515 11518 11521 11524 11527 11530 11533 11536 11539 11542 11545 11548 11551 11554 11557 11560 11562 11564 11566 11569 11571 11574 11576 11579 11582 11585 11588 11590 11593 11596 11599 11602 11605 11608 11611 11613 11616 11619 11622 11625 11628 11631 11634 11636 11639 11642 11644 11647 11650 11653 11656 11659 11662 11665 11668 11670 11673 11676 11679 11681 11684 11687 11690 11693 11696 11698 11701 11704 11706 11709 11712 11715 11718 11720 11723 11726 11728 11731 11733 11736 11739 11742 11745 11748 11751 11754 11757 11760 11763 11766 11769 11771 11774 11777 11780 11783 11786 11788 11791 11794 11797 11800 11803 11806 11809 11811 11814 11817 11820 11822 11825 11828 11831 11834 11836 11839 11842 11845 11847 11850 11853 11856 11859 11862 11864 11867 11870 11873 11876 11879 11882 11885 11888 11891 11894 11897 11900 11902 11905 11908 11911 11914 11917 11920 11922 11925 11928 11930 11933 11935 11938 11941 11943 11946 11949 11952 11955 11958 11961 11964 11967 11970 11973 11976 11979 11982 11985 11987 11990 11993 11995 11998 12000 12003 12006 12009 12012 12015 12017 12020 12023 12026 12029 12032 12035 12038 12041 12044 12047 12050 12053 12056 12059 12062 12065 12068 12071 12074 12077 12080 12083 12085 12087 12090 12093 12096 12099 12102 12105 12107 12110 12113 12115 12118 12121 12124 12127 12129 12132 12134 12137 12139 12141 12144 12147 12150 12153 12156 12158 12161 12164 12166 12169 12172 12175 12178 12181 12183 12186 12188 12191 12194 12196 12199 12201 12204 12207 12210 12213 12216 12219 12222 12225 12228 12231 12234 12237 12240 12243 12246 12249 12252 12255 12258 12261 12264 12267 12270 12273 12276 12279 12282 12285 12288 12291 12294 12297 12300 12303 12306 12309 12312 12314 12317 12319 12322 12324 12327 12330 12333 12335 12338 12341 12344 12347 12350 12353 12355 12358 12361 12364 12367 12370 12373 12376 12379 12382 12385 12388 12391 12394 12397 12400 12403 12406 12409 12412 12415 12417 12420 12423 12426 12429 12432 12435 12438 12441 12444 12447 12450 12453 12456 12458 12460 12463 12466 12469 12472 12475 12478 12481 12484 12487 12490 12493 12495 12498 12501 12504 12506 12509 12512 12515 12518 12521 12524 12527 12530 12533 12536 12539 12542 12545 12548 12551 12554 12557 12560 12563 12565 12568 12570 12573 12576 12579 12582 12585 12588 12591 12594 12597 12600 12603 12606 12609 12611 12614 12617 12620 12623 12626 12629 12632 12635 12638 12641 12643 12646 12649 12651 12654 12657 12660 12663 12666 12669 12672 12675 12678 12681 12684 12687 12690 12693 12696 12699 12702 12705 12708 12711 12714 12717 12720 12723 12725 12728 12731 12734 12737 12740 12743 12746 12749 12752 12755 12758 12761 12764 12767 12770 12773 12776 12779 12782 12785 12788 12791 12794 12797 12800 12802 12805 12808 12811 12814 12816 12819 12822 12825 12828 12831 12834 12836 12839 12842 12845 12848 12851 12854 12857 12860 12863 12866 12868 12871 12874 12877 12880 12883 12885 12888 12891 12893 12896 12899 12902 12905 12908 12911 12914 12917 12920 12923 12926 12929 12932 12935 12937 12940 12943 12946 12949 12951 12954 12956 12959 12962 12964 12966 12969 12972 12974 12977 12980 12982 12985 12988 12991 12994 12997 13000 13003 13006 13009 13012 13015 13018 13021 13024 13027 13030 13032 13035 13038 13041 13044 13046 13049 13052 13055 13057 13060 13063 13066 13068 13071 13074 13077 13080 13083 13086 13089 13091 13094 13097 13100 13102 13105 13108 13111 13114 13117 13120 13123 13126 13129 13132 13135 13138 13141 13144 13147 13150 13153 13156 13159 13162 13165 13168 13171 13174 13177 13180 13183 13186 13188 13191 13194 13197 13200 13203 13206 13209 13212 13215 13218 13221 13223 13226 13229 13232 13235 13237 13240 13243 13246 13249 13252 13255 13258 13261 13264 13267 13270 13272 13275 13278 13281 13284 13287 13290 13293 13296 13299 13302 13305 13308 13311 13314 13317 13320 13323 13326 13329 13332 13335 13338 13341 13344 13347 13350 13353 13356 13359 13362 13365 13368 13371 13374 13377 13380 13383 13386 13389 13391 13394 13396 13399 13402 13405 13408 13411 13413 13416 13419 13422 13424 13427 13430 13433 13436 13439 13441 13444 13447 13450 13453 13456 13459 13462 13465 13468 13470 13473 13476 13479 13481 13484 13487 13490 13493 13496 13499 13502 13505 13508 13511 13514 13517 13520 13523 13526 13529 13532 13535 13538 13541 13544 13547 13550 13553 13556 13559 13562 13565 13568 13571 13574 13577 13580 13583 13586 13589 13591 13594 13597 13600 13603 13606 13609 13612 13615 13617 13620 13623 13626 13629 13632 13635 13638 13641 13644 13647 13650 13653 13656 13658 13661 13664 13667 13670 13673 13676 13678 13681 13684 13687 13690 13693 13696 13699 13702 13705 13708 13711 13714 13717 13719 13722 13725 13728 13731 13734 13737 13740 13743 13746 13749 13752 13755 13758 13761 13764 13767 13770 13773 13776 13779 13782 13785 13787 13790 13793 13796 13799 13802 13805 13808 13811 13814 13817 13819 13821 13824 13827 13830 13833 13836 13839 13842 13845 13848 13851 13854 13857 13860 13863 13866 13869 13872 13874 13876 13879 13882 13885 13888 13891 13894 13896 13899 13902 13905 13908 13911 13914 13917 13920 13923 13926 13929 13932 13935 13937 13940 13943 13946 13949 13952 13955 13958 13961 13964 13967 13970 13973 13976 13979 13982 13985 13988 13991 13994 13997 14000 14003 14006 14009 14012 14015 14018 14020 14023 14026 14028 14031 14034 14037 14040 14043 14046 14049 14052 14055 14058 14061 14064 14067 14070 14073 14076 14079 14081 14084 14086 14089 14092 14095 14098 14101 14104 14107 14110 14113 14116 14119 14121 14123 14126 14129 14132 14134 14136 14139 14142 14145 14148 14150 14153 14156 14158 14161 14164 14167 14170 14173 14176 14179 14182 14185 14188 14191 14194 14197 14200 14203 14206 14209 14212 14215 14218 14221 14224 14227 14230 14233 14236 14239 14242 14245 14248 14251 14254 14257 14260 14263 14266 14269 14272 14275 14278 14281 14284 14287 14290 14293 14296 14299 14302 14305 14308 14311 14314 14317 14320 14323 14326 14329 14332 14334 14337 14340 14343 14346 14349 14352 14355 14358 14361 14364 14367 14370 14372 14375 14378 14380 14383 14386 14388 14391 14394 14397 14400 14403 14405 14408 14411 14414 14417 14419 14422 14425 14428 14431 14434 14437 14440 14443 14446 14449 14452 14455 14458 14461 14463 14466 14469 14472 14475 14478 14480 14482 14485 14488 14491 14494 14496 14499 14502 14505 14508 14511 14513 14516 14519 14522 14525 14528 14531 14534 14537 14540 14543 14546 14549 14552 14555 14558 14561 14564 14567 14570 14573 14576 14579 14582 14585 14588 14591 14594 14597 14600 14603 14606 14609 14612 14615 14618 14621 14624 14627 14630 14633 14636 14639 14642 14645 14648 14651 14654 14657 14660 14663 14666 14669 14672 14675 14678 14681 14684 14687 14690 14692 14695 14698 14701 14704 14707 14710 14713 14716 14719 14722 14725 14728 14731 14734 14737 14740 14743 14746 14749 14751 14754 14757 14760 14763 14765 14768 14771 14773 14775 14778 14781 14784 14787 14790 14793 14796 14799 14802 14805 14808 14811 14814 14817 14820 14823 14826 14829 14832 14835 14838 14841 14844 14846 14849 14851 14854 14857 14860 14863 14866 14869 14872 14875 14878 14881 14884 14887 14890 14893 14896 14898 14901 14904 14907 14910 14913 14916 14919 14922 14925 14928 14931 14933 14936 14939 14942 14945 14948 14951 14954 14957 14960 14963 14966 14969 14972 14975 14978 14981 14983 14986 14989 14991 14994 14997 15000 15003 15006 15008 15011 15014 15017 15019 15022 15025 15027 15030 15033 15036 15039 15042 15045 15048 15051 15054 15057 15060 15063 15066 15069 15072 15075 15078 15081 15084 15087 15089 15092 15095 15098 15101 15104 15106 15109 15112 15115 15117 15120 15123 15126 15129 15131 15133 15135 15138 15141 15144 15147 15150 15152 15155 15157 15160 15163 15166 15168 15170 15173 15176 15179 15181 15184 15187 15190 15192 15195 15197 15200 15203 15206 15209 15212 15215 15218 15221 15224 15227 15230 15233 15236 15239 15242 15245 15248 15251 15254 15257 15260 15263 15266 15268 15271 15273 15276 15279 15282 15285 15288 15291 15294 15297 15300 15303 15306 15309 15312 15315 15318 15321 15324 15327 15330 15333 15336 15339 15342 15345 15348 15351 15354 15357 15360 15363 15366 15369 15372 15374 15377 15379 15382 15385 15388 15391 15394 15397 15400 15403 15406 15409 15412 15415 15418 15421 15424 15427 15430 15433 15436 15439 15442 15445 15447 15450 15453 15456 15459 15462 15465 15467 15470 15473 15476 15479 15482 15485 15488 15491 15493 15496 15499 15502 15505 15508 15511 15514 15517 15520 15523 15526 15529 15532 15535 15537 15540 15543 15546 15549 15551 15554 15557 15560 15563 15566 15569 15572 15575 15578 15581 15584 15587 15590 15593 15595 15598 15601 15604 15607 15610 15613 15616 15619 15622 15624 15627 15630 15633 15636 15639 15641 15644 15647 15650 15653 15656 15659 15662 15665 15668 15671 15673 15676 15678 15681 15684 15687 15690 15692 15695 15698 15701 15704 15707 15710 15713 15716 15719 15722 15725 15728 15731 15734 15737 15740 15743 15746 15748 15751 15754 15757 15759 15762 15765 15768 15771 15774 15776 15778 15781 15784 15786 15789 15792 15795 15798 15801 15803 15806 15809 15812 15815 15818 15820 15823 15826 15829 15832 15835 15838 15841 15844 15847 15850 15853 15856 15859 15862 15865 15868 15871 15874 15876 15879 15882 15885 15888 15891 15894 15896 15899 15902 15905 15908 15911 15914 15917 15920 15923 15926 15929 15932 15935 15938 15941 15944 15947 15950 15953 15956 15959 15962 15965 15968 15971 15974 15977 15980 15983 15986 15989 15991 15994 15997 16000 16003 16006 16009 16012 16015 16018 16021 16024 16027 16030 16033 16036 16039 16042 16045 16047 16050 16053 16056 16059 16062 16065 16068 16071 16074 16077 16080 16083 16086 16089 16091 16094 16097 16100 16103 16106 16109 16112 16115 16118 16121 16123 16126 16129 16131 16133 16136 16139 16141 16144 16147 16150 16153 16156 16159 16161 16164 16167 16170 16173 16175 16178 16181 16184 16186 16188 16191 16194 16197 16199 16201 16204 16207 16209 16211 16214 16216 16219 16222 16224 16227 16230 16232 16235 16238 16240 16243 16246 16248 16251 16254 16257 16260 16262 16264 16267 16270 16273 16276 16279 16281 16284 16287 16290 16292 16295 16297 16300 16303 16305 16307 16310 16313 16316 16319 16322 16325 16328 16330 16333 16336 16339 16342 16345 16348 16351 16354 16357 16360 16363 16366 16369 16372 16374 16377 16380 16383 16386 16388 16391 16394 16397 16400 16402 16405 16408 16411 16414 16416 16419 16422 16425 16428 16431 16434 16437 16439 16442 16445 16448 16450 16453 16456 16459 16461 16464 16467 16470 16473 16476 16479 16482 16484 16487 16490 16492 16495 16498 16500 16503 16506 16509 16512 16515 16518 16521 16524 16526 16529 16531 16534 16537 16540 16542 16545 16548 16551 16554 16557 16560 16563 16566 16569 16571 16574 16577 16580 16582 16585 16588 16591 16593 16596 16599 16601 16604 16607 16610 16613 16616 16618 16621 16624 16627 16630 16633 16636 16639 16642 16645 16648 16651 16654 16657 16660 16663 16666 16669 16672 16675 16678 16681 16683 16686 16689 16692 16695 16697 16700 16702 16705 16707 16710 16713 16716 16719 16722 16725 16728 16731 16734 16737 16740 16743 16746 16749 16752 16755 16758 16761 16764 16767 16770 16773 16776 16779 16782 16785 16788 16791 16794 16797 16800 16803 16805 16808 16811 16814 16817 16820 16823 16826 16829 16832 16835 16838 16840 16843 16846 16849 16852 16855 16858 16861 16864 16867 16870 16873 16875 16878 16881 16884 16887 16890 16893 16896 16899 16902 16905 16908 16911 16914 16917 16920 16922 16925 16928 16931 16934 16937 16939 16942 16945 16947 16950 16953 16956 16959 16962 16965 16968 16971 16974 16977 16980 16983 16986 16989 16992 16995 16998 17001 17004 17007 17010 17013 17016 17019 17022 17025 17028 17031 17034 17037 17040 17043 17046 17049 17052 17055 17058 17061 17064 17067 17070 17073 17076 17079 17082 17085 17088 17090 17093 17096 17099 17102 17105 17108 17111 17114 17117 17120 17123 17126 17129 17132 17135 17138 17141 17144 17147 17150 17153 17156 17159 17161 17164 17167 17170 17173 17176 17179 17182 17184 17187 17190 17193 17196 17199 17202 17205 17208 17210 17213 17216 17219 17222 17225 17228 17231 17233 17236 17239 17241 17244 17247 17250 17253 17256 17258 17261 17264 17267 17270 17273 17276 17279 17282 17285 17287 17290 17293 17296 17299 17302 17305 17308 17311 17314 17317 17320 17323 17326 17329 17332 17335 17338 17341 17344 17347 17350 17353 17356 17359 17362 17365 17368 17371 17374 17377 17380 17382 17385 17388 17390 17393 17396 17398 17401 17403 17406 17409 17411 17414 17417 17420 17422 17425 17428 17430 17433 17436 17439 17441 17444 17447 17450 17453 17456 17459 17462 17465 17468 17471 17474 17477 17480 17483 17485 17488 17490 17493 17496 17499 17502 17505 17508 17511 17514 17517 17520 17523 17526 17529 17531 17534 17537 17540 17543 17546 17549 17551 17554 17557 17560 17563 17566 17569 17572 17575 17578 17581 17584 17587 17590 17593 17596 17599 17602 17604 17607 17610 17613 17615 17618 17621 17624 17627 17630 17633 17636 17639 17642 17645 17648 17651 17654 17657 17660 17663 17666 17669 17672 17675 17678 17681 17684 17687 17690 17693 17695 17698 17701 17704 17707 17710 17712 17715 17717 17720 17723 17725 17728 17731 17734 17736 17739 17741 17744 17747 17749 17752 17755 17758 17761 17763 17766 17769 17772 17774 17777 17779 17782 17785 17788 17790 17793 17795 17798 17801 17804 17807 17809 17812 17815 17817 17820 17822 17825 17828 17830 17833 17836 17839 17841 17843 17846 17849 17852 17855 17858 17860 17862 17865 17868 17871 17874 17877 17879 17881 17883 17886 17889 17891 17894 17897 17900 17902 17905 17908 17911 17914 17916 17919 17922 17924 17927 17930 17933 17936 17939 17942 17945 17948 17950 17953 17955 17958 17961 17964 17967 17970 17973 17976 17979 17982 17985 17988 17991 17993 17996 17999 18002 18005 18008 18011 18014 18017 18020 18023 18026 18029 18032 18035 18038 18041 18044 18047 18050 18053 18056 18059 18062 18065 18068 18071 18074 18076 18078 18081 18084 18086 18088 18090 18093 18096 18099 18102 18105 18107 18110 18112 18115 18118 18121 18124 18127 18129 18132 18135 18138 18141 18144 18147 18150 18153 18155 18158 18161 18164 18167 18170 18173 18176 18179 18182 18185 18187 18190 18193 18195 18198 18201 18204 18207 18210 18213 18215 18218 18221 18224 18226 18229 18232 18234 18237 18240 18242 18244 18247 18250 18252 18255 18258 18261 18264 18267 18270 18273 18276 18279 18282 18285 18288 18291 18294 18297 18300 18303 18305 18308 18311 18314 18317 18320 18323 18325 18328 18331 18333 18336 18339 18341 18344 18347 18350 18353 18356 18359 18362 18365 18368 18371 18374 18377 18380 18383 18386 18389 18392 18394 18396 18399 18402 18405 18408 18410 18413 18416 18419 18422 18424 18427 18430 18433 18436 18438 18441 18444 18447 18450 18453 18456 18459 18461 18464 18466 18469 18472 18474 18477 18480 18482 18485 18488 18491 18494 18497 18500 18503 18506 18509 18512 18515 18518 18521 18524 18527 18530 18533 18536 18539 18542 18545 18548 18551 18554 18556 18559 18562 18565 18568 18571 18574 18577 18579 18582 18585 18587 18590 18592 18595 18597 18600 18603 18606 18609 18612 18615 18618 18621 18624 18627 18630 18633 18636 18639 18642 18645 18648 18651 18654 18657 18660 18663 18666 18669 18671 18674 18677 18680 18683 18686 18689 18692 18695 18698 18701 18704 18707 18710 18712 18715 18717 18720 18723 18726 18729 18732 18735 18738 18741 18744 18747 18750 18753 18756 18759 18762 18765 18768 18771 18774 18776 18779 18781 18783 18786 18789 18792 18794 18797 18800 18803 18805 18808 18811 18814 18816 18819 18822 18825 18828 18831 18834 18837 18840 18843 18846 18849 18852 18854 18856 18858 18861 18864 18867 18870 18873 18876 18879 18881 18884 18887 18890 18893 18896 18899 18901 18904 18907 18910 18913 18916 18919 18922 18924 18927 18930 18933 18936 18938 18941 18944 18947 18950 18953 18956 18959 18961 18963 18966 18969 18972 18975 18978 18981 18983 18986 18989 18992 18995 18998 19001 19004 19007 19010 19013 19015 19018 19021 19024 19027 19030 19033 19035 19038 19041 19044 19047 19050 19053 19056 19059 19062 19065 19068 19071 19074 19077 19080 19083 19086 19089 19092 19095 19098 19101 19103 19106 19109 19112 19115 19117 19119 19122 19125 19128 19130 19133 19136 19138 19141 19144 19147 19150 19153 19156 19159 19162 19165 19168 19171 19174 19177 19180 19183 19186 19189 19192 19195 19198 19201 19204 19206 19209 19212 19215 19218 19220 19223 19226 19229 19232 19235 19238 19241 19243 19246 19249 19252 19255 19258 19261 19264 19266 19269 19272 19275 19277 19280 19283 19286 19289 19292 19295 19298 19301 19304 19307 19310 19313 19316 19319 19322 19325 19328 19331 19334 19337 19340 19343 19345 19347 19350 19353 19356 19358 19360 19363 19366 19368 19370 19372 19375 19378 19381 19384 19387 19390 19393 19396 19399 19402 19405 19408 19411 19414 19417 19420 19423 19426 19429 19432 19434 19436 19439 19442 19444 19447 19450 19452 19455 19458 19461 19464 19467 19470 19473 19475 19478 19481 19484 19487 19490 19493 19496 19499 19502 19505 19508 19511 19514 19517 19520 19523 19526 19529 19532 19535 19538 19541 19543 19546 19549 19552 19554 19557 19560 19563 19565 19568 19571 19574 19576 19579 19582 19585 19588 19591 19594 19597 19600 19603 19606 19609 19612 19615 19618 19621 19624 19627 19630 19633 19636 19639 19641 19644 19647 19650 19653 19656 19659 19662 19665 19668 19670 19673 19675 19678 19680 19683 19686 19689 19692 19695 19698 19701 19704 19707 19710 19713 19715 19718 19721 19724 19727 19729 19732 19734 19737 19739 19742 19745 19748 19750 19753 19756 19759 19761 19764 19767 19770 19773 19776 19778 19781 19784 19787 19790 19792 19795 19798 19801 19804 19807 19810 19813 19815 19818 19820 19823 19826 19829 19832 19834 19837 19840 19843 19846 19848 19851 19854 19857 19860 19863 19866 19869 19872 19875 19877 19880 19883 19886 19889 19891 19894 19897 19900 19903 19906 19908 19910 19912 19915 19918 19921 19924 19927 19929 19932 19934 19937 19940 19943 19946 19949 19951 19954 19956 19959 19962 19965 19967 19970 19973 19976 19978 19981 19984 19987 19989 19992 19994 19997 20000 20002 20005 20007 20010 20013 20016 20019 20022 20025 20027 20030 20033 20036 20039 20041 20044 20047 20050 20053 20056 20059 20061 20064 20066 20069 20072 20074 20077 20080 20083 20086 20089 20092 20095 20098 20100 20103 20106 20108 20111 20114 20117 20120 20123 20125 20128 20131 20134 20137 20140 20143 20146 20149 20152 20155 20158 20161 20164 20167 20169 20172 20174 20177 20180 20182 20185 20188 20191 20194 20197 20200 20203 20205 20208 20211 20214 20217 20219 20222 20225 20228 20231 20234 20237 20240 20243 20246 20249 20251 20254 20257 20260 20262 20265 20268 20271 20274 20277 20280 20283 20285 20288 20290 20293 20296 20299 20302 20305 20308 20310 20313 20315 20318 20321 20324 20327 20329 20332 20335 20337 20340 20343 20346 20349 20352 20355 20358 20360 20363 20366 20369 20372 20375 20377 20380 20382 20385 20388 20391 20394 20397 20400 20403 20406 20409 20412 20415 20418 20421 20424 20427 20430 20433 20436 20439 20442 20445 20448 20450 20452 20454 20457 20459 20462 20465 20467 20470 20473 20475 20478 20481 20484 20487 20490 20493 20496 20498 20501 20504 20507 20510 20513 20516 20519 20522 20525 20528 20531 20533 20536 20539 20541 20543 20546 20549 20552 20554 20557 20560 20563 20566 20569 20572 20575 20577 20580 20583 20586 20589 20592 20595 20598 20601 20604 20607 20610 20613 20616 20619 20622 20625 20628 20631 20634 20637 20640 20643 20646 20649 20652 20655 20658 20661 20664 20667 20670 20673 20676 20679 20682 20685 20688 20691 20694 20697 20700 20703 20705 20708 20711 20714 20717 20719 20722 20725 20728 20731 20734 20737 20740 20743 20746 20749 20752 20755 20758 20761 20764 20767 20770 20773 20776 20778 20781 20783 20786 20789 20791 20794 20797 20800 20803 20806 20809 20812 20814 20817 20820 20823 20826 20829 20832 20835 20838 20841 20843 20845 20848 20851 20853 20856 20858 20861 20864 20867 20870 20873 20876 20879 20882 20885 20888 20890 20893 20896 20899 20902 20905 20908 20911 20914 20917 20920 20923 20926 20929 20932 20935 20938 20941 20944 20947 20950 20952 20955 20958 20961 20964 20967 20970 20972 20975 20978 20981 20983 20986 20989 20992 20995 20998 21001 21004 21007 21010 21012 21014 21017 21020 21023 21026 21029 21032 21035 21037 21040 21043 21046 21048 21051 21053 21056 21059 21062 21065 21068 21071 21074 21077 21080 21083 21086 21089 21092 21095 21098 21100 21103 21106 21109 21111 21114 21117 21120 21123 21126 21129 21132 21135 21138 21141 21144 21147 21150 21152 21155 21157 21160 21163 21166 21169 21172 21175 21178 21181 21184 21187 21190 21193 21196 21199 21202 21205 21208 21210 21213 21216 21219 21222 21225 21228 21231 21234 21237 21240 21243 21246 21249 21252 21255 21258 21261 21264 21267 21270 21273 21276 21279 21282 21285 21288 21291 21294 21297 21300 21303 21306 21309 21312 21315 21318 21321 21324 21327 21330 21333 21336 21339 21342 21345 21348 21351 21354 21357 21360 21363 21366 21369 21372 21375 21378 21381 21384 21387 21390 21393 21395 21398 21401 21403 21406 21409 21412 21415 21418 21421 21424 21426 21429 21432 21435 21438 21441 21444 21447 21450 21453 21456 21459 21462 21465 21468 21471 21474 21477 21480 21482 21485 21488 21491 21494 21497 21500 21503 21505 21508 21511 21514 21517 21520 21523 21525 21528 21531 21534 21537 21539 21542 21545 21547 21549 21552 21555 21558 21561 21564 21567 21570 21573 21576 21579 21582 21584 21587 21590 21593 21596 21599 21602 21605 21608 21610 21613 21616 21619 21622 21625 21628 21631 21634 21637 21639 21642 21645 21648 21651 21654 21657 21660 21662 21665 21668 21671 21674 21676 21679 21682 21685 21688 21690 21693 21696 21698 21700 21703 21706 21709 21712 21715 21717 21720 21723 21726 21728 21731 21734 21737 21740 21743 21745 21748 21750 21753 21756 21759 21762 21765 21768 21770 21773 21776 21779 21781 21784 21787 21790 21792 21795 21798 21801 21804 21807 21810 21813 21815 21818 21821 21824 21826 21829 21832 21835 21838 21841 21844 21847 21850 21853 21856 21859 21862 21865 21868 21871 21874 21876 21879 21882 21885 21888 21890 21893 21896 21899 21901 21904 21906 21909 21911 21914 21916 21919 21922 21924 21927 21929 21932 21934 21937 21940 21943 21946 21949 21952 21955 21958 21961 21964 21967 21970 21973 21976 21979 21982 21985 21988 21991 21994 21997 22000 22003 22006 22009 22012 22015 22017 22020 22022 22025 22028 22031 22033 22036 22039 22042 22045 22048 22051 22054 22057 22060 22062 22064 22066 22069 22072 22074 22077 22080 22082 22085 22087 22090 22093 22096 22099 22102 22105 22108 22110 22113 22116 22119 22122 22125 22128 22130 22132 22135 22138 22140 22143 22146 22148 22151 22153 22156 22158 22160 22163 22166 22169 22172 22175 22177 22179 22182 22185 22188 22190 22193 22196 22199 22202 22205 22207 22210 22213 22216 22219 22222 22225 22228 22231 22234 22237 22240 22243 22246 22249 22251 22254 22257 22259 22262 22265 22267 22270 22273 22275 22278 22281 22284 22287 22290 22292 22295 22298 22301 22303 22306 22309 22312 22314 22317 22320 22323 22325 22327 22330 22333 22335 22338 22341 22344 22347 22350 22353 22355 22358 22361 22364 22367 22370 22372 22375 22378 22381 22384 22387 22390 22393 22396 22399 22402 22405 22408 22411 22414 22417 22420 22423 22426 22429 22432 22435 22437 22440 22443 22446 22449 22452 22455 22457 22459 22461 22464 22466 22469 22471 22474 22477 22480 22483 22486 22489 22492 22495 22498 22500 22503 22506 22509 22512 22515 22517 22520 22523 22526 22528 22531 22534 22537 22540 22542 22545 22548 22550 22553 22556 22559 22562 22565 22568 22571 22574 22577 22580 22583 22586 22589 22592 22595 22598 22601 22604 22607 22610 22613 22616 22619 22622 22625 22628 22631 22634 22637 22640 22643 22646 22649 22651 22653 22655 22658 22660 22663 22666 22669 22671 22674 22677 22680 22683 22686 22689 22692 22694 22697 22700 22703 22706 22709 22712 22715 22718 22721 22724 22727 22730 22733 22736 22739 22742 22745 22748 22751 22754 22757 22760 22763 22766 22769 22772 22775 22778 22781 22784 22787 22790 22793 22796 22799 22801 22804 22807 22810 22812 22815 22818 22821 22824 22827 22830 22833 22836 22839 22842 22845 22848 22850 22853 22856 22859 22862 22864 22867 22870 22873 22876 22879 22881 22884 22887 22890 22893 22896 22898 22901 22904 22907 22909 22912 22914 22917 22920 22923 22925 22927 22930 22932 22934 22937 22939 22942 22945 22948 22951 22954 22956 22959 22961 22964 22967 22970 22973 22976 22979 22981 22984 22987 22990 22993 22995 22998 23001 23004 23006 23009 23012 23015 23018 23021 23023 23026 23029 23032 23034 23037 23040 23043 23046 23049 23051 23054 23057 23060 23063 23066 23068 23071 23074 23077 23080 23083 23086 23089 23092 23095 23098 23100 23102 23105 23108 23111 23114 23117 23120 23123 23126 23129 23131 23134 23137 23140 23143 23146 23149 23152 23155 23158 23161 23164 23167 23170 23172 23175 23177 23180 23183 23186 23189 23192 23195 23198 23201 23204 23207 23210 23213 23216 23219 23221 23224 23227 23230 23233 23236 23238 23241 23244 23247 23250 23253 23256 23259 23262 23265 23268 23271 23274 23277 23280 23283 23286 23289 23291 23294 23297 23300 23303 23306 23309 23312 23315 23318 23321 23324 23326 23329 23332 23335 23338 23341 23344 23346 23349 23352 23354 23357 23360 23363 23366 23369 23372 23375 23378 23381 23384 23387 23389 23392 23395 23398 23401 23404 23406 23409 23412 23415 23418 23421 23424 23427 23430 23433 23436 23439 23442 23445 23448 23451 23454 23457 23460 23463 23466 23469 23472 23475 23478 23481 23484 23487 23490 23493 23496 23499 23502 23505 23508 23511 23514 23517 23520 23523 23526 23529 23532 23535 23538 23541 23544 23547 23550 23553 23556 23559 23562 23565 23568 23571 23574 23577 23580 23583 23586 23589 23592 23595 23598 23601 23604 23607 23610 23613 23616 23619 23622 23625 23627 23630 23633 23635 23638 23641 23644 23646 23649 23652 23655 23658 23661 23664 23667 23670 23673 23676 23679 23682 23685 23688 23691 23694 23697 23700 23702 23705 23707 23710 23712 23715 23718 23721 23723 23726 23729 23732 23734 23737 23739 23741 23744 23747 23750 23752 23755 23758 23760 23763 23766 23769 23772 23775 23778 23781 23784 23787 23790 23792 23795 23798 23801 23804 23807 23810 23813 23816 23819 23822 23825 23828 23830 23833 23836 23838 23841 23844 23847 23850 23853 23856 23859 23862 23864 23867 23870 23873 23876 23879 23882 23885 23887 23890 23893 23895 23898 23901 23904 23907 23910 23913 23916 23919 23922 23925 23928 23931 23934 23937 23939 23942 23945 23948 23951 23954 23957 23960 23963 23965 23968 23971 23974 23977 23980 23983 23985 23988 23991 23994 23996 23999 24002 24005 24008 24011 24014 24016 24019 24022 24025 24028 24031 24034 24037 24040 24042 24045 24048 24051 24054 24057 24060 24063 24066 24069 24072 24075 24078 24081 24084 24087 24090 24093 24095 24098 24101 24103 24106 24109 24112 24115 24118 24121 24124 24127 24129 24132 24135 24138 24141 24143 24146 24149 24152 24155 24158 24160 24163 24166 24169 24172 24175 24178 24181 24184 24187 24190 24193 24196 24198 24201 24204 24207 24210 24213 24216 24219 24222 24225 24227 24230 24233 24236 24239 24242 24245 24248 24251 24254 24257 24260 24263 24266 24269 24272 24275 24278 24281 24284 24287 24290 24293 24296 24299 24302 24305 24308 24311 24314 24316 24319 24322 24325 24328 24331 24334 24336 24338 24340 24343 24346 24349 24352 24354 24357 24360 24363 24365 24368 24371 24374 24377 24380 24383 24386 24389 24392 24395 24398 24401 24404 24407 24410 24413 24416 24419 24422 24425 24428 24431 24434 24436 24439 24442 24445 24447 24450 24453 24456 24459 24462 24465 24468 24471 24474 24477 24480 24483 24486 24489 24491 24494 24497 24500 24503 24506 24509 24511 24514 24516 24519 24522 24525 24528 24530 24533 24536 24538 24541 24544 24546 24549 24552 24555 24558 24561 24564 24567 24570 24572 24575 24577 24579 24582 24585 24588 24591 24594 24597 24600 24603 24606 24609 24612 24614 24617 24620 24623 24626 24629 24632 24635 24638 24641 24644 24647 24650 24652 24655 24658 24661 24663 24666 24669 24672 24675 24678 24681 24684 24687 24690 24693 24696 24699 24702 24705 24708 24711 24714 24717 24719 24722 24725 24728 24731 24733 24735 24737 24740 24743 24746 24749 24752 24755 24758 24760 24763 24766 24769 24772 24775 24778 24781 24784 24787 24790 24793 24796 24799 24801 24804 24807 24810 24813 24816 24819 24822 24825 24828 24831 24834 24837 24840 24843 24845 24848 24851 24854 24857 24860 24863 24866 24869 24872 24875 24878 24881 24884 24886 24889 24892 24895 24897 24900 24903 24905 24908 24911 24914 24916 24919 24922 24925 24928 24931 24934 24937 24940 24943 24946 24949 24952 24955 24958 24961 24963 24966 24969 24971 24974 24977 24980 24983 24986 24989 24992 24995 24998 25001 25004 25007 25010 25013 25016 25019 25022 25025 25027 25030 25033 25036 25039 25042 25045 25048 25051 25054 25057 25059 25062 25065 25068 25071 25074 25077 25080 25083 25085 25088 25091 25094 25097 25100 25103 25106 25109 25111 25114 25117 25119 25122 25124 25127 25129 25132 25135 25138 25141 25144 25147 25149 25152 25155 25158 25161 25164 25167 25170 25173 25176 25179 25182 25185 25188 25191 25194 25197 25200 25203 25206 25209 25212 25214 25217 25220 25223 25226 25228 25231 25234 25237 25240 25243 25246 25249 25252 25255 25258 25260 25263 25266 25269 25272 25275 25278 25281 25284 25287 25290 25293 25296 25299 25302 25305 25308 25311 25314 25317 25320 25323 25326 25329 25331 25334 25337 25340 25343 25346 25348 25351 25354 25357 25360 25363 25365 25368 25370 25373 25376 25379 25382 25385 25388 25391 25394 25396 25399 25402 25405 25408 25410 25413 25416 25419 25421 25424 25427 25430 25433 25435 25438 25441 25443 25446 25449 25452 25455 25458 25461 25464 25467 25470 25473 25476 25479 25482 25485 25488 25491 25494 25497 25500 25502 25505 25507 25510 25513 25516 25518 25521 25524 25527 25530 25533 25536 25539 25542 25544 25547 25550 25553 25556 25558 25561 25564 25567 25570 25572 25575 25578 25581 25583 25585 25588 25591 25594 25597 25600 25603 25606 25609 25612 25614 25617 25620 25623 25626 25629 25632 25635 25638 25641 25644 25647 25650 25653 25656 25659 25662 25665 25668 25671 25674 25677 25680 25683 25686 25689 25692 25695 25698 25701 25704 25707 25710 25713 25716 25719 25722 25725 25728 25731 25734 25737 25740 25743 25746 25749 25752 25755 25758 25760 25763 25766 25769 25772 25774 25776 25779 25782 25785 25788 25791 25793 25796 25799 25802 25805 25808 25811 25813 25816 25818 25821 25824 25827 25830 25833 25836 25838 25841 25843 25846 25849 25851 25853 25856 25858 25861 25864 25867 25869 25872 25875 25877 25880 25883 25886 25889 25892 25895 25898 25900 25903 25906 25909 25912 25915 25918 25921 25924 25927 25930 25933 25936 25939 25942 25944 25947 25950 25953 25956 25958 25961 25964 25967 25970 25973 25976 25979 25982 25985 25988 25990 25993 25996 25999 26002 26004 26006 26009 26011 26014 26017 26020 26023 26025 26027 26030 26033 26036 26039 26042 26045 26047 26050 26052 26055 26058 26060 26063 26065 26068 26070 26073 26076 26079 26082 26085 26087 26089 26092 26095 26097 26100 26102 26104 26107 26109 26112 26115 26117 26119 26121 26124 26126 26129 26132 26134 26137 26140 26143 26146 26149 26151 26154 26157 26160 26163 26166 26169 26172 26175 26178 26181 26184 26187 26190 26193 26196 26199 26202 26204 26207 26210 26213 26216 26219 26221 26224 26227 26230 26233 26236 26239 26242 26245 26248 26251 26254 26257 26260 26263 26266 26269 26271 26274 26277 26280 26283 26286 26288 26291 26294 26297 26300 26303 26306 26309 26311 26313 26316 26319 26322 26325 26328 26331 26333 26335 26337 26340 26343 26346 26349 26352 26355 26358 26361 26363 26366 26369 26371 26374 26377 26380 26383 26386 26389 26392 26395 26398 26400 26403 26406 26409 26412 26415 26418 26421 26424 26427 26430 26432 26435 26437 26440 26443 26446 26449 26452 26455 26458 26461 26464 26467 26469 26472 26475 26478 26481 26484 26487 26490 26493 26496 26499 26502 26504 26507 26510 26513 26516 26519 26522 26525 26528 26531 26534 26537 26540 26543 26546 26549 26552 26555 26558 26561 26564 26567 26569 26572 26575 26577 26579 26582 26585 26588 26591 26594 26597 26600 26603 26605 26608 26611 26614 26616 26619 26622 26625 26628 26631 26634 26636 26639 26641 26644 26647 26650 26653 26656 26659 26662 26665 26667 26670 26673 26676 26679 26682 26685 26688 26691 26694 26697 26700 26703 26705 26708 26711 26714 26716 26719 26721 26724 26727 26730 26733 26736 26739 26742 26745 26748 26751 26753 26756 26759 26762 26765 26767 26770 26773 26776 26779 26782 26785 26788 26791 26793 26796 26799 26801 26804 26807 26810 26812 26815 26818 26820 26823 26825 26828 26831 26834 26837 26840 26843 26846 26849 26852 26855 26857 26860 26863 26866 26869 26872 26874 26877 26879 26882 26885 26888 26891 26893 26896 26899 26902 26905 26907 26910 26913 26916 26919 26921 26924 26927 26930 26933 26936 26939 26942 26945 26948 26951 26954 26957 26960 26963 26966 26969 26971 26974 26977 26979 26982 26985 26988 26991 26993 26996 26999 27002 27005 27007 27010 27013 27016 27019 27021 27024 27027 27030 27033 27036 27038 27041 27044 27046 27048 27051 27054 27056 27059 27062 27065 27068 27071 27074 27077 27079 27082 27085 27088 27091 27094 27097 27100 27103 27106 27109 27112 27115 27118 27121 27124 27126 27129 27132 27135 27138 27141 27143 27146 27149 27152 27155 27157 27160 27163 27166 27168 27171 27174 27177 27180 27183 27185 27188 27191 27194 27196 27199 27202 27204 27207 27210 27212 27215 27217 27220 27222 27225 27228 27231 27234 27237 27240 27243 27246 27249 27252 27255 27258 27261 27264 27267 27270 27273 27276 27279 27282 27285 27288 27291 27294 27297 27300 27303 27306 27309 27312 27315 27318 27321 27324 27327 27330 27332 27335 27337 27340 27343 27346 27349 27352 27354 27357 27360 27363 27365 27368 27371 27374 27377 27380 27383 27386 27389 27392 27395 27398 27401 27404 27407 27410 27413 27416 27419 27422 27425 27428 27431 27434 27437 27440 27442 27445 27448 27451 27453 27456 27459 27462 27465 27468 27471 27474 27476 27479 27482 27485 27488 27491 27494 27497 27500 27502 27505 27508 27511 27514 27517 27520 27523 27526 27528 27531 27534 27537 27540 27542 27545 27548 27551 27554 27557 27559 27562 27564 27567 27570 27573 27576 27579 27582 27585 27588 27591 27594 27597 27600 27603 27605 27608 27611 27613 27615 27618 27620 27623 27626 27629 27632 27635 27638 27641 27644 27647 27650 27653 27656 27659 27662 27665 27667 27670 27673 27676 27679 27682 27685 27688 27691 27694 27697 27700 27703 27706 27709 27712 27714 27717 27720 27723 27726 27728 27731 27734 27737 27739 27742 27744 27747 27750 27753 27756 27759 27762 27765 27768 27771 27774 27777 27780 27783 27786 27789 27792 27795 27798 27801 27804 27807 27810 27813 27816 27819 27822 27825 27828 27831 27833 27836 27839 27842 27845 27848 27850 27853 27856 27859 27862 27865 27867 27869 27871 27874 27877 27880 27883 27886 27888 27891 27894 27896 27899 27902 27905 27908 27911 27914 27917 27919 27922 27925 27928 27931 27934 27937 27940 27943 27945 27948 27951 27953 27956 27958 27961 27964 27967 27970 27973 27976 27978 27981 27984 27987 27990 27992 27995 27998 28001 28004 28007 28010 28013 28016 28019 28022 28025 28028 28031 28034 28037 28040 28043 28045 28047 28050 28053 28056 28059 28062 28065 28068 28071 28074 28077 28080 28083 28085 28088 28090 28093 28096 28098 28101 28104 28107 28110 28112 28115 28118 28120 28123 28126 28129 28131 28134 28137 28139 28141 28144 28147 28150 28153 28156 28159 28162 28165 28168 28171 28173 28176 28179 28182 28185 28188 28191 28194 28196 28199 28202 28205 28208 28210 28213 28215 28218 28221 28223 28226 28229 28232 28235 28238 28241 28243 28246 28249 28252 28255 28258 28260 28263 28266 28268 28271 28274 28277 28280 28283 28286 28289 28292 28295 28298 28301 28304 28307 28310 28313 28316 28319 28322 28325 28328 28331 28334 28337 28340 28343 28346 28349 28351 28354 28356 28359 28362 28365 28368 28371 28374 28377 28380 28383 28385 28388 28391 28393 28396 28399 28402 28405 28408 28411 28414 28417 28419 28422 28425 28428 28431 28434 28437 28439 28442 28445 28448 28450 28453 28456 28459 28462 28465 28468 28471 28474 28476 28478 28481 28484 28487 28490 28493 28496 28499 28502 28505 28508 28511 28514 28517 28520 28522 28525 28528 28531 28534 28537 28540 28543 28546 28549 28552 28555 28558 28561 28564 28567 28570 28573 28576 28579 28582 28585 28588 28591 28594 28597 28600 28602 28605 28608 28611 28614 28617 28619 28622 28625 28627 28630 28633 28636 28639 28642 28645 28648 28651 28653 28656 28659 28661 28664 28667 28670 28673 28676 28679 28682 28685 28687 28690 28693 28696 28699 28702 28705 28708 28711 28714 28716 28719 28721 28724 28727 28730 28733 28736 28739 28742 28745 28748 28751 28754 28757 28760 28763 28766 28769 28772 28775 28778 28780 28783 28786 28789 28791 28794 28797 28800 28803 28806 28809 28812 28815 28818 28821 28824 28827 28829 28832 28834 28837 28839 28842 28844 28847 28850 28853 28856 28859 28861 28864 28867 28869 28872 28875 28878 28881 28884 28887 28890 28892 28895 28898 28900 28903 28905 28908 28911 28914 28916 28919 28922 28925 28928 28931 28933 28936 28939 28942 28945 28948 28951 28954 28957 28960 28963 28966 28969 28972 28975 28978 28981 28984 28987 28990 28993 28996 28999 29002 29005 29008 29011 29014 29017 29020 29023 29026 29029 29032 29035 29038 29041 29044 29047 29050 29053 29056 29059 29062 29065 29068 29071 29074 29077 29080 29083 29086 29089 29092 29095 29098 29101 29104 29107 29110 29113 29115 29118 29121 29124 29127 29130 29133 29136 29138 29141 29144 29147 29150 29152 29155 29158 29161 29164 29166 29169 29172 29175 29178 29181 29183 29186 29189 29192 29195 29198 29201 29204 29207 29210 29213 29216 29219 29222 29225 29228 29231 29234 29237 29240 29242 29245 29248 29251 29254 29257 29260 29263 29266 29269 29272 29275 29278 29280 29283 29286 29289 29292 29294 29296 29299 29302 29304 29307 29310 29313 29316 29319 29322 29325 29328 29331 29334 29337 29339 29342 29345 29348 29350 29353 29356 29359 29362 29365 29368 29371 29374 29377 29380 29383 29386 29389 29392 29395 29398 29401 29404 29407 29410 29413 29416 29419 29422 29425 29428 29431 29434 29437 29440 29443 29446 29449 29452 29455 29457 29460 29463 29466 29469 29472 29475 29478 29481 29483 29486 29489 29492 29495 29498 29501 29504 29507 29510 29513 29515 29518 29521 29523 29526 29529 29532 29535 29538 29540 29543 29546 29549 29552 29555 29558 29561 29564 29567 29570 29573 29575 29577 29580 29583 29586 29589 29592 29595 29598 29601 29604 29607 29610 29613 29616 29619 29622 29625 29628 29631 29634 29637 29640 29643 29646 29649 
</DataArray>
<DataArray type="UInt32" Name="types" format="ascii">
5 5 5 5 5 3 5 5 5 5 3 5 5 5 5 5 5 3 5 3 5 5 5 5 5 5 5 5 5 5 5 5 5 5 5 5 3 5 5 5 5 5 5 5 5 3 5 5 5 5 5 5 5 5 5 5 3 5 5 5 5 5 5 5 5 5 5 5 5 5 5 5 5 3 3 5 5 5 5 5 3 5 3 5 5 5 5 5 3 5 5 5 3 5 5 3 5 5 5 3 5 3 5 5 5 5 3 5 5 3 5 5 5 5 5 5 5 5 5 5 3 5 5 3 5 5 5 5 3 5 5 5 5 3 5 5 5 5 3 5 5 3 5 5 3 5 5 5 3 5 5 5 5 5 5 3 5 5 5 5 5 5 3 5 5 5 5 5 5 5 5 5 3 5 3 5 5 5 5 5 5 5 3 5 5 5 5 3 5 5 5 5 3 3 5 5 5 5 5 5 5 5 3 5 5 5 5 3 5 3 5 5 5 5 5 3 5 5 5 5 5 5 5 5 5 5 5 5 5 5 5 5 5 5 5 5 3 5 5 5 5 5 3 5 5 5 5 5 5 5 5 5 5 5 5 5 3 5 5 5 3 5 3 5 5 5 3 5 5 5 5 5 5 5 5 3 3 5 5 5 5 5 5 5 5 5 5 5 5 3 5 3 5 5 5 5 5 5 5 5 3 5 5 3 5 5 5 5 3 5 5 5 3 5 5 5 3 5 5 3 5 5 5 5 3 5 5 5 5 5 5 5 5 3 5 5 5 3 5 3 5 5 3 5 5 5 3 5 5 3 5 5 5 5 5 5 5 5 5 5 5 5 5 5 5 5 5 3 5 5 5 5 3 5 5 3 5 5 5 5 5 5 5 5 5 3 5 5 5 3 5 5 5 5 5 5 5 5 5 5 5 5 5 5 5 5 5 5 5 5 5 5 5 5 5 5 5 5 5 5 5 3 5 5 5 5 5 5 5 3 5 5 5 5 3 5 5 5 5 5 5 5 3 5 5 5 5 5 5 5 5 5 5 5 5 5 5 5 5 5 5 5 5 3 5 3 5 5 5 5 5 5 5 5 3 5 3 5 5 5 5 3 5 3 5 5 3 3 5 5 3 3 5 5 5 5 5 5 5 5 5 5 3 5 5 5 5 5 5 5 5 5 5 5 5 5 3 5 3 5 5 5 5 5 5 5 3 5 5 5 5 5 5 5 5 5 5 5 5 3 5 3 5 5 5 5 3 5 5 3 5 5 5 5 5 5 5 5 5 5 3 5 5 5 5 5 3 5 3 5 5 3 3 5 5 5 3 3 5 5 5 5 3 5 5 3 5 5 3 3 3 3 3 5 3 5 3 5 5 3 5 3 5 5 3 3 5 5 5 5 3 5 3 3 5 5 5 3 5 5 5 5 5 3 5 5 5 5 5 5 5 5 5 5 5 3 5 3 5 3 5 5 5 5 5 3 5 5 5 5 5 5 3 5 5 5 5 5 3 5 5 5 5 5 5 5 5 5 5 5 3 5 5 5 5 5 5 5 3 3 5 5 5 5 5 5 5 5 5 5 5 5 3 5 5 5 3 5 5 5 5 5 5 5 5 5 5 5 5 5 5 5 5 5 5 5 5 5 5 5 5 3 3 5 5 5 5 5 5 3 5 5 5 5 5 5 5 5 5 5 5 5 5 5 5 5 5 5 5 5 5 5 5 5 3 5 3 5 5 5 5 5 5 3 5 5 5 5 5 5 5 5 5 5 3 5 5 5 5 5 3 5 5 3 5 5 5 5 5 5 5 5 5 5 5 3 5 5 5 5 5 3 5 5 5 3 5 5 5 3 5 5 5 5 5 5 5 5 5 5 3 5 5 5 5 5 5 5 5 5 5 5 5 5 5 5 5 3 5 5 5 3 5 5 5 5 5 3 5 5 5 5 5 5 5 5 5 5 5 3 5 5 5 5 5 5 5 5 3 5 5 5 5 5 5 5 5 5 5 5 5 5 5 5 5 5 5 5 3 5 5 5 5 5 5 3 5 5 5 5 5 5 5 5 5 5 5 5 5 5 5 5 5 5 5 5 5 5 5 5 5 3 5 5 5 5 5 5 5 5 5 5 5 5 5 5 5 5 5 3 5 3 5 5 5 5 5 3 3 5 5 5 5 5 5 5 5 3 5 5 5 5 5 5 3 5 5 5 5 5 5 5 5 5 5 5 5 5 5 5 5 5 5 5 5 3 5 5 5 5 5 5 3 5 5 3 5 5 5 5 5 5 5 5 3 5 3 5 5 3 5 5 5 3 5 5 5 5 5 5 5 5 5 5 5 5 5 5 5 5 5 5 5 5 5 5 5 5 5 5 5 5 5 5 5 5 5 5 3 5 5 5 3 5 5 5 5 3 5 5 5 5 5 5 3 5 5 5 5 3 5 5 5 5 3 5 5 5 5 3 5 5 3 5 5 5 5 5 5 3 5 3 5 5 3 5 5 5 3 5 5 5 5 5 5 5 5 5 3 5 5 5 5 5 5 5 5 3 5 5 5 5 5 5 5 5 5 5 5 5 5 5 5 5 5 5 5 5 5 5 5 5 5 5 5 5 5 5 5 5 5 5 3 5 5 5 5 3 5 5 5 5 5 5 5 5 5 5 5 5 5 5 5 5 3 5 5 3 3 5 5 5 5 5 3 5 5 5 3 3 3 5 3 5 3 3 5 5 5 5 3 5 5 5 5 5 5 5 5 5 5 3 5 5 5 5 3 5 5 3 5 5 5 5 3 5 5 5 5 5 5 5 5 5 5 5 5 3 5 5 5 5 5 5 5 5 5 5 5 5 3 5 5 5 5 5 5 5 5 5 3 5 3 5 3 5 5 5 5 5 5 5 5 5 5 5 5 5 5 5 5 5 5 5 5 5 5 5 5 5 3 5 5 5 3 5 5 5 5 5 5 5 5 3 5 5 5 5 5 5 5 3 5 3 5 5 5 5 5 5 5 5 5 3 5 5 3 3 5 5 5 5 5 5 5 5 5 5 3 5 5 5 5 5 5 5 5 5 5 5 5 5 5 5 5 3 5 5 5 3 5 5 3 5 3 5 3 5 5 5 5 5 5 5 5 3 5 5 5 5 3 3 5 5 5 5 3 5 5 5 5 5 5 5 5 5 5 5 5 5 5 5 5 5 5 5 5 5 5 5 5 5 5 5 5 3 5 3 5 5 5 5 3 5 5 5 5 5 5 5 5 5 5 5 5 3 3 5 5 5 5 5 5 5 5 5 5 5 5 5 3 5 5 5 5 5 5 5 5 5 5 3 5 5 5 5 5 5 5 5 5 5 3 5 5 5 5 3 5 5 5 5 5 5 5 5 5 3 5 5 5 3 5 5 5 5 5 5 5 5 5 5 5 5 5 5 5 5 5 5 5 5 5 5 5 5 5 5 5 5 5 5 5 5 3 5 5 5 5 5 5 5 5 5 3 5 5 5 3 3 5 3 5 5 3 5 5 5 5 5 5 5 5 3 5 5 3 3 3 3 5 5 5 5 3 3 3 5 5 5 3 5 5 5 5 5 3 5 5 5 5 5 5 5 5 3 5 3 5 5 5 5 5 5 5 5 5 5 3 5 3 5 5 5 5 5 5 5 5 5 5 5 5 5 5 5 5 5 3 5 5 5 5 5 5 5 5 5 5 5 5 5 5 5 5 3 5 5 5 5 5 5 5 5 3 5 5 5 3 5 5 5 5 3 5 5 5 5 5 5 5 5 5 3 5 5 5 3 5 5 3 5 5 5 5 5 5 5 3 5 5 5 5 5 5 5 5 5 5 5 5 5 3 5 5 5 5 5 5 5 5 5 3 5 5 3 5 5 5 5 5 5 5 5 5 3 5 5 5 3 5 5 5 5 5 3 5 5 3 5 5 3 5 5 3 5 5 5 5 5 5 5 5 5 5 5 5 5 5 5 5 5 5 5 5 5 5 5 3 5 5 5 5 5 5 5 5 5 5 3 5 5 3 5 3 5 5 5 5 5 5 3 5 3 5 5 5 5 5 5 5 5 5 5 5 5 5 5 5 5 5 3 5 5 5 5 5 5 3 5 5 5 3 5 5 5 5 5 5 5 5 3 5 5 5 5 5 5 5 5 3 5 5 5 5 5 5 5 5 5 5 5 3 5 5 5 3 5 5 5 5 3 5 5 5 5 5 5 5 5 3 5 5 5 3 5 5 5 3 5 5 5 5 5 5 5 5 5 5 3 5 3 5 5 3 5 5 5 5 5 5 5 5 5 3 5 3 5 5 5 3 3 5 5 5 3 5 5 5 5 5 5 5 5 5 5 5 5 3 5 5 5 3 5 5 5 5 5 5 3 5 5 5 5 5 5 5 5 5 5 3 5 3 5 5 5 5 5 5 3 5 5 5 5 5 5 5 3 5 5 5 5 5 5 5 3 5 5 5 3 5 5 3 5 5 5 5 5 5 3 5 5 5 5 5 3 5 5 5 5 5 5 3 5 5 5 5 5 5 5 5 3 5 3 5 5 5 5 5 5 5 3 5 5 5 3 5 5 5 5 5 5 5 5 5 5 5 5 5 5 5 5 5 5 5 5 5 5 5 5 5 5 5 5 5 5 5 3 5 3 5 5 5 5 5 5 5 5 5 5 5 5 5 5 3 5 5 5 5 5 5 5 5 5 5 5 5 5 5 5 3 5 5 3 5 5 5 5 5 5 5 5 5 5 5 5 3 5 5 5 5 5 5 5 5 5 5 5 5 5 5 5 5 5 5 5 3 5 5 5 5 5 5 5 5 5 5 5 5 5 5 5 5 5 5 5 5 5 5 5 5 5 5 5 5 5 5 5 5 5 5 5 5 5 5 5 5 5 5 5 5 5 5 5 5 5 5 5 5 5 5 3 5 5 5 5 5 5 5 5 5 5 3 5 5 3 5 5 3 5 5 5 5 5 5 5 3 5 5 3 5 5 5 5 5 5 5 5 5 3 5 3 5 5 5 5 5 5 5 3 5 5 3 5 5 5 3 5 5 5 5 3 3 5 5 5 3 5 5 5 3 3 5 5 5 3 5 3 5 3 5 5 5 5 5 5 3 5 5 5 5 5 5 5 5 5 5 5 5 5 5 5 5 5 5 5 3 5 5 5 3 5 5 5 5 5 5 5 5 5 5 5 5 3 5 5 5 5 3 5 3 5 5 5 5 5 5 3 3 5 5 5 5 5 5 5 5 5 5 5 3 5 5 5 5 3 5 5 3 5 5 5 5 5 5 5 5 3 5 5 3 5 5 5 5 5 5 5 5 5 5 5 5 5 5 5 5 5 5 5 5 5 5 5 5 3 5 5 5 5 5 5 5 5 5 5 5 5 5 3 5 5 3 5 5 5 3 5 5 5 3 3 5 5 5 5 5 5 3 5 5 5 5 3 3 3 3 5 5 5 3 5 5 3 5 5 5 3 5 5 5 5 5 5 5 5 3 5 5 3 5 5 5 5 5 5 3 5 5 5 5 5 3 5 5 5 5 5 5 5 5 5 5 5 5 5 5 5 5 5 3 5 5 5 5 5 5 5 3 5 5 5 5 5 5 5 5 5 5 5 5 5 3 5 5 5 5 5 5 5 5 5 5 3 5 5 3 5 5 5 3 5 3 5 3 5 5 5 5 5 5 5 3 5 3 5 3 5 5 3 5 3 5 5 3 3 5 5 3 3 5 5 5 5 5 5 5 5 5 5 5 5 5 5 5 3 3 5 5 5 3 3 3 5 5 5 5 5 5 3 5 3 3 5 5 5 5 3 5 5 5 3 5 5 5 3 5 3 5 5 5 3 5 5 5 5 5 5 5 5 5 5 5 5 5 5 5 3 3 5 5 5 5 3 5 5 3 5 5 3 5 5 5 5 5 5 3 5 5 5 3 5 3 5 5 3 5 5 5 5 3 5 5 3 3 5 5 5 5 5 5 5 5 5 3 5 5 5 5 5 5 5 3 3 5 5 3 5 5 5 5 3 5 5 5 5 5 3 5 5 5 5 3 5 5 5 3 5 5 5 5 5 5 5 3 5 5 5 5 3 5 5 5 5 3 5 5 5 5 5 5 5 5 5 5 5 5 5 5 5 5 5 5 3 5 3 5 5 5 5 5 5 5 5 5 5 5 3 5 5 5 5 5 5 5 5 5 5 5 5 5 5 5 5 3 5 3 5 5 3 3 5 5 5 5 5 5 5 3 5 3 3 5 3 5 5 5 5 3 5 3 5 3 3 3 5 5 3 5 5 5 3 5 5 5 5 5 5 5 5 5 5 5 5 3 5 5 5 5 5 5 5 5 5 5 5 5 5 5 5 5 3 5 3 3 5 5 5 5 3 5 5 5 5 5 5 5 5 5 5 5 5 5 5 5 5 5 5 5 5 5 5 5 5 5 5 5 5 5 5 5 5 5 5 5 5 5 5 5 5 5 5 5 5 3 5 5 5 5 5 3 5 3 5 5 5 3 5 5 5 5 5 3 5 5 5 5 5 3 5 3 5 5 3 5 5 3 5 5 5 5 5 5 5 5 5 5 5 5 5 5 3 5 3 5 5 5 5 5 5 5 5 5 5 3 5 5 5 5 5 5 5 5 5 5 5 5 5 5 5 5 5 5 5 5 5 5 5 5 5 5 5 5 5 5 5 5 5 5 5 5 5 5 5 5 5 5 5 5 5 5 5 5 5 5 5 5 5 5 5 5 5 5 5 5 5 5 5 5 5 5 5 5 5 5 5 5 3 3 3 5 3 5 5 5 5 3 5 5 5 5 5 5 3 5 5 5 5 5 5 5 3 5 5 5 5 3 5 3 5 5 5 5 5 5 5 5 5 5 5 5 5 5 5 5 5 5 5 5 3 5 3 5 3 5 5 5 3 5 3 5 5 5 5 3 5 5 5 3 5 5 5 5 5 5 3 5 5 5 5 5 5 5 5 5 5 5 5 3 5 5 3 5 5 3 5 5 5 5 3 5 5 3 5 5 3 5 3 5 5 5 3 5 3 5 5 3 3 5 5 3 5 5 3 3 5 5 3 5 3 5 5 5 3 5 3 5 5 3 5 5 5 5 5 5 5 5 5 5 5 5 5 5 5 5 5 5 5 5 5 3 5 5 5 5 5 5 5 3 5 5 5 5 5 5 5 5 5 5 5 5 5 5 5 5 5 5 5 5 5 3 5 5 3 5 5 5 5 5 5 5 5 3 5 5 5 5 3 3 5 5 3 5 3 5 5 5 5 3 5 5 5 3 5 5 5 5 3 5 5 5 5 5 3 3 5 3 3 5 5 3 5 3 5 5 5 5 5 3 5 5 5 5 5 3 5 3 5 3 5 5 3 5 3 5 5 5 5 3 5 5 5 5 5 3 5 3 5 5 5 5 5 5 5 5 5 5 5 3 5 3 5 5 5 5 5 5 5 5 5 3 5 5 5 5 5 3 5 5 5 5 3 5 5 3 3 5 5 3 5 5 5 5 5 5 5 5 5 5 5 3 5 5 5 5 5 5 5 5 5 5 5 5 3 5 5 5 5 5 3 5 5 5 5 5 5 5 3 5 5 5 5 5 5 5 5 3 5 5 5 5 3 5 5 5 5 5 5 3 5 5 5 5 3 5 5 5 3 3 3 5 5 5 5 5 5 5 5 5 5 3 5 3 5 5 3 5 5 5 5 5 5 5 3 5 5 3 5 3 5 5 5 5 5 5 5 3 5 5 5 3 5 5 5 5 5 5 5 5 5 5 5 5 3 5 5 5 5 5 5 5 5 5 5 5 5 5 5 5 5 5 5 5 5 5 5 5 5 5 5 5 3 3 5 5 3 5 5 5 5 5 3 5 5 5 3 5 5 5 5 5 5 5 5 5 3 5 5 5 5 5 5 5 5 5 5 5 5 5 5 3 5 5 5 5 5 5 5 5 5 5 5 5 3 5 5 5 5 5 5 5 3 5 5 5 5 5 5 5 5 5 5 5 5 5 5 5 5 5 5 5 5 5 5 5 5 5 5 5 5 5 5 5 5 5 5 5 5 5 5 5 5 5 5 5 5 5 5 5 5 5 5 3 5 5 5 3 5 3 5 5 5 5 5 5 5 5 3 5 5 5 5 5 5 5 5 3 3 5 5 5 5 5 5 5 5 5 5 3 3 3 5 5 5 3 5 5 5 5 3 5 5 5 5 5 5 5 5 5 5 5 5 3 5 5 5 5 5 5 5 5 3 3 5 5 3 5 5 5 5 5 5 5 5 5 5 5 5 5 3 5 5 5 5 5 3 5 5 5 5 3 5 5 5 5 3 5 5 3 5 5 5 3 5 5 5 5 5 5 5 5 3 5 5 5 3 5 5 5 3 3 5 5 3 5 5 3 5 5 3 5 3 5 5 5 5 5 5 5 5 5 5 5 5 3 5 5 5 5 5 5 5 5 3 5 5 3 5 5 5 5 3 5 5 5 5 5 5 5 5 5 3 5 5 5 5 5 5 5 5 3 5 5 5 3 5 5 5 3 5 5 5 3 5 5 5 5 5 5 5 5 5 5 5 3 5 5 5 3 5 5 5 5 5 5 5 3 5 5 5 5 5 3 5 5 5 3 5 5 5 5 5 5 5 5 5 5 5 5 3 5 5 3 5 3 5 5 5 5 5 5 5 5 5 5 3 3 5 5 5 5 5 3 5 3 3 5 3 5 3 5 5 5 5 5 5 5 5 5 5 5 5 5 5 5 5 5 5 5 5 5 5 3 5 5 5 5 5 5 5 5 3 5 5 5 5 3 5 5 5 5 5 5 5 5 5 3 5 3 5 5 5 5 5 5 5 5 5 5 5 5 3 5 5 5 5 5 5 5 5 5 3 5 3 5 5 3 5 5 3 5 5 3 5 5 5 5 3 5 5 5 5 5 5 5 5 5 5 5 5 5 5 5 5 5 5 5 5 5 3 5 5 3 5 5 3 3 5 5 5 5 3 5 5 3 5 5 5 5 5 5 5 3 5 5 5 5 5 5 3 5 5 5 3 5 3 3 5 5 5 5 5 5 5 3 5 5 5 5 5 5 5 3 5 5 5 5 5 5 5 5 5 5 5 5 5 5 5 5 3 5 5 5 5 3 5 5 5 5 5 5 5 5 5 5 5 5 5 5 5 5 5 5 3 3 3 5 3 5 3 5 5 5 5 3 5 5 5 5 5 5 5 3 5 5 5 5 5 5 5 3 5 5 3 5 5 5 5 5 5 5 5 3 5 5 5 3 5 5 5 5 5 3 5 5 3 5 5 5 5 3 5 5 3 5 3 5 5 5 5 5 5 5 5 5 5 5 5 3 5 5 5 5 5 3 5 5 5 5 5 5 5 3 5 5 5 3 5 5 5 5 3 5 5 5 3 5 5 5 5 5 3 5 5 5 5 5 5 5 5 5 5 5 5 3 5 5 5 5 5 5 3 5 5 3 5 3 5 5 3 5 5 5 5 5 5 5 5 5 5 5 5 5 5 3 5 5 3 5 3 5 5 5 5 5 3 5 5 5 5 5 5 5 5 5 5 5 5 5 5 5 5 5 5 5 5 5 5 3 3 5 5 5 5 5 5 3 5 5 3 5 5 5 5 3 5 3 5 3 3 5 5 5 5 5 3 5 5 3 5 5 5 5 5 3 5 3 5 5 3 5 3 5 5 5 5 5 5 5 5 5 5 5 5 5 5 5 5 5 5 5 5 5 5 5 5 5 5 5 5 5 5 5 5 5 5 5 5 5 3 5 3 5 3 5 5 5 3 5 5 5 5 5 5 3 5 5 5 5 5 5 5 5 5 5 5 5 5 5 5 5 5 5 5 5 3 5 5 5 5 5 5 5 5 5 5 5 5 5 3 3 5 5 5 5 5 5 5 5 5 5 5 3 5 5 5 3 5 5 5 5 5 5 5 5 5 5 5 5 5 5 5 5 5 5 5 3 5 3 5 5 5 5 5 5 5 5 5 5 5 5 5 3 5 5 5 5 5 5 5 5 5 5 3 5 5 3 5 5 5 5 5 5 5 5 5 5 5 5 5 5 5 5 5 5 5 5 5 5 5 5 3 5 5 5 5 5 5 5 5 5 5 5 5 5 5 5 5 5 5 5 5 5 5 5 5 5 3 5 5 5 5 3 5 5 5 5 5 5 3 5 5 5 5 5 5 5 5 5 5 3 5 5 5 5 5 3 5 5 3 5 5 5 5 5 5 5 5 5 5 5 5 5 5 3 5 5 5 5 3 5 3 5 5 3 3 5 5 3 5 5 3 5 5 5 5 5 5 5 5 5 5 5 5 5 5 5 5 3 5 5 5 5 3 5 5 5 3 5 5 5 3 5 5 5 5 5 5 5 3 5 5 5 3 5 5 5 5 5 5 5 5 5 5 5 5 5 5 5 5 5 5 5 5 5 5 5 5 5 5 5 5 3 5 5 5 5 5 5 5 5 5 5 5 3 5 5 5 5 3 5 5 5 5 5 5 5 5 5 5 5 3 5 5 5 5 5 5 5 5 5 5 5 5 5 5 5 5 5 5 5 5 5 5 5 5 5 5 5 5 5 5 5 5 5 5 5 5 5 5 5 3 5 3 5 5 5 5 5 3 5 5 5 3 5 5 5 5 5 3 5 5 5 5 5 5 5 5 5 3 5 5 5 3 5 5 5 5 5 5 5 5 5 5 5 5 5 5 5 5 5 5 5 5 5 5 5 5 5 5 5 5 5 5 5 5 5 5 5 5 3 5 5 5 5 5 5 5 5 3 5 5 5 5 5 5 5 5 5 5 5 5 5 3 5 5 5 5 5 5 3 5 5 5 5 5 5 5 5 5 5 5 5 5 3 5 5 5 5 5 5 5 5 5 5 5 5 5 5 5 5 5 5 5 5 5 5 3 5 5 5 5 5 5 5 5 5 5 3 3 5 5 5 5 5 5 5 5 5 5 5 5 5 5 5 5 5 3 3 5 5 5 5 5 5 3 5 5 5 5 5 5 5 5 5 5 5 5 5 3 5 5 5 5 5 5 5 5 5 5 5 5 5 5 5 5 5 5 5 5 5 5 5 5 5 5 5 3 5 5 3 5 5 5 5 5 5 5 5 5 5 5 5 5 5 5 5 5 3 5 3 5 5 5 5 5 5 5 5 5 5 5 3 3 5 5 5 3 3 5 5 5 5 3 5 5 3 5 5 5 5 5 5 5 5 5 5 5 5 5 5 5 5 5 5 5 5 5 5 5 5 5 5 5 5 5 5 5 5 5 5 5 5 5 5 5 5 5 5 5 5 5 5 5 5 5 5 5 5 5 5 5 5 5 5 3 5 5 5 5 5 5 5 5 5 5 5 5 3 5 5 3 5 5 3 5 5 5 5 5 3 5 5 5 5 3 5 5 5 5 5 5 5 5 5 5 5 5 5 5 3 5 5 5 5 5 3 3 5 5 5 5 3 5 5 5 5 5 3 5 5 5 5 5 5 5 5 5 5 5 5 5 5 5 5 5 5 5 5 5 5 5 5 5 5 5 5 5 5 5 5 5 5 5 5 5 5 5 5 5 5 5 5 5 5 5 5 5 5 5 5 5 5 5 5 5 5 5 3 5 5 5 5 5 5 5 5 5 5 5 5 5 5 5 5 5 5 5 3 5 5 5 5 3 5 5 3 3 5 5 5 5 5 5 5 5 5 5 5 5 5 5 5 5 5 5 5 5 5 5 5 3 5 3 5 5 5 5 5 5 5 5 5 5 5 5 5 5 5 3 5 5 5 5 5 5 5 5 5 5 5 3 5 5 5 5 5 5 5 5 5 5 5 5 5 5 5 5 3 5 5 3 5 5 5 5 5 3 5 5 5 3 5 5 3 5 5 5 5 5 5 5 5 5 5 5 5 5 5 5 5 5 5 5 5 3 5 5 5 5 5 3 5 5 5 3 5 5 5 5 3 3 3 5 5 5 5 5 3 5 3 5 5 5 3 3 5 5 5 3 5 5 5 3 5 3 5 5 5 5 5 5 5 5 5 5 5 5 5 5 5 5 5 5 5 5 5 5 5 3 5 3 5 5 5 5 5 5 5 5 5 5 5 5 5 5 5 5 5 5 5 5 5 5 5 5 5 5 5 5 5 5 5 5 5 3 5 3 5 5 5 5 5 5 5 5 5 5 5 5 5 5 5 5 5 5 5 5 5 5 3 5 5 5 5 5 5 3 5 5 5 5 5 5 5 5 3 5 5 5 5 5 5 5 5 5 5 5 5 5 5 3 5 5 5 5 3 5 5 5 5 5 5 5 5 5 5 5 5 5 5 3 5 5 5 5 5 5 5 5 5 3 5 5 5 5 5 3 5 5 5 5 5 5 5 5 5 5 3 5 3 5 5 5 5 3 5 5 5 5 5 5 5 5 5 5 5 5 5 5 5 5 5 5 3 5 5 5 3 5 5 5 5 5 3 3 5 5 3 5 5 5 5 5 3 5 5 5 5 5 3 5 5 5 5 5 5 5 5 5 5 5 5 5 5 5 5 5 5 3 5 5 5 5 5 5 3 5 5 5 5 5 5 5 5 5 5 5 5 5 5 5 5 5 5 5 5 5 5 5 5 5 5 5 5 5 5 5 3 5 5 5 5 5 5 5 5 5 5 5 5 5 5 5 5 5 5 3 5 5 5 5 5 5 5 5 5 5 5 5 5 5 3 5 5 5 5 5 5 5 5 5 5 3 5 5 3 3 5 5 3 5 5 5 5 5 5 3 5 5 5 5 3 5 5 5 3 3 5 5 5 3 3 5 5 3 3 5 3 5 5 3 5 5 3 5 5 3 5 5 3 5 5 5 5 3 3 5 5 5 5 5 3 5 5 5 3 5 3 5 5 3 3 5 5 5 5 5 5 5 3 5 5 5 5 5 5 5 5 5 5 5 5 5 5 3 5 5 5 5 3 5 5 5 5 3 5 5 5 5 3 5 5 5 5 5 5 5 3 5 5 5 3 5 5 5 3 5 5 5 5 5 5 5 3 5 5 3 5 5 3 5 5 5 5 5 5 5 5 3 5 3 5 5 5 3 5 5 5 5 5 5 5 5 5 3 5 5 5 3 5 5 5 3 5 5 3 5 5 5 5 5 3 5 5 5 5 5 5 5 5 5 5 5 5 5 5 5 5 5 5 5 5 5 3 5 5 5 5 3 5 3 5 3 5 5 5 5 5 5 5 5 5 5 5 5 5 5 5 5 5 5 5 5 5 5 5 5 5 5 5 5 5 5 5 5 3 5 5 5 5 5 5 5 5 5 5 5 3 5 5 5 5 5 5 5 5 5 5 5 3 5 5 5 5 5 5 5 5 5 5 5 5 5 5 5 3 5 5 5 5 5 3 5 5 3 5 5 5 5 5 5 5 5 5 5 5 5 5 5 5 5 5 5 5 5 5 5 5 5 5 5 5 5 5 5 5 5 5 5 5 5 5 5 5 5 5 5 5 5 5 5 5 3 5 5 5 5 5 5 5 5 5 5 5 5 5 5 5 5 5 5 5 5 5 5 5 3 5 5 5 5 5 5 5 3 5 5 5 5 5 5 5 5 3 5 5 5 5 5 5 5 3 5 5 3 5 5 5 5 5 3 5 5 5 5 5 5 5 5 5 3 5 5 5 5 5 5 5 5 5 5 5 5 5 5 5 5 5 5 5 5 5 5 5 5 5 5 5 5 5 5 5 3 5 5 3 5 5 3 5 3 5 5 3 5 5 5 3 5 5 3 5 5 5 3 5 5 5 5 5 5 5 5 5 5 5 5 5 5 3 5 3 5 5 5 5 5 5 5 5 5 5 5 5 5 3 5 5 5 5 5 5 3 5 5 5 5 5 5 5 5 5 5 5 5 5 5 5 5 5 3 5 5 5 3 5 5 5 5 5 5 5 5 5 5 5 5 5 5 5 5 5 5 5 5 5 5 5 5 5 5 3 5 5 5 5 5 3 5 3 5 5 3 5 5 5 3 5 3 5 5 3 5 5 5 5 3 5 5 5 3 5 3 5 5 5 3 5 3 5 5 5 5 3 5 5 3 5 3 5 5 3 5 5 5 3 3 5 5 5 5 5 3 3 5 5 5 5 5 3 3 3 5 5 3 5 5 5 3 5 5 5 5 3 5 5 3 5 5 5 5 5 5 5 5 3 5 3 5 5 5 5 5 5 5 5 5 5 5 5 3 5 5 5 5 5 5 5 5 5 5 5 5 5 5 5 5 5 5 5 5 5 5 5 5 5 5 5 3 3 5 5 3 3 3 5 5 5 5 5 3 5 3 5 5 5 5 5 3 5 5 5 5 5 5 5 5 3 5 5 5 5 5 5 5 5 5 5 3 5 5 3 5 5 5 5 5 5 3 5 5 5 3 5 5 3 5 5 3 3 5 5 3 5 5 5 5 5 5 5 5 5 5 5 5 5 5 5 5 5 3 5 5 5 5 5 5 3 5 5 3 5 5 3 5 5 5 5 5 5 5 5 5 5 5 5 5 5 5 5 5 3 3 5 5 5 5 3 5 5 5 5 3 5 5 5 5 3 5 5 5 5 5 5 5 3 5 3 5 5 3 5 5 3 5 5 5 5 5 5 5 5 5 5 5 5 5 5 5 5 5 5 5 5 5 5 5 5 3 5 5 5 5 5 5 5 3 5 5 3 5 3 5 3 5 5 5 5 5 5 5 5 5 5 5 5 5 5 5 5 5 5 5 5 5 5 5 5 3 5 5 5 5 5 5 5 5 5 5 5 5 5 3 5 3 5 5 5 5 5 5 5 5 5 5 5 5 5 5 5 5 5 5 5 3 5 3 3 5 5 5 3 5 5 5 3 5 5 5 3 5 5 5 5 5 5 5 5 5 5 5 5 3 3 3 5 5 5 5 5 5 5 3 5 5 5 5 5 5 3 5 5 5 5 5 5 5 3 5 5 5 5 3 5 5 5 5 5 5 5 3 3 5 5 5 5 5 5 3 5 5 5 5 5 5 5 5 5 5 3 5 5 5 5 5 5 3 5 5 5 5 5 5 5 5 5 5 5 5 5 5 5 5 5 5 5 5 5 5 3 5 5 5 5 3 3 5 5 5 3 5 5 3 5 5 5 5 5 5 5 5 5 5 5 5 5 5 5 5 5 5 5 5 5 5 3 5 5 5 5 3 5 5 5 5 5 5 5 3 5 5 5 5 5 5 5 3 5 5 5 3 5 5 5 5 5 5 5 5 5 5 5 5 5 5 5 5 5 5 5 5 5 5 3 3 5 5 5 3 3 5 5 3 3 3 5 5 5 5 5 5 5 5 5 5 5 5 5 5 5 5 5 5 5 5 3 3 5 5 3 5 5 3 5 5 5 5 5 5 5 3 5 5 5 5 5 5 5 5 5 5 5 5 5 5 5 5 5 5 5 5 5 5 3 5 5 5 3 5 5 5 3 5 5 5 3 5 5 5 5 5 5 5 5 5 5 5 5 5 5 5 5 5 5 5 5 5 3 5 5 5 5 5 5 5 5 5 3 5 3 5 3 5 5 5 5 5 5 5 5 5 5 5 3 5 5 5 5 3 5 3 5 3 5 5 5 3 5 5 5 3 5 5 5 5 5 3 5 5 5 5 3 5 5 5 5 5 5 5 3 5 3 5 5 5 5 3 5 5 5 5 3 5 5 5 5 5 5 5 5 5 3 5 5 5 5 3 5 5 5 5 5 3 3 3 5 5 5 5 5 3 5 3 5 5 5 5 5 3 5 3 5 5 5 3 5 5 5 3 5 5 5 3 5 3 5 5 3 5 3 5 5 5 5 5 5 3 5 5 5 5 3 5 5 5 5 5 5 3 5 3 5 5 3 5 5 5 5 5 5 5 5 3 5 5 3 5 5 5 5 5 3 5 5 5 5 5 5 5 5 5 5 5 5 5 5 3 5 3 5 5 3 5 5 5 5 5 5 5 3 5 5 5 5 3 5 5 5 5 5 5 5 5 5 5 3 5 5 5 3 5 5 5 5 5 5 5 3 5 3 5 5 5 5 5 5 3 5 3 5 5 5 5 3 5 5 3 5 5 5 5 5 5 5 3 5 5 5 5 5 3 5 3 5 5 5 5 5 5 5 5 5 5 5 5 5 5 5 5 5 5 5 5 5 5 3 3 3 5 3 5 5 3 5 5 3 5 5 5 5 5 5 5 3 5 5 5 5 5 5 5 5 5 5 5 3 5 5 3 3 5 5 5 3 5 5 5 5 5 5 5 3 5 5 5 5 5 5 5 5 5 5 5 5 5 5 5 5 5 5 5 5 5 5 5 5 5 5 5 5 5 5 5 5 5 5 5 5 5 5 5 5 5 5 3 5 5 5 5 3 5 5 5 5 5 5 5 5 5 5 5 5 5 5 5 5 5 5 5 3 5 3 5 5 3 5 5 5 5 5 5 5 3 5 5 5 5 5 5 5 5 5 3 3 5 5 3 5 3 5 5 5 5 5 5 5 5 5 5 3 5 5 5 5 5 5 5 5 5 5 5 5 5 5 5 5 5 5 5 5 3 5 5 5 5 5 5 3 5 5 5 3 5 5 5 5 5 5 5 5 5 3 3 5 5 5 5 5 5 5 3 5 5 5 3 5 3 5 5 5 5 5 5 5 5 5 5 5 5 5 5 5 3 5 5 5 3 5 5 5 5 5 5 5 5 5 5 5 5 5 3 5 3 5 5 5 5 5 5 5 5 5 5 5 5 5 5 5 5 5 3 5 5 5 5 5 5 5 5 5 5 5 5 5 5 5 5 5 5 5 5 5 5 5 5 5 5 5 5 5 5 5 5 5 5 5 5 5 5 5 5 5 5 5 5 5 5 5 5 5 5 5 5 5 5 5 5 5 5 5 5 5 3 5 5 3 5 5 5 5 5 5 5 3 5 5 5 5 5 5 5 5 5 5 5 5 5 5 5 5 5 5 3 5 5 5 5 5 5 5 3 5 5 5 5 5 5 3 5 5 5 5 3 5 5 3 3 5 5 5 5 5 5 5 5 5 5 5 3 5 5 5 5 5 5 5 5 3 5 5 5 5 5 5 5 5 5 3 5 5 5 5 5 5 5 3 5 5 5 5 3 5 5 5 5 3 5 5 3 3 5 5 5 5 5 3 5 5 5 3 5 5 5 5 5 3 5 3 5 5 5 5 5 5 3 5 5 5 3 5 5 5 3 5 5 5 5 5 5 5 3 5 5 5 3 5 5 5 5 5 5 5 5 5 5 5 5 5 5 5 5 3 5 5 5 5 3 5 5 5 3 5 3 5 3 5 3 5 5 3 5 3 5 3 5 5 5 5 5 5 5 5 5 5 5 5 5 5 5 5 5 5 5 5 5 5 5 5 5 5 5 3 5 3 5 5 5 3 5 5 5 5 5 5 5 5 5 3 3 3 5 5 3 5 5 3 5 3 5 5 5 5 5 5 5 3 5 5 5 5 5 5 3 3 5 5 3 5 5 3 5 3 5 3 3 5 5 5 5 5 3 3 5 5 5 3 5 5 5 5 5 3 5 5 5 5 5 5 5 5 5 5 5 5 5 5 3 5 5 3 5 5 3 5 5 3 5 5 5 5 5 3 5 5 5 3 5 5 5 3 5 5 5 3 3 5 5 3 5 5 5 5 5 5 3 5 5 5 5 5 3 5 5 5 5 5 5 5 5 5 5 5 5 5 5 5 5 5 5 5 5 5 3 5 5 5 5 5 5 3 3 3 5 3 5 3 5 5 5 5 5 5 5 5 5 3 5 5 5 5 5 3 5 5 5 3 5 5 5 5 3 5 5 3 5 5 5 5 5 5 5 5 5 5 5 5 5 5 5 5 5 5 5 5 5 5 5 5 5 5 5 5 5 5 5 5 5 3 3 3 5 3 5 5 5 3 5 5 5 5 5 5 5 3 5 5 5 5 5 5 5 5 5 5 5 5 5 5 5 5 5 5 5 5 5 5 5 5 5 5 5 5 5 5 5 5 5 5 5 3 5 5 5 3 5 5 5 5 5 5 5 5 5 5 5 5 3 5 5 5 5 3 5 5 5 5 5 3 5 5 5 5 5 3 5 5 5 3 5 3 5 5 5 3 3 5 3 3 5 3 5 5 5 5 5 3 5 3 5 5 5 5 5 5 3 5 5 5 5 3 5 5 5 3 5 5 5 5 5 3 5 5 5 3 5 5 5 5 5 3 5 5 5 5 5 3 5 5 5 5 5 5 5 5 5 5 3 3 5 5 5 5 5 5 5 5 5 3 5 5 5 5 5 5 5 5 5 5 5 5 5 3 5 3 5 5 5 5 5 5 5 5 5 5 5 5 5 5 3 5 5 5 5 5 3 5 5 5 5 5 5 5 5 5 5 5 5 5 5 5 5 5 3 5 5 5 5 5 5 5 5 5 5 5 3 5 5 5 5 5 5 3 5 5 3 5 5 5 5 5 5 5 5 5 5 5 3 5 5 5 5 5 3 5 5 5 5 5 5 5 5 5 5 5 5 5 5 5 5 5 5 5 5 5 5 5 5 5 5 5 5 5 5 5 5 5 5 5 5 5 5 5 5 5 5 5 5 5 5 5 5 5 5 5 5 5 5 5 5 5 5 5 5 5 5 5 5 5 5 5 5 5 5 5 5 5 3 5 5 3 5 5 5 3 5 5 5 5 5 5 5 5 5 5 5 5 5 5 5 5 5 5 3 5 3 5 3 5 5 5 3 5 5 5 3 5 3 3 5 5 5 3 5 5 3 5 5 5 5 5 5 5 5 5 5 3 5 5 5 5 5 5 5 5 5 5 5 5 3 5 5 3 5 5 5 5 5 5 5 5 3 5 5 5 5 5 5 5 3 5 5 3 5 5 5 5 5 5 5 5 5 5 5 5 5 5 3 5 5 5 5 5 5 5 5 3 5 5 5 5 5 5 3 5 5 5 3 5 5 5 5 5 5 3 5 5 5 5 5 5 5 5 3 5 5 5 5 5 5 5 5 5 5 5 5 5 5 5 5 5 3 5 5 3 5 5 5 5 5 5 5 5 3 5 5 5 5 3 5 5 5 5 5 3 5 5 5 5 5 5 5 5 5 5 5 5 3 5 5 5 5 5 5 5 5 5 3 5 5 5 5 5 5 5 5 5 5 5 5 5 5 5 5 5 5 5 5 5 5 5 5 5 5 5 5 5 3 5 5 5 5 5 5 3 3 3 5 5 5 5 3 5 5 5 3 5 5 5 5 5 5 5 5 5 5 5 5 5 5 5 5 5 5 5 5 5 5 5 3 5 5 5 3 5 5 5 5 5 5 5 5 5 5 5 5 5 5 3 5 5 5 5 5 5 3 5 3 5 5 5 5 3 5 5 3 5 5 3 5 5 5 5 5 5 5 5 3 5 3 3 5 5 5 5 5 5 5 5 5 5 5 3 5 5 5 5 5 5 5 5 5 5 5 5 3 5 5 5 3 5 5 5 5 5 5 5 5 5 5 5 5 5 5 5 5 5 5 3 5 5 5 5 3 3 3 5 5 5 5 5 5 5 3 5 5 5 5 5 5 5 5 5 5 5 5 5 3 5 5 5 5 5 5 5 5 5 5 5 5 5 5 3 5 5 5 5 5 5 5 5 5 5 5 5 5 3 5 5 5 3 5 5 3 5 5 5 3 5 5 5 5 5 5 5 5 5 5 5 5 5 5 5 3 5 5 3 5 5 5 5 5 5 5 5 5 5 5 5 5 5 5 5 5 5 3 5 5 5 5 5 5 5 5 5 5 3 5 5 5 5 5 5 5 5 3 5 5 5 5 5 5 5 5 3 5 5 3 5 3 5 3 5 5 5 5 5 5 3 5 5 5 5 5 5 5 5 5 5 5 5 5 5 5 5 5 5 5 5 5 3 5 5 5 5 3 5 5 5 5 5 5 5 5 5 5 3 5 5 5 5 5 5 5 5 5 5 5 5 5 5 5 5 5 5 5 5 5 5 5 3 5 5 5 5 5 3 5 5 5 5 5 3 5 3 5 5 5 5 5 5 5 5 3 5 5 5 5 3 5 5 5 3 5 5 5 5 3 5 5 3 5 5 5 5 5 5 5 5 5 5 5 5 5 5 5 5 5 5 5 3 5 3 5 5 5 3 5 5 5 5 5 5 5 5 3 5 5 5 5 3 5 5 5 5 3 5 5 5 3 3 5 5 5 5 5 5 5 5 5 3 5 5 5 5 5 5 5 5 5 5 5 5 5 5 5 5 5 5 5 5 5 5 5 5 5 5 5 5 5 5 5 5 5 5 5 5 5 5 5 5 5 5 5 5 5 5 5 5 3 5 5 5 5 3 3 5 5 5 5 5 3 5 5 5 5 5 5 3 5 3 5 5 5 5 5 5 3 5 3 5 5 3 3 5 3 5 5 5 3 5 5 3 5 5 5 5 5 5 5 3 5 5 5 5 5 5 5 5 5 5 5 5 5 5 3 5 5 5 5 3 5 5 5 5 5 5 5 5 5 5 3 5 5 5 5 3 3 5 3 5 5 5 5 3 3 5 5 5 5 5 5 3 5 3 5 5 3 5 3 5 3 5 5 5 5 5 3 3 5 5 3 5 3 3 5 3 5 5 3 3 3 5 3 5 5 3 5 5 5 5 5 3 5 5 5 5 5 5 5 5 5 5 5 5 5 5 5 5 5 3 5 5 5 5 5 3 5 5 5 5 5 5 5 5 5 5 5 5 5 5 5 5 3 5 5 5 5 5 3 5 5 5 5 5 5 5 3 3 5 5 5 5 5 5 3 3 3 5 5 5 5 5 5 5 5 3 5 5 3 5 5 5 5 5 5 5 5 5 3 5 5 5 5 5 5 5 5 5 5 3 5 3 5 5 5 5 5 5 5 5 5 5 3 5 5 5 5 5 5 5 5 5 5 5 3 5 5 5 5 5 5 5 5 5 5 5 5 5 5 5 5 5 5 5 5 5 3 5 5 3 3 5 5 5 5 5 5 5 5 3 5 5 5 3 5 5 5 5 5 5 3 5 3 5 5 5 5 5 5 5 5 3 5 5 5 5 5 5 5 5 5 5 5 5 3 5 5 5 3 5 3 5 5 5 5 5 5 5 5 5 5 3 5 5 5 5 3 5 5 5 5 5 5 5 5 3 5 5 3 5 5 5 3 5 5 3 5 3 5 5 5 5 5 5 5 5 5 5 3 5 5 5 5 5 3 5 3 5 5 5 5 3 5 5 5 5 3 5 5 5 5 3 5 5 5 5 5 5 5 5 5 5 5 5 5 5 5 5 3 5 5 3 5 5 5 5 3 5 5 5 5 3 5 5 5 5 3 5 5 5 5 5 3 5 5 3 3 5 5 3 5 5 5 5 5 5 5 3 5 5 5 5 5 5 5 5 5 5 5 5 5 5 5 3 5 5 5 5 5 3 5 5 5 5 3 5 5 5 3 5 5 5 5 5 3 5 5 5 3 5 5 3 5 5 3 5 3 5 3 5 5 5 5 5 5 5 5 5 5 5 5 5 5 5 5 5 5 5 5 5 5 5 5 5 5 5 5 5 5 5 5 5 5 5 5 3 5 3 5 5 5 5 5 3 5 5 5 3 5 5 5 5 5 5 5 5 5 5 5 5 5 5 5 5 5 5 5 5 5 5 5 5 5 3 5 5 5 3 5 5 5 5 5 5 5 3 5 5 5 5 5 5 5 5 3 5 5 5 5 5 5 5 5 3 5 5 5 5 3 5 5 5 5 5 3 5 3 5 5 5 5 5 5 5 5 5 5 5 5 5 3 5 5 3 3 5 3 5 5 5 5 5 5 5 5 5 5 5 5 5 5 5 3 5 5 5 5 5 5 5 5 5 5 5 5 5 5 5 3 5 5 5 5 3 5 5 5 3 5 3 5 5 5 5 5 5 5 5 5 5 5 5 5 5 5 5 5 5 5 5 5 5 5 5 5 5 5 5 5 3 5 5 5 5 5 3 5 5 5 5 5 3 3 3 5 5 5 5 5 3 5 5 3 5 5 5 5 5 5 5 3 5 5 5 5 5 5 5 5 3 5 5 3 5 3 5 5 5 5 5 5 3 5 5 5 5 3 5 5 5 5 5 5 5 5 5 5 5 5 5 5 5 5 5 3 3 5 5 5 5 5 5 5 5 5 5 5 5 3 5 3 5 5 3 5 5 5 5 3 5 5 3 5 5 5 3 5 5 3 3 5 5 5 5 5 5 5 5 5 5 3 5 5 5 5 5 5 5 3 5 5 5 5 3 5 3 5 5 3 5 5 5 5 5 5 3 5 5 5 5 5 3 5 5 3 5 5 5 5 5 5 5 5 5 5 5 5 5 5 5 5 5 5 5 5 5 5 5 5 5 5 5 3 5 3 5 5 5 5 5 5 5 5 5 3 5 5 3 5 5 5 5 5 5 5 5 3 5 5 5 5 5 5 3 5 5 5 3 5 5 5 5 5 5 5 5 3 3 5 5 5 5 5 5 5 5 5 5 5 5 5 5 3 5 5 5 5 5 5 5 5 5 5 5 5 5 5 5 5 5 5 5 5 5 5 5 5 5 5 3 5 5 5 5 5 3 5 5 3 5 5 5 5 5 5 5 5 3 5 5 3 5 5 5 5 5 5 5 5 3 5 5 5 5 5 5 5 5 5 3 5 3 5 5 5 5 5 5 5 5 5 5 5 5 5 5 5 5 5 5 5 3 5 5 5 3 5 5 5 5 5 5 5 5 5 5 5 5 3 5 3 5 3 5 3 5 5 5 5 5 3 5 5 3 5 5 5 5 5 5 5 3 5 5 3 5 3 5 5 5 3 5 5 5 5 5 3 5 5 5 5 5 5 5 5 5 5 5 5 5 5 5 5 5 5 5 5 5 5 5 5 5 5 5 5 5 5 5 5 5 5 5 5 5 5 5 5 5 5 5 5 5 5 5 5 5 5 5 5 5 5 5 5 5 5 5 5 3 5 5 5 5 5 5 5 3 5 5 5 5 3 5 5 5 5 3 5 5 5 5 5 3 5 5 5 5 5 5 5 5 5 5 5 5 5 5 5 5 5 5 5 3 5 5 5 5 5 5 5 5 5 5 5 5 3 5 5 5 5 3 3 5 5 3 5 5 5 5 5 5 5 5 5 5 5 3 5 5 5 3 5 5 5 5 5 5 5 5 5 5 5 5 5 5 5 5 5 5 5 5 5 5 5 5 5 5 5 5 5 5 5 5 5 5 5 3 5 5 5 5 5 5 5 5 3 5 5 5 5 5 5 5 5 5 5 3 5 5 3 5 5 5 5 5 3 5 5 5 5 5 5 5 5 5 5 5 3 3 5 5 5 5 5 5 5 5 5 5 5 5 5 5 5 5 5 5 5 5 5 5 5 5 
</DataArray>
</Cells>
<PointData Scalars="" Vectors="displacement," Tensors="">
<DataArray type="Float64" Name="displacement" NumberOfComponents="3" format="ascii">
0.024998891761790785 0.024998339468313004 0 0.024466981268218654 0.024004961524566007 0 0.023234288110574559 0.024759260805311083 0 0.024998891761790785 0.024998339468313004 0 0.023234288110574559 0.024759260805311083 0 0.020507379273742514 0.024997806666250223 0 0.024998891761790785 0.024998339468313004 0 0.024466981268218654 0.024004961524566007 0 0.024997699949085773 0.021849228850444432 0 0.024466981268218654 0.024004961524566007 0 0.024707427895825178 0.022959113483375763 0 0.024997699949085773 0.021849228850444432 0 0.024466981268218654 0.024004961524566007 0 0.024707427895825178 0.022959113483375763 0 0.023734258237175055 0.024358284142808866 0 0.023968112435159283 0.022289791051096863 0 0.022900241522829098 0.023482128902976223 0 0.022659673907074941 0.022084007718094947 0 0.023230916102174776 0.021622610428789137 0 0.022092313644759883 0.022633720206966679 0 0.023734258237175055 0.024358284142808866 0 0.023234288110574559 0.024759260805311083 0 0.02209637703211188 0.025045716771433121 0 0.024466981268218654 0.024004961524566007 0 0.023734258237175055 0.024358284142808866 0 0.023234288110574559 0.024759260805311083 0 0.023234288110574559 0.024759260805311083 0 0.020507379273742514 0.024997806666250223 0 0.02209637703211188 0.025045716771433121 0 0.020676612672884353 0.024883255092408383 0 0.021622462069768745 0.024409012762874698 0 0.020500078634253138 0.024999392688071335 0 0.021146575887509952 0.023795954545349548 0 0.020804955194279599 0.024176048698742066 0 0.020804955194279599 0.024176048698742066 0 0.020176319571283817 0.024382789224961947 0 0.019017030440146618 0.025152201543826726 0 0.020078100275949903 0.024998707772685671 0 0.020804955194279599 0.024176048698742066 0 0.019017030440146618 0.025152201543826726 0 0.020500078634253138 0.024999392688071335 0 0.020078100275949903 0.024998707772685671 0 0.020804955194279599 0.024176048698742066 0 0.020804955194279599 0.024176048698742066 0 0.021840118314220974 0.022916740052430697 0 0.020176319571283817 0.024382789224961947 0 0.021840118314220974 0.022916740052430697 0 0.021995174216611974 0.022024322756559911 0 0.022216518193343814 0.022208104497832837 0 0.021566082509009311 0.022953379569931764 0 0.021195089895362382 0.023080876453928201 0 0.022092313644759883 0.022633720206966679 0 0.021146575887509952 0.023795954545349548 0 0.021863797909856351 0.022890046305663131 0 0.022900241522829098 0.023482128902976223 0 0.021622462069768745 0.024409012762874698 0 0.020804955194279599 0.024176048698742066 0 0.021840118314220974 0.022916740052430697 0 0.021863797909856351 0.022890046305663131 0 0.021146575887509952 0.023795954545349548 0 0.020804955194279599 0.024176048698742066 0 0.021863797909856351 0.022890046305663131 0 0.021840118314220974 0.022916740052430697 0 0.021863797909856351 0.022890046305663131 0 0.022444508409412974 0.022197943252437274 0 0.022659673907074941 0.022084007718094947 0 0.022092313644759883 0.022633720206966679 0 0.021863797909856351 0.022890046305663131 0 0.022659673907074941 0.022084007718094947 0 0.021863797909856351 0.022890046305663131 0 0.022703845257716935 0.022026059529953367 0 0.021863797909856351 0.022890046305663131 0 0.022703845257716935 0.022026059529953367 0 0.022444508409412974 0.022197943252437274 0 0.022703845257716935 0.022026059529953367 0 0.022444508409412974 0.022197943252437274 0 0.023222582774178824 0.021622264952545864 0 0.022444508409412974 0.022197943252437274 0 0.023222582774178824 0.021622264952545864 0 0.022659875888784552 0.02211951628541799 0 0.023222582774178824 0.021622264952545864 0 0.023905521865589877 0.020970399651174049 0 0.023297134823131088 0.021580932519874453 0 0.022703845257716935 0.022026059529953367 0 0.023222582774178824 0.021622264952545864 0 0.023297134823131088 0.021580932519874453 0 0.022444508409412974 0.022197943252437274 0 0.022216518193343814 0.022208104497832837 0 0.022659875888784552 0.02211951628541799 0 0.021840118314220974 0.022916740052430697 0 0.022444508409412974 0.022197943252437274 0 0.022216518193343814 0.022208104497832837 0 0.022216518193343814 0.022208104497832837 0 0.02203819117275841 0.022501484303882865 0 0.02176151462211778 0.022287521504251818 0 0.022216518193343814 0.022208104497832837 0 0.022659875888784552 0.02211951628541799 0 0.02203819117275841 0.022501484303882865 0 0.022659875888784552 0.02211951628541799 0 0.02203819117275841 0.022501484303882865 0 0.02244910420288292 0.022540433017821992 0 0.02203819117275841 0.022501484303882865 0 0.02244910420288292 0.022540433017821992 0 0.02212038886109079 0.022951502986639071 0 0.022763494757856904 0.022040631246872684 0 0.023032845813928539 0.021752766757235663 0 0.022659875888784552 0.02211951628541799 0 0.02244910420288292 0.022540433017821992 0 0.022695337643553328 0.022616011736061346 0 0.02244910420288292 0.022540433017821992 0 0.022470906924954386 0.022794841170606754 0 0.022695337643553328 0.022616011736061346 0 0.02244910420288292 0.022540433017821992 0 0.022470906924954386 0.022794841170606754 0 0.02212038886109079 0.022951502986639071 0 0.023222582774178824 0.021622264952545864 0 0.023852201633744227 0.020936256973583194 0 0.023905521865589877 0.020970399651174049 0 0.023222582774178824 0.021622264952545864 0 0.022659875888784552 0.02211951628541799 0 0.023599861728490872 0.021291570260877347 0 0.023222582774178824 0.021622264952545864 0 0.023599861728490872 0.021291570260877347 0 0.023852201633744227 0.020936256973583194 0 0.023599861728490872 0.021291570260877347 0 0.023852201633744227 0.020936256973583194 0 0.024223639464833739 0.020468122053999668 0 0.022470906924954386 0.022794841170606754 0 0.022695337643553328 0.022616011736061346 0 0.022742367830726272 0.022826343211212758 0 0.023032845813928539 0.021752766757235663 0 0.023660855719799291 0.022313901393505392 0 0.023852201633744227 0.020936256973583194 0 0.024360349996442231 0.020148402864154983 0 0.024223639464833739 0.020468122053999668 0 0.023852201633744227 0.020936256973583194 0 0.024360349996442231 0.020148402864154983 0 0.023905521865589877 0.020970399651174049 0 0.024360349996442231 0.020148402864154983 0 0.024581755453560547 0.020322469097163589 0 0.024949288474372031 0.018915575924068586 0 0.023905521865589877 0.020970399651174049 0 0.024581755453560547 0.020322469097163589 0 0.02400092332959607 0.021202640932773027 0 0.024360349996442231 0.020148402864154983 0 0.023905521865589877 0.020970399651174049 0 0.024581755453560547 0.020322469097163589 0 0.024998566807323409 0.01945111863833569 0 0.024581755453560547 0.020322469097163589 0 0.024949288474372031 0.018915575924068586 0 0.024998566807323409 0.01945111863833569 0 0.024581755453560547 0.020322469097163589 0 0.0247201686474579 0.021193132135108379 0 0.024707427895825178 0.022959113483375763 0 0.024997699949085773 0.021849228850444432 0 0.0247201686474579 0.021193132135108379 0 0.024998566807323409 0.01945111863833569 0 0.024997699949085773 0.021849228850444432 0 0.0247201686474579 0.021193132135108379 0 0.024581755453560547 0.020322469097163589 0 0.0247201686474579 0.021193132135108379 0 0.02400092332959607 0.021202640932773027 0 0.023968112435159283 0.022289791051096863 0 0.024570558564736028 0.021367069515535641 0 0.023230916102174776 0.021622610428789137 0 0.023297134823131088 0.021580932519874453 0 0.02400092332959607 0.021202640932773027 0 0.023230916102174776 0.021622610428789137 0 0.0247201686474579 0.021193132135108379 0 0.02400092332959607 0.021202640932773027 0 0.022659673907074941 0.022084007718094947 0 0.023230916102174776 0.021622610428789137 0 0.023297134823131088 0.021580932519874453 0 0.022659673907074941 0.022084007718094947 0 0.022703845257716935 0.022026059529953367 0 0.023297134823131088 0.021580932519874453 0 0.023905521865589877 0.020970399651174049 0 0.023297134823131088 0.021580932519874453 0 0.02400092332959607 0.021202640932773027 0 0.01342976657420746 0.025396992049551318 0 0.01456595799832036 0.025779608933012288 0 0.016570920082858771 0.024999148506992797 0 0.01342976657420746 0.025396992049551318 0 0.016570920082858771 0.024999148506992797 0 0.012296952457681936 0.025000355147762766 0 0.012300882059354475 0.02610176780489417 0 0.012301820820915623 0.025799380778604126 0 0.011907006151699474 0.026057019649706581 0 0.012300882059354475 0.02610176780489417 0 0.01201816464302226 0.026143819391333794 0 0.011907006151699474 0.026057019649706581 0 0.012300882059354475 0.02610176780489417 0 0.012755323535583415 0.025903582589090382 0 0.012660047143348872 0.026347817136443068 0 0.012300882059354475 0.02610176780489417 0 0.012301820820915623 0.025799380778604126 0 0.012755323535583415 0.025903582589090382 0 0.012301820820915623 0.025799380778604126 0 0.012628339422136842 0.025540528498022002 0 0.012755323535583415 0.025903582589090382 0 0.012301820820915623 0.025799380778604126 0 0.011810083203464522 0.025723089087271708 0 0.011907006151699474 0.026057019649706581 0 0.012301820820915623 0.025799380778604126 0 0.012302034827198063 0.025446621648476636 0 0.012628339422136842 0.025540528498022002 0 0.012301820820915623 0.025799380778604126 0 0.012302034827198063 0.025446621648476636 0 0.011810083203464522 0.025723089087271708 0 0.012302034827198063 0.025446621648476636 0 0.012502695413903114 0.025192490861574306 0 0.012296079191083199 0.025000019504233528 0 0.013033305994516324 0.025295007387143777 0 0.012297439987934136 0.025000038524351641 0 0.013033305994516324 0.025295007387143777 0 0.013418184973123897 0.025568532902232998 0 0.012302034827198063 0.025446621648476636 0 0.012502695413903114 0.025192490861574306 0 0.012628339422136842 0.025540528498022002 0 0.012502695413903114 0.025192490861574306 0 0.012628339422136842 0.025540528498022002 0 0.012956241781837258 0.025302402781042704 0 0.012628339422136842 0.025540528498022002 0 0.012956241781837258 0.025302402781042704 0 0.012998814625811194 0.025621637849264772 0 0.01456595799832036 0.025779608933012288 0 0.015699755914688363 0.026175642892953124 0 0.016109173342099478 0.025376762977099256 0 0.012956241781837258 0.025302402781042704 0 0.012998814625811194 0.025621637849264772 0 0.013480333716585044 0.025449348432031244 0 0.013418184973123897 0.025568532902232998 0 0.01648691720740459 0.024938463536595408 0 0.013254261199577368 0.025850958995060989 0 0.012998814625811194 0.025621637849264772 0 0.013480333716585044 0.025449348432031244 0 0.016586567039597887 0.024197253941939292 0 0.01648691720740459 0.024938463536595408 0 0.012628339422136842 0.025540528498022002 0 0.012998814625811194 0.025621637849264772 0 0.012755323535583415 0.025903582589090382 0 0.013254261199577368 0.025850958995060989 0 0.012998814625811194 0.025621637849264772 0 0.012755323535583415 0.025903582589090382 0 0.012755323535583415 0.025903582589090382 0 0.013032480445265259 0.026245495545357336 0 0.012660047143348872 0.026347817136443068 0 0.013254261199577368 0.025850958995060989 0 0.012755323535583415 0.025903582589090382 0 0.013032480445265259 0.026245495545357336 0 0.019875793306461449 0.022731232060476142 0 0.01990942901493058 0.022555940089247117 0 0.019846946367436315 0.022525361582722246 0 0.016586567039597887 0.024197253941939292 0 0.016692789253484684 0.024243995932510844 0 0.020078100275949903 0.024998707772685671 0 0.016570920082858771 0.024999148506992797 0 0.019017030440146618 0.025152201543826726 0 0.019875793306461449 0.022731232060476142 0 0.019735341151423051 0.022701019166784478 0 0.019846946367436315 0.022525361582722246 0 0.019735341151423051 0.022701019166784478 0 0.019645967586622997 0.02255292192649893 0 0.019846946367436315 0.022525361582722246 0 0.020457564611396296 0.021867163526403017 0 0.019728090233924668 0.023755632748796465 0 0.019735341151423051 0.022701019166784478 0 0.019645967586622997 0.02255292192649893 0 0.019458122847782269 0.022797338113109838 0 0.019735341151423051 0.022701019166784478 0 0.019629625312016653 0.022859166505118982 0 0.019458122847782269 0.022797338113109838 0 0.018255166111515706 0.024707942705849247 0 0.019728090233924668 0.023755632748796465 0 0.019735341151423051 0.022701019166784478 0 0.019629625312016653 0.022859166505118982 0 0.019781039300766114 0.022923599065387833 0 0.019875793306461449 0.022731232060476142 0 0.019735341151423051 0.022701019166784478 0 0.019781039300766114 0.022923599065387833 0 0.015716517179908775 0.026097552982233478 0 0.016109173342099478 0.025376762977099256 0 0.016746476666423718 0.025641047000733261 0 0.01648691720740459 0.024938463536595408 0 0.01583883619726623 0.025889901457840141 0 0.016718514629849433 0.026470486588748999 0 0.015716517179908775 0.026097552982233478 0 0.016746476666423718 0.025641047000733261 0 0.018255166111515706 0.024707942705849247 0 0.01648691720740459 0.024938463536595408 0 0.01456595799832036 0.025779608933012288 0 0.016109173342099478 0.025376762977099256 0 0.016570920082858771 0.024999148506992797 0 0.016570920082858771 0.024999148506992797 0 0.016746476666423718 0.025641047000733261 0 0.019017030440146618 0.025152201543826726 0 0.016718514629849433 0.026470486588748999 0 0.016746476666423718 0.025641047000733261 0 0.019017030440146618 0.025152201543826726 0 0.016109173342099478 0.025376762977099256 0 0.016570920082858771 0.024999148506992797 0 0.016746476666423718 0.025641047000733261 0 0.01861219318494681 0.025967812945213005 0 0.019728090233924668 0.023755632748796465 0 0.016718514629849433 0.026470486588748999 0 0.019017030440146618 0.025152201543826726 0 0.018057410232526723 0.02680345276156668 0 0.020176319571283817 0.024382789224961947 0 0.019017030440146618 0.025152201543826726 0 0.019711326908923497 0.024738343279493098 0 0.021195089895362382 0.023080876453928201 0 0.019728090233924668 0.023755632748796465 0 0.020909509375804845 0.021868268176160187 0 0.021430299970470575 0.021566764355610175 0 0.021581218542441074 0.021969727671976597 0 0.021995174216611974 0.022024322756559911 0 0.022216518193343814 0.022208104497832837 0 0.021581218542441074 0.021969727671976597 0 0.021995174216611974 0.022024322756559911 0 0.021430299970470575 0.021566764355610175 0 0.021581218542441074 0.021969727671976597 0 0.022216518193343814 0.022208104497832837 0 0.021581218542441074 0.021969727671976597 0 0.02176151462211778 0.022287521504251818 0 0.020909509375804845 0.021868268176160187 0 0.021581218542441074 0.021969727671976597 0 0.021049815406557992 0.022276137711329407 0 0.021581218542441074 0.021969727671976597 0 0.02176151462211778 0.022287521504251818 0 0.021049815406557992 0.022276137711329407 0 0.02176151462211778 0.022287521504251818 0 0.021392238154006839 0.022537636569109391 0 0.021049815406557992 0.022276137711329407 0 0.02203819117275841 0.022501484303882865 0 0.02176151462211778 0.022287521504251818 0 0.021392238154006839 0.022537636569109391 0 0.02203819117275841 0.022501484303882865 0 0.021459712538905853 0.022918039319128052 0 0.021392238154006839 0.022537636569109391 0 0.02203819117275841 0.022501484303882865 0 0.02212038886109079 0.022951502986639071 0 0.021459712538905853 0.022918039319128052 0 0.021104404001299155 0.015980776407096255 0 0.019739895954656302 0.015680128470479417 0 0.020078073886281696 0.0090130752545631646 0 0.018030935375229918 0.0082832397683826782 0 0.018273757823500214 0.010004999652255734 0 0.021459712538905853 0.022918039319128052 0 0.021392238154006839 0.022537636569109391 0 0.020582884017569501 0.022828368847880809 0 0.019739895954656302 0.015680128470479417 0 0.018587062003612018 0.01470650855466139 0 0.018030935375229918 0.0082832397683826782 0 0.016383376173368359 0.007778225348704695 0 0.016262049271727912 0.0095063448639788484 0 0.016383376173368359 0.007778225348704695 0 0.014973809025456685 0.0086962352348702223 0 0.016262049271727912 0.0095063448639788484 0 0.016383376173368359 0.007778225348704695 0 0.014973484637471356 0.0073506341922938388 0 0.014973809025456685 0.0086962352348702223 0 0.020582884017569501 0.022828368847880809 0 0.019536277109621709 0.022487264671475493 0 0.019827464738901776 0.022463509329956218 0 0.018587062003612018 0.01470650855466139 0 0.015961324182519665 0.019517002804431884 0 0.020582884017569501 0.022828368847880809 0 0.019979165839620894 0.022375522867461074 0 0.019827464738901776 0.022463509329956218 0 0.021392238154006839 0.022537636569109391 0 0.020582884017569501 0.022828368847880809 0 0.021049815406557992 0.022276137711329407 0 0.020582884017569501 0.022828368847880809 0 0.019979165839620894 0.022375522867461074 0 0.021049815406557992 0.022276137711329407 0 0.020909509375804845 0.021868268176160187 0 0.019979165839620894 0.022375522867461074 0 0.021049815406557992 0.022276137711329407 0 0.020457564611396296 0.021867163526403017 0 0.019895748181845693 0.022554076952574158 0 0.019979165839620894 0.022375522867461074 0 0.019846946367436315 0.022525361582722246 0 0.019878104117497554 0.022430816477485054 0 0.019645967586622997 0.02255292192649893 0 0.019979165839620894 0.022375522867461074 0 0.019846946367436315 0.022525361582722246 0 0.019846946367436315 0.022525361582722246 0 0.019877443340321259 0.022470226123797444 0 0.019878104117497554 0.022430816477485054 0 0.01990942901493058 0.022555940089247117 0 0.019846946367436315 0.022525361582722246 0 0.019877443340321259 0.022470226123797444 0 0.016692789253484684 0.024243995932510844 0 0.013873460354240018 0.024869422874778724 0 0.01990942901493058 0.022555940089247117 0 0.019877443340321259 0.022470226123797444 0 0.019872539137500134 0.022474934385296789 0 0.013032480445265259 0.026245495545357336 0 0.012807929140236473 0.026676186653802857 0 0.012660047143348872 0.026347817136443068 0 0.013873460354240018 0.024869422874778724 0 0.015961324182519665 0.019517002804431884 0 0.010778394270309237 0.024877247782029727 0 0.010781226361704884 0.024842193808081916 0 0.010936670537477086 0.024784299163475697 0 0.019877443340321259 0.022470226123797444 0 0.019872539137500134 0.022474934385296789 0 0.019848864313011205 0.022440192345470653 0 0.011804947973107788 0.015915342927154658 0 0.015961324182519665 0.019517002804431884 0 0.019877443340321259 0.022470226123797444 0 0.019878104117497554 0.022430816477485054 0 0.019848864313011205 0.022440192345470653 0 0.019878104117497554 0.022430816477485054 0 0.019848864313011205 0.022440192345470653 0 0.019827464738901776 0.022463509329956218 0 0.019979165839620894 0.022375522867461074 0 0.019878104117497554 0.022430816477485054 0 0.019827464738901776 0.022463509329956218 0 0.015961324182519665 0.019517002804431884 0 0.018813523701612649 0.020316122592877545 0 0.014973484637471356 0.0073506341922938388 0 0.014973809025456685 0.0086962352348702223 0 0.014101794542254355 0.0083462302168570528 0 0.014101794542254355 0.0083462302168570528 0 0.013164013258149839 0.0085587093410285815 0 0.014012970431827919 0.0095804500067989944 0 0.014973809025456685 0.0086962352348702223 0 0.014101794542254355 0.0083462302168570528 0 0.014012970431827919 0.0095804500067989944 0 0.013650890833513563 0.0075024270690474898 0 0.014973484637471356 0.0073506341922938388 0 0.014101794542254355 0.0083462302168570528 0 0.013650890833513563 0.0075024270690474898 0 0.014101794542254355 0.0083462302168570528 0 0.013164013258149839 0.0085587093410285815 0 0.013650890833513563 0.0075024270690474898 0 0.013164013258149839 0.0085587093410285815 0 0.01247704359113515 0.0076342152044356001 0 0.011804947973107788 0.015915342927154658 0 0.010942726256128974 0.015480419535093793 0 0.013164013258149839 0.0085587093410285815 0 0.012343074428367672 0.0089450827452992755 0 0.01247704359113515 0.0076342152044356001 0 0.011080934181892354 0.024620211098299188 0 0.011102089116573564 0.024994177376673411 0 0.01137494658689665 0.025090587730681412 0 0.011102089116573564 0.024994177376673411 0 0.010921751737518028 0.025306075105086288 0 0.01137494658689665 0.025090587730681412 0 0.011102089116573564 0.024994177376673411 0 0.010943328651291665 0.02499661206828873 0 0.010921751737518028 0.025306075105086288 0 0.011080934181892354 0.024620211098299188 0 0.011102089116573564 0.024994177376673411 0 0.010964294856432702 0.024811965883792125 0 0.011102089116573564 0.024994177376673411 0 0.010943328651291665 0.02499661206828873 0 0.010964294856432702 0.024811965883792125 0 0.010942726256128974 0.015480419535093793 0 0.0087428075140302697 0.02125029047162437 0 0.010778394270309237 0.024877247782029727 0 0.010851647253678872 0.024960529335637638 0 0.010921751737518028 0.025306075105086288 0 0.010781226361704884 0.024842193808081916 0 0.011014986535236429 0.024715921531556554 0 0.010964294856432702 0.024811965883792125 0 0.010781226361704884 0.024842193808081916 0 0.010964294856432702 0.024811965883792125 0 0.010878262239008183 0.024892658759743523 0 0.010943328651291665 0.02499661206828873 0 0.010964294856432702 0.024811965883792125 0 0.010878262239008183 0.024892658759743523 0 0.010781226361704884 0.024842193808081916 0 0.010878262239008183 0.024892658759743523 0 0.010851647253678872 0.024960529335637638 0 0.010778394270309237 0.024877247782029727 0 0.010781226361704884 0.024842193808081916 0 0.010851647253678872 0.024960529335637638 0 0.010943328651291665 0.02499661206828873 0 0.010851647253678872 0.024960529335637638 0 0.010921751737518028 0.025306075105086288 0 0.010943328651291665 0.02499661206828873 0 0.010878262239008183 0.024892658759743523 0 0.010851647253678872 0.024960529335637638 0 0.012807929140236473 0.026676186653802857 0 0.012660047143348872 0.026347817136443068 0 0.012247058813789503 0.026491205680105774 0 0.013873460354240018 0.024869422874778724 0 0.011233664883726686 0.025923475713295622 0 0.012300882059354475 0.02610176780489417 0 0.012660047143348872 0.026347817136443068 0 0.012247058813789503 0.026491205680105774 0 0.011233664883726686 0.025923475713295622 0 0.011849629858850535 0.026056978063076545 0 0.012300882059354475 0.02610176780489417 0 0.01201816464302226 0.026143819391333794 0 0.012247058813789503 0.026491205680105774 0 0.01201816464302226 0.026143819391333794 0 0.012247058813789503 0.026491205680105774 0 0.01168398314687407 0.026038410309378895 0 0.010921751737518028 0.025306075105086288 0 0.011561137853747346 0.025459213822795472 0 0.01137494658689665 0.025090587730681412 0 0.011727625958392269 0.011180032599394187 0 0.012631250929751748 0.011389546377037065 0 0.012849410232614355 0.010607028137893579 0 0.011727625958392269 0.011180032599394187 0 0.012631250929751748 0.011389546377037065 0 0.011369229189723745 0.012220438497481906 0 0.012631250929751748 0.011389546377037065 0 0.012849410232614355 0.010607028137893579 0 0.013825332002608577 0.010693956849690777 0 0.013510544211020012 0.011298748237784656 0 0.013977466918807907 0.011477163833472684 0 0.013668788466478702 0.011404434910653344 0 0.01309573153462899 0.01141409628603475 0 0.013883150399527963 0.010889872296645304 0 0.012849410232614355 0.010607028137893579 0 0.012064718193437808 0.0099997523724203782 0 0.013113150964084217 0.0099551023426576318 0 0.012849410232614355 0.010607028137893579 0 0.013113150964084217 0.0099551023426576318 0 0.013825332002608577 0.010693956849690777 0 0.011679377708123679 0.010476491723822021 0 0.012064718193437808 0.0099997523724203782 0 0.011491606017138745 0.010067299831679956 0 0.011727625958392269 0.011180032599394187 0 0.012849410232614355 0.010607028137893579 0 0.012064718193437808 0.0099997523724203782 0 0.011687813270411771 0.010890547699054003 0 0.012031446498230056 0.010031723212911604 0 0.012572378748604065 0.0089217665694613733 0 0.011030140364850831 0.0085032847119523875 0 0.011207618764267077 0.0094331604541526438 0 0.012064718193437808 0.0099997523724203782 0 0.012572378748604065 0.0089217665694613733 0 0.011207618764267077 0.0094331604541526438 0 0.013164013258149839 0.0085587093410285815 0 0.012343074428367672 0.0089450827452992755 0 0.012873492197319245 0.0096418269644821409 0 0.012343074428367672 0.0089450827452992755 0 0.012873492197319245 0.0096418269644821409 0 0.011677338445001776 0.0096702235717737294 0 0.01267611168910145 0.0093023566073342952 0 0.011475152674495847 0.009041995726874405 0 0.01267611168910145 0.0093023566073342952 0 0.013907055034403348 0.0095192004180024072 0 0.013164013258149839 0.0085587093410285815 0 0.012873492197319245 0.0096418269644821409 0 0.014012970431827919 0.0095804500067989944 0 0.012572378748604065 0.0089217665694613733 0 0.013113150964084217 0.0099551023426576318 0 0.014012970431827919 0.0095804500067989944 0 0.012064718193437808 0.0099997523724203782 0 0.012572378748604065 0.0089217665694613733 0 0.013113150964084217 0.0099551023426576318 0 0.014012970431827919 0.0095804500067989944 0 0.014868620174362406 0.010472193351722177 0 0.013825332002608577 0.010693956849690777 0 0.013113150964084217 0.0099551023426576318 0 0.014012970431827919 0.0095804500067989944 0 0.013825332002608577 0.010693956849690777 0 0.014973809025456685 0.0086962352348702223 0 0.014012970431827919 0.0095804500067989944 0 0.015156845460915539 0.0096547683318298425 0 0.014012970431827919 0.0095804500067989944 0 0.015156845460915539 0.0096547683318298425 0 0.014868620174362406 0.010472193351722177 0 0.013871365631245346 0.011104875436795331 0 0.014584860378630929 0.011568284453076989 0 0.015091355037630873 0.011164729770595409 0 0.014803016531584482 0.010463291437711467 0 0.013883150399527963 0.010889872296645304 0 0.014868620174362406 0.010472193351722177 0 0.013871365631245346 0.011104875436795331 0 0.015091355037630873 0.011164729770595409 0 0.013871365631245346 0.011104875436795331 0 0.013977466918807907 0.011477163833472684 0 0.014584860378630929 0.011568284453076989 0 0.013510544211020012 0.011298748237784656 0 0.013871365631245346 0.011104875436795331 0 0.013977466918807907 0.011477163833472684 0 0.013977466918807907 0.011477163833472684 0 0.014584860378630929 0.011568284453076989 0 0.014466118423048031 0.011637565071113087 0 0.014171465371416026 0.011717582273691797 0 0.013795418143254757 0.012270283003438671 0 0.014584860378630929 0.011568284453076989 0 0.015794040483224428 0.011678434477483592 0 0.015091355037630873 0.011164729770595409 0 0.015865223390527816 0.012209870820209984 0 0.013795418143254757 0.012270283003438671 0 0.015675657497881225 0.012733056678667823 0 0.015759506808828753 0.013832545926153992 0 0.014405616413170386 0.01378356915529535 0 0.014584860378630929 0.011568284453076989 0 0.015794040483224428 0.011678434477483592 0 0.014689291686583247 0.012095071194624238 0 0.015675657497881225 0.012733056678667823 0 0.016858982670679229 0.01322540071637511 0 0.015759506808828753 0.013832545926153992 0 0.015675657497881225 0.012733056678667823 0 0.016858982670679229 0.01322540071637511 0 0.017035448811484322 0.01149445234658558 0 0.015794040483224428 0.011678434477483592 0 0.017035448811484322 0.01149445234658558 0 0.015670427973487337 0.010691559338857366 0 0.015865223390527816 0.012209870820209984 0 0.016923719899562702 0.011491891128141443 0 0.015794040483224428 0.011678434477483592 0 0.015091355037630873 0.011164729770595409 0 0.015670427973487337 0.010691559338857366 0 0.014868620174362406 0.010472193351722177 0 0.015091355037630873 0.011164729770595409 0 0.015670427973487337 0.010691559338857366 0 0.015156845460915539 0.0096547683318298425 0 0.015670427973487337 0.010691559338857366 0 0.016262049271727912 0.0095063448639788484 0 0.015156845460915539 0.0096547683318298425 0 0.014868620174362406 0.010472193351722177 0 0.015670427973487337 0.010691559338857366 0 0.014973809025456685 0.0086962352348702223 0 0.015156845460915539 0.0096547683318298425 0 0.016262049271727912 0.0095063448639788484 0 0.017035448811484322 0.01149445234658558 0 0.015670427973487337 0.010691559338857366 0 0.016262049271727912 0.0095063448639788484 0 0.017035448811484322 0.01149445234658558 0 0.018273757823500214 0.010004999652255734 0 0.018870740333816808 0.011414931207898269 0 0.017035448811484322 0.01149445234658558 0 0.016262049271727912 0.0095063448639788484 0 0.018273757823500214 0.010004999652255734 0 0.018030935375229918 0.0082832397683826782 0 0.016262049271727912 0.0095063448639788484 0 0.018273757823500214 0.010004999652255734 0 0.020078073886281696 0.0090130752545631646 0 0.018273757823500214 0.010004999652255734 0 0.019716298497606512 0.010272826272525749 0 0.018273757823500214 0.010004999652255734 0 0.018870740333816808 0.011414931207898269 0 0.019716298497606512 0.010272826272525749 0 0.018870740333816808 0.011414931207898269 0 0.018998779748513023 0.01240396488339173 0 0.019742492727111292 0.012213258163247049 0 0.018998779748513023 0.01240396488339173 0 0.019692613934813186 0.01284464895864568 0 0.019742492727111292 0.012213258163247049 0 0.018870740333816808 0.011414931207898269 0 0.018998779748513023 0.01240396488339173 0 0.01810951375292353 0.01252763208923083 0 0.016858982670679229 0.01322540071637511 0 0.017035448811484322 0.01149445234658558 0 0.01810951375292353 0.01252763208923083 0 0.017035448811484322 0.01149445234658558 0 0.018870740333816808 0.011414931207898269 0 0.01810951375292353 0.01252763208923083 0 0.016858982670679229 0.01322540071637511 0 0.01810951375292353 0.01252763208923083 0 0.018455497523234225 0.013926413496009161 0 0.019030854674155658 0.010061272901060181 0 0.020065436003729453 0.010050234091161573 0 0.020325408311992487 0.0094609080953591516 0 0.018998779748513023 0.01240396488339173 0 0.018455497523234225 0.013926413496009161 0 0.019692613934813186 0.01284464895864568 0 0.018455497523234225 0.013926413496009161 0 0.019692613934813186 0.01284464895864568 0 0.020235924448412601 0.013161266821893771 0 0.018773682698144695 0.011839564374486838 0 0.02032430064571903 0.012242568945345395 0 0.018998779748513023 0.01240396488339173 0 0.01810951375292353 0.01252763208923083 0 0.018455497523234225 0.013926413496009161 0 0.019030854674155658 0.010061272901060181 0 0.019625114651502403 0.010474897713398584 0 0.020065436003729453 0.010050234091161573 0 0.019030854674155658 0.010061272901060181 0 0.019625114651502403 0.010474897713398584 0 0.019251929480966348 0.011045945835166607 0 0.019625114651502403 0.010474897713398584 0 0.019251929480966348 0.011045945835166607 0 0.020156198939157773 0.01074018873197834 0 0.019030854674155658 0.010061272901060181 0 0.019251929480966348 0.011045945835166607 0 0.017632962746124074 0.010664795525257481 0 0.018773682698144695 0.011839564374486838 0 0.017144112402851058 0.012963333081844549 0 0.016858982670679229 0.01322540071637511 0 0.018455497523234225 0.013926413496009161 0 0.016572285883593451 0.014801296931512728 0 0.019251929480966348 0.011045945835166607 0 0.019404982415851531 0.011822896683214842 0 0.01837411536798696 0.011838041936253577 0 0.019251929480966348 0.011045945835166607 0 0.01837411536798696 0.011838041936253577 0 0.017632962746124074 0.010664795525257481 0 0.019251929480966348 0.011045945835166607 0 0.020156198939157773 0.01074018873197834 0 0.02031606252761602 0.01177251035238387 0 0.019251929480966348 0.011045945835166607 0 0.019404982415851531 0.011822896683214842 0 0.02031606252761602 0.01177251035238387 0 0.019404982415851531 0.011822896683214842 0 0.019637861601497008 0.012640562796907102 0 0.01837411536798696 0.011838041936253577 0 0.019404982415851531 0.011822896683214842 0 0.019637861601497008 0.012640562796907102 0 0.02031606252761602 0.01177251035238387 0 0.019637861601497008 0.012640562796907102 0 0.019844394670755772 0.01324497010551564 0 0.018254268738545125 0.013083160627395122 0 0.019637861601497008 0.012640562796907102 0 0.018254268738545125 0.013083160627395122 0 0.01837411536798696 0.011838041936253577 0 0.018254268738545125 0.013083160627395122 0 0.01837411536798696 0.011838041936253577 0 0.016837432885363938 0.011938871217462906 0 0.01837411536798696 0.011838041936253577 0 0.016837432885363938 0.011938871217462906 0 0.017408854406041646 0.011515960381471416 0 0.016498932507452387 0.011746699077679328 0 0.016573785534306048 0.01178710017266665 0 0.016510547527520153 0.011732031672470234 0 0.016498932507452387 0.011746699077679328 0 0.016573785534306048 0.01178710017266665 0 0.016837432885363938 0.011938871217462906 0 0.017208423092173356 0.01236563724803749 0 0.016924620955901866 0.011997404648595176 0 0.016573785534306048 0.01178710017266665 0 0.016725207851446291 0.012001487887413032 0 0.016381005494545773 0.011575008124939614 0 0.016573785534306048 0.01178710017266665 0 0.016725207851446291 0.012001487887413032 0 0.016837432885363938 0.011938871217462906 0 0.015941679282175644 0.010315977868515919 0 0.015506766744644674 0.010883481989723991 0 0.016381005494545773 0.011575008124939614 0 0.016355817573246528 0.010882285627293518 0 0.016400412292651736 0.011681462047676458 0 0.016725207851446291 0.012001487887413032 0 0.01644351046545544 0.011387272703807069 0 0.016869212373134931 0.011573968288881754 0 0.016355817573246528 0.010882285627293518 0 0.015055503307968154 0.011878887474088697 0 0.015941679282175644 0.010315977868515919 0 0.015711105448528044 0.0094067923665042061 0 0.015417985858386166 0.010215907519727395 0 0.016725207851446291 0.012001487887413032 0 0.016837432885363938 0.011938871217462906 0 0.016869212373134931 0.011573968288881754 0 0.016837432885363938 0.011938871217462906 0 0.016869212373134931 0.011573968288881754 0 0.017408854406041646 0.011515960381471416 0 0.015055503307968154 0.011878887474088697 0 0.017144112402851058 0.012963333081844549 0 0.01644351046545544 0.011387272703807069 0 0.016869212373134931 0.011573968288881754 0 0.017632962746124074 0.010664795525257481 0 0.014809999508431234 0.015672601990317829 0 0.016572285883593451 0.014801296931512728 0 0.015333094996849848 0.014597585264532555 0 0.01837411536798696 0.011838041936253577 0 0.017408854406041646 0.011515960381471416 0 0.017632962746124074 0.010664795525257481 0 0.016869212373134931 0.011573968288881754 0 0.017408854406041646 0.011515960381471416 0 0.017632962746124074 0.010664795525257481 0 0.016858982670679229 0.01322540071637511 0 0.016572285883593451 0.014801296931512728 0 0.015759506808828753 0.013832545926153992 0 0.015333094996849848 0.014597585264532555 0 0.015759506808828753 0.013832545926153992 0 0.014405616413170386 0.01378356915529535 0 0.016572285883593451 0.014801296931512728 0 0.015333094996849848 0.014597585264532555 0 0.015759506808828753 0.013832545926153992 0 0.014809999508431234 0.015672601990317829 0 0.015333094996849848 0.014597585264532555 0 0.014405616413170386 0.01378356915529535 0 0.015055503307968154 0.011878887474088697 0 0.013795418143254757 0.012270283003438671 0 0.013795418143254757 0.012270283003438671 0 0.0132144545561775 0.010978158442185174 0 0.012448518430031594 0.010906513353926416 0 0.012627561948014877 0.010739461912481867 0 0.012497703062632563 0.010719502731304849 0 0.012392610553285555 0.010644410391128099 0 0.012448518430031594 0.010906513353926416 0 0.012497703062632563 0.010719502731304849 0 0.013977466918807907 0.011477163833472684 0 0.014466118423048031 0.011637565071113087 0 0.013752996698778858 0.011518791275305074 0 0.013977466918807907 0.011477163833472684 0 0.013752996698778858 0.011518791275305074 0 0.013668788466478702 0.011404434910653344 0 0.012627561948014877 0.010739461912481867 0 0.01262977623578807 0.010584372787091153 0 0.012859176359259704 0.010574652172339691 0 0.012627561948014877 0.010739461912481867 0 0.01262977623578807 0.010584372787091153 0 0.012534296636248807 0.010636998374557066 0 0.012627561948014877 0.010739461912481867 0 0.012534296636248807 0.010636998374557066 0 0.012497703062632563 0.010719502731304849 0 0.01262977623578807 0.010584372787091153 0 0.012534296636248807 0.010636998374557066 0 0.012497498188786803 0.01056485250495948 0 0.012534296636248807 0.010636998374557066 0 0.012471624137716446 0.010644674000088858 0 0.012497498188786803 0.01056485250495948 0 0.012534296636248807 0.010636998374557066 0 0.012497703062632563 0.010719502731304849 0 0.012471624137716446 0.010644674000088858 0 0.012392610553285555 0.010644410391128099 0 0.012497703062632563 0.010719502731304849 0 0.012471624137716446 0.010644674000088858 0 0.012392610553285555 0.010644410391128099 0 0.012471624137716446 0.010644674000088858 0 0.012497498188786803 0.01056485250495948 0 0.015055503307968154 0.011878887474088697 0 0.01336150274109214 0.009950613896005019 0 0.015711105448528044 0.0094067923665042061 0 0.015168005329243695 0.0096869025828253425 0 0.015417985858386166 0.010215907519727395 0 0.01336150274109214 0.009950613896005019 0 0.013867594453049298 0.010052054596677927 0 0.015168005329243695 0.0096869025828253425 0 0.015417985858386166 0.010215907519727395 0 0.01494763191921801 0.010771242335775897 0 0.015941679282175644 0.010315977868515919 0 0.015417985858386166 0.010215907519727395 0 0.015506766744644674 0.010883481989723991 0 0.015417985858386166 0.010215907519727395 0 0.015506766744644674 0.010883481989723991 0 0.01494763191921801 0.010771242335775897 0 0.015506766744644674 0.010883481989723991 0 0.01494763191921801 0.010771242335775897 0 0.015156928719129499 0.011152812266175658 0 0.012664588182270337 0.0094539128398909138 0 0.012906237493854741 0.009697372123895617 0 0.012968627805104915 0.0094713489885477481 0 0.012664588182270337 0.0094539128398909138 0 0.012968627805104915 0.0094713489885477481 0 0.013055685759316314 0.0092157907535642541 0 0.01262977623578807 0.010584372787091153 0 0.012497498188786803 0.01056485250495948 0 0.012661700430394456 0.010394875477954495 0 0.012570244164549084 0.0098849481327687814 0 0.012664588182270337 0.0094539128398909138 0 0.012906237493854741 0.009697372123895617 0 0.01336150274109214 0.009950613896005019 0 0.012631650200713246 0.010115065590376913 0 0.01262977623578807 0.010584372787091153 0 0.012661700430394456 0.010394875477954495 0 0.012859176359259704 0.010574652172339691 0 0.012661700430394456 0.010394875477954495 0 0.012926926801700539 0.010125749712568917 0 0.012859176359259704 0.010574652172339691 0 0.012631650200713246 0.010115065590376913 0 0.013134863306808403 0.0097889490370665772 0 0.012906237493854741 0.009697372123895617 0 0.012968627805104915 0.0094713489885477481 0 0.01323428314971172 0.0095116527649160496 0 0.01323428314971172 0.0095116527649160496 0 0.013295042797159345 0.0092676377219104676 0 0.013055685759316314 0.0092157907535642541 0 0.012968627805104915 0.0094713489885477481 0 0.01323428314971172 0.0095116527649160496 0 0.013055685759316314 0.0092157907535642541 0 0.012926926801700539 0.010125749712568917 0 0.013345499193310602 0.010287283829079698 0 0.013469040448356501 0.0095401988752261795 0 0.013134863306808403 0.0097889490370665772 0 0.013451394437399152 0.0095671275654797688 0 0.01323428314971172 0.0095116527649160496 0 0.013295042797159345 0.0092676377219104676 0 0.013469040448356501 0.0095401988752261795 0 0.013345499193310602 0.010287283829079698 0 0.013463584533817189 0.010759952507501232 0 0.013380863018305475 0.011089166216484871 0 0.012926926801700539 0.010125749712568917 0 0.013345499193310602 0.010287283829079698 0 0.012859176359259704 0.010574652172339691 0 0.013386716649214104 0.010325150012129518 0 0.013147817463434717 0.010814999247855332 0 0.013463584533817189 0.010759952507501232 0 0.013507495146429955 0.011065124001326473 0 0.013380863018305475 0.011089166216484871 0 0.013507495146429955 0.011065124001326473 0 0.013380863018305475 0.011089166216484871 0 0.013491186878666123 0.011266588533764981 0 0.013752996698778858 0.011518791275305074 0 0.013380863018305475 0.011089166216484871 0 0.013491186878666123 0.011266588533764981 0 0.0132144545561775 0.010978158442185174 0 0.013147817463434717 0.010814999247855332 0 0.013752996698778858 0.011518791275305074 0 0.013668788466478702 0.011404434910653344 0 0.013491186878666123 0.011266588533764981 0 0.013510544211020012 0.011298748237784656 0 0.013668788466478702 0.011404434910653344 0 0.013491186878666123 0.011266588533764981 0 0.01309573153462899 0.01141409628603475 0 0.012194398484465803 0.011161103235747353 0 0.013510544211020012 0.011298748237784656 0 0.013491186878666123 0.011266588533764981 0 0.013580245832796978 0.011260460539840846 0 0.013507495146429955 0.011065124001326473 0 0.013491186878666123 0.011266588533764981 0 0.013580245832796978 0.011260460539840846 0 0.024998566807323409 0.01945111863833569 0 0.024998930537744043 0.01624699338615691 0 0.024949288474372031 0.018915575924068586 0 0.025201173038311271 0.014266605503948598 0 0.025366602154795768 0.014779627150275712 0 0.025088492850991125 0.013881116180792399 0 0.025030291983540547 0.016209074701056047 0 0.025075464074844622 0.016446600785824012 0 0.025201173038311271 0.014266605503948598 0 0.025046064926825481 0.013652620906885675 0 0.025088492850991125 0.013881116180792399 0 0.025201173038311271 0.014266605503948598 0 0.025046064926825481 0.013652620906885675 0 0.024933366438696293 0.0143843480403249 0 0.025201173038311271 0.014266605503948598 0 0.024933366438696293 0.0143843480403249 0 0.025275739557456597 0.0146467395758697 0 0.025201173038311271 0.014266605503948598 0 0.025275739557456597 0.0146467395758697 0 0.025366602154795768 0.014779627150275712 0 0.024998930537744043 0.01624699338615691 0 0.025085473837349919 0.017719149402808138 0 0.024949288474372031 0.018915575924068586 0 0.025275739557456597 0.0146467395758697 0 0.025299378144107182 0.015145885721120375 0 0.025366602154795768 0.014779627150275712 0 0.025299378144107182 0.015145885721120375 0 0.025000061809670623 0.016240484545784722 0 0.025366602154795768 0.014779627150275712 0 0.025299378144107182 0.015145885721120375 0 0.025000061809670623 0.016240484545784722 0 0.02499971477592184 0.015094979546014761 0 0.024999684021146849 0.016243101567649479 0 0.025030291983540547 0.016209074701056047 0 0.024360349996442231 0.020148402864154983 0 0.024949288474372031 0.018915575924068586 0 0.024850219801503416 0.019030903461862494 0 0.025085473837349919 0.017719149402808138 0 0.024949288474372031 0.018915575924068586 0 0.024850219801503416 0.019030903461862494 0 0.025046064926825481 0.013652620906885675 0 0.025088492850991125 0.013881116180792399 0 0.0251653541474742 0.013901748608925409 0 0.025075464074844622 0.016446600785824012 0 0.024035239500123144 0.01704711286276538 0 0.024360349996442231 0.020148402864154983 0 0.024850219801503416 0.019030903461862494 0 0.024577053185247812 0.019805171961139432 0 0.023660855719799291 0.022313901393505392 0 0.024035239500123144 0.01704711286276538 0 0.024360349996442231 0.020148402864154983 0 0.024223639464833739 0.020468122053999668 0 0.024577053185247812 0.019805171961139432 0 0.022470906924954386 0.022794841170606754 0 0.022742367830726272 0.022826343211212758 0 0.022601147972322037 0.022912143882095205 0 0.024035239500123144 0.01704711286276538 0 0.022335135325644885 0.016474911627227935 0 0.022742367830726272 0.022826343211212758 0 0.02280232235640885 0.022857440039205926 0 0.022601147972322037 0.022912143882095205 0 0.022872443648730822 0.011586339266321159 0 0.024462184458885202 0.01128656158235326 0 0.023909979517776216 0.012801169355766147 0 0.022872443648730822 0.011586339266321159 0 0.024462184458885202 0.01128656158235326 0 0.022287125539983351 0.010056357753301879 0 0.024806434027252744 0.01202239318012064 0 0.024035239500123144 0.01704711286276538 0 0.020078073886281696 0.0090130752545631646 0 0.019716298497606512 0.010272826272525749 0 0.022287125539983351 0.010056357753301879 0 0.022470906924954386 0.022794841170606754 0 0.02212038886109079 0.022951502986639071 0 0.022601147972322037 0.022912143882095205 0 0.021104404001299155 0.015980776407096255 0 0.022335135325644885 0.016474911627227935 0 0.022872443648730822 0.011586339266321159 0 0.022287125539983351 0.010056357753301879 0 0.020774497664710664 0.011324053064013087 0 0.022872443648730822 0.011586339266321159 0 0.020774497664710664 0.011324053064013087 0 0.022525572821898793 0.012833264375225306 0 0.018870740333816808 0.011414931207898269 0 0.019716298497606512 0.010272826272525749 0 0.020774497664710664 0.011324053064013087 0 0.019716298497606512 0.010272826272525749 0 0.022287125539983351 0.010056357753301879 0 0.020774497664710664 0.011324053064013087 0 0.018870740333816808 0.011414931207898269 0 0.020774497664710664 0.011324053064013087 0 0.019742492727111292 0.012213258163247049 0 0.020323209167005904 0.012830745769370712 0 0.019742492727111292 0.012213258163247049 0 0.020595878957295633 0.012351738724872739 0 0.019692613934813186 0.01284464895864568 0 0.020323209167005904 0.012830745769370712 0 0.019742492727111292 0.012213258163247049 0 0.020774497664710664 0.011324053064013087 0 0.019742492727111292 0.012213258163247049 0 0.020595878957295633 0.012351738724872739 0 0.020774497664710664 0.011324053064013087 0 0.020595878957295633 0.012351738724872739 0 0.021328762934077559 0.012638828855991747 0 0.020595878957295633 0.012351738724872739 0 0.020872683118384465 0.012930577967739167 0 0.021328762934077559 0.012638828855991747 0 0.020323209167005904 0.012830745769370712 0 0.020595878957295633 0.012351738724872739 0 0.020872683118384465 0.012930577967739167 0 0.020323209167005904 0.012830745769370712 0 0.020872683118384465 0.012930577967739167 0 0.020647030240128809 0.01339727833359429 0 0.020774497664710664 0.011324053064013087 0 0.021328762934077559 0.012638828855991747 0 0.022525572821898793 0.012833264375225306 0 0.020872683118384465 0.012930577967739167 0 0.021328762934077559 0.012638828855991747 0 0.021429338026206494 0.013471959308791651 0 0.021328762934077559 0.012638828855991747 0 0.022525572821898793 0.012833264375225306 0 0.021429338026206494 0.013471959308791651 0 0.022525572821898793 0.012833264375225306 0 0.021429338026206494 0.013471959308791651 0 0.022515189761685886 0.014572287353916932 0 0.020325408311992487 0.0094609080953591516 0 0.020601304035151011 0.010273494516839102 0 0.021486081753834992 0.0101878720623482 0 0.02032430064571903 0.012242568945345395 0 0.021954487279204585 0.012257476760357501 0 0.021429338026206494 0.013471959308791651 0 0.02042949112253523 0.013531220799813674 0 0.022515189761685886 0.014572287353916932 0 0.021429338026206494 0.013471959308791651 0 0.020647030240128809 0.01339727833359429 0 0.02042949112253523 0.013531220799813674 0 0.020872683118384465 0.012930577967739167 0 0.021429338026206494 0.013471959308791651 0 0.020647030240128809 0.01339727833359429 0 0.020323209167005904 0.012830745769370712 0 0.020647030240128809 0.01339727833359429 0 0.020408051243611211 0.013491391388848742 0 0.020294169382257938 0.01234403171180762 0 0.02032430064571903 0.012242568945345395 0 0.020065436003729453 0.010050234091161573 0 0.020325408311992487 0.0094609080953591516 0 0.020601304035151011 0.010273494516839102 0 0.019692613934813186 0.01284464895864568 0 0.020323209167005904 0.012830745769370712 0 0.020408051243611211 0.013491391388848742 0 0.020148865774119416 0.012641167689827487 0 0.02032430064571903 0.012242568945345395 0 0.025046064926825481 0.013652620906885675 0 0.023909979517776216 0.012801169355766147 0 0.023988045206428346 0.013987850403310641 0 0.025046064926825481 0.013652620906885675 0 0.024462184458885202 0.01128656158235326 0 0.023909979517776216 0.012801169355766147 0 0.022525572821898793 0.012833264375225306 0 0.023909979517776216 0.012801169355766147 0 0.023988045206428346 0.013987850403310641 0 0.022872443648730822 0.011586339266321159 0 0.022525572821898793 0.012833264375225306 0 0.023909979517776216 0.012801169355766147 0 0.022525572821898793 0.012833264375225306 0 0.023988045206428346 0.013987850403310641 0 0.022515189761685886 0.014572287353916932 0 0.024933366438696293 0.0143843480403249 0 0.023988045206428346 0.013987850403310641 0 0.024245007786053343 0.014933968955536739 0 0.025046064926825481 0.013652620906885675 0 0.024933366438696293 0.0143843480403249 0 0.023988045206428346 0.013987850403310641 0 0.024933366438696293 0.0143843480403249 0 0.024245007786053343 0.014933968955536739 0 0.025212782739767979 0.014665203602605583 0 0.023988045206428346 0.013987850403310641 0 0.024245007786053343 0.014933968955536739 0 0.022515189761685886 0.014572287353916932 0 0.023410934984478507 0.012945379691476647 0 0.021954487279204585 0.012257476760357501 0 0.02263835278244716 0.010988472570796657 0 0.021486081753834992 0.0101878720623482 0 0.021561596922407535 0.01164830446038166 0 0.02263835278244716 0.010988472570796657 0 0.021561596922407535 0.01164830446038166 0 0.022777666579581971 0.012487898787360053 0 0.02263835278244716 0.010988472570796657 0 0.022777666579581971 0.012487898787360053 0 0.023821008998460173 0.01191848042601232 0 0.023410934984478507 0.012945379691476647 0 0.024433768712270543 0.013278109202625177 0 0.019625114651502403 0.010474897713398584 0 0.020065436003729453 0.010050234091161573 0 0.020156198939157773 0.01074018873197834 0 0.020065436003729453 0.010050234091161573 0 0.020156198939157773 0.01074018873197834 0 0.020601304035151011 0.010273494516839102 0 0.020156198939157773 0.01074018873197834 0 0.020601304035151011 0.010273494516839102 0 0.020877292679279232 0.010954269681011335 0 0.020601304035151011 0.010273494516839102 0 0.021486081753834992 0.0101878720623482 0 0.020877292679279232 0.010954269681011335 0 0.021486081753834992 0.0101878720623482 0 0.020877292679279232 0.010954269681011335 0 0.021561596922407535 0.01164830446038166 0 0.020877292679279232 0.010954269681011335 0 0.021561596922407535 0.01164830446038166 0 0.02031606252761602 0.01177251035238387 0 0.020156198939157773 0.01074018873197834 0 0.020877292679279232 0.010954269681011335 0 0.02031606252761602 0.01177251035238387 0 0.019637861601497008 0.012640562796907102 0 0.02031606252761602 0.01177251035238387 0 0.020670997328296307 0.012809420766200445 0 0.02031606252761602 0.01177251035238387 0 0.021067082650402243 0.012260205629538867 0 0.020670997328296307 0.012809420766200445 0 0.021561596922407535 0.01164830446038166 0 0.02031606252761602 0.01177251035238387 0 0.021067082650402243 0.012260205629538867 0 0.021561596922407535 0.01164830446038166 0 0.021067082650402243 0.012260205629538867 0 0.021709297648713471 0.012784353014962686 0 0.021067082650402243 0.012260205629538867 0 0.020670997328296307 0.012809420766200445 0 0.021709297648713471 0.012784353014962686 0 0.020670997328296307 0.012809420766200445 0 0.021709297648713471 0.012784353014962686 0 0.021165144990014945 0.013324286077243714 0 0.021709297648713471 0.012784353014962686 0 0.021914399109431333 0.013591889007930954 0 0.021165144990014945 0.013324286077243714 0 0.020670997328296307 0.012809420766200445 0 0.021165144990014945 0.013324286077243714 0 0.020562100276719966 0.013557465492996782 0 0.019637861601497008 0.012640562796907102 0 0.019844394670755772 0.01324497010551564 0 0.020670997328296307 0.012809420766200445 0 0.019844394670755772 0.01324497010551564 0 0.020670997328296307 0.012809420766200445 0 0.020562100276719966 0.013557465492996782 0 0.021561596922407535 0.01164830446038166 0 0.022777666579581971 0.012487898787360053 0 0.021709297648713471 0.012784353014962686 0 0.021709297648713471 0.012784353014962686 0 0.022467779962881549 0.013177317568846204 0 0.021914399109431333 0.013591889007930954 0 0.022777666579581971 0.012487898787360053 0 0.021709297648713471 0.012784353014962686 0 0.022467779962881549 0.013177317568846204 0 0.022777666579581971 0.012487898787360053 0 0.022467779962881549 0.013177317568846204 0 0.023434669236947529 0.013468212644849311 0 0.022467779962881549 0.013177317568846204 0 0.023434669236947529 0.013468212644849311 0 0.022704785300311291 0.01367573002146957 0 0.023434669236947529 0.013468212644849311 0 0.024475139409031302 0.01358259357381985 0 0.023992844619705321 0.013918723840756198 0 0.023434669236947529 0.013468212644849311 0 0.024475139409031302 0.01358259357381985 0 0.023962117964743998 0.013066129561092502 0 0.024475139409031302 0.01358259357381985 0 0.025033680563194955 0.013705461184341898 0 0.024493164494705354 0.01380544875144097 0 0.024475139409031302 0.01358259357381985 0 0.023992844619705321 0.013918723840756198 0 0.024493164494705354 0.01380544875144097 0 0.024475139409031302 0.01358259357381985 0 0.024978363775595726 0.013594808154334309 0 0.023962117964743998 0.013066129561092502 0 0.022777666579581971 0.012487898787360053 0 0.023434669236947529 0.013468212644849311 0 0.023962117964743998 0.013066129561092502 0 0.024978363775595726 0.013594808154334309 0 0.023962117964743998 0.013066129561092502 0 0.023821008998460173 0.01191848042601232 0 0.022777666579581971 0.012487898787360053 0 0.023962117964743998 0.013066129561092502 0 0.023821008998460173 0.01191848042601232 0 0.024978363775595726 0.013594808154334309 0 0.025212782739767979 0.014665203602605583 0 0.025218078511076089 0.014527848479388625 0 0.024878611069330699 0.013522926976463637 0 0.024433768712270543 0.013278109202625177 0 0.025275739557456597 0.0146467395758697 0 0.025212782739767979 0.014665203602605583 0 0.025218078511076089 0.014527848479388625 0 0.024933366438696293 0.0143843480403249 0 0.025275739557456597 0.0146467395758697 0 0.025212782739767979 0.014665203602605583 0 0.025299378144107182 0.015145885721120375 0 0.02499971477592184 0.015094979546014761 0 0.025218078511076089 0.014527848479388625 0 0.025275739557456597 0.0146467395758697 0 0.025299378144107182 0.015145885721120375 0 0.025218078511076089 0.014527848479388625 0 0.024978363775595726 0.013594808154334309 0 0.025218078511076089 0.014527848479388625 0 0.025080007300515111 0.014041984682053234 0 0.02499971477592184 0.015094979546014761 0 0.025218078511076089 0.014527848479388625 0 0.025080007300515111 0.014041984682053234 0 0.02499971477592184 0.015094979546014761 0 0.025080007300515111 0.014041984682053234 0 0.024999325878027116 0.013947516443684025 0 0.025000097772583642 0.013946851351268495 0 0.025393742344538173 0.013363098216989121 0 0.025080007300515111 0.014041984682053234 0 0.024999325878027116 0.013947516443684025 0 0.025033680563194955 0.013705461184341898 0 0.024978363775595726 0.013594808154334309 0 0.025080007300515111 0.014041984682053234 0 0.025033680563194955 0.013705461184341898 0 0.025771071813118378 0.013014044074715096 0 0.026056118110351273 0.012517360359298759 0 0.026350354082408486 0.012275692210238151 0 0.024475139409031302 0.01358259357381985 0 0.024978363775595726 0.013594808154334309 0 0.025033680563194955 0.013705461184341898 0 0.025393742344538173 0.013363098216989121 0 0.025544386120710159 0.013145926557655636 0 0.025033680563194955 0.013705461184341898 0 0.024664356660569688 0.01396081120695134 0 0.024493164494705354 0.01380544875144097 0 0.025771071813118378 0.013014044074715096 0 0.025601843350661357 0.012525244978902117 0 0.026056118110351273 0.012517360359298759 0 0.024999965353186965 0.013946929174712928 0 0.025771071813118378 0.013014044074715096 0 0.025000064434019323 0.012506025908122793 0 0.025771071813118378 0.013014044074715096 0 0.025601843350661357 0.012525244978902117 0 0.025000064434019323 0.012506025908122793 0 0.025000064434019323 0.012506025908122793 0 0.025555401802455552 0.012045347203888479 0 0.024999658637898145 0.011064410988610272 0 0.025601843350661357 0.012525244978902117 0 0.025000064434019323 0.012506025908122793 0 0.025555401802455552 0.012045347203888479 0 0.025555401802455552 0.012045347203888479 0 0.026056118110351273 0.012517360359298759 0 0.025918810849781367 0.011915595205760894 0 0.026049717888502081 0.012509831930882113 0 0.02690669790224787 0.011600749538919855 0 0.026056118110351273 0.012517360359298759 0 0.025918810849781367 0.011915595205760894 0 0.026292950589388568 0.011650652829256362 0 0.025601843350661357 0.012525244978902117 0 0.025555401802455552 0.012045347203888479 0 0.026056118110351273 0.012517360359298759 0 0.026056118110351273 0.012517360359298759 0 0.026292950589388568 0.011650652829256362 0 0.026910015548861778 0.011530795537822628 0 0.026056118110351273 0.012517360359298759 0 0.026350354082408486 0.012275692210238151 0 0.02652170993639524 0.011871284280124588 0 0.025555401802455552 0.012045347203888479 0 0.025918810849781367 0.011915595205760894 0 0.025778520633762955 0.011442713400830532 0 0.025778520633762955 0.011442713400830532 0 0.026292950589388568 0.011650652829256362 0 0.026370722527035956 0.011051538930681991 0 0.025918810849781367 0.011915595205760894 0 0.025778520633762955 0.011442713400830532 0 0.026292950589388568 0.011650652829256362 0 0.026292950589388568 0.011650652829256362 0 0.026370722527035956 0.011051538930681991 0 0.026910015548861778 0.011530795537822628 0 0.025778520633762955 0.011442713400830532 0 0.026370722527035956 0.011051538930681991 0 0.025675847689872751 0.010767485636385793 0 0.025555401802455552 0.012045347203888479 0 0.025778520633762955 0.011442713400830532 0 0.024999658637898145 0.011064410988610272 0 0.025778520633762955 0.011442713400830532 0 0.024999658637898145 0.011064410988610272 0 0.025675847689872751 0.010767485636385793 0 0.023434669236947529 0.013468212644849311 0 0.023259495653224369 0.014013616206876198 0 0.023992844619705321 0.013918723840756198 0 0.023259495653224369 0.014013616206876198 0 0.023992844619705321 0.013918723840756198 0 0.023695415284226699 0.014291851559215732 0 0.023992844619705321 0.013918723840756198 0 0.024018683696567657 0.014209166754770037 0 0.023695415284226699 0.014291851559215732 0 0.023992844619705321 0.013918723840756198 0 0.024018683696567657 0.014209166754770037 0 0.024267010153978627 0.014050676994773163 0 0.024018683696567657 0.014209166754770037 0 0.024207057190947477 0.014241406097446709 0 0.024267010153978627 0.014050676994773163 0 0.023992844619705321 0.013918723840756198 0 0.024267010153978627 0.014050676994773163 0 0.024493164494705354 0.01380544875144097 0 0.024664356660569688 0.01396081120695134 0 0.024267010153978627 0.014050676994773163 0 0.024493164494705354 0.01380544875144097 0 0.024664356660569688 0.01396081120695134 0 0.024207057190947477 0.014241406097446709 0 0.024267010153978627 0.014050676994773163 0 0.024664356660569688 0.01396081120695134 0 0.024207057190947477 0.014241406097446709 0 0.024057461330896021 0.01459831736625947 0 0.025544386120710159 0.013145926557655636 0 0.025059097688521787 0.012854606430852135 0 0.026910015548861778 0.011530795537822628 0 0.026901998278267537 0.010835127541863327 0 0.027705281141423961 0.010500912915867192 0 0.02690669790224787 0.011600749538919855 0 0.02578523504987321 0.01093730484467942 0 0.02652170993639524 0.011871284280124588 0 0.026817734568090775 0.011652062527217764 0 0.026926792625758332 0.01128781275009624 0 0.026350354082408486 0.012275692210238151 0 0.02652170993639524 0.011871284280124588 0 0.026817734568090775 0.011652062527217764 0 0.026370722527035956 0.011051538930681991 0 0.026910015548861778 0.011530795537822628 0 0.026901998278267537 0.010835127541863327 0 0.024207057190947477 0.014241406097446709 0 0.024057461330896021 0.01459831736625947 0 0.023959822921630718 0.014438615267690103 0 0.024018683696567657 0.014209166754770037 0 0.024207057190947477 0.014241406097446709 0 0.023959822921630718 0.014438615267690103 0 0.024018683696567657 0.014209166754770037 0 0.023695415284226699 0.014291851559215732 0 0.023959822921630718 0.014438615267690103 0 0.023695415284226699 0.014291851559215732 0 0.023959822921630718 0.014438615267690103 0 0.023719971568808149 0.014573923794180816 0 0.024057461330896021 0.01459831736625947 0 0.023959822921630718 0.014438615267690103 0 0.023719971568808149 0.014573923794180816 0 0.025059097688521787 0.012854606430852135 0 0.023499809058187354 0.012956893353470582 0 0.024057461330896021 0.01459831736625947 0 0.023719971568808149 0.014573923794180816 0 0.023619137182008566 0.015101727425956352 0 0.025059097688521787 0.012854606430852135 0 0.024732308985324108 0.011677672228315221 0 0.023719971568808149 0.014573923794180816 0 0.023240593507310579 0.014486412162542274 0 0.023619137182008566 0.015101727425956352 0 0.023259495653224369 0.014013616206876198 0 0.023695415284226699 0.014291851559215732 0 0.023240593507310579 0.014486412162542274 0 0.023695415284226699 0.014291851559215732 0 0.023719971568808149 0.014573923794180816 0 0.023240593507310579 0.014486412162542274 0 0.022915110941146476 0.011281537324908733 0 0.022908671206947357 0.011361199592543197 0 0.022893123386343226 0.011357915015262621 0 0.023499809058187354 0.012956893353470582 0 0.022300073607991432 0.013132765492475803 0 0.022915110941146476 0.011281537324908733 0 0.022908671206947357 0.011361199592543197 0 0.02296055648637817 0.011254463910087036 0 0.024235158404457946 0.010314300574054283 0 0.024732308985324108 0.011677672228315221 0 0.026817734568090775 0.011652062527217764 0 0.026987714691567716 0.011300391224802663 0 0.026926792625758332 0.01128781275009624 0 0.024702213818677092 0.012634755379496749 0 0.024712740191586424 0.012605411882362607 0 0.024707719906994909 0.012604232534723855 0 0.024732308985324108 0.011677672228315221 0 0.02578523504987321 0.01093730484467942 0 0.023499809058187354 0.012956893353470582 0 0.024732308985324108 0.011677672228315221 0 0.025076630837274148 0.0090531051745125317 0 0.02475985765799428 0.0092146765843005001 0 0.024579914975007656 0.0089013302480147535 0 0.024782166098963328 0.010626302589253091 0 0.024578743294591605 0.011020291906730944 0 0.024504982981858311 0.011005995573752486 0 0.024235158404457946 0.010314300574054283 0 0.02578523504987321 0.01093730484467942 0 0.02578523504987321 0.01093730484467942 0 0.025657831571393886 0.009666729190875455 0 0.02475985765799428 0.0092146765843005001 0 0.024579914975007656 0.0089013302480147535 0 0.024632830792675142 0.0090520100559484916 0 0.026901998278267537 0.010835127541863327 0 0.027705281141423961 0.010500912915867192 0 0.026606769565343129 0.01025449440249916 0 0.026370722527035956 0.011051538930681991 0 0.026901998278267537 0.010835127541863327 0 0.026606769565343129 0.01025449440249916 0 0.024480326590954522 0.0090090402619613687 0 0.024579914975007656 0.0089013302480147535 0 0.023961883160404339 0.0074084855960773613 0 0.024480326590954522 0.0090090402619613687 0 0.024579914975007656 0.0089013302480147535 0 0.024632830792675142 0.0090520100559484916 0 0.024579914975007656 0.0089013302480147535 0 0.024927109469277283 0.0083146190455714829 0 0.023961883160404339 0.0074084855960773613 0 0.025076630837274148 0.0090531051745125317 0 0.024927109469277283 0.0083146190455714829 0 0.026012155134516327 0.0078203849753042017 0 0.025076630837274148 0.0090531051745125317 0 0.024579914975007656 0.0089013302480147535 0 0.024927109469277283 0.0083146190455714829 0 0.024999658637898145 0.011064410988610272 0 0.025294274398546885 0.0098934492864111451 0 0.024999741480275877 0.0096229318569849634 0 0.024999658637898145 0.011064410988610272 0 0.025294274398546885 0.0098934492864111451 0 0.025675847689872751 0.010767485636385793 0 0.025251130209448181 0.0098009265245859855 0 0.025657831571393886 0.009666729190875455 0 0.025294274398546885 0.0098934492864111451 0 0.025675847689872751 0.010767485636385793 0 0.026606769565343129 0.01025449440249916 0 0.025294274398546885 0.0098934492864111451 0 0.024632830792675142 0.0090520100559484916 0 0.025134679945476832 0.0093460024035033739 0 0.026370722527035956 0.011051538930681991 0 0.025675847689872751 0.010767485636385793 0 0.026606769565343129 0.01025449440249916 0 0.024480326590954522 0.0090090402619613687 0 0.024632830792675142 0.0090520100559484916 0 0.025134679945476832 0.0093460024035033739 0 0.024480326590954522 0.0090090402619613687 0 0.025134679945476832 0.0093460024035033739 0 0.025332941750788415 0.0090326561643339735 0 0.025134679945476832 0.0093460024035033739 0 0.024999741480275877 0.0096229318569849634 0 0.025332941750788415 0.0090326561643339735 0 0.025294274398546885 0.0098934492864111451 0 0.025134679945476832 0.0093460024035033739 0 0.024999741480275877 0.0096229318569849634 0 0.024999741480275877 0.0096229318569849634 0 0.024999681263940456 0.0081831339778156292 0 0.025332941750788415 0.0090326561643339735 0 0.024999681263940456 0.0081831339778156292 0 0.025452548234303405 0.0083602600347328516 0 0.025332941750788415 0.0090326561643339735 0 0.024999681263940456 0.0081831339778156292 0 0.025452548234303405 0.0083602600347328516 0 0.025577058732829693 0.0076707502194149095 0 0.025452548234303405 0.0083602600347328516 0 0.025332941750788415 0.0090326561643339735 0 0.025932845609759905 0.0085175593416920818 0 0.025452548234303405 0.0083602600347328516 0 0.025932845609759905 0.0085175593416920818 0 0.025577058732829693 0.0076707502194149095 0 0.024480326590954522 0.0090090402619613687 0 0.025332941750788415 0.0090326561643339735 0 0.025932845609759905 0.0085175593416920818 0 0.024423238558239281 0.0087682929792852003 0 0.024208882122677404 0.0071849692863523718 0 0.024480326590954522 0.0090090402619613687 0 0.023961883160404339 0.0074084855960773613 0 0.022401748918313907 0.0060208585695159557 0 0.024378252681371258 0.0072664525474690628 0 0.024256531382188584 0.0079944854820514725 0 0.024927109469277283 0.0083146190455714829 0 0.023961883160404339 0.0074084855960773613 0 0.026012155134516327 0.0078203849753042017 0 0.023961883160404339 0.0074084855960773613 0 0.023692687899385948 0.0062846143802734143 0 0.024331698012794736 0.0067847550504807159 0 0.023961883160404339 0.0074084855960773613 0 0.024331698012794736 0.0067847550504807159 0 0.024459095287496888 0.0069430531937587844 0 0.023692687899385948 0.0062846143802734143 0 0.023895869401163103 0.0056681090942054136 0 0.024331698012794736 0.0067847550504807159 0 0.023692687899385948 0.0062846143802734143 0 0.023895869401163103 0.0056681090942054136 0 0.023089957430017381 0.0048898770221650293 0 0.023692687899385948 0.0062846143802734143 0 0.022401748918313907 0.0060208585695159557 0 0.023089957430017381 0.0048898770221650293 0 0.023961883160404339 0.0074084855960773613 0 0.023692687899385948 0.0062846143802734143 0 0.022401748918313907 0.0060208585695159557 0 0.024208882122677404 0.0071849692863523718 0 0.024336473108060003 0.0053256878028177957 0 0.023089957430017381 0.0048898770221650293 0 0.02255811179284949 0.0033598763101403036 0 0.022300193247091989 0.0036850337344524506 0 0.022401748918313907 0.0060208585695159557 0 0.023089957430017381 0.0048898770221650293 0 0.022300193247091989 0.0036850337344524506 0 0.023789254757037265 0.0048322459757197322 0 0.023089957430017381 0.0048898770221650293 0 0.02255811179284949 0.0033598763101403036 0 0.023895869401163103 0.0056681090942054136 0 0.023789254757037265 0.0048322459757197322 0 0.023089957430017381 0.0048898770221650293 0 0.02255811179284949 0.0033598763101403036 0 0.022300193247091989 0.0036850337344524506 0 0.021903440626072898 0.0039364225667776667 0 0.02255811179284949 0.0033598763101403036 0 0.021083385558239701 0.0032843473868332689 0 0.021903440626072898 0.0039364225667776667 0 0.026383507622851229 0.0068641610901853216 0 0.025577058732829693 0.0076707502194149095 0 0.025716011115309131 0.006089786237726642 0 0.024999831486931065 0.0067416688113045827 0 0.025577058732829693 0.0076707502194149095 0 0.025716011115309131 0.006089786237726642 0 0.024999681263940456 0.0081831339778156292 0 0.024999831486931065 0.0067416688113045827 0 0.025577058732829693 0.0076707502194149095 0 0.025932845609759905 0.0085175593416920818 0 0.026383507622851229 0.0068641610901853216 0 0.025577058732829693 0.0076707502194149095 0 0.016078331426197138 0.0035220039869540828 0 0.015816215504775886 0.0033554388030432067 0 0.016377876335250938 0.0027368853117853524 0 0.016078331426197138 0.0035220039869540828 0 0.016611035053739738 0.0028985165419953382 0 0.016377876335250938 0.0027368853117853524 0 0.01695419527674798 0.0025137515699259331 0 0.01917743219234733 0.0034926021619726957 0 0.017953061418905548 0.0018528658193910285 0 0.018803781608930852 0.0014243972375707959 0 0.018961380777960168 0.00067129892016302008 0 0.015763920715026324 0.0031925999430601742 0 0.017304990133970317 0.0042342971277735519 0 0.017953061418905548 0.0018528658193910285 0 0.018803781608930852 0.0014243972375707959 0 0.01883023783513529 0.0021578234200059282 0 0.015449529942872452 0.0030082002870520951 0 0.015781343160517183 0.0033209873256386307 0 0.015080529833003285 0.0036022412775024229 0 0.015449529942872452 0.0030082002870520951 0 0.015781343160517183 0.0033209873256386307 0 0.015780060333465764 0.0028565821303783443 0 0.017953061418905548 0.0018528658193910285 0 0.016824288325882779 0.0030006200100871632 0 0.018017634941627614 0.002914845274529915 0 0.01695419527674798 0.0025137515699259331 0 0.016179079538670746 0.0035986538908433846 0 0.015816215504775886 0.0033554388030432067 0 0.015557217955686504 0.0040879577374457726 0 0.015311526915181478 0.0039540933298116586 0 0.015781343160517183 0.0033209873256386307 0 0.015080529833003285 0.0036022412775024229 0 0.015311526915181478 0.0039540933298116586 0 0.015763920715026324 0.0031925999430601742 0 0.015331198144111782 0.0039469648422346256 0 0.016078331426197138 0.0035220039869540828 0 0.015816215504775886 0.0033554388030432067 0 0.015557217955686504 0.0040879577374457726 0 0.017953061418905548 0.0018528658193910285 0 0.018017634941627614 0.002914845274529915 0 0.018415952923096925 0.0024693534742387699 0 0.01883023783513529 0.0021578234200059282 0 0.018415952923096925 0.0024693534742387699 0 0.01889419957385961 0.0029817938503426504 0 0.017953061418905548 0.0018528658193910285 0 0.01883023783513529 0.0021578234200059282 0 0.018415952923096925 0.0024693534742387699 0 0.018017634941627614 0.002914845274529915 0 0.018415952923096925 0.0024693534742387699 0 0.01889419957385961 0.0029817938503426504 0 0.01883023783513529 0.0021578234200059282 0 0.01889419957385961 0.0029817938503426504 0 0.019796223621871181 0.0033286388280662025 0 0.019796223621871181 0.0033286388280662025 0 0.021083385558239701 0.0032843473868332689 0 0.019899908024811057 0.0019948265968559105 0 0.01883023783513529 0.0021578234200059282 0 0.019796223621871181 0.0033286388280662025 0 0.019899908024811057 0.0019948265968559105 0 0.021083385558239701 0.0032843473868332689 0 0.020968759582110197 0.0017546961856627892 0 0.019899908024811057 0.0019948265968559105 0 0.02255811179284949 0.0033598763101403036 0 0.021083385558239701 0.0032843473868332689 0 0.020968759582110197 0.0017546961856627892 0 0.022615599419761347 0.0032154302396199663 0 0.022928488221996876 0.0031741932832629266 0 0.023789254757037265 0.0048322459757197322 0 0.02255811179284949 0.0033598763101403036 0 0.024723520056996129 0.004272878449074975 0 0.023789254757037265 0.0048322459757197322 0 0.024723520056996129 0.004272878449074975 0 0.024729413486477992 0.0056858215021815947 0 0.024723520056996129 0.004272878449074975 0 0.025903788362957914 0.0051740736838369683 0 0.024729413486477992 0.0056858215021815947 0 0.018803781608930852 0.0014243972375707959 0 0.01883023783513529 0.0021578234200059282 0 0.019457542873809634 0.0010232843008504224 0 0.01883023783513529 0.0021578234200059282 0 0.019899908024811057 0.0019948265968559105 0 0.019635954055932974 0.00080818989223784715 0 0.019027822567958402 0.0016344013241686619 0 0.021389914370758524 0.0032977136843198029 0 0.020968759582110197 0.0017546961856627892 0 0.019899908024811057 0.0019948265968559105 0 0.019635954055932974 0.00080818989223784715 0 0.022928488221996876 0.0031741932832629266 0 0.021389914370758524 0.0032977136843198029 0 0.018803781608930852 0.0014243972375707959 0 0.019457542873809634 0.0010232843008504224 0 0.018961380777960168 0.00067129892016302008 0 0.019557194779744685 0.0052715862560438363 0 0.019449419476224999 0.0056539300157528102 0 0.01967227554981554 0.0053566058477152534 0 0.021389914370758524 0.0032977136843198029 0 0.023499765664874338 0.0066401815585599988 0 0.01917743219234733 0.0034926021619726957 0 0.021373235477900321 0.0068448719097615419 0 0.021458632572207145 0.0043593000503018807 0 0.021805116985507446 0.0046093444839624556 0 0.021142044489209179 0.0055068399813403314 0 0.019557194779744685 0.0052715862560438363 0 0.019449419476224999 0.0056539300157528102 0 0.019309904511397798 0.0056347982279683429 0 0.021458632572207145 0.0043593000503018807 0 0.020875986264284718 0.0054682374178594102 0 0.021142044489209179 0.0055068399813403314 0 0.021389914370758524 0.0032977136843198029 0 0.01917743219234733 0.0034926021619726957 0 0.019834576636449219 0.0076044642397166441 0 0.017304990133970317 0.0042342971277735519 0 0.024729413486477992 0.0056858215021815947 0 0.024331698012794736 0.0067847550504807159 0 0.024984020575622438 0.0068924259901477413 0 0.025903788362957914 0.0051740736838369683 0 0.024729413486477992 0.0056858215021815947 0 0.024984020575622438 0.0068924259901477413 0 0.023895869401163103 0.0056681090942054136 0 0.023789254757037265 0.0048322459757197322 0 0.024729413486477992 0.0056858215021815947 0 0.023895869401163103 0.0056681090942054136 0 0.024729413486477992 0.0056858215021815947 0 0.024331698012794736 0.0067847550504807159 0 0.024576382166563434 0.0068140074905194701 0 0.023499765664874338 0.0066401815585599988 0 0.024331698012794736 0.0067847550504807159 0 0.024525982757038572 0.0068079813309034698 0 0.024459095287496888 0.0069430531937587844 0 0.02282491486192376 0.007371010089365213 0 0.022821491354256013 0.0076035681005104704 0 0.022975778448912718 0.0073930986261651708 0 0.023499765664874338 0.0066401815585599988 0 0.021373235477900321 0.0068448719097615419 0 0.02282491486192376 0.007371010089365213 0 0.022821491354256013 0.0076035681005104704 0 0.02271119112026795 0.0075874562250534709 0 0.021502405263072465 0.008340445894101 0 0.021287047350906758 0.0086054662479812232 0 0.021234647013185077 0.0083007117854654901 0 0.022651532105723536 0.0090136906243174497 0 0.021373235477900321 0.0068448719097615419 0 0.022651532105723536 0.0090136906243174497 0 0.021411736911081693 0.010799005775045646 0 0.022651532105723536 0.0090136906243174497 0 0.024256531382188584 0.0079944854820514725 0 0.023499765664874338 0.0066401815585599988 0 0.024256531382188584 0.0079944854820514725 0 0.021411736911081693 0.010799005775045646 0 0.018567659755289255 0.011789107954849833 0 0.020004982592308415 0.010276735783850211 0 0.020801448581665598 0.00935814615719259 0 0.017463284851495148 0.0088644307708903372 0 0.019834576636449219 0.0076044642397166441 0 0.021373235477900321 0.0068448719097615419 0 0.021000600814727318 0.0085619808870986483 0 0.021287047350906758 0.0086054662479812232 0 0.021234647013185077 0.0083007117854654901 0 0.019834576636449219 0.0076044642397166441 0 0.021411736911081693 0.010799005775045646 0 0.020004982592308415 0.010276735783850211 0 0.016631963264611849 0.0097737981317391771 0 0.017463284851495148 0.0088644307708903372 0 0.017062759851912704 0.0074979903338649734 0 0.015246712199228497 0.0062268005262370698 0 0.015722686257968233 0.0057056688885895662 0 0.019834576636449219 0.0076044642397166441 0 0.014910972997078829 0.0084001260050860799 0 0.01829309318485494 0.0060865733535315917 0 0.017062759851912704 0.0074979903338649734 0 0.015722686257968233 0.0057056688885895662 0 0.014910972997078829 0.0084001260050860799 0 0.018567659755289255 0.011789107954849833 0 0.01624546334103542 0.0027532636014357668 0 0.015780060333465764 0.0028565821303783443 0 0.015627470171882121 0.002330150079002692 0 0.015781343160517183 0.0033209873256386307 0 0.01624546334103542 0.0027532636014357668 0 0.015780060333465764 0.0028565821303783443 0 0.017304990133970317 0.0042342971277735519 0 0.013576837017589436 0.0061290992596406621 0 0.01917743219234733 0.0034926021619726957 0 0.017304990133970317 0.0042342971277735519 0 0.015449529942872452 0.0030082002870520951 0 0.015627470171882121 0.002330150079002692 0 0.014907824943871413 0.0029740775719909697 0 0.015449529942872452 0.0030082002870520951 0 0.015780060333465764 0.0028565821303783443 0 0.015627470171882121 0.002330150079002692 0 0.0097537274101208195 0.0078501228750950253 0 0.010424096923686742 0.0077536549683999379 0 0.0112420918514316 0.0080988281941232216 0 0.010011995394971275 0.0074879243558557199 0 0.010424096923686742 0.0077536549683999379 0 0.010893972170801069 0.0075925359722576625 0 0.014910972997078829 0.0084001260050860799 0 0.012482097931250125 0.009049383713746792 0 0.015571305272250943 0.010165253552548255 0 0.014787020935478854 0.0097044332495624264 0 0.014601811556723694 0.0099796637152919591 0 0.013576837017589436 0.0061290992596406621 0 0.011828851528223822 0.0061500740955081797 0 0.013576837017589436 0.0061290992596406621 0 0.014910972997078829 0.0084001260050860799 0 0.01007890386642453 0.0074965086369907074 0 0.0097537274101208195 0.0078501228750950253 0 0.010424096923686742 0.0077536549683999379 0 0.020220384991941266 0.01454507120870401 0 0.020954286645369267 0.014955256265251649 0 0.019709675370994287 0.014848476844853091 0 0.015571305272250943 0.010165253552548255 0 0.015867614294899496 0.0098572331948094134 0 0.014787020935478854 0.0097044332495624264 0 0.018567659755289255 0.011789107954849833 0 0.01722649848350381 0.012321128571836679 0 0.020694910068006632 0.014595863541069998 0 0.021006241531886821 0.014514268285449172 0 0.020578163758909068 0.014247830865046279 0 0.020220384991941266 0.01454507120870401 0 0.020694910068006632 0.014595863541069998 0 0.020578163758909068 0.014247830865046279 0 0.020220384991941266 0.01454507120870401 0 0.020694910068006632 0.014595863541069998 0 0.020954286645369267 0.014955256265251649 0 0.021674445302803765 0.014867379840773701 0 0.020998067097857353 0.014854508076588405 0 0.021078675494133916 0.014771030779479348 0 0.020694910068006632 0.014595863541069998 0 0.020954286645369267 0.014955256265251649 0 0.021078675494133916 0.014771030779479348 0 0.018567659755289255 0.011789107954849833 0 0.018863845502048233 0.012476810387871389 0 0.021316582156774729 0.014577616373839865 0 0.021006241531886821 0.014514268285449172 0 0.021186642834539512 0.014289166557730631 0 0.021078675494133916 0.014771030779479348 0 0.021316582156774729 0.014577616373839865 0 0.021006241531886821 0.014514268285449172 0 0.020694910068006632 0.014595863541069998 0 0.021078675494133916 0.014771030779479348 0 0.021006241531886821 0.014514268285449172 0 0.021186642834539512 0.014289166557730631 0 0.020868035531673396 0.013940016596550421 0 0.020578163758909068 0.014247830865046279 0 0.021006241531886821 0.014514268285449172 0 0.021186642834539512 0.014289166557730631 0 0.020578163758909068 0.014247830865046279 0 0.021186642834539512 0.014289166557730631 0 0.020868035531673396 0.013940016596550421 0 0.021469646048962735 0.01415959112403916 0 0.020868035531673396 0.013940016596550421 0 0.020099408976260346 0.013669502212030473 0 0.020578163758909068 0.014247830865046279 0 0.020220384991941266 0.01454507120870401 0 0.020578163758909068 0.014247830865046279 0 0.019756236575686877 0.014089317896833485 0 0.020099408976260346 0.013669502212030473 0 0.020578163758909068 0.014247830865046279 0 0.019756236575686877 0.014089317896833485 0 0.023565956971679004 0.0098175153344244072 0 0.024220000922459722 0.0089266236139638605 0 0.024042670639955761 0.0089008340025352219 0 0.022915110941146476 0.011281537324908733 0 0.02297751294050281 0.011143280934366328 0 0.02296055648637817 0.011254463910087036 0 0.024235158404457946 0.010314300574054283 0 0.022651532105723536 0.0090136906243174497 0 0.021674445302803765 0.014867379840773701 0 0.021943032597972461 0.014523081761592548 0 0.021558154906470884 0.01440194377681071 0 0.024235158404457946 0.010314300574054283 0 0.024256531382188584 0.0079944854820514725 0 0.02297751294050281 0.011143280934366328 0 0.023013474934960951 0.011148781127411963 0 0.02296055648637817 0.011254463910087036 0 0.021411736911081693 0.010799005775045646 0 0.022300073607991432 0.013132765492475803 0 0.021674445302803765 0.014867379840773701 0 0.021316582156774729 0.014577616373839865 0 0.021558154906470884 0.01440194377681071 0 0.021674445302803765 0.014867379840773701 0 0.021078675494133916 0.014771030779479348 0 0.021316582156774729 0.014577616373839865 0 0.021186642834539512 0.014289166557730631 0 0.021558154906470884 0.01440194377681071 0 0.021469646048962735 0.01415959112403916 0 0.021558154906470884 0.01440194377681071 0 0.021794001480011437 0.014159077655257096 0 0.021469646048962735 0.01415959112403916 0 0.021316582156774729 0.014577616373839865 0 0.021186642834539512 0.014289166557730631 0 0.021558154906470884 0.01440194377681071 0 0.023499809058187354 0.012956893353470582 0 0.022146594106135353 0.014512618942903486 0 0.021943032597972461 0.014523081761592548 0 0.021558154906470884 0.01440194377681071 0 0.021794001480011437 0.014159077655257096 0 0.022211424144697706 0.014215617586772476 0 0.021943032597972461 0.014523081761592548 0 0.021794001480011437 0.014159077655257096 0 0.023240593507310579 0.014486412162542274 0 0.023619137182008566 0.015101727425956352 0 0.022594529487678462 0.014828746843551633 0 0.023259495653224369 0.014013616206876198 0 0.023240593507310579 0.014486412162542274 0 0.022435181728709529 0.014118650340464662 0 0.023240593507310579 0.014486412162542274 0 0.022594529487678462 0.014828746843551633 0 0.022435181728709529 0.014118650340464662 0 0.022594529487678462 0.014828746843551633 0 0.022435181728709529 0.014118650340464662 0 0.021469646048962735 0.01415959112403916 0 0.022146594106135353 0.014512618942903486 0 0.021590249984394124 0.014238002370485656 0 0.022435181728709529 0.014118650340464662 0 0.021469646048962735 0.01415959112403916 0 0.021914399109431333 0.013591889007930954 0 0.022467779962881549 0.013177317568846204 0 0.021914399109431333 0.013591889007930954 0 0.022704785300311291 0.01367573002146957 0 0.022435181728709529 0.014118650340464662 0 0.021914399109431333 0.013591889007930954 0 0.022704785300311291 0.01367573002146957 0 0.023434669236947529 0.013468212644849311 0 0.023259495653224369 0.014013616206876198 0 0.022704785300311291 0.01367573002146957 0 0.023259495653224369 0.014013616206876198 0 0.022435181728709529 0.014118650340464662 0 0.022704785300311291 0.01367573002146957 0 0.020885490020093836 0.013486744196367932 0 0.019049869122542539 0.012792196478902777 0 0.020099408976260346 0.013669502212030473 0 0.020651762564809998 0.013493967722480904 0 0.019611545089682117 0.013095228050297638 0 0.020868035531673396 0.013940016596550421 0 0.020099408976260346 0.013669502212030473 0 0.020651762564809998 0.013493967722480904 0 0.021469646048962735 0.01415959112403916 0 0.021914399109431333 0.013591889007930954 0 0.021040045145955449 0.01366588971311615 0 0.020868035531673396 0.013940016596550421 0 0.021469646048962735 0.01415959112403916 0 0.021040045145955449 0.01366588971311615 0 0.020868035531673396 0.013940016596550421 0 0.020651762564809998 0.013493967722480904 0 0.021040045145955449 0.01366588971311615 0 0.021914399109431333 0.013591889007930954 0 0.021040045145955449 0.01366588971311615 0 0.021165144990014945 0.013324286077243714 0 0.021040045145955449 0.01366588971311615 0 0.021165144990014945 0.013324286077243714 0 0.020562100276719966 0.013557465492996782 0 0.020651762564809998 0.013493967722480904 0 0.020562100276719966 0.013557465492996782 0 0.020591975550386402 0.01354084472793074 0 0.020651762564809998 0.013493967722480904 0 0.021040045145955449 0.01366588971311615 0 0.020562100276719966 0.013557465492996782 0 0.019844394670755772 0.01324497010551564 0 0.020562100276719966 0.013557465492996782 0 0.019609405563329151 0.013957554721106227 0 0.019844394670755772 0.01324497010551564 0 0.018254268738545125 0.013083160627395122 0 0.019609405563329151 0.013957554721106227 0 0.020682372955549908 0.013453997329616947 0 0.019049869122542539 0.012792196478902777 0 0.020651762564809998 0.013493967722480904 0 0.019442209561154496 0.011938705994642893 0 0.019611545089682117 0.013095228050297638 0 0.019442209561154496 0.011938705994642893 0 0.019611545089682117 0.013095228050297638 0 0.01875766239618043 0.012777597285876944 0 0.019611545089682117 0.013095228050297638 0 0.01875766239618043 0.012777597285876944 0 0.019054581836854437 0.013446549503144863 0 0.020099408976260346 0.013669502212030473 0 0.019611545089682117 0.013095228050297638 0 0.019054581836854437 0.013446549503144863 0 0.019442209561154496 0.011938705994642893 0 0.01875766239618043 0.012777597285876944 0 0.018068162467637896 0.012139292316546979 0 0.017888123107370001 0.012837372155681434 0 0.01875766239618043 0.012777597285876944 0 0.019054581836854437 0.013446549503144863 0 0.017888123107370001 0.012837372155681434 0 0.01875766239618043 0.012777597285876944 0 0.018068162467637896 0.012139292316546979 0 0.019049869122542539 0.012792196478902777 0 0.01715548944583687 0.011950637685751917 0 0.017208423092173356 0.01236563724803749 0 0.019049869122542539 0.012792196478902777 0 0.016498932507452387 0.011746699077679328 0 0.016667900376774618 0.01179700669881595 0 0.016573639737953189 0.01180144869784982 0 0.016573639737953189 0.01180144869784982 0 0.016510547527520153 0.011732031672470234 0 0.01645483762542721 0.011789985142256806 0 0.016498932507452387 0.011746699077679328 0 0.016573639737953189 0.01180144869784982 0 0.016510547527520153 0.011732031672470234 0 0.016573785534306048 0.01178710017266665 0 0.016510547527520153 0.011732031672470234 0 0.016381005494545773 0.011575008124939614 0 0.016510547527520153 0.011732031672470234 0 0.01645483762542721 0.011789985142256806 0 0.016381005494545773 0.011575008124939614 0 0.015506766744644674 0.010883481989723991 0 0.015783947998442443 0.011485369527448927 0 0.016381005494545773 0.011575008124939614 0 0.01645483762542721 0.011789985142256806 0 0.016285085891396461 0.01182407940576 0 0.016389469565458406 0.011948507407095178 0 0.01645483762542721 0.011789985142256806 0 0.016381005494545773 0.011575008124939614 0 0.016285085891396461 0.01182407940576 0 0.015783947998442443 0.011485369527448927 0 0.016285085891396461 0.01182407940576 0 0.01622427585835147 0.012024392042748392 0 0.015783947998442443 0.011485369527448927 0 0.016381005494545773 0.011575008124939614 0 0.016285085891396461 0.01182407940576 0 0.016894247684929427 0.012270559202186795 0 0.016586257200351631 0.0125290762210619 0 0.016313068389894401 0.012413298527131694 0 0.01622427585835147 0.012024392042748392 0 0.016389469565458406 0.011948507407095178 0 0.016313068389894401 0.012413298527131694 0 0.016664780064603726 0.012143990689293812 0 0.016287873628577414 0.012361692221451309 0 0.016285085891396461 0.01182407940576 0 0.01622427585835147 0.012024392042748392 0 0.016389469565458406 0.011948507407095178 0 0.016894247684929427 0.012270559202186795 0 0.016586257200351631 0.0125290762210619 0 0.017073485146552041 0.012721253489876886 0 0.017888123107370001 0.012837372155681434 0 0.018068162467637896 0.012139292316546979 0 0.016894247684929427 0.012270559202186795 0 0.01715548944583687 0.011950637685751917 0 0.016664780064603726 0.012143990689293812 0 0.017888123107370001 0.012837372155681434 0 0.016894247684929427 0.012270559202186795 0 0.017073485146552041 0.012721253489876886 0 0.016573639737953189 0.01180144869784982 0 0.01645483762542721 0.011789985142256806 0 0.016389469565458406 0.011948507407095178 0 0.017888123107370001 0.012837372155681434 0 0.017446472685445059 0.013135089524126849 0 0.017073485146552041 0.012721253489876886 0 0.017446472685445059 0.013135089524126849 0 0.017073485146552041 0.012721253489876886 0 0.016802525773633812 0.01282835994927051 0 0.017446472685445059 0.013135089524126849 0 0.017093524237857562 0.013284416702131437 0 0.016802525773633812 0.01282835994927051 0 0.017446472685445059 0.013135089524126849 0 0.017851391306125366 0.013665254725547417 0 0.018263359100309955 0.01355118246513299 0 0.017446472685445059 0.013135089524126849 0 0.017093524237857562 0.013284416702131437 0 0.017851391306125366 0.013665254725547417 0 0.016482190446747119 0.012497974259624933 0 0.016562738230041053 0.013257630931610181 0 0.016501401286521784 0.012016719604792208 0 0.016553548061124579 0.012649912128810191 0 0.016482190446747119 0.012497974259624933 0 0.016394429705352983 0.012507757162494281 0 0.016586257200351631 0.0125290762210619 0 0.016553548061124579 0.012649912128810191 0 0.016394429705352983 0.012507757162494281 0 0.016586257200351631 0.0125290762210619 0 0.017073485146552041 0.012721253489876886 0 0.016802525773633812 0.01282835994927051 0 0.016586257200351631 0.0125290762210619 0 0.016553548061124579 0.012649912128810191 0 0.016802525773633812 0.01282835994927051 0 0.017093524237857562 0.013284416702131437 0 0.016618744999024593 0.012887825867711629 0 0.016562738230041053 0.013257630931610181 0 0.017093524237857562 0.013284416702131437 0 0.016802525773633812 0.01282835994927051 0 0.016618744999024593 0.012887825867711629 0 0.016553548061124579 0.012649912128810191 0 0.016802525773633812 0.01282835994927051 0 0.016618744999024593 0.012887825867711629 0 0.016553548061124579 0.012649912128810191 0 0.016618744999024593 0.012887825867711629 0 0.016482190446747119 0.012497974259624933 0 0.016618744999024593 0.012887825867711629 0 0.016482190446747119 0.012497974259624933 0 0.016562738230041053 0.013257630931610181 0 0.014301548477064295 0.010023021293541316 0 0.01480664460703578 0.0097120563723660392 0 0.015533311506913377 0.010179507570269489 0 0.014301548477064295 0.010023021293541316 0 0.014385623967639658 0.0094672287167010555 0 0.014110074720196777 0.0097280189881147529 0 0.014301548477064295 0.010023021293541316 0 0.014385623967639658 0.0094672287167010555 0 0.01480664460703578 0.0097120563723660392 0 0.01480664460703578 0.0097120563723660392 0 0.015083630933837782 0.0090986236170853222 0 0.015533311506913377 0.010179507570269489 0 0.014385623967639658 0.0094672287167010555 0 0.01480664460703578 0.0097120563723660392 0 0.015083630933837782 0.0090986236170853222 0 0.017093524237857562 0.013284416702131437 0 0.016562738230041053 0.013257630931610181 0 0.018068434753034473 0.014338283553249018 0 0.014301548477064295 0.010023021293541316 0 0.014110074720196777 0.0097280189881147529 0 0.01394990389080494 0.0096418617223999956 0 0.014326446533294594 0.0094194056321708457 0 0.01349651339220808 0.0091846694398950417 0 0.01561805114193476 0.011635996503617132 0 0.01605156670719006 0.01197819084918837 0 0.014385623967639658 0.0094672287167010555 0 0.014110074720196777 0.0097280189881147529 0 0.013918206710236435 0.0097622971959530798 0 0.014385623967639658 0.0094672287167010555 0 0.012729481459837327 0.0085349806601214637 0 0.013616301303028917 0.0081719920776061813 0 0.017093524237857562 0.013284416702131437 0 0.017851391306125366 0.013665254725547417 0 0.018068434753034473 0.014338283553249018 0 0.014110074720196777 0.0097280189881147529 0 0.013918206710236435 0.0097622971959530798 0 0.01394990389080494 0.0096418617223999956 0 0.018068434753034473 0.014338283553249018 0 0.019709675370994287 0.014848476844853091 0 0.018966712675903937 0.014176411840527594 0 0.013918206710236435 0.0097622971959530798 0 0.01394990389080494 0.0096418617223999956 0 0.014601811556723694 0.0099796637152919591 0 0.01605156670719006 0.01197819084918837 0 0.01722649848350381 0.012321128571836679 0 0.017851391306125366 0.013665254725547417 0 0.018068434753034473 0.014338283553249018 0 0.018331936761318526 0.013962233531941084 0 0.018068434753034473 0.014338283553249018 0 0.018331936761318526 0.013962233531941084 0 0.018966712675903937 0.014176411840527594 0 0.01394990389080494 0.0096418617223999956 0 0.014787020935478854 0.0097044332495624264 0 0.014601811556723694 0.0099796637152919591 0 0.020220384991941266 0.01454507120870401 0 0.019683054250552723 0.014418307455275441 0 0.019756236575686877 0.014089317896833485 0 0.019683054250552723 0.014418307455275441 0 0.018966712675903937 0.014176411840527594 0 0.019756236575686877 0.014089317896833485 0 0.020220384991941266 0.01454507120870401 0 0.019709675370994287 0.014848476844853091 0 0.019683054250552723 0.014418307455275441 0 0.019709675370994287 0.014848476844853091 0 0.019683054250552723 0.014418307455275441 0 0.018966712675903937 0.014176411840527594 0 0.018966712675903937 0.014176411840527594 0 0.019756236575686877 0.014089317896833485 0 0.019054581836854437 0.013446549503144863 0 0.020099408976260346 0.013669502212030473 0 0.019756236575686877 0.014089317896833485 0 0.019054581836854437 0.013446549503144863 0 0.017888123107370001 0.012837372155681434 0 0.019054581836854437 0.013446549503144863 0 0.018263359100309955 0.01355118246513299 0 0.017888123107370001 0.012837372155681434 0 0.017446472685445059 0.013135089524126849 0 0.018263359100309955 0.01355118246513299 0 0.017851391306125366 0.013665254725547417 0 0.018331936761318526 0.013962233531941084 0 0.018263359100309955 0.01355118246513299 0 0.018331936761318526 0.013962233531941084 0 0.018966712675903937 0.014176411840527594 0 0.018263359100309955 0.01355118246513299 0 0.018966712675903937 0.014176411840527594 0 0.019054581836854437 0.013446549503144863 0 0.018263359100309955 0.01355118246513299 0 0.013512829334467152 0.0085606362677896411 0 0.0132722260630063 0.0089051692337541073 0 0.013490722657505023 0.0090456925031751866 0 0.013512829334467152 0.0085606362677896411 0 0.0132722260630063 0.0089051692337541073 0 0.013307776171438435 0.0084797960009780765 0 0.013295042797159345 0.0092676377219104676 0 0.013490722657505023 0.0090456925031751866 0 0.013469040448356501 0.0095401988752261795 0 0.0132722260630063 0.0089051692337541073 0 0.013295042797159345 0.0092676377219104676 0 0.013490722657505023 0.0090456925031751866 0 0.013055685759316314 0.0092157907535642541 0 0.013102148339352065 0.0087780615616901217 0 0.012773485324807345 0.0089502868639353764 0 0.0132722260630063 0.0089051692337541073 0 0.013055685759316314 0.0092157907535642541 0 0.013102148339352065 0.0087780615616901217 0 0.0132722260630063 0.0089051692337541073 0 0.013295042797159345 0.0092676377219104676 0 0.013055685759316314 0.0092157907535642541 0 0.0132722260630063 0.0089051692337541073 0 0.013102148339352065 0.0087780615616901217 0 0.013307776171438435 0.0084797960009780765 0 0.013102148339352065 0.0087780615616901217 0 0.012773485324807345 0.0089502868639353764 0 0.013098468688637135 0.0083461715716970433 0 0.014681810045617518 0.010931949714213796 0 0.014899404147447632 0.011214055027259391 0 0.014705476523927659 0.010032435985769106 0 0.013818195779743062 0.010074499878184042 0 0.013856894475950697 0.0092430692669552353 0 0.014681810045617518 0.010931949714213796 0 0.014899404147447632 0.011214055027259391 0 0.014930152150761372 0.011128282539429079 0 0.013867594453049298 0.010052054596677927 0 0.013818195779743062 0.010074499878184042 0 0.012664588182270337 0.0094539128398909138 0 0.013055685759316314 0.0092157907535642541 0 0.012773485324807345 0.0089502868639353764 0 0.01494763191921801 0.010771242335775897 0 0.014899404147447632 0.011214055027259391 0 0.015156928719129499 0.011152812266175658 0 0.014899404147447632 0.011214055027259391 0 0.015156928719129499 0.011152812266175658 0 0.014930152150761372 0.011128282539429079 0 0.015506766744644674 0.010883481989723991 0 0.015783947998442443 0.011485369527448927 0 0.015156928719129499 0.011152812266175658 0 0.015783947998442443 0.011485369527448927 0 0.015156928719129499 0.011152812266175658 0 0.014930152150761372 0.011128282539429079 0 0.015783947998442443 0.011485369527448927 0 0.01622427585835147 0.012024392042748392 0 0.016313068389894401 0.012413298527131694 0 0.015815131461799876 0.011400043582751979 0 0.015411282301401076 0.011518404786356816 0 0.015783947998442443 0.011485369527448927 0 0.016313068389894401 0.012413298527131694 0 0.01645936501473064 0.012684369817821379 0 0.015783947998442443 0.011485369527448927 0 0.014930152150761372 0.011128282539429079 0 0.014354465700245657 0.01069689867191482 0 0.014681810045617518 0.010931949714213796 0 0.014930152150761372 0.011128282539429079 0 0.014354465700245657 0.01069689867191482 0 0.016313068389894401 0.012413298527131694 0 0.016394429705352983 0.012507757162494281 0 0.01645936501473064 0.012684369817821379 0 0.016586257200351631 0.0125290762210619 0 0.016313068389894401 0.012413298527131694 0 0.016394429705352983 0.012507757162494281 0 0.016562738230041053 0.013257630931610181 0 0.016704944239715386 0.011337788681598463 0 0.016501401286521784 0.012016719604792208 0 0.016482190446747119 0.012497974259624933 0 0.016394429705352983 0.012507757162494281 0 0.016501401286521784 0.012016719604792208 0 0.016394429705352983 0.012507757162494281 0 0.01645936501473064 0.012684369817821379 0 0.016501401286521784 0.012016719604792208 0 0.01645936501473064 0.012684369817821379 0 0.016704944239715386 0.011337788681598463 0 0.016501401286521784 0.012016719604792208 0 0.014301548477064295 0.010023021293541316 0 0.016704944239715386 0.011337788681598463 0 0.015533311506913377 0.010179507570269489 0 0.01561805114193476 0.011635996503617132 0 0.016749946485571321 0.011451678377870211 0 0.015533311506913377 0.010179507570269489 0 0.01669402383109593 0.009813211045075064 0 0.016138512780700612 0.0088442108216312734 0 0.015083630933837782 0.0090986236170853222 0 0.015533311506913377 0.010179507570269489 0 0.016138512780700612 0.0088442108216312734 0 0.016704944239715386 0.011337788681598463 0 0.015533311506913377 0.010179507570269489 0 0.01669402383109593 0.009813211045075064 0 0.016704944239715386 0.011337788681598463 0 0.01669402383109593 0.009813211045075064 0 0.01815507768240229 0.0099892986805099268 0 0.013815816554673547 0.0085836035479911685 0 0.014705476523927659 0.010032435985769106 0 0.01372989293402853 0.0082792013833526985 0 0.013856894475950697 0.0092430692669552353 0 0.013772138297036069 0.0084657585674833367 0 0.01669402383109593 0.009813211045075064 0 0.01815507768240229 0.0099892986805099268 0 0.017066965191759435 0.0087701666842185198 0 0.014354465700245657 0.01069689867191482 0 0.013815816554673547 0.0085836035479911685 0 0.014705476523927659 0.010032435985769106 0 0.015411282301401076 0.011518404786356816 0 0.016352946579532561 0.0093678056149165863 0 0.01645936501473064 0.012684369817821379 0 0.016704944239715386 0.011337788681598463 0 0.01815507768240229 0.0099892986805099268 0 0.014681810045617518 0.010931949714213796 0 0.014354465700245657 0.01069689867191482 0 0.014705476523927659 0.010032435985769106 0 0.013102148339352065 0.0087780615616901217 0 0.013098468688637135 0.0083461715716970433 0 0.013307776171438435 0.0084797960009780765 0 0.013098468688637135 0.0083461715716970433 0 0.013307776171438435 0.0084797960009780765 0 0.013404137136032132 0.0082140066467531435 0 0.013098468688637135 0.0083461715716970433 0 0.01372989293402853 0.0082792013833526985 0 0.013404137136032132 0.0082140066467531435 0 0.01372989293402853 0.0082792013833526985 0 0.013404137136032132 0.0082140066467531435 0 0.013520514585984602 0.0080535578226706081 0 0.013404137136032132 0.0082140066467531435 0 0.013520514585984602 0.0080535578226706081 0 0.01347108614792775 0.0081807884352266495 0 0.013520514585984602 0.0080535578226706081 0 0.01347108614792775 0.0081807884352266495 0 0.013568492882784049 0.0078648159897402765 0 0.013512829334467152 0.0085606362677896411 0 0.013307776171438435 0.0084797960009780765 0 0.01347108614792775 0.0081807884352266495 0 0.013307776171438435 0.0084797960009780765 0 0.013404137136032132 0.0082140066467531435 0 0.01347108614792775 0.0081807884352266495 0 0.012760174933223661 0.0056245726441087841 0 0.011635195279221485 0.0060538487267459496 0 0.012277927574139348 0.004935322604047227 0 0.012900454812457555 0.0072050257391152494 0 0.01439054347124203 0.0065352183388133296 0 0.012760174933223661 0.0056245726441087841 0 0.012611726993001556 0.0067070646302596982 0 0.011635195279221485 0.0060538487267459496 0 0.012760174933223661 0.0056245726441087841 0 0.012611726993001556 0.0067070646302596982 0 0.013308443530118 0.0064159211353306779 0 0.013520514585984602 0.0080535578226706081 0 0.01359314600272603 0.0079025240850224138 0 0.013599761634550855 0.0080579676491688759 0 0.013520514585984602 0.0080535578226706081 0 0.01359314600272603 0.0079025240850224138 0 0.013568492882784049 0.0078648159897402765 0 0.01359314600272603 0.0079025240850224138 0 0.013599761634550855 0.0080579676491688759 0 0.013558151661859218 0.0079031048967415987 0 0.016352946579532561 0.0093678056149165863 0 0.01439054347124203 0.0065352183388133296 0 0.013815816554673547 0.0085836035479911685 0 0.01372989293402853 0.0082792013833526985 0 0.013558151661859218 0.0079031048967415987 0 0.01372989293402853 0.0082792013833526985 0 0.013599761634550855 0.0080579676491688759 0 0.013558151661859218 0.0079031048967415987 0 0.01372989293402853 0.0082792013833526985 0 0.013520514585984602 0.0080535578226706081 0 0.013599761634550855 0.0080579676491688759 0 0.01439054347124203 0.0065352183388133296 0 0.012433891041667816 0.0050494915099689756 0 0.012447114380033217 0.0043659209762314331 0 0.012560425571495363 0.0045392836773907666 0 0.012277927574139348 0.004935322604047227 0 0.012447114380033217 0.0043659209762314331 0 0.012945524191113965 0.0042761189728838704 0 0.012560425571495363 0.0045392836773907666 0 0.017802143287991998 0.007710370345553311 0 0.016297936713707304 0.0073478823505536452 0 0.017016977242788348 0.0055369064499974181 0 0.01439054347124203 0.0065352183388133296 0 0.015311985753534865 0.0048726716980367641 0 0.019756447122145172 0.0067965795202180063 0 0.017802143287991998 0.007710370345553311 0 0.017016977242788348 0.0055369064499974181 0 0.01815507768240229 0.0099892986805099268 0 0.019756447122145172 0.0067965795202180063 0 0.017802143287991998 0.007710370345553311 0 0.01815507768240229 0.0099892986805099268 0 0.017066965191759435 0.0087701666842185198 0 0.017802143287991998 0.007710370345553311 0 0.017066965191759435 0.0087701666842185198 0 0.017802143287991998 0.007710370345553311 0 0.016297936713707304 0.0073478823505536452 0 0.01669402383109593 0.009813211045075064 0 0.017066965191759435 0.0087701666842185198 0 0.016138512780700612 0.0088442108216312734 0 0.017066965191759435 0.0087701666842185198 0 0.016138512780700612 0.0088442108216312734 0 0.016297936713707304 0.0073478823505536452 0 0.015083630933837782 0.0090986236170853222 0 0.016138512780700612 0.0088442108216312734 0 0.015101933288939719 0.0077585369959122658 0 0.016138512780700612 0.0088442108216312734 0 0.016297936713707304 0.0073478823505536452 0 0.015101933288939719 0.0077585369959122658 0 0.016297936713707304 0.0073478823505536452 0 0.015202134909513094 0.006395538243581033 0 0.015101933288939719 0.0077585369959122658 0 0.016297936713707304 0.0073478823505536452 0 0.015202134909513094 0.006395538243581033 0 0.017016977242788348 0.0055369064499974181 0 0.015311985753534865 0.0048726716980367641 0 0.014048901221146506 0.0044872024630391019 0 0.013103328092482099 0.004460979078564623 0 0.012945524191113965 0.0042761189728838704 0 0.014086738310870475 0.0044592510742764166 0 0.015202134909513094 0.006395538243581033 0 0.017016977242788348 0.0055369064499974181 0 0.014086738310870475 0.0044592510742764166 0 0.013103328092482099 0.004460979078564623 0 0.012666226779145561 0.0044804357430251913 0 0.012465563888187686 0.0044376777452285838 0 0.013103328092482099 0.004460979078564623 0 0.012666226779145561 0.0044804357430251913 0 0.012945524191113965 0.0042761189728838704 0 0.012666226779145561 0.0044804357430251913 0 0.012512564373058506 0.0044835408368023846 0 0.012465563888187686 0.0044376777452285838 0 0.012945524191113965 0.0042761189728838704 0 0.012560425571495363 0.0045392836773907666 0 0.012547457325182754 0.0045551844167559035 0 0.012666226779145561 0.0044804357430251913 0 0.012945524191113965 0.0042761189728838704 0 0.012547457325182754 0.0045551844167559035 0 0.012560425571495363 0.0045392836773907666 0 0.012547457325182754 0.0045551844167559035 0 0.012277927574139348 0.004935322604047227 0 0.012454768157521837 0.0046118159543920628 0 0.012547457325182754 0.0045551844167559035 0 0.012277927574139348 0.004935322604047227 0 0.012454768157521837 0.0046118159543920628 0 0.012481357135399621 0.0047171635712904853 0 0.012277927574139348 0.004935322604047227 0 0.012666226779145561 0.0044804357430251913 0 0.012547457325182754 0.0045551844167559035 0 0.012489336071238101 0.0045306758218462591 0 0.012454768157521837 0.0046118159543920628 0 0.012547457325182754 0.0045551844167559035 0 0.012489336071238101 0.0045306758218462591 0 0.012666226779145561 0.0044804357430251913 0 0.012489336071238101 0.0045306758218462591 0 0.012512564373058506 0.0044835408368023846 0 0.012512564373058506 0.0044835408368023846 0 0.012595723375956198 0.0044895225258933628 0 0.012507551404211444 0.0044151569482043249 0 0.012489336071238101 0.0045306758218462591 0 0.012474601861332342 0.0045170514647760963 0 0.01248003436737909 0.0045202867320926479 0 0.012489336071238101 0.0045306758218462591 0 0.012512564373058506 0.0044835408368023846 0 0.01248003436737909 0.0045202867320926479 0 0.012847144578074916 0.0041861008521226588 0 0.011570552690121368 0.00213086694867859 0 0.012454768157521837 0.0046118159543920628 0 0.012474601861332342 0.0045170514647760963 0 0.012481357135399621 0.0047171635712904853 0 0.012454768157521837 0.0046118159543920628 0 0.012489336071238101 0.0045306758218462591 0 0.012474601861332342 0.0045170514647760963 0 0.012583971709334694 0.0045920262663026023 0 0.012771527943847566 0.0046491220759586919 0 0.012481357135399621 0.0047171635712904853 0 0.011570552690121368 0.00213086694867859 0 0.011571339768439886 0.0010196443809211673 0 0.012474601861332342 0.0045170514647760963 0 0.012583971709334694 0.0045920262663026023 0 0.012481357135399621 0.0047171635712904853 0 0.012654336202904737 0.0044784615943311941 0 0.012472348370592202 0.0043106886494263903 0 0.013040911659182506 0.0042942984941001022 0 0.010585853398781367 -0.002310815522042891 0 0.010180827339813254 -0.0021398404707354342 0 0.0099651646911793294 -0.0023062322109512578 0 0.012583971709334694 0.0045920262663026023 0 0.012654336202904737 0.0044784615943311941 0 0.012771527943847566 0.0046491220759586919 0 0.012474601861332342 0.0045170514647760963 0 0.012583971709334694 0.0045920262663026023 0 0.012654336202904737 0.0044784615943311941 0 0.011638495115233634 0.0036763167843732111 0 0.011570552690121368 0.00213086694867859 0 0.012474601861332342 0.0045170514647760963 0 0.012654336202904737 0.0044784615943311941 0 0.012472348370592202 0.0043106886494263903 0 0.010180827339813254 -0.0021398404707354342 0 0.0099578402614336637 -0.0020765682549866637 0 0.0099651646911793294 -0.0023062322109512578 0 0.012654336202904737 0.0044784615943311941 0 0.012771527943847566 0.0046491220759586919 0 0.013040911659182506 0.0042942984941001022 0 0.012771527943847566 0.0046491220759586919 0 0.012697591693702191 0.0049282565986979538 0 0.013012458068950471 0.004814248755964372 0 0.012697591693702191 0.0049282565986979538 0 0.013070265158917934 0.0051402882537559483 0 0.013012458068950471 0.004814248755964372 0 0.012771527943847566 0.0046491220759586919 0 0.012697591693702191 0.0049282565986979538 0 0.012481357135399621 0.0047171635712904853 0 0.012697591693702191 0.0049282565986979538 0 0.012481357135399621 0.0047171635712904853 0 0.012277927574139348 0.004935322604047227 0 0.012760174933223661 0.0056245726441087841 0 0.012697591693702191 0.0049282565986979538 0 0.012277927574139348 0.004935322604047227 0 0.012760174933223661 0.0056245726441087841 0 0.012697591693702191 0.0049282565986979538 0 0.013070265158917934 0.0051402882537559483 0 0.012012251458713357 0.0069324780706941968 0 0.013128427323759457 0.0056778406103302299 0 0.011461869427110033 0.0057068111396164798 0 0.012012251458713357 0.0069324780706941968 0 0.012912159060340005 0.00733760502387711 0 0.013128427323759457 0.0056778406103302299 0 0.013576837017589436 0.0061290992596406621 0 0.013119429954263837 0.0041645133718044916 0 0.010011995394971275 0.0074879243558557199 0 0.011184037287122648 0.0070208367272983447 0 0.011461869427110033 0.0057068111396164798 0 0.012012251458713357 0.0069324780706941968 0 0.011184037287122648 0.0070208367272983447 0 0.011461869427110033 0.0057068111396164798 0 0.010011995394971275 0.0074879243558557199 0 0.011184037287122648 0.0070208367272983447 0 0.010893972170801069 0.0075925359722576625 0 0.012012251458713357 0.0069324780706941968 0 0.011184037287122648 0.0070208367272983447 0 0.011501818208293499 0.007517726680662978 0 0.011184037287122648 0.0070208367272983447 0 0.011501818208293499 0.007517726680662978 0 0.010893972170801069 0.0075925359722576625 0 0.010424096923686742 0.0077536549683999379 0 0.010893972170801069 0.0075925359722576625 0 0.0112420918514316 0.0080988281941232216 0 0.011501818208293499 0.007517726680662978 0 0.0112420918514316 0.0080988281941232216 0 0.012078754466866657 0.0077561448314459576 0 0.011501818208293499 0.007517726680662978 0 0.010893972170801069 0.0075925359722576625 0 0.0112420918514316 0.0080988281941232216 0 0.01349651339220808 0.0091846694398950417 0 0.012482097931250125 0.009049383713746792 0 0.012729481459837327 0.0085349806601214637 0 0.0112420918514316 0.0080988281941232216 0 0.012078754466866657 0.0077561448314459576 0 0.012012251458713357 0.0069324780706941968 0 0.011501818208293499 0.007517726680662978 0 0.012078754466866657 0.0077561448314459576 0 0.012012251458713357 0.0069324780706941968 0 0.012078754466866657 0.0077561448314459576 0 0.012912159060340005 0.00733760502387711 0 0.012729481459837327 0.0085349806601214637 0 0.012078754466866657 0.0077561448314459576 0 0.012912159060340005 0.00733760502387711 0 0.012729481459837327 0.0085349806601214637 0 0.013616301303028917 0.0081719920776061813 0 0.012912159060340005 0.00733760502387711 0 0.013616301303028917 0.0081719920776061813 0 0.012912159060340005 0.00733760502387711 0 0.013945580414054835 0.0068463905492339447 0 0.014385623967639658 0.0094672287167010555 0 0.015083630933837782 0.0090986236170853222 0 0.014379339659264306 0.008314716354253824 0 0.015083630933837782 0.0090986236170853222 0 0.014379339659264306 0.008314716354253824 0 0.015101933288939719 0.0077585369959122658 0 0.014385623967639658 0.0094672287167010555 0 0.013616301303028917 0.0081719920776061813 0 0.014379339659264306 0.008314716354253824 0 0.014379339659264306 0.008314716354253824 0 0.015101933288939719 0.0077585369959122658 0 0.013945580414054835 0.0068463905492339447 0 0.013616301303028917 0.0081719920776061813 0 0.014379339659264306 0.008314716354253824 0 0.013945580414054835 0.0068463905492339447 0 0.015202134909513094 0.006395538243581033 0 0.013945580414054835 0.0068463905492339447 0 0.014086738310870475 0.0044592510742764166 0 0.015202134909513094 0.006395538243581033 0 0.015101933288939719 0.0077585369959122658 0 0.013945580414054835 0.0068463905492339447 0 0.013945580414054835 0.0068463905492339447 0 0.013128427323759457 0.0056778406103302299 0 0.014086738310870475 0.0044592510742764166 0 0.012912159060340005 0.00733760502387711 0 0.013945580414054835 0.0068463905492339447 0 0.013128427323759457 0.0056778406103302299 0 0.013128427323759457 0.0056778406103302299 0 0.014086738310870475 0.0044592510742764166 0 0.01375444867950784 0.0040747047365953994 0 0.013103328092482099 0.004460979078564623 0 0.014086738310870475 0.0044592510742764166 0 0.013759662184786005 0.0043304438422650414 0 0.014086738310870475 0.0044592510742764166 0 0.013759662184786005 0.0043304438422650414 0 0.01375444867950784 0.0040747047365953994 0 0.01375444867950784 0.0040747047365953994 0 0.015080529833003285 0.0036022412775024229 0 0.014794912854079523 0.0041676067029108588 0 0.013690117418826591 0.0041606883566554891 0 0.013119429954263837 0.0041645133718044916 0 0.013128427323759457 0.0056778406103302299 0 0.01375444867950784 0.0040747047365953994 0 0.011461869427110033 0.0057068111396164798 0 0.01375444867950784 0.0040747047365953994 0 0.014907824943871413 0.0029740775719909697 0 0.015080529833003285 0.0036022412775024229 0 0.015449529942872452 0.0030082002870520951 0 0.014907824943871413 0.0029740775719909697 0 0.015080529833003285 0.0036022412775024229 0 0.015080529833003285 0.0036022412775024229 0 0.015311526915181478 0.0039540933298116586 0 0.014794912854079523 0.0041676067029108588 0 0.015311526915181478 0.0039540933298116586 0 0.014794912854079523 0.0041676067029108588 0 0.015491616791812634 0.0044227309945084363 0 0.015557217955686504 0.0040879577374457726 0 0.015311526915181478 0.0039540933298116586 0 0.015491616791812634 0.0044227309945084363 0 0.016179079538670746 0.0035986538908433846 0 0.015538202859050634 0.0043622518340935947 0 0.015491616791812634 0.0044227309945084363 0 0.015085916847893694 0.0050105054466615907 0 0.016031570913874166 0.0051539472993979395 0 0.015491616791812634 0.0044227309945084363 0 0.016031570913874166 0.0051539472993979395 0 0.016663601438708656 0.0043747284796046785 0 0.015085916847893694 0.0050105054466615907 0 0.014337425048054834 0.0045362792232765707 0 0.014516297184095986 0.005310269828160883 0 0.015491616791812634 0.0044227309945084363 0 0.015085916847893694 0.0050105054466615907 0 0.014337425048054834 0.0045362792232765707 0 0.01375444867950784 0.0040747047365953994 0 0.014794912854079523 0.0041676067029108588 0 0.014337425048054834 0.0045362792232765707 0 0.014794912854079523 0.0041676067029108588 0 0.015491616791812634 0.0044227309945084363 0 0.014337425048054834 0.0045362792232765707 0 0.013759662184786005 0.0043304438422650414 0 0.014337425048054834 0.0045362792232765707 0 0.013621858132704372 0.0046715857950186202 0 0.013759662184786005 0.0043304438422650414 0 0.01375444867950784 0.0040747047365953994 0 0.014337425048054834 0.0045362792232765707 0 0.013103328092482099 0.004460979078564623 0 0.013759662184786005 0.0043304438422650414 0 0.013621858132704372 0.0046715857950186202 0 0.014337425048054834 0.0045362792232765707 0 0.013621858132704372 0.0046715857950186202 0 0.014516297184095986 0.005310269828160883 0 0.014516297184095986 0.005310269828160883 0 0.013791587493906765 0.005495345130084559 0 0.014846240646482144 0.0060102684254272837 0 0.013621858132704372 0.0046715857950186202 0 0.014516297184095986 0.005310269828160883 0 0.013791587493906765 0.005495345130084559 0 0.013791587493906765 0.005495345130084559 0 0.013417539924755495 0.0061346066852407729 0 0.012956668147443976 0.005375021243484498 0 0.013621858132704372 0.0046715857950186202 0 0.013791587493906765 0.005495345130084559 0 0.012956668147443976 0.005375021243484498 0 0.013791587493906765 0.005495345130084559 0 0.013417539924755495 0.0061346066852407729 0 0.014088956797145665 0.0063200382316358208 0 0.013791587493906765 0.005495345130084559 0 0.014088956797145665 0.0063200382316358208 0 0.014846240646482144 0.0060102684254272837 0 0.014846240646482144 0.0060102684254272837 0 0.015853412656647969 0.0062583843963910125 0 0.015543607175412854 0.0064502864032777614 0 0.014846240646482144 0.0060102684254272837 0 0.015853412656647969 0.0062583843963910125 0 0.015499154445921147 0.0056642007399936838 0 0.015853412656647969 0.0062583843963910125 0 0.015499154445921147 0.0056642007399936838 0 0.016783619596648685 0.0059114213476791433 0 0.015085916847893694 0.0050105054466615907 0 0.015499154445921147 0.0056642007399936838 0 0.016031570913874166 0.0051539472993979395 0 0.015499154445921147 0.0056642007399936838 0 0.016031570913874166 0.0051539472993979395 0 0.016783619596648685 0.0059114213476791433 0 0.015085916847893694 0.0050105054466615907 0 0.014516297184095986 0.005310269828160883 0 0.015499154445921147 0.0056642007399936838 0 0.014516297184095986 0.005310269828160883 0 0.014846240646482144 0.0060102684254272837 0 0.015499154445921147 0.0056642007399936838 0 0.010488355086636222 -0.00123360139058752 0 0.010032119440952825 -0.0015730276905556765 0 0.0098667621474840261 -0.0010092664369541731 0 0.010488355086636222 -0.00123360139058752 0 0.010032119440952825 -0.0015730276905556765 0 0.010194327504564242 -0.0018447185386180958 0 0.011570552690121368 0.00213086694867859 0 0.011511871535956758 0.0011799449864960765 0 0.010585853398781367 -0.002310815522042891 0 0.010488355086636222 -0.00123360139058752 0 0.010194327504564242 -0.0018447185386180958 0 0.012595723375956198 0.0044895225258933628 0 0.012525678345108525 0.0040149925500583593 0 0.012483786812337647 0.00428226475047445 0 0.010032119440952825 -0.0015730276905556765 0 0.010194327504564242 -0.0018447185386180958 0 0.0099027839502120463 -0.0018863396003441298 0 0.010194327504564242 -0.0018447185386180958 0 0.010180827339813254 -0.0021398404707354342 0 0.0099578402614336637 -0.0020765682549866637 0 0.010585853398781367 -0.002310815522042891 0 0.010194327504564242 -0.0018447185386180958 0 0.010180827339813254 -0.0021398404707354342 0 0.010194327504564242 -0.0018447185386180958 0 0.0099578402614336637 -0.0020765682549866637 0 0.0099027839502120463 -0.0018863396003441298 0 0.012595723375956198 0.0044895225258933628 0 0.012483786812337647 0.00428226475047445 0 0.012507551404211444 0.0044151569482043249 0 0.012483786812337647 0.00428226475047445 0 0.012507551404211444 0.0044151569482043249 0 0.012465563888187686 0.0044376777452285838 0 0.012512564373058506 0.0044835408368023846 0 0.012507551404211444 0.0044151569482043249 0 0.012465563888187686 0.0044376777452285838 0 0.012483786812337647 0.00428226475047445 0 0.012360019390645384 0.0041546174379617816 0 0.012465563888187686 0.0044376777452285838 0 0.012525678345108525 0.0040149925500583593 0 0.012360019390645384 0.0041546174379617816 0 0.012149246929700467 0.0036320400789794645 0 0.012525678345108525 0.0040149925500583593 0 0.012483786812337647 0.00428226475047445 0 0.012360019390645384 0.0041546174379617816 0 0.012360019390645384 0.0041546174379617816 0 0.012434399017488022 0.0044786020367630092 0 0.012465563888187686 0.0044376777452285838 0 0.012360019390645384 0.0041546174379617816 0 0.012434399017488022 0.0044786020367630092 0 0.012149246929700467 0.0036320400789794645 0 0.013103328092482099 0.004460979078564623 0 0.012434399017488022 0.0044786020367630092 0 0.012465563888187686 0.0044376777452285838 0 0.013103328092482099 0.004460979078564623 0 0.013621858132704372 0.0046715857950186202 0 0.012434399017488022 0.0044786020367630092 0 0.013621858132704372 0.0046715857950186202 0 0.012434399017488022 0.0044786020367630092 0 0.012956668147443976 0.005375021243484498 0 0.012412452095903357 0.0044868909928341251 0 0.012376225580792866 0.0044766120961473024 0 0.011678009048535103 0.0033177508177727457 0 0.011781969337011358 0.0036767506221056412 0 0.011853703242664519 0.0032400598110696706 0 0.01251555917444252 0.0049837655710484666 0 0.012376225580792866 0.0044766120961473024 0 0.011853703242664519 0.0032400598110696706 0 0.012149246929700467 0.0036320400789794645 0 0.011868616119355935 0.0031544089192982096 0 0.011781969337011358 0.0036767506221056412 0 0.011853703242664519 0.0032400598110696706 0 0.012149246929700467 0.0036320400789794645 0 0.012434399017488022 0.0044786020367630092 0 0.011781969337011358 0.0036767506221056412 0 0.012149246929700467 0.0036320400789794645 0 0.012149246929700467 0.0036320400789794645 0 0.011868616119355935 0.0031544089192982096 0 0.012000800733181516 0.0031391536239902479 0 0.011868616119355935 0.0031544089192982096 0 0.012000800733181516 0.0031391536239902479 0 0.011482795026297237 0.0029368434591565272 0 0.011156064513501375 0.0018761737160154781 0 0.010670528802662282 0.0026095732070680814 0 0.011511871535956758 0.0011799449864960765 0 0.011156064513501375 0.0018761737160154781 0 0.010488355086636222 -0.00123360139058752 0 0.010419302856892751 0.00032190694766346989 0 0.0098667621474840261 -0.0010092664369541731 0 0.012525678345108525 0.0040149925500583593 0 0.012149246929700467 0.0036320400789794645 0 0.012000800733181516 0.0031391536239902479 0 0.010989929746256573 0.0032711074877097858 0 0.011482795026297237 0.0029368434591565272 0 0.011700142430894208 0.0034737156730654368 0 0.010989929746256573 0.0032711074877097858 0 0.011700142430894208 0.0034737156730654368 0 0.0099456839021858281 0.0042959908199612746 0 0.012000800733181516 0.0031391536239902479 0 0.011482795026297237 0.0029368434591565272 0 0.010595044631549883 0.0025652174186473597 0 0.010989929746256573 0.0032711074877097858 0 0.011482795026297237 0.0029368434591565272 0 0.010595044631549883 0.0025652174186473597 0 0.011868616119355935 0.0031544089192982096 0 0.011482795026297237 0.0029368434591565272 0 0.011810104661300804 0.0031132591296609878 0 0.011482795026297237 0.0029368434591565272 0 0.011810104661300804 0.0031132591296609878 0 0.011700142430894208 0.0034737156730654368 0 0.0088393820460676252 0.0014744025285814638 0 0.010604170464883909 0.00040513622950908199 0 0.0058748682981676131 -0.00060653885392448505 0 0.009705346955443072 -0.0016154366752690345 0 0.0088729658025279313 0.00020369544224021669 0 0.011810104661300804 0.0031132591296609878 0 0.011700142430894208 0.0034737156730654368 0 0.011858577351463217 0.0031365153543263867 0 0.011853703242664519 0.0032400598110696706 0 0.011810104661300804 0.0031132591296609878 0 0.011858577351463217 0.0031365153543263867 0 0.011853703242664519 0.0032400598110696706 0 0.011868616119355935 0.0031544089192982096 0 0.011810104661300804 0.0031132591296609878 0 0.011678009048535103 0.0033177508177727457 0 0.011853703242664519 0.0032400598110696706 0 0.011858577351463217 0.0031365153543263867 0 0.011678009048535103 0.0033177508177727457 0 0.011858577351463217 0.0031365153543263867 0 0.011637206488541312 0.0031789937703412276 0 0.010604170464883909 0.00040513622950908199 0 0.014132478995669766 0.0031886938406804747 0 0.009705346955443072 -0.0016154366752690345 0 0.01196096037605184 0.0011221400611824098 0 0.014171647653597406 0.00036736851241428735 0 0.009705346955443072 -0.0016154366752690345 0 0.01196096037605184 0.0011221400611824098 0 0.0088729658025279313 0.00020369544224021669 0 0.01196096037605184 0.0011221400611824098 0 0.010533064214256234 0.0022328814573177357 0 0.0088729658025279313 0.00020369544224021669 0 0.01196096037605184 0.0011221400611824098 0 0.010533064214256234 0.0022328814573177357 0 0.012096991791553137 0.0023082363244752409 0 0.010533064214256234 0.0022328814573177357 0 0.012096991791553137 0.0023082363244752409 0 0.012232680939796785 0.0034053866177975152 0 0.010533064214256234 0.0022328814573177357 0 0.012232680939796785 0.0034053866177975152 0 0.010833618994690078 0.0036369227410794841 0 0.012232680939796785 0.0034053866177975152 0 0.011943726516717868 0.0046489658618998828 0 0.01281466468391201 0.00422522900384854 0 0.012232680939796785 0.0034053866177975152 0 0.011943726516717868 0.0046489658618998828 0 0.010833618994690078 0.0036369227410794841 0 0.010833618994690078 0.0036369227410794841 0 0.009048610602485057 0.0029002078648878563 0 0.010377465265077728 0.004991538826481551 0 0.011943726516717868 0.0046489658618998828 0 0.010833618994690078 0.0036369227410794841 0 0.010377465265077728 0.004991538826481551 0 0.010533064214256234 0.0022328814573177357 0 0.010833618994690078 0.0036369227410794841 0 0.009048610602485057 0.0029002078648878563 0 0.009048610602485057 0.0029002078648878563 0 0.0065847895498229924 9.6846979173162813e-05 0 0.0073869536081573725 0.0050160757846066401 0 0.009048610602485057 0.0029002078648878563 0 0.010377465265077728 0.004991538826481551 0 0.0073869536081573725 0.0050160757846066401 0 0.009048610602485057 0.0029002078648878563 0 0.0088729658025279313 0.00020369544224021669 0 0.0065847895498229924 9.6846979173162813e-05 0 0.010533064214256234 0.0022328814573177357 0 0.009048610602485057 0.0029002078648878563 0 0.0088729658025279313 0.00020369544224021669 0 0.0058748682981676131 -0.00060653885392448505 0 0.0065847895498229924 9.6846979173162813e-05 0 0.0061934987606663185 -0.0005029533991138316 0 0.0058748682981676131 -0.00060653885392448505 0 0.0088729658025279313 0.00020369544224021669 0 0.0065847895498229924 9.6846979173162813e-05 0 0.0061934987606663185 -0.0005029533991138316 0 0.0062427591848081701 -0.0011646787119046638 0 0.0052849915917357613 -0.0015098465537023401 0 0.0065847895498229924 9.6846979173162813e-05 0 0.0061934987606663185 -0.0005029533991138316 0 0.0052849915917357613 -0.0015098465537023401 0 0.0062427591848081701 -0.0011646787119046638 0 0.0052849915917357613 -0.0015098465537023401 0 0.0059840851437355114 -0.0018441035877476729 0 0.0065734367428083636 -0.00026311064976849172 0 0.0059951096769984887 0.0026308453768152228 0 0.0062427591848081701 -0.0011646787119046638 0 0.0066322460242941202 -0.0014221211414072656 0 0.0063478353986528941 -0.0016837420396266991 0 0.0062427591848081701 -0.0011646787119046638 0 0.0062605944491026444 -0.000786663518305161 0 0.0066322460242941202 -0.0014221211414072656 0 0.0061934987606663185 -0.0005029533991138316 0 0.0062427591848081701 -0.0011646787119046638 0 0.0062605944491026444 -0.000786663518305161 0 0.0062427591848081701 -0.0011646787119046638 0 0.0059840851437355114 -0.0018441035877476729 0 0.0063478353986528941 -0.0016837420396266991 0 0.0058748682981676131 -0.00060653885392448505 0 0.0061934987606663185 -0.0005029533991138316 0 0.0062605944491026444 -0.000786663518305161 0 0.0058748682981676131 -0.00060653885392448505 0 0.0062605944491026444 -0.000786663518305161 0 0.0066031983123231303 -0.000632642406943681 0 0.0088393820460676252 0.0014744025285814638 0 0.0082738528890281514 0.0018817709345196718 0 0.015721212753766065 0.0059225618279458653 0 0.015529654511925714 0.0063186051645185287 0 0.016709354309896403 0.003699199875351934 0 0.016662195251815889 0.0027070971186511786 0 0.016709354309896403 0.003699199875351934 0 0.016589644948627309 0.0027674659225829608 0 0.016276146627190895 0.0044625866085133232 0 0.016838434154729614 0.003826640900723668 0 0.016662195251815889 0.0027070971186511786 0 0.017039961194921394 0.0027711617844208276 0 0.017470008965116513 0.0022501834181238504 0 0.015529654511925714 0.0063186051645185287 0 0.015804130504651324 0.0065155852762449791 0 0.017025063979269776 0.0076093989400103186 0 0.015721212753766065 0.0059225618279458653 0 0.015529654511925714 0.0063186051645185287 0 0.015804130504651324 0.0065155852762449791 0 0.015853412656647969 0.0062583843963910125 0 0.015804130504651324 0.0065155852762449791 0 0.016543460458867246 0.0065760020158218326 0 0.015853412656647969 0.0062583843963910125 0 0.015804130504651324 0.0065155852762449791 0 0.015543607175412854 0.0064502864032777614 0 0.014846240646482144 0.0060102684254272837 0 0.015543607175412854 0.0064502864032777614 0 0.01463366199385651 0.0067787438945688333 0 0.015721212753766065 0.0059225618279458653 0 0.015543607175412854 0.0064502864032777614 0 0.016305011855659555 0.0059621732721503364 0 0.015721212753766065 0.0059225618279458653 0 0.015804130504651324 0.0065155852762449791 0 0.015543607175412854 0.0064502864032777614 0 0.015442158373534054 0.0064361480198309572 0 0.015602621485850988 0.0062473897504104516 0 0.014088956797145665 0.0063200382316358208 0 0.01463366199385651 0.0067787438945688333 0 0.013890005335159503 0.006958602866667489 0 0.015602621485850988 0.0062473897504104516 0 0.014132478995669766 0.0031886938406804747 0 0.014088956797145665 0.0063200382316358208 0 0.014846240646482144 0.0060102684254272837 0 0.01463366199385651 0.0067787438945688333 0 0.013417539924755495 0.0061346066852407729 0 0.014088956797145665 0.0063200382316358208 0 0.013890005335159503 0.006958602866667489 0 0.01251555917444252 0.0049837655710484666 0 0.014132478995669766 0.0031886938406804747 0 0.009705346955443072 -0.0016154366752690345 0 0.014523153877564624 -0.00260644283491671 0 0.014171647653597406 0.00036736851241428735 0 0.016305011855659555 0.0059621732721503364 0 0.017820179075353236 0.0052529361945928303 0 0.016709354309896403 0.003699199875351934 0 0.017820179075353236 0.0052529361945928303 0 0.016709354309896403 0.003699199875351934 0 0.016497016450545399 0.0024184155726859999 0 0.014132478995669766 0.0031886938406804747 0 0.016890723705784559 0.0017538414890262259 0 0.015721212753766065 0.0059225618279458653 0 0.016305011855659555 0.0059621732721503364 0 0.016709354309896403 0.003699199875351934 0 0.014523153877564624 -0.00260644283491671 0 0.014171647653597406 0.00036736851241428735 0 0.016497016450545399 0.0024184155726859999 0 0.016709354309896403 0.003699199875351934 0 0.016497016450545399 0.0024184155726859999 0 0.016589644948627309 0.0027674659225829608 0 0.014171647653597406 0.00036736851241428735 0 0.016497016450545399 0.0024184155726859999 0 0.014395769338949494 0.0018641011638248306 0 0.016497016450545399 0.0024184155726859999 0 0.015238045943561483 0.0028542749683303881 0 0.014395769338949494 0.0018641011638248306 0 0.016497016450545399 0.0024184155726859999 0 0.015238045943561483 0.0028542749683303881 0 0.016367464253376662 0.0029038245630434948 0 0.01196096037605184 0.0011221400611824098 0 0.014171647653597406 0.00036736851241428735 0 0.014395769338949494 0.0018641011638248306 0 0.015238045943561483 0.0028542749683303881 0 0.014395769338949494 0.0018641011638248306 0 0.013542290955175645 0.0025618338947337315 0 0.01196096037605184 0.0011221400611824098 0 0.014395769338949494 0.0018641011638248306 0 0.013542290955175645 0.0025618338947337315 0 0.01196096037605184 0.0011221400611824098 0 0.012096991791553137 0.0023082363244752409 0 0.013542290955175645 0.0025618338947337315 0 0.012232680939796785 0.0034053866177975152 0 0.013542290955175645 0.0025618338947337315 0 0.013736151431714302 0.0037888691167506186 0 0.012096991791553137 0.0023082363244752409 0 0.012232680939796785 0.0034053866177975152 0 0.013542290955175645 0.0025618338947337315 0 0.015238045943561483 0.0028542749683303881 0 0.013542290955175645 0.0025618338947337315 0 0.013736151431714302 0.0037888691167506186 0 0.015238045943561483 0.0028542749683303881 0 0.013736151431714302 0.0037888691167506186 0 0.015162501237363513 0.0038932716508106205 0 0.0140738515439678 0.0046255635877969345 0 0.013736151431714302 0.0037888691167506186 0 0.015162501237363513 0.0038932716508106205 0 0.0140738515439678 0.0046255635877969345 0 0.013736151431714302 0.0037888691167506186 0 0.013322253884393384 0.0050509279569597963 0 0.012232680939796785 0.0034053866177975152 0 0.01281466468391201 0.00422522900384854 0 0.013736151431714302 0.0037888691167506186 0 0.011943726516717868 0.0046489658618998828 0 0.01281466468391201 0.00422522900384854 0 0.013322253884393384 0.0050509279569597963 0 0.01281466468391201 0.00422522900384854 0 0.013736151431714302 0.0037888691167506186 0 0.013322253884393384 0.0050509279569597963 0 0.016367464253376662 0.0029038245630434948 0 0.015162501237363513 0.0038932716508106205 0 0.016702552262267547 0.0033590382280801554 0 0.015162501237363513 0.0038932716508106205 0 0.016702552262267547 0.0033590382280801554 0 0.014025375372350131 0.0057845015376344015 0 0.015238045943561483 0.0028542749683303881 0 0.016367464253376662 0.0029038245630434948 0 0.015162501237363513 0.0038932716508106205 0 0.016702552262267547 0.0033590382280801554 0 0.016589644948627309 0.0027674659225829608 0 0.016925407026402769 0.0033458046487548896 0 0.016367464253376662 0.0029038245630434948 0 0.016702552262267547 0.0033590382280801554 0 0.016589644948627309 0.0027674659225829608 0 0.016497016450545399 0.0024184155726859999 0 0.016367464253376662 0.0029038245630434948 0 0.016589644948627309 0.0027674659225829608 0 0.016662195251815889 0.0027070971186511786 0 0.016589644948627309 0.0027674659225829608 0 0.017039961194921394 0.0027711617844208276 0 0.016589644948627309 0.0027674659225829608 0 0.017039961194921394 0.0027711617844208276 0 0.017046036288025933 0.0030262564166656908 0 0.017046036288025933 0.0030262564166656908 0 0.017246306708917143 0.0033926633946068925 0 0.016925407026402769 0.0033458046487548896 0 0.016589644948627309 0.0027674659225829608 0 0.017046036288025933 0.0030262564166656908 0 0.016925407026402769 0.0033458046487548896 0 0.017046036288025933 0.0030262564166656908 0 0.017383434211443286 0.0030760382928772629 0 0.017244776352369033 0.0029119950121036472 0 0.017046036288025933 0.0030262564166656908 0 0.017383434211443286 0.0030760382928772629 0 0.017246306708917143 0.0033926633946068925 0 0.017383434211443286 0.0030760382928772629 0 0.017679867918689904 0.0032086608083364879 0 0.017246306708917143 0.0033926633946068925 0 0.017383434211443286 0.0030760382928772629 0 0.017679867918689904 0.0032086608083364879 0 0.017560277280139161 0.0027181797296970027 0 0.018481586076928513 0.0040749875393995254 0 0.017560277280139161 0.0027181797296970027 0 0.018706815951767836 0.0029968751396560133 0 0.01769326593292481 0.0043518138348831153 0 0.017650324209022392 0.0024811152558589533 0 0.017039961194921394 0.0027711617844208276 0 0.017560277280139161 0.0027181797296970027 0 0.017244776352369033 0.0029119950121036472 0 0.017383434211443286 0.0030760382928772629 0 0.017560277280139161 0.0027181797296970027 0 0.017244776352369033 0.0029119950121036472 0 0.017039961194921394 0.0027711617844208276 0 0.017046036288025933 0.0030262564166656908 0 0.017244776352369033 0.0029119950121036472 0 0.016276146627190895 0.0044625866085133232 0 0.017280792535362119 0.00490662489425105 0 0.017039961194921394 0.0027711617844208276 0 0.017560277280139161 0.0027181797296970027 0 0.017470008965116513 0.0022501834181238504 0 0.017560277280139161 0.0027181797296970027 0 0.017470008965116513 0.0022501834181238504 0 0.019016590674491268 0.0019718803467420215 0 0.017025063979269776 0.0076093989400103186 0 0.017612997024715794 0.0067580794008799561 0 0.019120040985817103 0.0079503527973607546 0 0.017560277280139161 0.0027181797296970027 0 0.019016590674491268 0.0019718803467420215 0 0.018706815951767836 0.0029968751396560133 0 0.017280792535362119 0.00490662489425105 0 0.019172463696691615 0.0049300374964542553 0 0.017025063979269776 0.0076093989400103186 0 0.017612997024715794 0.0067580794008799561 0 0.016543460458867246 0.0065760020158218326 0 0.015804130504651324 0.0065155852762449791 0 0.017025063979269776 0.0076093989400103186 0 0.016543460458867246 0.0065760020158218326 0 0.019120040985817103 0.0079503527973607546 0 0.021051703038018281 0.007868584269268869 0 0.020063592962270008 0.0063908047360572724 0 0.018831270689482753 0.0068001339379323194 0 0.019120040985817103 0.0079503527973607546 0 0.020063592962270008 0.0063908047360572724 0 0.017612997024715794 0.0067580794008799561 0 0.018831270689482753 0.0068001339379323194 0 0.019120040985817103 0.0079503527973607546 0 0.019016590674491268 0.0019718803467420215 0 0.019853970891960816 0.0031728736317796526 0 0.020579166525547487 0.0018208203219738715 0 0.019172463696691615 0.0049300374964542553 0 0.020402073796820498 0.0049790533499549467 0 0.018481586076928513 0.0040749875393995254 0 0.019853970891960816 0.0031728736317796526 0 0.020221799125103055 0.0045786353771430184 0 0.019016590674491268 0.0019718803467420215 0 0.019853970891960816 0.0031728736317796526 0 0.018706815951767836 0.0029968751396560133 0 0.018481586076928513 0.0040749875393995254 0 0.019853970891960816 0.0031728736317796526 0 0.018706815951767836 0.0029968751396560133 0 0.019853970891960816 0.0031728736317796526 0 0.021178650859525194 0.0037446271149196649 0 0.020221799125103055 0.0045786353771430184 0 0.023151193703446551 0.0002458822420450639 0 0.022811075142780041 0.00076006469365772953 0 0.025377492159109366 -0.0031701193295358477 0 0.025570033649328434 -0.0031412926115785473 0 0.025519144911161376 -0.0032324940653331931 0 0.025377492159109366 -0.0031701193295358477 0 0.025570033649328434 -0.0031412926115785473 0 0.025375269053415101 -0.0030430489245100267 0 0.021178650859525194 0.0037446271149196649 0 0.021094594880494338 0.0027877406231041199 0 0.022147503670158601 0.0028863082408677695 0 0.021094594880494338 0.0027877406231041199 0 0.022147503670158601 0.0028863082408677695 0 0.021487450176025578 0.0022989301293726413 0 0.023151193703446551 0.0002458822420450639 0 0.024888864941878322 0.00055667248980870165 0 0.019853970891960816 0.0031728736317796526 0 0.021178650859525194 0.0037446271149196649 0 0.021094594880494338 0.0027877406231041199 0 0.019853970891960816 0.0031728736317796526 0 0.021094594880494338 0.0027877406231041199 0 0.020579166525547487 0.0018208203219738715 0 0.025491469681525953 8.1888016874489747e-05 0 0.025000236543262919 0.00099366603979360269 0 0.024998620482610263 -2.6500606808384709e-05 0 0.025491469681525953 8.1888016874489747e-05 0 0.025770434433024261 0.00080914257535153508 0 0.025000236543262919 0.00099366603979360269 0 0.026084211427858377 -0.0020454627425202311 0 0.024888864941878322 0.00055667248980870165 0 0.025491469681525953 8.1888016874489747e-05 0 0.02651165109182688 -0.00028163687609443304 0 0.025770434433024261 0.00080914257535153508 0 0.02651165109182688 -0.00028163687609443304 0 0.026519089828403234 0.0011933827413899509 0 0.025770434433024261 0.00080914257535153508 0 0.024888864941878322 0.00055667248980870165 0 0.025775916528143188 0.0009227504005386995 0 0.026084472708663767 0.0015468231899214823 0 0.025770434433024261 0.00080914257535153508 0 0.025461791299075266 0.0013995049702901999 0 0.026519089828403234 0.0011933827413899509 0 0.026084472708663767 0.0015468231899214823 0 0.025770434433024261 0.00080914257535153508 0 0.025770434433024261 0.00080914257535153508 0 0.025000236543262919 0.00099366603979360269 0 0.025461791299075266 0.0013995049702901999 0 0.026084472708663767 0.0015468231899214823 0 0.025461791299075266 0.0013995049702901999 0 0.024999824066659765 0.0024181500849446151 0 0.025000236543262919 0.00099366603979360269 0 0.025461791299075266 0.0013995049702901999 0 0.024999824066659765 0.0024181500849446151 0 0.026413589774972872 0.0012333962984835594 0 0.026084472708663767 0.0015468231899214823 0 0.026437222107370827 0.0022990706820525384 0 0.024888864941878322 0.00055667248980870165 0 0.024250518046333224 0.0037199819586156094 0 0.026084472708663767 0.0015468231899214823 0 0.026437222107370827 0.0022990706820525384 0 0.024999824066659765 0.0024181500849446151 0 0.024250518046333224 0.0037199819586156094 0 0.024630588417096179 0.0051642653019178409 0 0.026405934487909299 0.0023582032236510184 0 0.025760688680740055 0.00308555728946835 0 0.026454302241814324 0.0038150795870886271 0 0.026405934487909299 0.0023582032236510184 0 0.025760688680740055 0.00308555728946835 0 0.024999965836605829 0.0024184173602425306 0 0.024250518046333224 0.0037199819586156094 0 0.025004249078364491 0.002417186707945343 0 0.025760688680740055 0.00308555728946835 0 0.024999965836605829 0.0024184173602425306 0 0.024999971433148055 0.0038593909115317566 0 0.021094594880494338 0.0027877406231041199 0 0.020579166525547487 0.0018208203219738715 0 0.021487450176025578 0.0022989301293726413 0 0.022125468161109489 0.0016982674105220734 0 0.020579166525547487 0.0018208203219738715 0 0.021487450176025578 0.0022989301293726413 0 0.024250518046333224 0.0037199819586156094 0 0.020402073796820498 0.0049790533499549467 0 0.022147503670158601 0.0028863082408677695 0 0.022125468161109489 0.0016982674105220734 0 0.021487450176025578 0.0022989301293726413 0 0.022787785853713483 0.007682367800821488 0 0.021822404555467748 0.0067618311083841335 0 0.022704712344538542 0.0059004091397880307 0 0.022787785853713483 0.007682367800821488 0 0.021051703038018281 0.007868584269268869 0 0.021822404555467748 0.0067618311083841335 0 0.021051703038018281 0.007868584269268869 0 0.021822404555467748 0.0067618311083841335 0 0.020063592962270008 0.0063908047360572724 0 0.021822404555467748 0.0067618311083841335 0 0.021665874951462768 0.0053034587823424344 0 0.020063592962270008 0.0063908047360572724 0 0.021822404555467748 0.0067618311083841335 0 0.021665874951462768 0.0053034587823424344 0 0.022704712344538542 0.0059004091397880307 0 0.021665874951462768 0.0053034587823424344 0 0.022704712344538542 0.0059004091397880307 0 0.022571825329713094 0.0043278149541858737 0 0.025760688680740055 0.00308555728946835 0 0.024999971433148055 0.0038593909115317566 0 0.025736420812312834 0.0045717389240764496 0 0.025760688680740055 0.00308555728946835 0 0.026454302241814324 0.0038150795870886271 0 0.025736420812312834 0.0045717389240764496 0 0.024630588417096179 0.0051642653019178409 0 0.024503205442397976 0.0047561592404549635 0 0.026454302241814324 0.0038150795870886271 0 0.025736420812312834 0.0045717389240764496 0 0.026466677613672624 0.0053093367989061327 0 0.024999971433148055 0.0038593909115317566 0 0.025736420812312834 0.0045717389240764496 0 0.024999945838366868 0.005300522051096955 0 0.025736420812312834 0.0045717389240764496 0 0.024999945838366868 0.005300522051096955 0 0.025716011115309131 0.006089786237726642 0 0.025736420812312834 0.0045717389240764496 0 0.026466677613672624 0.0053093367989061327 0 0.025716011115309131 0.006089786237726642 0 0.026383507622851229 0.0068641610901853216 0 0.026466677613672624 0.0053093367989061327 0 0.025716011115309131 0.006089786237726642 0 0.024999831486931065 0.0067416688113045827 0 0.024999945838366868 0.005300522051096955 0 0.025716011115309131 0.006089786237726642 0 0.021665874951462768 0.0053034587823424344 0 0.021903440626072898 0.0039364225667776667 0 0.020504994795007479 0.0048850747694384154 0 0.021665874951462768 0.0053034587823424344 0 0.022571825329713094 0.0043278149541858737 0 0.021903440626072898 0.0039364225667776667 0 0.024336473108060003 0.0053256878028177957 0 0.024503205442397976 0.0047561592404549635 0 0.022300193247091989 0.0036850337344524506 0 0.022571825329713094 0.0043278149541858737 0 0.021903440626072898 0.0039364225667776667 0 0.021083385558239701 0.0032843473868332689 0 0.021903440626072898 0.0039364225667776667 0 0.020670509811951079 0.0039532789862703477 0 0.019796223621871181 0.0033286388280662025 0 0.021083385558239701 0.0032843473868332689 0 0.020670509811951079 0.0039532789862703477 0 0.020670509811951079 0.0039532789862703477 0 0.020504994795007479 0.0048850747694384154 0 0.019537319402143736 0.0043578218166819473 0 0.021903440626072898 0.0039364225667776667 0 0.020670509811951079 0.0039532789862703477 0 0.020504994795007479 0.0048850747694384154 0 0.019537319402143736 0.0043578218166819473 0 0.0187136802695092 0.0037342900559010541 0 0.018321134923414122 0.0046619782584519272 0 0.020504994795007479 0.0048850747694384154 0 0.019537319402143736 0.0043578218166819473 0 0.019103887287722589 0.0053438253304910642 0 0.019537319402143736 0.0043578218166819473 0 0.018321134923414122 0.0046619782584519272 0 0.019103887287722589 0.0053438253304910642 0 0.019796223621871181 0.0033286388280662025 0 0.020670509811951079 0.0039532789862703477 0 0.019537319402143736 0.0043578218166819473 0 0.019796223621871181 0.0033286388280662025 0 0.019537319402143736 0.0043578218166819473 0 0.0187136802695092 0.0037342900559010541 0 0.01889419957385961 0.0029817938503426504 0 0.019796223621871181 0.0033286388280662025 0 0.0187136802695092 0.0037342900559010541 0 0.0175583805994763 0.0038367156514766175 0 0.0187136802695092 0.0037342900559010541 0 0.018321134923414122 0.0046619782584519272 0 0.018017634941627614 0.002914845274529915 0 0.01889419957385961 0.0029817938503426504 0 0.0187136802695092 0.0037342900559010541 0 0.018017634941627614 0.002914845274529915 0 0.0175583805994763 0.0038367156514766175 0 0.0187136802695092 0.0037342900559010541 0 0.016824288325882779 0.0030006200100871632 0 0.0175583805994763 0.0038367156514766175 0 0.016663601438708656 0.0043747284796046785 0 0.016824288325882779 0.0030006200100871632 0 0.015491616791812634 0.0044227309945084363 0 0.016663601438708656 0.0043747284796046785 0 0.016824288325882779 0.0030006200100871632 0 0.018017634941627614 0.002914845274529915 0 0.0175583805994763 0.0038367156514766175 0 0.0175583805994763 0.0038367156514766175 0 0.016663601438708656 0.0043747284796046785 0 0.017199785712391231 0.0049420284051999632 0 0.016031570913874166 0.0051539472993979395 0 0.016663601438708656 0.0043747284796046785 0 0.017199785712391231 0.0049420284051999632 0 0.017199785712391231 0.0049420284051999632 0 0.018321134923414122 0.0046619782584519272 0 0.017727575077332115 0.0055081605779477086 0 0.0175583805994763 0.0038367156514766175 0 0.017199785712391231 0.0049420284051999632 0 0.018321134923414122 0.0046619782584519272 0 0.017727575077332115 0.0055081605779477086 0 0.018370495324238671 0.0060958957245293927 0 0.019103887287722589 0.0053438253304910642 0 0.018321134923414122 0.0046619782584519272 0 0.017727575077332115 0.0055081605779477086 0 0.019103887287722589 0.0053438253304910642 0 0.017199785712391231 0.0049420284051999632 0 0.017727575077332115 0.0055081605779477086 0 0.016783619596648685 0.0059114213476791433 0 0.016031570913874166 0.0051539472993979395 0 0.017199785712391231 0.0049420284051999632 0 0.016783619596648685 0.0059114213476791433 0 0.017612997024715794 0.0067580794008799561 0 0.016543460458867246 0.0065760020158218326 0 0.016783619596648685 0.0059114213476791433 0 0.015853412656647969 0.0062583843963910125 0 0.016543460458867246 0.0065760020158218326 0 0.016783619596648685 0.0059114213476791433 0 0.017612997024715794 0.0067580794008799561 0 0.016783619596648685 0.0059114213476791433 0 0.018370495324238671 0.0060958957245293927 0 0.017727575077332115 0.0055081605779477086 0 0.016783619596648685 0.0059114213476791433 0 0.018370495324238671 0.0060958957245293927 0 0.017612997024715794 0.0067580794008799561 0 0.018831270689482753 0.0068001339379323194 0 0.018370495324238671 0.0060958957245293927 0 0.018370495324238671 0.0060958957245293927 0 0.020063592962270008 0.0063908047360572724 0 0.019103887287722589 0.0053438253304910642 0 0.018831270689482753 0.0068001339379323194 0 0.018370495324238671 0.0060958957245293927 0 0.020063592962270008 0.0063908047360572724 0 0.021665874951462768 0.0053034587823424344 0 0.020504994795007479 0.0048850747694384154 0 0.020063592962270008 0.0063908047360572724 0 0.020504994795007479 0.0048850747694384154 0 0.020063592962270008 0.0063908047360572724 0 0.019103887287722589 0.0053438253304910642 0 0.0049298084525850484 0.00056809614003772841 0 0.0050832443327090086 0.00047925422601393833 0 0.0048363686554573305 0.0007248860890583256 0 0.004854958570227802 0.00069662589944283779 0 0.0049040561140849225 0.00064500360648971728 0 0.0048363686554573305 0.0007248860890583256 0 0.0050201759874504339 0.00066657787438351374 0 0.0049040561140849225 0.00064500360648971728 0 0.004854958570227802 0.00069662589944283779 0 0.0048641162010501149 0.00073344984897868678 0 0.0048940116197032117 0.00074972680136818702 0 0.0048363686554573305 0.0007248860890583256 0 0.004854958570227802 0.00069662589944283779 0 0.0048940116197032117 0.00074972680136818702 0 0.0049298084525850484 0.00056809614003772841 0 0.004950631567195142 0.0006073747982177156 0 0.004997218879543317 0.00040904580565598493 0 0.0049477656110723349 0.00062177225283883779 0 0.0049159709844770159 0.00056628408769194671 0 0.0048363686554573305 0.0007248860890583256 0 0.0048940116197032117 0.00074972680136818702 0 0.0049477656110723349 0.00062177225283883779 0 0.004997218879543317 0.00040904580565598493 0 0.0049159709844770159 0.00056628408769194671 0 0.0050969150416202589 0.00046686497809995687 0 0.004997218879543317 0.00040904580565598493 0 0.0051719437728869732 0.00036977748812359971 0 0.0051482645269136894 0.00029807532494876312 0 0.004997218879543317 0.00040904580565598493 0 0.0051719437728869732 0.00036977748812359971 0 0.0050969150416202589 0.00046686497809995687 0 0.0051719437728869732 0.00036977748812359971 0 0.0051500161090000151 0.00032661344784440177 0 0.0052919145126706282 0.00031694308438001142 0 0.0051719437728869732 0.00036977748812359971 0 0.0051500161090000151 0.00032661344784440177 0 0.0050969150416202589 0.00046686497809995687 0 0.0051719437728869732 0.00036977748812359971 0 0.0052492547101347219 0.0003266808728984267 0 0.0052919145126706282 0.00031694308438001142 0 0.0051719437728869732 0.00036977748812359971 0 0.0052492547101347219 0.0003266808728984267 0 0.0051482645269136894 0.00029807532494876312 0 0.0052492547101347219 0.0003266808728984267 0 0.0051482645269136894 0.00029807532494876312 0 0.0053551122975653226 0.00032529504808781695 0 0.0050201759874504339 0.00066657787438351374 0 0.005002869139924108 0.00053147441520680827 0 0.0049040561140849225 0.00064500360648971728 0 0.005002869139924108 0.00053147441520680827 0 0.0049222836886658686 0.00052518083584184776 0 0.0049040561140849225 0.00064500360648971728 0 0.0050201759874504339 0.00066657787438351374 0 0.005002869139924108 0.00053147441520680827 0 0.0051409453017863503 0.00040795812813489932 0 0.005002869139924108 0.00053147441520680827 0 0.0050187913252013995 0.0004138966977166372 0 0.0049222836886658686 0.00052518083584184776 0 0.005002869139924108 0.00053147441520680827 0 0.0050187913252013995 0.0004138966977166372 0 0.0051409453017863503 0.00040795812813489932 0 0.0050187913252013995 0.0004138966977166372 0 0.0048797774089956751 0.00044232225604542291 0 0.0049222836886658686 0.00052518083584184776 0 0.0046575335725829317 0.0011773065957443912 0 0.0046255645510416676 0.00095912594611820431 0 0.0050201759874504339 0.00066657787438351374 0 0.0051409453017863503 0.00040795812813489932 0 0.0053551122975653226 0.00032529504808781695 0 0.0051409453017863503 0.00040795812813489932 0 0.0052613541783267988 0.00027818861148886493 0 0.0053551122975653226 0.00032529504808781695 0 0.0050832443327090086 0.00047925422601393833 0 0.0053281688202191733 0.00034357686465219349 0 0.0059851726199304086 0.0023780509109753477 0 0.0060293453651892211 0.0003078099683738635 0 0.0073262445260016207 0.00082065426720270395 0 0.0066863869356160559 0.00066147401310764572 0 0.0070277884780754179 0.0010588125203341268 0 0.0051409453017863503 0.00040795812813489932 0 0.0052613541783267988 0.00027818861148886493 0 0.0051332225868239191 0.00018088632727187513 0 0.0052613541783267988 0.00027818861148886493 0 0.0051332225868239191 0.00018088632727187513 0 0.0053869972987250396 0.00018218011861677967 0 0.0050187913252013995 0.0004138966977166372 0 0.0051409453017863503 0.00040795812813489932 0 0.0051332225868239191 0.00018088632727187513 0 0.0062758835644606808 0.0042993487675558771 0 0.0060527364264763087 0.0042714762769895456 0 0.0066723285986242655 0.003979916090476889 0 0.0059851726199304086 0.0023780509109753477 0 0.0060208835859227386 0.0051423479640878306 0 0.0048116352486691537 0.0030596834089156202 0 0.0054585768005358431 0.0025551788047740477 0 0.0052587134945049447 0.0025290820860137805 0 0.0048116352486691537 0.0030596834089156202 0 0.0052587134945049447 0.0025290820860137805 0 0.0046519678389879979 0.0028036999315393129 0 0.0053238284947543938 0.0048729390515310734 0 0.0041561519214713145 0.0054147921360726834 0 0.0036922705443695656 0.0046631472889514438 0 0.0046575335725829317 0.0011773065957443912 0 0.0059851726199304086 0.0023780509109753477 0 0.0060208835859227386 0.0051423479640878306 0 0.0034089014081712197 0.0060229621335005784 0 0.0060208835859227386 0.0051423479640878306 0 0.0036844590133190405 0.0032456318981540196 0 0.0050187913252013995 0.0004138966977166372 0 0.0048797774089956751 0.00044232225604542291 0 0.0051332225868239191 0.00018088632727187513 0 0.0036844590133190405 0.0032456318981540196 0 0.0034089014081712197 0.0060229621335005784 0 0.00041580855968818581 0.0039619633618853019 0 0.0015160556126106459 0.0040954050738587237 0 0.00075521147597214006 0.0045443682243713618 0 0.0046575335725829317 0.0011773065957443912 0 0.0036844590133190405 0.0032456318981540196 0 0.0036844590133190405 0.0032456318981540196 0 0.0030980770744803033 0.0019253154222963829 0 0.0049055701283829013 0.00051008572207041113 0 0.0049222836886658686 0.00052518083584184776 0 0.0048631456868416549 0.0006296195696806632 0 0.0048500469969130757 0.00064020951960900413 0 0.0048544509289898908 0.00065085034292234017 0 0.0048631456868416549 0.0006296195696806632 0 0.0048544509289898908 0.00065085034292234017 0 0.0048631456868416549 0.0006296195696806632 0 0.0048641162010501149 0.00073344984897868678 0 0.004854958570227802 0.00069662589944283779 0 0.0048631456868416549 0.0006296195696806632 0 0.0048641162010501149 0.00073344984897868678 0 0.0046575335725829317 0.0011773065957443912 0 0.0049628475664368595 0.00074940964911502858 0 0.0049222836886658686 0.00052518083584184776 0 0.0048631456868416549 0.0006296195696806632 0 0.0049040561140849225 0.00064500360648971728 0 0.004854958570227802 0.00069662589944283779 0 0.0048631456868416549 0.0006296195696806632 0 0.0049040561140849225 0.00064500360648971728 0 0.0015160556126106459 0.0040954050738587237 0 0.00075521147597214006 0.0045443682243713618 0 0.0023801645625832202 0.0048113706912249407 0 0.0016722173344326278 0.0033094272554132333 0 0.0015160556126106459 0.0040954050738587237 0 0.0023998525383435447 0.003877088315837949 0 0.00041580855968818581 0.0039619633618853019 0 0.0016722173344326278 0.0033094272554132333 0 0.0015160556126106459 0.0040954050738587237 0 0.0023998525383435447 0.003877088315837949 0 0.0033452610171682317 0.0041974061917510221 0 0.0023801645625832202 0.0048113706912249407 0 0.0015160556126106459 0.0040954050738587237 0 0.0023998525383435447 0.003877088315837949 0 0.0023801645625832202 0.0048113706912249407 0 0.0033452610171682317 0.0041974061917510221 0 0.0040692409025516463 0.0032033567943357544 0 0.0029759875155957868 0.0024488673887296929 0 0.0023998525383435447 0.003877088315837949 0 0.0033452610171682317 0.0041974061917510221 0 0.0029759875155957868 0.0024488673887296929 0 0.0016722173344326278 0.0033094272554132333 0 0.0023998525383435447 0.003877088315837949 0 0.0029759875155957868 0.0024488673887296929 0 0.0030980770744803033 0.0019253154222963829 0 0.0040614740789756947 0.0016521819314436162 0 0.0043362332649868936 0.00449943063208251 0 0.0041226020342615532 0.0046540303176934843 0 0.0042176999084436893 0.0048423442174770816 0 0.0033452610171682317 0.0041974061917510221 0 0.0043362332649868936 0.00449943063208251 0 0.0040320025405349803 0.0049701238224286095 0 0.0033452610171682317 0.0041974061917510221 0 0.0043362332649868936 0.00449943063208251 0 0.0040692409025516463 0.0032033567943357544 0 0.0043362332649868936 0.00449943063208251 0 0.0040692409025516463 0.0032033567943357544 0 0.0053146389857571157 0.0024549378850809091 0 0.0044160239486371235 0.0043879948677702429 0 0.0046922321725717947 0.0035740999520363398 0 0.0041226020342615532 0.0046540303176934843 0 0.0041527854941064519 0.004708329311483888 0 0.0040542444405759336 0.0047195475815485742 0 0.0043362332649868936 0.00449943063208251 0 0.0041226020342615532 0.0046540303176934843 0 0.0041527854941064519 0.004708329311483888 0 0.0046922321725717947 0.0035740999520363398 0 0.0047940881347280102 0.0027028676653864199 0 0.0053146389857571157 0.0024549378850809091 0 0.0051141904546233713 0.0012132846348551325 0 0.0055595365895685636 0.00075336034454386361 0 0.0041527854941064519 0.004708329311483888 0 0.0040108361963255819 0.0046938380076487554 0 0.0040542444405759336 0.0047195475815485742 0 0.0040692409025516463 0.0032033567943357544 0 0.0051141904546233713 0.0012132846348551325 0 0.0029759875155957868 0.0024488673887296929 0 0.0040692409025516463 0.0032033567943357544 0 0.0053146389857571157 0.0024549378850809091 0 0.0051141904546233713 0.0012132846348551325 0 0.0050538381660081974 0.0012179214597649586 0 0.0040614740789756947 0.0016521819314436162 0 0.0051141904546233713 0.0012132846348551325 0 0.005112536944456003 0.00082433420397859695 0 0.0049765123176017138 0.00086732451711600089 0 0.0051141904546233713 0.0012132846348551325 0 0.005112536944456003 0.00082433420397859695 0 0.0055595365895685636 0.00075336034454386361 0 0.005112536944456003 0.00082433420397859695 0 0.0055595365895685636 0.00075336034454386361 0 0.005367491251041902 0.00047748887498740928 0 0.0040108361963255819 0.0046938380076487554 0 0.0040542444405759336 0.0047195475815485742 0 0.0040655209409376789 0.0046750683582096825 0 0.0048940116197032117 0.00074972680136818702 0 0.0049765123176017138 0.00086732451711600089 0 0.0049547972145084036 0.00073643185102647613 0 0.0048641162010501149 0.00073344984897868678 0 0.0048940116197032117 0.00074972680136818702 0 0.0049765123176017138 0.00086732451711600089 0 0.005112536944456003 0.00082433420397859695 0 0.0049765123176017138 0.00086732451711600089 0 0.0050205877918897863 0.00074875180794721887 0 0.0049765123176017138 0.00086732451711600089 0 0.0050205877918897863 0.00074875180794721887 0 0.0049547972145084036 0.00073643185102647613 0 0.0050205877918897863 0.00074875180794721887 0 0.0049477656110723349 0.00062177225283883779 0 0.005110574227951155 0.0005588872120080295 0 0.005112536944456003 0.00082433420397859695 0 0.0050205877918897863 0.00074875180794721887 0 0.005110574227951155 0.0005588872120080295 0 0.0048940116197032117 0.00074972680136818702 0 0.0049547972145084036 0.00073643185102647613 0 0.0049477656110723349 0.00062177225283883779 0 0.0050205877918897863 0.00074875180794721887 0 0.0049547972145084036 0.00073643185102647613 0 0.0049477656110723349 0.00062177225283883779 0 0.0051166393742419075 0.00053874341043656088 0 0.0050004200395172916 0.00044098097682475373 0 0.0051118588429188384 0.00031000941509920038 0 0.0050624307297434581 0.00021889226528026221 0 0.0050621112623974547 0.00030469711107285186 0 0.0051118588429188384 0.00031000941509920038 0 0.005110574227951155 0.0005588872120080295 0 0.0050621112623974547 0.00030469711107285186 0 0.0049477656110723349 0.00062177225283883779 0 0.005110574227951155 0.0005588872120080295 0 0.0049159709844770159 0.00056628408769194671 0 0.0051118588429188384 0.00031000941509920038 0 0.005110574227951155 0.0005588872120080295 0 0.0052263463273349827 0.00036915353633411248 0 0.005110574227951155 0.0005588872120080295 0 0.0052263463273349827 0.00036915353633411248 0 0.005367491251041902 0.00047748887498740928 0 0.0051118588429188384 0.00031000941509920038 0 0.0052263463273349827 0.00036915353633411248 0 0.0052348762013204571 0.00021334435186258732 0 0.0052263463273349827 0.00036915353633411248 0 0.0052348762013204571 0.00021334435186258732 0 0.005388375135307601 0.00030188815603231824 0 0.0052348762013204571 0.00021334435186258732 0 0.005388375135307601 0.00030188815603231824 0 0.0054084352028459619 0.00011647141636346677 0 0.0051118588429188384 0.00031000941509920038 0 0.0052348762013204571 0.00021334435186258732 0 0.0051093503411383974 0.00013400612447231103 0 0.0051118588429188384 0.00031000941509920038 0 0.0051093503411383974 0.00013400612447231103 0 0.0050624307297434581 0.00021889226528026221 0 0.0040108361963255819 0.0046938380076487554 0 0.0039076869816697364 0.0044456395204152876 0 0.0040976740000223969 0.0045941523142307835 0 0.0055595365895685636 0.00075336034454386361 0 0.0056529222353631954 0.00041420730592306443 0 0.005367491251041902 0.00047748887498740928 0 0.0047940881347280102 0.0027028676653864199 0 0.0047824741022060909 0.0025820125377171818 0 0.005112536944456003 0.00082433420397859695 0 0.005110574227951155 0.0005588872120080295 0 0.005367491251041902 0.00047748887498740928 0 0.0056529222353631954 0.00041420730592306443 0 0.005367491251041902 0.00047748887498740928 0 0.005527063763357788 0.00030848408889710141 0 0.0052263463273349827 0.00036915353633411248 0 0.005367491251041902 0.00047748887498740928 0 0.005388375135307601 0.00030188815603231824 0 0.005388375135307601 0.00030188815603231824 0 0.0055309409728580049 0.00019000928294901409 0 0.0054084352028459619 0.00011647141636346677 0 0.0055309409728580049 0.00019000928294901409 0 0.005527063763357788 0.00030848408889710141 0 0.0056857897736548564 0.00017610653290352449 0 0.005367491251041902 0.00047748887498740928 0 0.005388375135307601 0.00030188815603231824 0 0.005527063763357788 0.00030848408889710141 0 0.005388375135307601 0.00030188815603231824 0 0.0055309409728580049 0.00019000928294901409 0 0.005527063763357788 0.00030848408889710141 0 0.0056529222353631954 0.00041420730592306443 0 0.005527063763357788 0.00030848408889710141 0 0.0056857897736548564 0.00017610653290352449 0 0.0039076869816697364 0.0044456395204152876 0 0.0039221490278189743 0.0038866623101249569 0 0.0040745896674970541 0.0041947580357100302 0 0.0047824741022060909 0.0025820125377171818 0 0.0047165020477733868 0.0011757257303067149 0 0.0056529222353631954 0.00041420730592306443 0 0.005766299610148567 0.00014578158251496535 0 0.0056857897736548564 0.00017610653290352449 0 0.0047165020477733868 0.0011757257303067149 0 0.0054130967141667093 -0.00096949391885199122 0 0.0058558830581436211 0.00013928608679931868 0 0.0057464800214311398 -6.112135219280232e-05 0 0.0060478155795291571 -0.00021656257713313648 0 0.0047165020477733868 0.0011757257303067149 0 0.0057610063812936953 0.00047866201043864179 0 0.0058558830581436211 0.00013928608679931868 0 0.0056857897736548564 0.00017610653290352449 0 0.0057464800214311398 -6.112135219280232e-05 0 0.0056857897736548564 0.00017610653290352449 0 0.0055818010858351341 6.5011096669571739e-05 0 0.0057464800214311398 -6.112135219280232e-05 0 0.0055818010858351341 6.5011096669571739e-05 0 0.0054084352028459619 0.00011647141636346677 0 0.0054809528567003113 -0.00012425516431014292 0 0.0055818010858351341 6.5011096669571739e-05 0 0.0054809528567003113 -0.00012425516431014292 0 0.0057464800214311398 -6.112135219280232e-05 0 0.0055309409728580049 0.00019000928294901409 0 0.0056857897736548564 0.00017610653290352449 0 0.0055818010858351341 6.5011096669571739e-05 0 0.0055309409728580049 0.00019000928294901409 0 0.0055818010858351341 6.5011096669571739e-05 0 0.0054084352028459619 0.00011647141636346677 0 0.0054809528567003113 -0.00012425516431014292 0 0.0057464800214311398 -6.112135219280232e-05 0 0.0057783784813525444 -0.0004294105256717794 0 0.0054809528567003113 -0.00012425516431014292 0 0.0057783784813525444 -0.0004294105256717794 0 0.0054124402835493204 -0.00040727370051419194 0 0.0057464800214311398 -6.112135219280232e-05 0 0.0060478155795291571 -0.00021656257713313648 0 0.0057783784813525444 -0.0004294105256717794 0 0.0051093503411383974 0.00013400612447231103 0 0.0052215269131278786 2.8466121302699813e-05 0 0.0050874350548407504 -9.4662300926315831e-05 0 0.0052348762013204571 0.00021334435186258732 0 0.0051093503411383974 0.00013400612447231103 0 0.0052215269131278786 2.8466121302699813e-05 0 0.0054084352028459619 0.00011647141636346677 0 0.0054809528567003113 -0.00012425516431014292 0 0.0052215269131278786 2.8466121302699813e-05 0 0.0052348762013204571 0.00021334435186258732 0 0.0054084352028459619 0.00011647141636346677 0 0.0052215269131278786 2.8466121302699813e-05 0 0.0054809528567003113 -0.00012425516431014292 0 0.0052509268195016527 -0.00021463854831288063 0 0.0054124402835493204 -0.00040727370051419194 0 0.0054809528567003113 -0.00012425516431014292 0 0.0052215269131278786 2.8466121302699813e-05 0 0.0052509268195016527 -0.00021463854831288063 0 0.0052215269131278786 2.8466121302699813e-05 0 0.0052509268195016527 -0.00021463854831288063 0 0.0050874350548407504 -9.4662300926315831e-05 0 0.0052509268195016527 -0.00021463854831288063 0 0.0050874350548407504 -9.4662300926315831e-05 0 0.0051417654553100626 -0.00044198633094217498 0 0.0050874350548407504 -9.4662300926315831e-05 0 0.0050071866364628176 -7.9675848764715871e-05 0 0.0050108225789676844 -0.00024303463563353565 0 0.0050071866364628176 -7.9675848764715871e-05 0 0.0049099170923457827 -0.00023138385083511687 0 0.0050108225789676844 -0.00024303463563353565 0 0.0050071866364628176 -7.9675848764715871e-05 0 0.0050301980977051205 0.00010182027017870758 0 0.004999467612971673 0.00016529589713857118 0 0.0050874350548407504 -9.4662300926315831e-05 0 0.0050071866364628176 -7.9675848764715871e-05 0 0.0050301980977051205 0.00010182027017870758 0 0.0051093503411383974 0.00013400612447231103 0 0.0050874350548407504 -9.4662300926315831e-05 0 0.0050301980977051205 0.00010182027017870758 0 0.0051093503411383974 0.00013400612447231103 0 0.0050301980977051205 0.00010182027017870758 0 0.0050624307297434581 0.00021889226528026221 0 0.0050301980977051205 0.00010182027017870758 0 0.0050624307297434581 0.00021889226528026221 0 0.0050286563042491106 0.00020810162615932643 0 0.0050301980977051205 0.00010182027017870758 0 0.0050286563042491106 0.00020810162615932643 0 0.004999467612971673 0.00016529589713857118 0 0.0050004200395172916 0.00044098097682475373 0 0.0050551794156135817 0.00035660099665999471 0 0.0050286563042491106 0.00020810162615932643 0 0.0050621112623974547 0.00030469711107285186 0 0.0050275947127600895 0.00024046228061340848 0 0.0050624307297434581 0.00021889226528026221 0 0.0050286563042491106 0.00020810162615932643 0 0.0050621112623974547 0.00030469711107285186 0 0.0051500161090000151 0.00032661344784440177 0 0.004999467612971673 0.00016529589713857118 0 0.0050744723875527373 0.00027035036634250856 0 0.0051353440537023343 0.00032990175992453743 0 0.0050551794156135817 0.00035660099665999471 0 0.0051500161090000151 0.00032661344784440177 0 0.0050275947127600895 0.00024046228061340848 0 0.004999467612971673 0.00016529589713857118 0 0.0050286563042491106 0.00020810162615932643 0 0.0050275947127600895 0.00024046228061340848 0 0.004999467612971673 0.00016529589713857118 0 0.004999467612971673 0.00016529589713857118 0 0.0049319572332787911 5.4076582457279587e-05 0 0.0050744723875527373 0.00027035036634250856 0 0.004999467612971673 0.00016529589713857118 0 0.0049319572332787911 5.4076582457279587e-05 0 0.0049099170923457827 -0.00023138385083511687 0 0.0050071866364628176 -7.9675848764715871e-05 0 0.004999467612971673 0.00016529589713857118 0 0.0049099170923457827 -0.00023138385083511687 0 0.0049319572332787911 5.4076582457279587e-05 0 0.0049099170923457827 -0.00023138385083511687 0 0.0047937611769661654 -0.00020565388147782788 0 0.0049319572332787911 5.4076582457279587e-05 0 0.0050241039852072979 0.00020449217397964142 0 0.0047937611769661654 -0.00020565388147782788 0 0.0050241039852072979 0.00020449217397964142 0 0.0053190376142849142 0.00047373506266928028 0 0.0050744723875527373 0.00027035036634250856 0 0.007062955532775415 0.00014415657429191277 0 0.007541159564518559 -0.00083686737039829497 0 0.0049319572332787911 5.4076582457279587e-05 0 0.0050241039852072979 0.00020449217397964142 0 0.0050744723875527373 0.00027035036634250856 0 0.0090963618407375723 0.00011968667000895882 0 0.0086848141294242568 -0.0012380807316649972 0 0.01029157088761371 -0.0014585442044822128 0 0.0090963618407375723 0.00011968667000895882 0 0.0074830821923202052 0.00034790221841436258 0 0.0086848141294242568 -0.0012380807316649972 0 0.0074830821923202052 0.00034790221841436258 0 0.0075576261031808853 -0.0010654436820437794 0 0.0086848141294242568 -0.0012380807316649972 0 0.0074830821923202052 0.00034790221841436258 0 0.0068297717549703502 -0.00061430590371656544 0 0.0075576261031808853 -0.0010654436820437794 0 0.0074830821923202052 0.00034790221841436258 0 0.0078143091809746053 0.0013771660187845358 0 0.0071042062414614542 0.0012771670156037824 0 0.0090963618407375723 0.00011968667000895882 0 0.0074830821923202052 0.00034790221841436258 0 0.0078143091809746053 0.0013771660187845358 0 0.007062955532775415 0.00014415657429191277 0 0.0065805383824604621 0.00089221200516029513 0 0.0078143091809746053 0.0013771660187845358 0 0.0071042062414614542 0.0012771670156037824 0 0.0069136146842706404 0.0015690275664082284 0 0.0065805383824604621 0.00089221200516029513 0 0.0064312944247975224 0.0010666274022018949 0 0.0053190376142849142 0.00047373506266928028 0 0.0054487902604821049 0.00045987092154682504 0 0.0058069077465502071 0.00069607623591001766 0 0.0053190376142849142 0.00047373506266928028 0 0.0054487902604821049 0.00045987092154682504 0 0.0052472249246879417 0.0003700749952100562 0 0.0053190376142849142 0.00047373506266928028 0 0.0052472249246879417 0.0003700749952100562 0 0.0050744723875527373 0.00027035036634250856 0 0.0051500161090000151 0.00032661344784440177 0 0.0052472249246879417 0.0003700749952100562 0 0.0050744723875527373 0.00027035036634250856 0 0.0062605944491026444 -0.000786663518305161 0 0.0066031983123231303 -0.000632642406943681 0 0.0066322460242941202 -0.0014221211414072656 0 0.0066031983123231303 -0.000632642406943681 0 0.0066322460242941202 -0.0014221211414072656 0 0.0069851505407497573 -0.0012240541186474688 0 0.0066322460242941202 -0.0014221211414072656 0 0.0069851505407497573 -0.0012240541186474688 0 0.0071756800455482035 -0.0018613977789583951 0 0.0069851505407497573 -0.0012240541186474688 0 0.0071756800455482035 -0.0018613977789583951 0 0.0075802566367625945 -0.00098216439382059722 0 0.0099456839021858281 0.0042959908199612746 0 0.0068153566887576887 0.0050500586362866992 0 0.0079878598998985532 0.0022270165412188194 0 0.0082738528890281514 0.0018817709345196718 0 0.006975375286670308 0.0014501687414369972 0 0.0066031983123231303 -0.000632642406943681 0 0.0069851505407497573 -0.0012240541186474688 0 0.0075802566367625945 -0.00098216439382059722 0 0.0068519632777300568 0.0013315511113611864 0 0.0065531239186458999 0.00068114306853183108 0 0.0070147813340436698 0.0016005597770044147 0 0.006975375286670308 0.0014501687414369972 0 0.0062711005587781678 0.00087323383476887724 0 0.006975375286670308 0.0014501687414369972 0 0.006765326343383617 -0.0020549894944581646 0 0.0071756800455482035 -0.0018613977789583951 0 0.0075802566367625945 -0.00098216439382059722 0 0.0079052815671134223 -0.0022512915366414642 0 0.0050572261521181659 0.0010643523317612083 0 0.0065531239186458999 0.00068114306853183108 0 0.0057556210713687328 -0.0012795911367234052 0 0.0068297717549703502 -0.00061430590371656544 0 0.0065531239186458999 0.00068114306853183108 0 0.0057556210713687328 -0.0012795911367234052 0 0.0074830821923202052 0.00034790221841436258 0 0.0068297717549703502 -0.00061430590371656544 0 0.0065531239186458999 0.00068114306853183108 0 0.0065531239186458999 0.00068114306853183108 0 0.0071042062414614542 0.0012771670156037824 0 0.0070147813340436698 0.0016005597770044147 0 0.0074830821923202052 0.00034790221841436258 0 0.0065531239186458999 0.00068114306853183108 0 0.0071042062414614542 0.0012771670156037824 0 0.0071042062414614542 0.0012771670156037824 0 0.0069136146842706404 0.0015690275664082284 0 0.0070147813340436698 0.0016005597770044147 0 0.0069136146842706404 0.0015690275664082284 0 0.0073176901560668781 0.0014552736301971046 0 0.0070147813340436698 0.0016005597770044147 0 0.0073176901560668781 0.0014552736301971046 0 0.0070147813340436698 0.0016005597770044147 0 0.0079878598998985532 0.0022270165412188194 0 0.0068519632777300568 0.0013315511113611864 0 0.0070147813340436698 0.0016005597770044147 0 0.0079878598998985532 0.0022270165412188194 0 0.006975375286670308 0.0014501687414369972 0 0.0077435009765609037 0.0028664163645671309 0 0.0073176901560668781 0.0014552736301971046 0 0.0079878598998985532 0.0022270165412188194 0 0.0088761931867257695 0.0013905974449595886 0 0.0079878598998985532 0.0022270165412188194 0 0.0088761931867257695 0.0013905974449595886 0 0.010595044631549883 0.0025652174186473597 0 0.0099456839021858281 0.0042959908199612746 0 0.0079878598998985532 0.0022270165412188194 0 0.010595044631549883 0.0025652174186473597 0 0.010989929746256573 0.0032711074877097858 0 0.0099456839021858281 0.0042959908199612746 0 0.010595044631549883 0.0025652174186473597 0 0.010419302856892751 0.00032190694766346989 0 0.0093336905425700119 -0.00049295313393141768 0 0.0084257465197721763 0.00035305663025404516 0 0.010419302856892751 0.00032190694766346989 0 0.0093336905425700119 -0.00049295313393141768 0 0.0098667621474840261 -0.0010092664369541731 0 0.010419302856892751 0.00032190694766346989 0 0.0088761931867257695 0.0013905974449595886 0 0.0084257465197721763 0.00035305663025404516 0 0.010419302856892751 0.00032190694766346989 0 0.0088761931867257695 0.0013905974449595886 0 0.010595044631549883 0.0025652174186473597 0 0.0073176901560668781 0.0014552736301971046 0 0.0088761931867257695 0.0013905974449595886 0 0.0084257465197721763 0.00035305663025404516 0 0.0084257465197721763 0.00035305663025404516 0 0.0078054965069316584 -0.00018306542263577132 0 0.0084347913555802533 -0.00077524224391607374 0 0.0093336905425700119 -0.00049295313393141768 0 0.0084257465197721763 0.00035305663025404516 0 0.0084347913555802533 -0.00077524224391607374 0 0.0071059464768854696 0.00041013163156576154 0 0.0078054965069316584 -0.00018306542263577132 0 0.0072384945194689928 -0.00071584674998738591 0 0.0078054965069316584 -0.00018306542263577132 0 0.0072384945194689928 -0.00071584674998738591 0 0.0084347913555802533 -0.00077524224391607374 0 0.0071059464768854696 0.00041013163156576154 0 0.0060354026896816491 8.7520780835925136e-05 0 0.0072384945194689928 -0.00071584674998738591 0 0.0084257465197721763 0.00035305663025404516 0 0.0071059464768854696 0.00041013163156576154 0 0.0078054965069316584 -0.00018306542263577132 0 0.0073176901560668781 0.0014552736301971046 0 0.0084257465197721763 0.00035305663025404516 0 0.0071059464768854696 0.00041013163156576154 0 0.0064312944247975224 0.0010666274022018949 0 0.0071032547828975478 0.0004071685562405384 0 0.0069136146842706404 0.0015690275664082284 0 0.0073176901560668781 0.0014552736301971046 0 0.0071059464768854696 0.00041013163156576154 0 0.0058069077465502071 0.00069607623591001766 0 0.0071059464768854696 0.00041013163156576154 0 0.0060354026896816491 8.7520780835925136e-05 0 0.0060354026896816491 8.7520780835925136e-05 0 0.0062569407274442124 -0.0012661183302205049 0 0.0072384945194689928 -0.00071584674998738591 0 0.0060189331714995261 7.0796141465854023e-05 0 0.0060868516332905449 -0.00072132827816991844 0 0.0060354026896816491 8.7520780835925136e-05 0 0.0059096805908757221 5.383682632875241e-05 0 0.005704843196493805 0.00010317837286298201 0 0.0062569407274442124 -0.0012661183302205049 0 0.0064857653502325922 -0.002547066943102522 0 0.007143725285048759 -0.0017381644523351597 0 0.0060868516332905449 -0.00072132827816991844 0 0.0070601597941200907 -0.0005063875537738618 0 0.0059096805908757221 5.383682632875241e-05 0 0.0059413808602558835 -0.00011744623969394686 0 0.0058013039018236998 6.1466556871120377e-06 0 0.0070601597941200907 -0.0005063875537738618 0 0.0055716916036712416 0.00057942235734845411 0 0.0059413808602558835 -0.00011744623969394686 0 0.0058013039018236998 6.1466556871120377e-06 0 0.0057824165891110727 -0.0001405420715920171 0 0.0070601597941200907 -0.0005063875537738618 0 0.0085813905415419237 -0.0011228248771043357 0 0.0082529926220903538 7.1011131823778742e-05 0 0.0090416084930722406 0.00015085487625590891 0 0.0085558678258987175 -0.00037129803332643281 0 0.0064857653502325922 -0.002547066943102522 0 0.007143725285048759 -0.0017381644523351597 0 0.0079275343338385488 -0.0023943110309178751 0 0.007143725285048759 -0.0017381644523351597 0 0.007906889776696728 -0.0014403819463896966 0 0.0079275343338385488 -0.0023943110309178751 0 0.007143725285048759 -0.0017381644523351597 0 0.0072384945194689928 -0.00071584674998738591 0 0.007906889776696728 -0.0014403819463896966 0 0.0072384945194689928 -0.00071584674998738591 0 0.0084347913555802533 -0.00077524224391607374 0 0.007906889776696728 -0.0014403819463896966 0 0.0062569407274442124 -0.0012661183302205049 0 0.007143725285048759 -0.0017381644523351597 0 0.0072384945194689928 -0.00071584674998738591 0 0.0084347913555802533 -0.00077524224391607374 0 0.0087721510484665907 -0.0015971554972255648 0 0.0092324004041389653 -0.0011093609545721327 0 0.0084347913555802533 -0.00077524224391607374 0 0.0087721510484665907 -0.0015971554972255648 0 0.007906889776696728 -0.0014403819463896966 0 0.0085813905415419237 -0.0011228248771043357 0 0.00937392681995774 -0.0015369642443204092 0 0.0087721510484665907 -0.0015971554972255648 0 0.007906889776696728 -0.0014403819463896966 0 0.0079275343338385488 -0.0023943110309178751 0 0.0090416084930722406 0.00015085487625590891 0 0.0098128023735244152 0.00022309053917820112 0 0.0095119773476913631 -0.00029135201088494224 0 0.0087721510484665907 -0.0015971554972255648 0 0.0079275343338385488 -0.0023943110309178751 0 0.0093904953876413465 -0.0022034310696813484 0 0.0087721510484665907 -0.0015971554972255648 0 0.0093904953876413465 -0.0022034310696813484 0 0.0096872040146581979 -0.0016684378596582665 0 0.00937392681995774 -0.0015369642443204092 0 0.0094552113540891693 -0.0016999528141602657 0 0.00937392681995774 -0.0015369642443204092 0 0.011151200359901317 0.00090650964811716508 0 0.0097163756529748471 -0.0019158388286225792 0 0.0097144452753615447 -0.0021777960697793742 0 0.0094998831183426245 -0.0023017131664519971 0 0.0097163756529748471 -0.0019158388286225792 0 0.0099578402614336637 -0.0020765682549866637 0 0.0097144452753615447 -0.0021777960697793742 0 0.0097163756529748471 -0.0019158388286225792 0 0.0099578402614336637 -0.0020765682549866637 0 0.0099027839502120463 -0.0018863396003441298 0 0.0095567262474261696 -0.0019374175037014691 0 0.0099027839502120463 -0.0018863396003441298 0 0.0096872040146581979 -0.0016684378596582665 0 0.00937392681995774 -0.0015369642443204092 0 0.009744427089666139 -0.0016618880962572286 0 0.010032119440952825 -0.0015730276905556765 0 0.0099027839502120463 -0.0018863396003441298 0 0.0096872040146581979 -0.0016684378596582665 0 0.010032119440952825 -0.0015730276905556765 0 0.0096872040146581979 -0.0016684378596582665 0 0.0098667621474840261 -0.0010092664369541731 0 0.0096872040146581979 -0.0016684378596582665 0 0.0092324004041389653 -0.0011093609545721327 0 0.0098667621474840261 -0.0010092664369541731 0 0.0087721510484665907 -0.0015971554972255648 0 0.0096872040146581979 -0.0016684378596582665 0 0.0092324004041389653 -0.0011093609545721327 0 0.0093336905425700119 -0.00049295313393141768 0 0.0084347913555802533 -0.00077524224391607374 0 0.0092324004041389653 -0.0011093609545721327 0 0.0093336905425700119 -0.00049295313393141768 0 0.0092324004041389653 -0.0011093609545721327 0 0.0098667621474840261 -0.0010092664369541731 0 0.0054367390458388096 0.00025678220337695156 0 0.0052919145126706282 0.00031694308438001142 0 0.0054052152674941992 0.00032216859320958151 0 0.0054367390458388096 0.00025678220337695156 0 0.0052919145126706282 0.00031694308438001142 0 0.0054496401781583843 0.00026431732401106415 0 0.0052492547101347219 0.0003266808728984267 0 0.0052919145126706282 0.00031694308438001142 0 0.0053551122975653226 0.00032529504808781695 0 0.0051500161090000151 0.00032661344784440177 0 0.0052472249246879417 0.0003700749952100562 0 0.0052919145126706282 0.00031694308438001142 0 0.0052472249246879417 0.0003700749952100562 0 0.0052919145126706282 0.00031694308438001142 0 0.0054052152674941992 0.00032216859320958151 0 0.0054487902604821049 0.00045987092154682504 0 0.0052472249246879417 0.0003700749952100562 0 0.0054052152674941992 0.00032216859320958151 0 0.0054487902604821049 0.00045987092154682504 0 0.0054052152674941992 0.00032216859320958151 0 0.0056227523296408293 0.00028473354351785042 0 0.0054487902604821049 0.00045987092154682504 0 0.0058069077465502071 0.00069607623591001766 0 0.0056227523296408293 0.00028473354351785042 0 0.0058069077465502071 0.00069607623591001766 0 0.0060354026896816491 8.7520780835925136e-05 0 0.0056227523296408293 0.00028473354351785042 0 0.0056227523296408293 0.00028473354351785042 0 0.0055282016734040174 0.00022915093287679549 0 0.005704843196493805 0.00010317837286298201 0 0.0060354026896816491 8.7520780835925136e-05 0 0.0056227523296408293 0.00028473354351785042 0 0.005704843196493805 0.00010317837286298201 0 0.0054052152674941992 0.00032216859320958151 0 0.0056227523296408293 0.00028473354351785042 0 0.0055282016734040174 0.00022915093287679549 0 0.0054367390458388096 0.00025678220337695156 0 0.0054052152674941992 0.00032216859320958151 0 0.0055282016734040174 0.00022915093287679549 0 0.0054367390458388096 0.00025678220337695156 0 0.0055282016734040174 0.00022915093287679549 0 0.0055194761750139995 0.00017924936788192781 0 0.0055194761750139995 0.00017924936788192781 0 0.0055919303904340776 0.00012476070119323416 0 0.005704843196493805 0.00010317837286298201 0 0.0055282016734040174 0.00022915093287679549 0 0.0055194761750139995 0.00017924936788192781 0 0.005704843196493805 0.00010317837286298201 0 0.0055194761750139995 0.00017924936788192781 0 0.0055919303904340776 0.00012476070119323416 0 0.005480741740866899 0.00015876933820048423 0 0.0055919303904340776 0.00012476070119323416 0 0.0056701677955788244 5.9933329038743663e-05 0 0.005480741740866899 0.00015876933820048423 0 0.0055194761750139995 0.00017924936788192781 0 0.005480741740866899 0.00015876933820048423 0 0.0055420698302058417 0.00021116194614614436 0 0.0059096805908757221 5.383682632875241e-05 0 0.005704843196493805 0.00010317837286298201 0 0.0058013039018236998 6.1466556871120377e-06 0 0.0055919303904340776 0.00012476070119323416 0 0.005704843196493805 0.00010317837286298201 0 0.0056701677955788244 5.9933329038743663e-05 0 0.005704843196493805 0.00010317837286298201 0 0.0058013039018236998 6.1466556871120377e-06 0 0.0056701677955788244 5.9933329038743663e-05 0 0.0055716916036712416 0.00057942235734845411 0 0.0052775358522990055 0.00010812691082314296 0 0.0056701677955788244 5.9933329038743663e-05 0 0.0057824165891110727 -0.0001405420715920171 0 0.005480741740866899 0.00015876933820048423 0 0.0055716916036712416 0.00057942235734845411 0 0.0056128411811957697 0.001042919231324354 0 0.0058013039018236998 6.1466556871120377e-06 0 0.0056701677955788244 5.9933329038743663e-05 0 0.0057824165891110727 -0.0001405420715920171 0 0.0043052850811589206 0.00069583975114734383 0 0.005480741740866899 0.00015876933820048423 0 0.00514567208188608 0.00079535584344983838 0 0.0057074240364310838 0.00033358405036701763 0 0.006034372682613821 0.0010326683202343298 0 0.00514567208188608 0.00079535584344983838 0 0.005480741740866899 0.00015876933820048423 0 0.0057074240364310838 0.00033358405036701763 0 0.00514567208188608 0.00079535584344983838 0 0.0057140649094875248 0.00035919837542564296 0 0.0060293453651892211 0.0003078099683738635 0 0.0057074240364310838 0.00033358405036701763 0 0.0055091500540549601 0.00027667403578501295 0 0.0053869972987250396 0.00018218011861677967 0 0.0057074240364310838 0.00033358405036701763 0 0.0066863869356160559 0.00066147401310764572 0 0.006034372682613821 0.0010326683202343298 0 0.005480741740866899 0.00015876933820048423 0 0.0057074240364310838 0.00033358405036701763 0 0.0055420698302058417 0.00021116194614614436 0 0.0057074240364310838 0.00033358405036701763 0 0.0055420698302058417 0.00021116194614614436 0 0.0055091500540549601 0.00027667403578501295 0 0.0055420698302058417 0.00021116194614614436 0 0.0055091500540549601 0.00027667403578501295 0 0.0054496401781583843 0.00026431732401106415 0 0.0055194761750139995 0.00017924936788192781 0 0.0055420698302058417 0.00021116194614614436 0 0.0054496401781583843 0.00026431732401106415 0 0.0054367390458388096 0.00025678220337695156 0 0.0055194761750139995 0.00017924936788192781 0 0.0054496401781583843 0.00026431732401106415 0 0.0052919145126706282 0.00031694308438001142 0 0.0054496401781583843 0.00026431732401106415 0 0.0053551122975653226 0.00032529504808781695 0 0.0055091500540549601 0.00027667403578501295 0 0.0054496401781583843 0.00026431732401106415 0 0.0053551122975653226 0.00032529504808781695 0 0.0052613541783267988 0.00027818861148886493 0 0.0053551122975653226 0.00032529504808781695 0 0.0053869972987250396 0.00018218011861677967 0 0.0055091500540549601 0.00027667403578501295 0 0.0053551122975653226 0.00032529504808781695 0 0.0053869972987250396 0.00018218011861677967 0 0.0066863869356160559 0.00066147401310764572 0 0.0064420525028627022 0.0010613918007484997 0 0.006034372682613821 0.0010326683202343298 0 0.0074353959865618826 0.0054602535745300433 0 0.0066417416422062479 0.0040423736403210099 0 0.006284791216590987 0.0011379991867912188 0 0.0066417416422062479 0.0040423736403210099 0 0.0064420525028627022 0.0010613918007484997 0 0.0062082676398486948 0.0013297438399554908 0 0.0070277884780754179 0.0010588125203341268 0 0.0078054915171284637 0.0090423367134533431 0 0.0088057144439889542 0.0088048240863678757 0 0.007598405699508883 0.0097053074248328961 0 0.0061497655754620987 0.0015590906641903648 0 0.006180736268923394 0.001608559223543173 0 0.0059336761507994872 0.0018290492139541445 0 0.0066863869356160559 0.00066147401310764572 0 0.0064420525028627022 0.0010613918007484997 0 0.0070277884780754179 0.0010588125203341268 0 0.0081816283041312807 0.0086998067814749499 0 0.0078054915171284637 0.0090423367134533431 0 0.0075272493018216534 0.0086194880447520768 0 0.0081816283041312807 0.0086998067814749499 0 0.0078054915171284637 0.0090423367134533431 0 0.0088057144439889542 0.0088048240863678757 0 0.0081816283041312807 0.0086998067814749499 0 0.008512895561758738 0.0085347965497976647 0 0.0088057144439889542 0.0088048240863678757 0 0.008512895561758738 0.0085347965497976647 0 0.0086796925531327316 0.0082644664624787027 0 0.0088057144439889542 0.0088048240863678757 0 0.0081816283041312807 0.0086998067814749499 0 0.008512895561758738 0.0085347965497976647 0 0.008334074330799475 0.0082072554937700926 0 0.008512895561758738 0.0085347965497976647 0 0.0086796925531327316 0.0082644664624787027 0 0.008334074330799475 0.0082072554937700926 0 0.0081816283041312807 0.0086998067814749499 0 0.008334074330799475 0.0082072554937700926 0 0.0078510926285882479 0.0081737001588324601 0 0.0081816283041312807 0.0086998067814749499 0 0.0078510926285882479 0.0081737001588324601 0 0.0075272493018216534 0.0086194880447520768 0 0.0061895561764112126 0.0015190893904076784 0 0.006180736268923394 0.001608559223543173 0 0.006193808260542809 0.0014445035108308973 0 0.0074353959865618826 0.0054602535745300433 0 0.0079479167601154317 0.0044336110604475181 0 0.0088057144439889542 0.0088048240863678757 0 0.010010441291402227 0.0078776304558840007 0 0.0091350757515698197 0.0079746001107823573 0 0.0061895561764112126 0.0015190893904076784 0 0.0061497655754620987 0.0015590906641903648 0 0.0062186965504057628 0.0014760500326571522 0 0.0086796925531327316 0.0082644664624787027 0 0.0088057144439889542 0.0088048240863678757 0 0.0091350757515698197 0.0079746001107823573 0 0.0061895561764112126 0.0015190893904076784 0 0.0061497655754620987 0.0015590906641903648 0 0.006180736268923394 0.001608559223543173 0 0.0061420206603806241 0.0012202512708844493 0 0.006034372682613821 0.0010326683202343298 0 0.0061361773396357601 0.0013044129647639044 0 0.0061420206603806241 0.0012202512708844493 0 0.0062082676398486948 0.0013297438399554908 0 0.0061361773396357601 0.0013044129647639044 0 0.0064420525028627022 0.0010613918007484997 0 0.0062082676398486948 0.0013297438399554908 0 0.0061923919977496895 0.0011828269278316159 0 0.0061420206603806241 0.0012202512708844493 0 0.0062082676398486948 0.0013297438399554908 0 0.0061923919977496895 0.0011828269278316159 0 0.0064420525028627022 0.0010613918007484997 0 0.0061923919977496895 0.0011828269278316159 0 0.006034372682613821 0.0010326683202343298 0 0.0061420206603806241 0.0012202512708844493 0 0.0061923919977496895 0.0011828269278316159 0 0.006034372682613821 0.0010326683202343298 0 0.0060399793628851204 0.0010526220744875542 0 0.0056128411811957697 0.001042919231324354 0 0.006034372682613821 0.0010326683202343298 0 0.0061458175893484993 0.001302456700601683 0 0.0061361773396357601 0.0013044129647639044 0 0.0061458175893484993 0.001302456700601683 0 0.0061662266313066792 0.0013723313059075951 0 0.0061651062708651819 0.0013670259482917047 0 0.0061458175893484993 0.001302456700601683 0 0.0061361773396357601 0.0013044129647639044 0 0.0061651062708651819 0.0013670259482917047 0 0.0061481801936723911 0.0013373417935188033 0 0.0061458175893484993 0.001302456700601683 0 0.0061662266313066792 0.0013723313059075951 0 0.0061481801936723911 0.0013373417935188033 0 0.0061662266313066792 0.0013723313059075951 0 0.0061364623442937243 0.0013537194578216057 0 0.0061662266313066792 0.0013723313059075951 0 0.0061944909514144442 0.001431893087275067 0 0.0062078090679124438 0.0014392243595338554 0 0.0061662266313066792 0.0013723313059075951 0 0.0061944909514144442 0.001431893087275067 0 0.0061651062708651819 0.0013670259482917047 0 0.0061944909514144442 0.001431893087275067 0 0.006193808260542809 0.0014445035108308973 0 0.0062151761906698404 0.0014649917535275577 0 0.0061944909514144442 0.001431893087275067 0 0.0062314198942928127 0.0014761202515301891 0 0.0062151761906698404 0.0014649917535275577 0 0.0061944909514144442 0.001431893087275067 0 0.0062314198942928127 0.0014761202515301891 0 0.0062078090679124438 0.0014392243595338554 0 0.006284791216590987 0.0011379991867912188 0 0.0061199184024779496 0.0015463969485748762 0 0.0062082676398486948 0.0013297438399554908 0 0.0061361773396357601 0.0013044129647639044 0 0.006193808260542809 0.0014445035108308973 0 0.0061361773396357601 0.0013044129647639044 0 0.0061651062708651819 0.0013670259482917047 0 0.006193808260542809 0.0014445035108308973 0 0.0061944909514144442 0.001431893087275067 0 0.0061651062708651819 0.0013670259482917047 0 0.006193808260542809 0.0014445035108308973 0 0.0061895561764112126 0.0015190893904076784 0 0.006193808260542809 0.0014445035108308973 0 0.0062186965504057628 0.0014760500326571522 0 0.0079479167601154317 0.0044336110604475181 0 0.010335466406688761 0.0061662444033733351 0 0.0062186965504057628 0.0014760500326571522 0 0.0062151761906698404 0.0014649917535275577 0 0.006238882441066085 0.0014943381717966225 0 0.010010441291402227 0.0078776304558840007 0 0.011116662191942878 0.0069797651196294363 0 0.010122697129872772 0.0071844655772741678 0 0.006193808260542809 0.0014445035108308973 0 0.0062186965504057628 0.0014760500326571522 0 0.0062151761906698404 0.0014649917535275577 0 0.010010441291402227 0.0078776304558840007 0 0.010122697129872772 0.0071844655772741678 0 0.0095742086927816054 0.007499044230737789 0 0.0062186965504057628 0.0014760500326571522 0 0.006238882441066085 0.0014943381717966225 0 0.0062754594069502831 0.0015422970660200937 0 0.0062314198942928127 0.0014761202515301891 0 0.006238882441066085 0.0014943381717966225 0 0.0062504131016859346 0.0015012993220736724 0 0.0062314198942928127 0.0014761202515301891 0 0.0062151761906698404 0.0014649917535275577 0 0.006238882441066085 0.0014943381717966225 0 0.006238882441066085 0.0014943381717966225 0 0.0062504131016859346 0.0015012993220736724 0 0.0062754594069502831 0.0015422970660200937 0 0.013034902871339465 0.0084186672858287907 0 0.012818582057510604 0.0074057821994362978 0 0.011387747346197368 0.0072455866493721264 0 0.010335466406688761 0.0061662444033733351 0 0.011195466461026119 0.0070407095068133942 0 0.013034902871339465 0.0084186672858287907 0 0.012818582057510604 0.0074057821994362978 0 0.013881419347490752 0.0076540681765568212 0 0.012818582057510604 0.0074057821994362978 0 0.013881419347490752 0.0076540681765568212 0 0.013431185653154024 0.0070889087480982974 0 0.0137795902778425 0.0076720785218280371 0 0.013973425270898791 0.0076514751578776602 0 0.013881419347490752 0.0076540681765568212 0 0.010335466406688761 0.0061662444033733351 0 0.01269596026752914 0.0065007064926642065 0 0.0095509523092639943 0.0070518763102210445 0 0.009395573169136473 0.0064145196801282901 0 0.010370557207994114 0.0063939086619629291 0 0.011116662191942878 0.0069797651196294363 0 0.010122697129872772 0.0071844655772741678 0 0.010370557207994114 0.0063939086619629291 0 0.010122697129872772 0.0071844655772741678 0 0.0095509523092639943 0.0070518763102210445 0 0.0095742086927816054 0.007499044230737789 0 0.010122697129872772 0.0071844655772741678 0 0.0095509523092639943 0.0070518763102210445 0 0.010370557207994114 0.0063939086619629291 0 0.0095509523092639943 0.0070518763102210445 0 0.0088599263005964303 0.0068179812683934974 0 0.0090255415752568697 0.0074202524365243041 0 0.0095509523092639943 0.0070518763102210445 0 0.0088599263005964303 0.0068179812683934974 0 0.009395573169136473 0.0064145196801282901 0 0.0088599263005964303 0.0068179812683934974 0 0.0086549500859379198 0.0062483652543751612 0 0.009395573169136473 0.0064145196801282901 0 0.0088599263005964303 0.0068179812683934974 0 0.0080729449807048007 0.006710595216278304 0 0.0086549500859379198 0.0062483652543751612 0 0.0080729449807048007 0.006710595216278304 0 0.008464312631088192 0.00726537333652364 0 0.0078610580119686177 0.0076340713400436496 0 0.0088599263005964303 0.0068179812683934974 0 0.0080729449807048007 0.006710595216278304 0 0.008464312631088192 0.00726537333652364 0 0.0088599263005964303 0.0068179812683934974 0 0.008464312631088192 0.00726537333652364 0 0.0090255415752568697 0.0074202524365243041 0 0.008464312631088192 0.00726537333652364 0 0.0085932432640222021 0.0077803326174211195 0 0.0090255415752568697 0.0074202524365243041 0 0.008464312631088192 0.00726537333652364 0 0.0078610580119686177 0.0076340713400436496 0 0.0085932432640222021 0.0077803326174211195 0 0.008334074330799475 0.0082072554937700926 0 0.0078610580119686177 0.0076340713400436496 0 0.0078510926285882479 0.0081737001588324601 0 0.008334074330799475 0.0082072554937700926 0 0.0078610580119686177 0.0076340713400436496 0 0.0085932432640222021 0.0077803326174211195 0 0.0086796925531327316 0.0082644664624787027 0 0.008334074330799475 0.0082072554937700926 0 0.0085932432640222021 0.0077803326174211195 0 0.0086796925531327316 0.0082644664624787027 0 0.0085932432640222021 0.0077803326174211195 0 0.0091350757515698197 0.0079746001107823573 0 0.010010441291402227 0.0078776304558840007 0 0.0091350757515698197 0.0079746001107823573 0 0.0095742086927816054 0.007499044230737789 0 0.0095509523092639943 0.0070518763102210445 0 0.0095742086927816054 0.007499044230737789 0 0.0090255415752568697 0.0074202524365243041 0 0.0091350757515698197 0.0079746001107823573 0 0.0095742086927816054 0.007499044230737789 0 0.0090255415752568697 0.0074202524365243041 0 0.0085932432640222021 0.0077803326174211195 0 0.0091350757515698197 0.0079746001107823573 0 0.0090255415752568697 0.0074202524365243041 0 0.012760174933223661 0.0056245726441087841 0 0.013070265158917934 0.0051402882537559483 0 0.013298315750627352 0.0056742794886039741 0 0.013070265158917934 0.0051402882537559483 0 0.013422990186158246 0.005292415215932867 0 0.013298315750627352 0.0056742794886039741 0 0.013664540463260027 0.0055714437929188405 0 0.013422990186158246 0.005292415215932867 0 0.013298315750627352 0.0056742794886039741 0 0.013664540463260027 0.0055714437929188405 0 0.013422990186158246 0.005292415215932867 0 0.013669171080115792 0.0051912695271026238 0 0.013422990186158246 0.005292415215932867 0 0.013669171080115792 0.0051912695271026238 0 0.013423136476012312 0.0049040216495546312 0 0.013669171080115792 0.0051912695271026238 0 0.013686171410648613 0.0049866050114958684 0 0.013423136476012312 0.0049040216495546312 0 0.013686171410648613 0.0049866050114958684 0 0.013423136476012312 0.0049040216495546312 0 0.013710371113305387 0.0047919578624670773 0 0.013070265158917934 0.0051402882537559483 0 0.013422990186158246 0.005292415215932867 0 0.013423136476012312 0.0049040216495546312 0 0.013070265158917934 0.0051402882537559483 0 0.013423136476012312 0.0049040216495546312 0 0.013012458068950471 0.004814248755964372 0 0.013423136476012312 0.0049040216495546312 0 0.013012458068950471 0.004814248755964372 0 0.01318968686155266 0.0045830243630931794 0 0.0099651646911793294 -0.0023062322109512578 0 0.0097144452753615447 -0.0021777960697793742 0 0.0094998831183426245 -0.0023017131664519971 0 0.011571339768439886 0.0010196443809211673 0 0.011151200359901317 0.00090650964811716508 0 0.012771527943847566 0.0046491220759586919 0 0.013012458068950471 0.004814248755964372 0 0.01318968686155266 0.0045830243630931794 0 0.012771527943847566 0.0046491220759586919 0 0.01318968686155266 0.0045830243630931794 0 0.013040911659182506 0.0042942984941001022 0 0.01318968686155266 0.0045830243630931794 0 0.013040911659182506 0.0042942984941001022 0 0.013491897626354983 0.0044076608091638799 0 0.013040911659182506 0.0042942984941001022 0 0.013491897626354983 0.0044076608091638799 0 0.013720845152032058 0.004314525264511722 0 0.0099578402614336637 -0.0020765682549866637 0 0.0099651646911793294 -0.0023062322109512578 0 0.0097144452753615447 -0.0021777960697793742 0 0.01318968686155266 0.0045830243630931794 0 0.013491897626354983 0.0044076608091638799 0 0.013460471483619342 0.0046624205670165765 0 0.013423136476012312 0.0049040216495546312 0 0.01318968686155266 0.0045830243630931794 0 0.013460471483619342 0.0046624205670165765 0 0.013491897626354983 0.0044076608091638799 0 0.013460471483619342 0.0046624205670165765 0 0.013710371113305387 0.0047919578624670773 0 0.013423136476012312 0.0049040216495546312 0 0.013460471483619342 0.0046624205670165765 0 0.013710371113305387 0.0047919578624670773 0 0.011151200359901317 0.00090650964811716508 0 0.012576500699217244 0.0040103862324023954 0 0.013491897626354983 0.0044076608091638799 0 0.013710371113305387 0.0047919578624670773 0 0.014206173108240829 0.0049249459617785969 0 0.0090416084930722406 0.00015085487625590891 0 0.0095119773476913631 -0.00029135201088494224 0 0.0085558678258987175 -0.00037129803332643281 0 0.013491897626354983 0.0044076608091638799 0 0.013720845152032058 0.004314525264511722 0 0.013918226572557561 0.004717160615096431 0 0.013944035514974246 0.0047810692725903138 0 0.012576500699217244 0.0040103862324023954 0 0.011151200359901317 0.00090650964811716508 0 0.0089962067564533458 0.0014955310038869516 0 0.011550122679479902 0.0022879578886171427 0 0.011152109366861394 0.0015405942695420757 0 0.0098760635400463471 0.002140371775067118 0 0.012576500699217244 0.0040103862324023954 0 0.01353589779263167 0.0054850141019232032 0 0.014207906271336168 0.0049503418766268636 0 0.014147189679636929 0.0057220198037141595 0 0.014646162884042089 0.0060278394827109789 0 0.013710371113305387 0.0047919578624670773 0 0.014206173108240829 0.0049249459617785969 0 0.013950218856272227 0.0050607733913324467 0 0.012576500699217244 0.0040103862324023954 0 0.013170865549547446 0.004075443990834822 0 0.013686171410648613 0.0049866050114958684 0 0.013710371113305387 0.0047919578624670773 0 0.013950218856272227 0.0050607733913324467 0 0.013669171080115792 0.0051912695271026238 0 0.013686171410648613 0.0049866050114958684 0 0.013950218856272227 0.0050607733913324467 0 0.013669171080115792 0.0051912695271026238 0 0.013950218856272227 0.0050607733913324467 0 0.013919455637789357 0.0053943604435802419 0 0.014207906271336168 0.0049503418766268636 0 0.013950218856272227 0.0050607733913324467 0 0.013919455637789357 0.0053943604435802419 0 0.013664540463260027 0.0055714437929188405 0 0.013919455637789357 0.0053943604435802419 0 0.014147189679636929 0.0057220198037141595 0 0.014207906271336168 0.0049503418766268636 0 0.013919455637789357 0.0053943604435802419 0 0.014147189679636929 0.0057220198037141595 0 0.013664540463260027 0.0055714437929188405 0 0.013669171080115792 0.0051912695271026238 0 0.013919455637789357 0.0053943604435802419 0 0.011952904814310161 0.0040818411392908351 0 0.013024473300185449 0.0049396744052963206 0 0.012452461331125313 0.0049093762912208157 0 0.012576500699217244 0.0040103862324023954 0 0.010723694078926267 0.003641818654113995 0 0.010303294130815046 0.0034058456889664418 0 0.010113405187986976 0.0033871737880064069 0 0.010260901923693779 0.0025905089981983222 0 0.010943129347076702 0.0031181534398193136 0 0.010303294130815046 0.0034058456889664418 0 0.010260901923693779 0.0025905089981983222 0 0.012576500699217244 0.0040103862324023954 0 0.0089962067564533458 0.0014955310038869516 0 0.0089962067564533458 0.0014955310038869516 0 0.0074361636605135752 0.00095545471733077757 0 0.0089962067564533458 0.0014955310038869516 0 0.0074080165063570179 0.0016998947983055844 0 0.0056598327678095096 0.0012942374803978824 0 0.0074080165063570179 0.0016998947983055844 0 0.0061662266313066792 0.0013723313059075951 0 0.0062300999950612246 0.0014623564852707025 0 0.0062078090679124438 0.0014392243595338554 0 0.0061481801936723911 0.0013373417935188033 0 0.0061364623442937243 0.0013537194578216057 0 0.0061372994163094398 0.0013487752940066992 0 0.0083236283704635223 0.0013057027708372672 0 0.0076048047993306821 0.0012404581542575963 0 0.0075302962443959849 0.0016813859974776923 0 0.0082529926220903538 7.1011131823778742e-05 0 0.0085558678258987175 -0.00037129803332643281 0 0.00831124280097577 -0.00025696521840511008 0 0.0070601597941200907 -0.0005063875537738618 0 0.0074361636605135752 0.00095545471733077757 0 0.0074080165063570179 0.0016998947983055844 0 0.0074361636605135752 0.00095545471733077757 0 0.0055716916036712416 0.00057942235734845411 0 0.0074361636605135752 0.00095545471733077757 0 0.0070133739962604637 0.00066184768213279775 0 0.0060692125580469941 0.00055544122253380524 0 0.0071158636137250205 6.0119823946167565e-05 0 0.0062300999950612246 0.0014623564852707025 0 0.0062290275236777512 0.0014649284773406606 0 0.0062558466809835246 0.0014924482772276574 0 0.0062300999950612246 0.0014623564852707025 0 0.0062078090679124438 0.0014392243595338554 0 0.0062290275236777512 0.0014649284773406606 0 0.0074080165063570179 0.0016998947983055844 0 0.010723694078926267 0.003641818654113995 0 0.0062314198942928127 0.0014761202515301891 0 0.0062290275236777512 0.0014649284773406606 0 0.0062558466809835246 0.0014924482772276574 0 0.0062314198942928127 0.0014761202515301891 0 0.0062078090679124438 0.0014392243595338554 0 0.0062290275236777512 0.0014649284773406606 0 0.0062504131016859346 0.0015012993220736724 0 0.0062754594069502831 0.0015422970660200937 0 0.0062558466809835246 0.0014924482772276574 0 0.0062314198942928127 0.0014761202515301891 0 0.0062504131016859346 0.0015012993220736724 0 0.0062558466809835246 0.0014924482772276574 0 0.0137795902778425 0.0076720785218280371 0 0.014152146149335741 0.0077144082704521362 0 0.014293632382511598 0.0079535389458145755 0 0.010335466406688761 0.0061662444033733351 0 0.010723694078926267 0.003641818654113995 0 0.013973425270898791 0.0076514751578776602 0 0.014182545785237694 0.0074913620918071622 0 0.014152146149335741 0.0077144082704521362 0 0.0137795902778425 0.0076720785218280371 0 0.013973425270898791 0.0076514751578776602 0 0.014152146149335741 0.0077144082704521362 0 0.013973425270898791 0.0076514751578776602 0 0.013881419347490752 0.0076540681765568212 0 0.014182545785237694 0.0074913620918071622 0 0.013881419347490752 0.0076540681765568212 0 0.014182545785237694 0.0074913620918071622 0 0.014098803102365356 0.0072697156240300155 0 0.014182545785237694 0.0074913620918071622 0 0.014378381860262324 0.0074404115538195831 0 0.014152146149335741 0.0077144082704521362 0 0.014182545785237694 0.0074913620918071622 0 0.014378381860262324 0.0074404115538195831 0 0.014344850324771702 0.007392275749418387 0 0.014378381860262324 0.0074404115538195831 0 0.014152146149335741 0.0077144082704521362 0 0.014396079293414972 0.0077019248565253391 0 0.014378381860262324 0.0074404115538195831 0 0.014662331425146806 0.0071198189094235018 0 0.014609606235485996 0.0071787131465659414 0 0.014330223219759061 0.007513054183258208 0 0.013770955402642211 0.0070251863563343397 0 0.014717978347850198 0.0070043916055235267 0 0.014609606235485996 0.0071787131465659414 0 0.014479593288499596 0.0069870099089811687 0 0.013770955402642211 0.0070251863563343397 0 0.013837781982489529 0.007024256709194032 0 0.014378381860262324 0.0074404115538195831 0 0.014609606235485996 0.0071787131465659414 0 0.014453560231909857 0.0073848514634325905 0 0.014609606235485996 0.0071787131465659414 0 0.014453560231909857 0.0073848514634325905 0 0.01444696828678302 0.0072264089738454801 0 0.014378381860262324 0.0074404115538195831 0 0.014453560231909857 0.0073848514634325905 0 0.014344850324771702 0.007392275749418387 0 0.014453560231909857 0.0073848514634325905 0 0.014324185348879281 0.0073846720925639714 0 0.01444696828678302 0.0072264089738454801 0 0.014324185348879281 0.0073846720925639714 0 0.01444696828678302 0.0072264089738454801 0 0.014319606550060399 0.0071416645238018489 0 0.014479593288499596 0.0069870099089811687 0 0.014460473868485917 0.0066521849658339486 0 0.014233799013611549 0.0068442886822551088 0 0.01444696828678302 0.0072264089738454801 0 0.014479593288499596 0.0069870099089811687 0 0.014319606550060399 0.0071416645238018489 0 0.014717978347850198 0.0070043916055235267 0 0.014479593288499596 0.0069870099089811687 0 0.014460473868485917 0.0066521849658339486 0 0.014609606235485996 0.0071787131465659414 0 0.01444696828678302 0.0072264089738454801 0 0.014479593288499596 0.0069870099089811687 0 0.014717978347850198 0.0070043916055235267 0 0.014460473868485917 0.0066521849658339486 0 0.014646162884042089 0.0060278394827109789 0 0.013770955402642211 0.0070251863563343397 0 0.01353589779263167 0.0054850141019232032 0 0.014152146149335741 0.0077144082704521362 0 0.014396079293414972 0.0077019248565253391 0 0.014293632382511598 0.0079535389458145755 0 0.013770955402642211 0.0070251863563343397 0 0.010723694078926267 0.003641818654113995 0 0.01290417762088982 0.0057053882970139564 0 0.013024473300185449 0.0049396744052963206 0 0.012452461331125313 0.0049093762912208157 0 0.014147189679636929 0.0057220198037141595 0 0.014646162884042089 0.0060278394827109789 0 0.014174198048022092 0.006352846793266839 0 0.014460473868485917 0.0066521849658339486 0 0.014646162884042089 0.0060278394827109789 0 0.014174198048022092 0.006352846793266839 0 0.014147189679636929 0.0057220198037141595 0 0.014174198048022092 0.006352846793266839 0 0.013708154696642936 0.006141512559704152 0 0.013664540463260027 0.0055714437929188405 0 0.014147189679636929 0.0057220198037141595 0 0.013708154696642936 0.006141512559704152 0 0.014174198048022092 0.006352846793266839 0 0.014233799013611549 0.0068442886822551088 0 0.013878590820406697 0.0067998336922785348 0 0.014174198048022092 0.006352846793266839 0 0.013878590820406697 0.0067998336922785348 0 0.013708154696642936 0.006141512559704152 0 0.014460473868485917 0.0066521849658339486 0 0.014174198048022092 0.006352846793266839 0 0.014233799013611549 0.0068442886822551088 0 0.014233799013611549 0.0068442886822551088 0 0.014319606550060399 0.0071416645238018489 0 0.014099426204927785 0.0072522252734151518 0 0.014479593288499596 0.0069870099089811687 0 0.014233799013611549 0.0068442886822551088 0 0.014319606550060399 0.0071416645238018489 0 0.014324185348879281 0.0073846720925639714 0 0.014099426204927785 0.0072522252734151518 0 0.013969736031090746 0.0076357210720566452 0 0.014324185348879281 0.0073846720925639714 0 0.014319606550060399 0.0071416645238018489 0 0.014099426204927785 0.0072522252734151518 0 0.014099426204927785 0.0072522252734151518 0 0.013628742707439764 0.007491332380305059 0 0.013969736031090746 0.0076357210720566452 0 0.014099426204927785 0.0072522252734151518 0 0.013878590820406697 0.0067998336922785348 0 0.013628742707439764 0.007491332380305059 0 0.014233799013611549 0.0068442886822551088 0 0.014099426204927785 0.0072522252734151518 0 0.013878590820406697 0.0067998336922785348 0 0.013878590820406697 0.0067998336922785348 0 0.013628742707439764 0.007491332380305059 0 0.013308443530118 0.0064159211353306779 0 0.01359314600272603 0.0079025240850224138 0 0.013628742707439764 0.007491332380305059 0 0.013568492882784049 0.0078648159897402765 0 0.012900454812457555 0.0072050257391152494 0 0.013694414358397867 0.0075440273927392752 0 0.012611726993001556 0.0067070646302596982 0 0.013628742707439764 0.007491332380305059 0 0.013308443530118 0.0064159211353306779 0 0.013878590820406697 0.0067998336922785348 0 0.013308443530118 0.0064159211353306779 0 0.013708154696642936 0.006141512559704152 0 0.013308443530118 0.0064159211353306779 0 0.013708154696642936 0.006141512559704152 0 0.013298315750627352 0.0056742794886039741 0 0.013664540463260027 0.0055714437929188405 0 0.013708154696642936 0.006141512559704152 0 0.013298315750627352 0.0056742794886039741 0 0.012760174933223661 0.0056245726441087841 0 0.013308443530118 0.0064159211353306779 0 0.013298315750627352 0.0056742794886039741 0 0.013512829334467152 0.0085606362677896411 0 0.013843169965358847 0.008084251718262124 0 0.013825740142847091 0.0086967426061952957 0 0.013512829334467152 0.0085606362677896411 0 0.01347108614792775 0.0081807884352266495 0 0.013843169965358847 0.008084251718262124 0 0.013628742707439764 0.007491332380305059 0 0.013568492882784049 0.0078648159897402765 0 0.013969736031090746 0.0076357210720566452 0 0.01347108614792775 0.0081807884352266495 0 0.013843169965358847 0.008084251718262124 0 0.013568492882784049 0.0078648159897402765 0 0.013843169965358847 0.008084251718262124 0 0.013568492882784049 0.0078648159897402765 0 0.013969736031090746 0.0076357210720566452 0 0.013843169965358847 0.008084251718262124 0 0.013969736031090746 0.0076357210720566452 0 0.014402064564124399 0.0075754921718823084 0 0.014324185348879281 0.0073846720925639714 0 0.013969736031090746 0.0076357210720566452 0 0.014402064564124399 0.0075754921718823084 0 0.013843169965358847 0.008084251718262124 0 0.014403487999992666 0.0084872934361278369 0 0.013825740142847091 0.0086967426061952957 0 0.013843169965358847 0.008084251718262124 0 0.014402064564124399 0.0075754921718823084 0 0.014403487999992666 0.0084872934361278369 0 0.014255112331602149 0.0074505356583182154 0 0.014402064564124399 0.0075754921718823084 0 0.014263404547179885 0.0074044657456006418 0 0.014255112331602149 0.0074505356583182154 0 0.014402064564124399 0.0075754921718823084 0 0.014197060501198856 0.0074752489999985461 0 0.014389687097225901 0.0076058974630860404 0 0.014282833289491889 0.0080372568368854268 0 0.014453560231909857 0.0073848514634325905 0 0.014324185348879281 0.0073846720925639714 0 0.014402064564124399 0.0075754921718823084 0 0.014453560231909857 0.0073848514634325905 0 0.014402064564124399 0.0075754921718823084 0 0.014344850324771702 0.007392275749418387 0 0.014402064564124399 0.0075754921718823084 0 0.014263404547179885 0.0074044657456006418 0 0.014344850324771702 0.007392275749418387 0 0.014098803102365356 0.0072697156240300155 0 0.013661735474803502 0.0042828900771678738 0 0.013449903937828772 0.0060428781095984395 0 0.014182545785237694 0.0074913620918071622 0 0.014344850324771702 0.007392275749418387 0 0.014098803102365356 0.0072697156240300155 0 0.014263404547179885 0.0074044657456006418 0 0.014344850324771702 0.007392275749418387 0 0.014098803102365356 0.0072697156240300155 0 0.013881419347490752 0.0076540681765568212 0 0.014098803102365356 0.0072697156240300155 0 0.013431185653154024 0.0070889087480982974 0 0.014263404547179885 0.0074044657456006418 0 0.014098803102365356 0.0072697156240300155 0 0.014356887356667699 0.0074682862046250315 0 0.013987801569324873 0.0074700528738335338 0 0.014425462364886562 0.0053406957999406956 0 0.014255112331602149 0.0074505356583182154 0 0.014263404547179885 0.0074044657456006418 0 0.014356887356667699 0.0074682862046250315 0 0.014255112331602149 0.0074505356583182154 0 0.014356887356667699 0.0074682862046250315 0 0.014256096957795906 0.0076083135612349884 0 0.014356887356667699 0.0074682862046250315 0 0.014256096957795906 0.0076083135612349884 0 0.014378991498968461 0.0077518151912317453 0 0.014425462364886562 0.0053406957999406956 0 0.010842935165979287 0.0072830114471110806 0 0.014256096957795906 0.0076083135612349884 0 0.014378991498968461 0.0077518151912317453 0 0.014201241013507327 0.0078858325115696206 0 0.014256096957795906 0.0076083135612349884 0 0.01405500189624909 0.0077201789565604908 0 0.014201241013507327 0.0078858325115696206 0 0.014255112331602149 0.0074505356583182154 0 0.014256096957795906 0.0076083135612349884 0 0.014197060501198856 0.0074752489999985461 0 0.014256096957795906 0.0076083135612349884 0 0.014197060501198856 0.0074752489999985461 0 0.01405500189624909 0.0077201789565604908 0 0.014282833289491889 0.0080372568368854268 0 0.014310983064427713 0.0082950360142529725 0 0.014403487999992666 0.0084872934361278369 0 0.014082799444359096 0.0088904236118072261 0 0.013825740142847091 0.0086967426061952957 0 0.014082799444359096 0.0088904236118072261 0 0.013788419599664379 0.0092427850113932768 0 0.013825740142847091 0.0086967426061952957 0 0.014403487999992666 0.0084872934361278369 0 0.014082799444359096 0.0088904236118072261 0 0.014293091830356238 0.0092650419566016728 0 0.014293091830356238 0.0092650419566016728 0 0.013788419599664379 0.0092427850113932768 0 0.013912947127238659 0.0096678613208759662 0 0.014082799444359096 0.0088904236118072261 0 0.014293091830356238 0.0092650419566016728 0 0.013788419599664379 0.0092427850113932768 0 0.013788419599664379 0.0092427850113932768 0 0.013490722657505023 0.0090456925031751866 0 0.013825740142847091 0.0086967426061952957 0 0.013788419599664379 0.0092427850113932768 0 0.013645876072277458 0.0098249717580182489 0 0.013469040448356501 0.0095401988752261795 0 0.013788419599664379 0.0092427850113932768 0 0.013490722657505023 0.0090456925031751866 0 0.013469040448356501 0.0095401988752261795 0 0.013512829334467152 0.0085606362677896411 0 0.013490722657505023 0.0090456925031751866 0 0.013825740142847091 0.0086967426061952957 0 0.0089883369297112121 0.0050154778797671055 0 0.01092815503559005 0.0050977690811726791 0 0.010091425940601962 0.0046371673184275103 0 0.0089993151139587339 0.0052504700850380098 0 0.011168910022623565 0.0052033193901755521 0 0.00866884614359794 0.0050312287543928021 0 0.009767326212806687 0.0058288845112359385 0 0.010672830384164082 0.0049309417017059575 0 0.010091425940601962 0.0046371673184275103 0 0.0089993151139587339 0.0052504700850380098 0 0.0090895863343104268 0.0040314035120379678 0 0.0089883369297112121 0.0050154778797671055 0 0.0062877494773362847 0.006581153985903739 0 0.00866884614359794 0.0050312287543928021 0 0.0081714254311498861 0.0058236447419002767 0 0.0072816322427280283 0.0050608972919119191 0 0.0089993151139587339 0.0052504700850380098 0 0.0090895863343104268 0.0040314035120379678 0 0.0067519265675589895 0.0052566661883438701 0 0.0084120693844784641 0.0065332887852379111 0 0.0062877494773362847 0.006581153985903739 0 0.00866884614359794 0.0050312287543928021 0 0.0081714254311498861 0.0058236447419002767 0 0.0089460090442539265 0.0058462117081275033 0 0.0080729449807048007 0.006710595216278304 0 0.0081714254311498861 0.0058236447419002767 0 0.0086549500859379198 0.0062483652543751612 0 0.0080729449807048007 0.006710595216278304 0 0.0081714254311498861 0.0058236447419002767 0 0.0074547650472874217 0.0061338367780765998 0 0.0081714254311498861 0.0058236447419002767 0 0.0086549500859379198 0.0062483652543751612 0 0.0089460090442539265 0.0058462117081275033 0 0.0086549500859379198 0.0062483652543751612 0 0.0089460090442539265 0.0058462117081275033 0 0.009395573169136473 0.0064145196801282901 0 0.00866884614359794 0.0050312287543928021 0 0.0089460090442539265 0.0058462117081275033 0 0.009767326212806687 0.0058288845112359385 0 0.0089460090442539265 0.0058462117081275033 0 0.009767326212806687 0.0058288845112359385 0 0.009395573169136473 0.0064145196801282901 0 0.0097738320211896833 0.0058719835169537991 0 0.011195466461026119 0.0070407095068133942 0 0.009767326212806687 0.0058288845112359385 0 0.009395573169136473 0.0064145196801282901 0 0.010370557207994114 0.0063939086619629291 0 0.011387747346197368 0.0072455866493721264 0 0.011447034646620483 0.0059750126802833037 0 0.012710365841618713 0.006427766449494581 0 0.009767326212806687 0.0058288845112359385 0 0.011447034646620483 0.0059750126802833037 0 0.010672830384164082 0.0049309417017059575 0 0.009767326212806687 0.0058288845112359385 0 0.011387747346197368 0.0072455866493721264 0 0.011447034646620483 0.0059750126802833037 0 0.011447034646620483 0.0059750126802833037 0 0.012710365841618713 0.006427766449494581 0 0.013299207203889486 0.0051605340520175262 0 0.012818582057510604 0.0074057821994362978 0 0.013431185653154024 0.0070889087480982974 0 0.012710365841618713 0.006427766449494581 0 0.014098803102365356 0.0072697156240300155 0 0.013431185653154024 0.0070889087480982974 0 0.013449903937828772 0.0060428781095984395 0 0.012818582057510604 0.0074057821994362978 0 0.011387747346197368 0.0072455866493721264 0 0.012710365841618713 0.006427766449494581 0 0.012710365841618713 0.006427766449494581 0 0.013449903937828772 0.0060428781095984395 0 0.013299207203889486 0.0051605340520175262 0 0.013431185653154024 0.0070889087480982974 0 0.012710365841618713 0.006427766449494581 0 0.013449903937828772 0.0060428781095984395 0 0.011447034646620483 0.0059750126802833037 0 0.013299207203889486 0.0051605340520175262 0 0.010672830384164082 0.0049309417017059575 0 0.013299207203889486 0.0051605340520175262 0 0.012611031748428755 0.0046044702943481685 0 0.011168910022623565 0.0052033193901755521 0 0.013661735474803502 0.0042828900771678738 0 0.013449903937828772 0.0060428781095984395 0 0.013299207203889486 0.0051605340520175262 0 0.01311616913387241 0.0051377122880015506 0 0.01092815503559005 0.0050977690811726791 0 0.013661735474803502 0.0042828900771678738 0 0.013299207203889486 0.0051605340520175262 0 0.012611031748428755 0.0046044702943481685 0 0.011168910022623565 0.0052033193901755521 0 0.010947667031280278 0.0040867446243868432 0 0.012294945563283007 0.0037757719259352679 0 0.012611031748428755 0.0046044702943481685 0 0.011168910022623565 0.0052033193901755521 0 0.012294945563283007 0.0037757719259352679 0 0.010091425940601962 0.0046371673184275103 0 0.011168910022623565 0.0052033193901755521 0 0.010947667031280278 0.0040867446243868432 0 0.010947667031280278 0.0040867446243868432 0 0.011357887822697173 0.0029084053583983849 0 0.012294945563283007 0.0037757719259352679 0 0.013661735474803502 0.0042828900771678738 0 0.013420788719973899 0.0019092054729257743 0 0.012294945563283007 0.0037757719259352679 0 0.013661735474803502 0.0042828900771678738 0 0.012611031748428755 0.0046044702943481685 0 0.012294945563283007 0.0037757719259352679 0 0.0075444293519452161 0.009195221379377309 0 0.0076077937440063373 0.0090188486583728453 0 0.0076544570961406995 0.0092339404371838719 0 0.013420788719973899 0.0019092054729257743 0 0.011357887822697173 0.0029084053583983849 0 0.012294945563283007 0.0037757719259352679 0 0.010842935165979287 0.0072830114471110806 0 0.0094605271563580097 0.0057257509026273651 0 0.0076077937440063373 0.0090188486583728453 0 0.007538725543579379 0.0089483223131586378 0 0.0076544570961406995 0.0092339404371838719 0 0.010091425940601962 0.0046371673184275103 0 0.010947667031280278 0.0040867446243868432 0 0.0090895863343104268 0.0040314035120379678 0 0.0094605271563580097 0.0057257509026273651 0 0.0084120693844784641 0.0065332887852379111 0 0.0076077937440063373 0.0090188486583728453 0 0.007538725543579379 0.0089483223131586378 0 0.0075083496516932489 0.008870815714727167 0 0.010947667031280278 0.0040867446243868432 0 0.011357887822697173 0.0029084053583983849 0 0.0090895863343104268 0.0040314035120379678 0 0.0073496976231576224 0.0086868223823344821 0 0.0075083496516932489 0.008870815714727167 0 0.0071929029016109718 0.0089267078643663605 0 0.007538725543579379 0.0089483223131586378 0 0.0073496976231576224 0.0086868223823344821 0 0.0075083496516932489 0.008870815714727167 0 0.007538725543579379 0.0089483223131586378 0 0.0073496976231576224 0.0086868223823344821 0 0.0074444725759236028 0.0089203913882692429 0 0.0073496976231576224 0.0086868223823344821 0 0.0070436471619412071 0.0083889334861737726 0 0.0073271506775508567 0.0087476420468501782 0 0.0073496976231576224 0.0086868223823344821 0 0.0073271506775508567 0.0087476420468501782 0 0.0074444725759236028 0.0089203913882692429 0 0.0070699096999919915 0.0089643641801499009 0 0.0073271506775508567 0.0087476420468501782 0 0.0073809871482468422 0.0087149489778173307 0 0.0070436471619412071 0.0083889334861737726 0 0.0070699096999919915 0.0089643641801499009 0 0.0073271506775508567 0.0087476420468501782 0 0.0069331518070463588 0.0083282972408816967 0 0.0060843546316368593 0.0080544120576745114 0 0.0073496976231576224 0.0086868223823344821 0 0.0070436471619412071 0.0083889334861737726 0 0.0071929029016109718 0.0089267078643663605 0 0.0049617576063595084 0.0076931089740361032 0 0.0041805359973313997 0.007535820123172686 0 0.0041149064631998012 0.0068706522437789108 0 0.0070699096999919915 0.0089643641801499009 0 0.0060672758165688069 0.0090895304242527147 0 0.006607639425846394 0.0086482559665766474 0 0.0060843546316368593 0.0080544120576745114 0 0.0051493026217569182 0.0079608627559970384 0 0.0070436471619412071 0.0083889334861737726 0 0.0052010266464301447 0.0070922200271457576 0 0.0058962486886453367 0.0086706802536626569 0 0.0052010266464301447 0.0070922200271457576 0 0.0049617576063595084 0.0076931089740361032 0 0.0058962486886453367 0.0086706802536626569 0 0.0052010266464301447 0.0070922200271457576 0 0.0049617576063595084 0.0076931089740361032 0 0.0041149064631998012 0.0068706522437789108 0 0.0049617576063595084 0.0076931089740361032 0 0.0041805359973313997 0.007535820123172686 0 0.0058962486886453367 0.0086706802536626569 0 0.0041805359973313997 0.007535820123172686 0 0.0036689878688304645 0.0073983171985447177 0 0.0037966689664517285 0.0070453007122329818 0 0.004372550987420727 0.0075899909491607227 0 0.004597312111198822 0.0081750703034951504 0 0.0051037155066832674 0.0061969075024929316 0 0.006190423171244722 0.0056270548731614653 0 0.0060083525237496112 0.0063369723619814636 0 0.0036689878688304645 0.0073983171985447177 0 0.0037966689664517285 0.0070453007122329818 0 0.0036007739261194717 0.0072742989364123333 0 0.0044746464368868467 0.0066161349519553419 0 0.004776322974675935 0.006460171860843889 0 0.0037966689664517285 0.0070453007122329818 0 0.0040240249748337738 0.0068216708060207633 0 0.0040274490280069741 0.0070346868450958128 0 0.0041805359973313997 0.007535820123172686 0 0.0037966689664517285 0.0070453007122329818 0 0.0040274490280069741 0.0070346868450958128 0 0.0062877494773362847 0.006581153985903739 0 0.004776322974675935 0.006460171860843889 0 0.0036689878688304645 0.0073983171985447177 0 0.0035174479110394196 0.0073199421201183348 0 0.0036007739261194717 0.0072742989364123333 0 0.0070436471619412071 0.0083889334861737726 0 0.0058962486886453367 0.0086706802536626569 0 0.0071929029016109718 0.0089267078643663605 0 0.004597312111198822 0.0081750703034951504 0 0.0062877494773362847 0.006581153985903739 0 0.0072816322427280283 0.0050608972919119191 0 0.006190423171244722 0.0056270548731614653 0 0.0067383530983681755 0.0061299081883546781 0 0.006190423171244722 0.0056270548731614653 0 0.0060083525237496112 0.0063369723619814636 0 0.0067383530983681755 0.0061299081883546781 0 0.0072816322427280283 0.0050608972919119191 0 0.0067383530983681755 0.0061299081883546781 0 0.0074547650472874217 0.0061338367780765998 0 0.0081714254311498861 0.0058236447419002767 0 0.0072816322427280283 0.0050608972919119191 0 0.0074547650472874217 0.0061338367780765998 0 0.0080729449807048007 0.006710595216278304 0 0.0074547650472874217 0.0061338367780765998 0 0.0070845789504249768 0.0069448806425495505 0 0.0080729449807048007 0.006710595216278304 0 0.0078610580119686177 0.0076340713400436496 0 0.0070845789504249768 0.0069448806425495505 0 0.0067383530983681755 0.0061299081883546781 0 0.0074547650472874217 0.0061338367780765998 0 0.0070845789504249768 0.0069448806425495505 0 0.0078610580119686177 0.0076340713400436496 0 0.0070845789504249768 0.0069448806425495505 0 0.0069173114497520852 0.0077316452871181709 0 0.0069173114497520852 0.0077316452871181709 0 0.0073983342912399708 0.0081045777109345629 0 0.0068772269381228808 0.0084149919679687175 0 0.0078610580119686177 0.0076340713400436496 0 0.0069173114497520852 0.0077316452871181709 0 0.0073983342912399708 0.0081045777109345629 0 0.0078610580119686177 0.0076340713400436496 0 0.0078510926285882479 0.0081737001588324601 0 0.0073983342912399708 0.0081045777109345629 0 0.0062259233883858612 0.0081084196963433237 0 0.0062728474169894601 0.0074156431780758704 0 0.0054947801203783361 0.0077248082038923827 0 0.0069173114497520852 0.0077316452871181709 0 0.0062259233883858612 0.0081084196963433237 0 0.0068772269381228808 0.0084149919679687175 0 0.0069173114497520852 0.0077316452871181709 0 0.0062259233883858612 0.0081084196963433237 0 0.0062728474169894601 0.0074156431780758704 0 0.0070845789504249768 0.0069448806425495505 0 0.0069173114497520852 0.0077316452871181709 0 0.0062728474169894601 0.0074156431780758704 0 0.0062728474169894601 0.0074156431780758704 0 0.0063485418496382158 0.006784669363740805 0 0.0056670505026440131 0.0069411652248250735 0 0.0070845789504249768 0.0069448806425495505 0 0.0062728474169894601 0.0074156431780758704 0 0.0063485418496382158 0.006784669363740805 0 0.0067383530983681755 0.0061299081883546781 0 0.0070845789504249768 0.0069448806425495505 0 0.0063485418496382158 0.006784669363740805 0 0.0060083525237496112 0.0063369723619814636 0 0.0067383530983681755 0.0061299081883546781 0 0.0063485418496382158 0.006784669363740805 0 0.0060083525237496112 0.0063369723619814636 0 0.0063485418496382158 0.006784669363740805 0 0.0056670505026440131 0.0069411652248250735 0 0.0051037155066832674 0.0061969075024929316 0 0.0060083525237496112 0.0063369723619814636 0 0.0056670505026440131 0.0069411652248250735 0 0.0051037155066832674 0.0061969075024929316 0 0.0056670505026440131 0.0069411652248250735 0 0.0047107322429535111 0.0073093660124592596 0 0.0051037155066832674 0.0061969075024929316 0 0.0047107322429535111 0.0073093660124592596 0 0.0040240249748337738 0.0068216708060207633 0 0.0044746464368868467 0.0066161349519553419 0 0.0040633526049873737 0.006806093391262074 0 0.0047107322429535111 0.0073093660124592596 0 0.0040244225083012246 0.0077326743655518736 0 0.0040240249748337738 0.0068216708060207633 0 0.0047107322429535111 0.0073093660124592596 0 0.0048736462511658023 0.0080092299457193376 0 0.0040244225083012246 0.0077326743655518736 0 0.0056670505026440131 0.0069411652248250735 0 0.0047107322429535111 0.0073093660124592596 0 0.0054947801203783361 0.0077248082038923827 0 0.0062728474169894601 0.0074156431780758704 0 0.0056670505026440131 0.0069411652248250735 0 0.0054947801203783361 0.0077248082038923827 0 0.0047107322429535111 0.0073093660124592596 0 0.0048736462511658023 0.0080092299457193376 0 0.0054947801203783361 0.0077248082038923827 0 0.0048736462511658023 0.0080092299457193376 0 0.0054947801203783361 0.0077248082038923827 0 0.0054710349557596768 0.0084629195888179555 0 0.0062259233883858612 0.0081084196963433237 0 0.0054947801203783361 0.0077248082038923827 0 0.0054710349557596768 0.0084629195888179555 0 0.0048736462511658023 0.0080092299457193376 0 0.0054710349557596768 0.0084629195888179555 0 0.0046803903651490937 0.0088510672625848989 0 0.0054710349557596768 0.0084629195888179555 0 0.0046803903651490937 0.0088510672625848989 0 0.0055719566949057695 0.009102478249944838 0 0.0054710349557596768 0.0084629195888179555 0 0.0055719566949057695 0.009102478249944838 0 0.0062170663962249073 0.0088281198358265943 0 0.00391193618213714 0.0073375065444704676 0 0.0035717876379436344 0.0067555624042593913 0 0.0048736462511658023 0.0080092299457193376 0 0.0046803903651490937 0.0088510672625848989 0 0.0040244225083012246 0.0077326743655518736 0 0.0028717973324333904 0.0053001653071194097 0 0.003287390333493595 0.0053722386981465203 0 0.0031166034738908236 0.0058689848291599333 0 0.0034089014081712197 0.0060229621335005784 0 0.0024458571003690647 0.0046368834255682652 0 0.0028717973324333904 0.0053001653071194097 0 0.0025919553227986246 0.0048314719274060161 0 0.0033543126706360336 0.004907471059738773 0 0.00391193618213714 0.0073375065444704676 0 0.0034089014081712197 0.0060229621335005784 0 0.0046803903651490937 0.0088510672625848989 0 0.0055719566949057695 0.009102478249944838 0 0.0053471608332952732 0.0099208384812019389 0 0.0055719566949057695 0.009102478249944838 0 0.0053471608332952732 0.0099208384812019389 0 0.0061488791505001283 0.0094492807829142916 0 0.0067028010142440239 0.010102662210960841 0 0.0061488791505001283 0.0094492807829142916 0 0.0070184832082913155 0.0091683096447655738 0 0.0067028010142440239 0.010102662210960841 0 0.0053471608332952732 0.0099208384812019389 0 0.0061488791505001283 0.0094492807829142916 0 0.0055719566949057695 0.009102478249944838 0 0.0061488791505001283 0.0094492807829142916 0 0.0062170663962249073 0.0088281198358265943 0 0.0061488791505001283 0.0094492807829142916 0 0.0070184832082913155 0.0091683096447655738 0 0.0062170663962249073 0.0088281198358265943 0 0.0060208835859227386 0.0051423479640878306 0 0.0066417416422062479 0.0040423736403210099 0 0.0067028010142440239 0.010102662210960841 0 0.007598405699508883 0.0097053074248328961 0 0.0070184832082913155 0.0091683096447655738 0 0.0059851726199304086 0.0023780509109753477 0 0.0066417416422062479 0.0040423736403210099 0 0.0078054915171284637 0.0090423367134533431 0 0.007598405699508883 0.0097053074248328961 0 0.0070184832082913155 0.0091683096447655738 0 0.0070184832082913155 0.0091683096447655738 0 0.0075272493018216534 0.0086194880447520768 0 0.0068772269381228808 0.0084149919679687175 0 0.0078054915171284637 0.0090423367134533431 0 0.0070184832082913155 0.0091683096447655738 0 0.0075272493018216534 0.0086194880447520768 0 0.0078510926285882479 0.0081737001588324601 0 0.0073983342912399708 0.0081045777109345629 0 0.0075272493018216534 0.0086194880447520768 0 0.0073983342912399708 0.0081045777109345629 0 0.0075272493018216534 0.0086194880447520768 0 0.0068772269381228808 0.0084149919679687175 0 0.0062259233883858612 0.0081084196963433237 0 0.0068772269381228808 0.0084149919679687175 0 0.0062170663962249073 0.0088281198358265943 0 0.0062259233883858612 0.0081084196963433237 0 0.0054710349557596768 0.0084629195888179555 0 0.0062170663962249073 0.0088281198358265943 0 0.0070184832082913155 0.0091683096447655738 0 0.0068772269381228808 0.0084149919679687175 0 0.0062170663962249073 0.0088281198358265943 0 0.0040144790439004437 0.0052465513020473588 0 0.0040320025405349803 0.0049701238224286095 0 0.0037071880632954233 0.0053630424181537661 0 0.0040144790439004437 0.0052465513020473588 0 0.0041424565205291589 0.0051421421723746334 0 0.0041559604052103256 0.0055430864868298707 0 0.0040144790439004437 0.0052465513020473588 0 0.0037071880632954233 0.0053630424181537661 0 0.0041559604052103256 0.0055430864868298707 0 0.0040144790439004437 0.0052465513020473588 0 0.0041424565205291589 0.0051421421723746334 0 0.0040320025405349803 0.0049701238224286095 0 0.0041424565205291589 0.0051421421723746334 0 0.0042176999084436893 0.0048423442174770816 0 0.0042129190394240047 0.0050757763977892318 0 0.0041424565205291589 0.0051421421723746334 0 0.0041559604052103256 0.0055430864868298707 0 0.0042129190394240047 0.0050757763977892318 0 0.0041424565205291589 0.0051421421723746334 0 0.0042176999084436893 0.0048423442174770816 0 0.0040320025405349803 0.0049701238224286095 0 0.0043362332649868936 0.00449943063208251 0 0.0042176999084436893 0.0048423442174770816 0 0.0040320025405349803 0.0049701238224286095 0 0.0040320025405349803 0.0049701238224286095 0 0.0033543126706360336 0.004907471059738773 0 0.0037071880632954233 0.0053630424181537661 0 0.004169842939825843 0.005041496235472797 0 0.0024458571003690647 0.0046368834255682652 0 0.0033452610171682317 0.0041974061917510221 0 0.0040320025405349803 0.0049701238224286095 0 0.0023801645625832202 0.0048113706912249407 0 0.0028717973324333904 0.0053001653071194097 0 0.0033543126706360336 0.004907471059738773 0 0.003287390333493595 0.0053722386981465203 0 0.0033543126706360336 0.004907471059738773 0 0.003287390333493595 0.0053722386981465203 0 0.0037071880632954233 0.0053630424181537661 0 0.003287390333493595 0.0053722386981465203 0 0.0037071880632954233 0.0053630424181537661 0 0.0035905017213085618 0.0057361891735234743 0 0.0037071880632954233 0.0053630424181537661 0 0.0035905017213085618 0.0057361891735234743 0 0.0041559604052103256 0.0055430864868298707 0 0.0037045494843260351 0.0062925904589585004 0 0.0035905017213085618 0.0057361891735234743 0 0.0041559604052103256 0.0055430864868298707 0 0.0036857668998590727 0.0062418844228322966 0 0.0039880391603423571 0.0058736095809059294 0 0.0037045494843260351 0.0062925904589585004 0 0.0038347956907852248 0.006521263743596295 0 0.0038747925908555491 0.006192971313686832 0 0.003287390333493595 0.0053722386981465203 0 0.0031166034738908236 0.0058689848291599333 0 0.0035905017213085618 0.0057361891735234743 0 0.0037045494843260351 0.0062925904589585004 0 0.0031166034738908236 0.0058689848291599333 0 0.0035905017213085618 0.0057361891735234743 0 0.0035717876379436344 0.0067555624042593913 0 0.0036804739703318705 0.0067843378459750033 0 0.0037045494843260351 0.0062925904589585004 0 0.0031166034738908236 0.0058689848291599333 0 0.0036967312542172284 0.006740044638288427 0 0.0040244225083012246 0.0077326743655518736 0 0.0036967312542172284 0.006740044638288427 0 0.0040240249748337738 0.0068216708060207633 0 0.0036967312542172284 0.006740044638288427 0 0.0040240249748337738 0.0068216708060207633 0 0.0040274490280069741 0.0070346868450958128 0 0.0037045494843260351 0.0062925904589585004 0 0.0036967312542172284 0.006740044638288427 0 0.0038347956907852248 0.006521263743596295 0 0.0036967312542172284 0.006740044638288427 0 0.0038347956907852248 0.006521263743596295 0 0.0038701143994349877 0.006864606780892798 0 0.0038347956907852248 0.006521263743596295 0 0.0038843738282957419 0.0066006607101106486 0 0.0038701143994349877 0.006864606780892798 0 0.0038843738282957419 0.0066006607101106486 0 0.0038747925908555491 0.006192971313686832 0 0.0039109171471511835 0.0063646542866764829 0 0.0038347956907852248 0.006521263743596295 0 0.0038843738282957419 0.0066006607101106486 0 0.0038747925908555491 0.006192971313686832 0 0.0039880391603423571 0.0058736095809059294 0 0.0040734739722997158 0.0054084001245607296 0 0.0038747925908555491 0.006192971313686832 0 0.0039109171471511835 0.0063646542866764829 0 0.0039018668271558563 0.0057531996434527551 0 0.0039109171471511835 0.0063646542866764829 0 0.0038973360696693414 0.0067070114477707698 0 0.0039254221652635273 0.0067129477231686286 0 0.0039109171471511835 0.0063646542866764829 0 0.0039254221652635273 0.0067129477231686286 0 0.0040227869266640168 0.0061684456620347862 0 0.0038843738282957419 0.0066006607101106486 0 0.0038973360696693414 0.0067070114477707698 0 0.0039002880810359015 0.0069260027396041346 0 0.0038843738282957419 0.0066006607101106486 0 0.0039109171471511835 0.0063646542866764829 0 0.0038973360696693414 0.0067070114477707698 0 0.0038937727765616594 0.0068858520098378775 0 0.0039002880810359015 0.0069260027396041346 0 0.0039139410954722774 0.0070473662076188581 0 0.0038973360696693414 0.0067070114477707698 0 0.0038937727765616594 0.0068858520098378775 0 0.0039254221652635273 0.0067129477231686286 0 0.0038973360696693414 0.0067070114477707698 0 0.0038937727765616594 0.0068858520098378775 0 0.0039002880810359015 0.0069260027396041346 0 0.003924710176777371 0.0067805685086312715 0 0.0037725198748272491 0.0069666642605531789 0 0.0039254221652635273 0.0067129477231686286 0 0.003731540536099121 0.0071728462019626247 0 0.0041148291912587297 0.0071540661112409667 0 0.0038937727765616594 0.0068858520098378775 0 0.0039254221652635273 0.0067129477231686286 0 0.0038988193597406704 0.0069827822254915507 0 0.0036967312542172284 0.006740044638288427 0 0.0040274490280069741 0.0070346868450958128 0 0.0038701143994349877 0.006864606780892798 0 0.0040274490280069741 0.0070346868450958128 0 0.0038701143994349877 0.006864606780892798 0 0.0039963295062868847 0.00711526967308282 0 0.0038843738282957419 0.0066006607101106486 0 0.0038701143994349877 0.006864606780892798 0 0.0039002880810359015 0.0069260027396041346 0 0.0038701143994349877 0.006864606780892798 0 0.0039002880810359015 0.0069260027396041346 0 0.0039963295062868847 0.00711526967308282 0 0.0039002880810359015 0.0069260027396041346 0 0.0039963295062868847 0.00711526967308282 0 0.0039139410954722774 0.0070473662076188581 0 0.0041805359973313997 0.007535820123172686 0 0.0039963295062868847 0.00711526967308282 0 0.0039139410954722774 0.0070473662076188581 0 0.0041805359973313997 0.007535820123172686 0 0.0040274490280069741 0.0070346868450958128 0 0.0039963295062868847 0.00711526967308282 0 0.0041805359973313997 0.007535820123172686 0 0.0039139410954722774 0.0070473662076188581 0 0.0041149064631998012 0.0068706522437789108 0 0.0039139410954722774 0.0070473662076188581 0 0.0041149064631998012 0.0068706522437789108 0 0.0038916652166185129 0.0068862694704205623 0 0.0051493026217569182 0.0079608627559970384 0 0.004290741357270424 0.0079357124634249886 0 0.0039139410954722774 0.0070473662076188581 0 0.0038988193597406704 0.0069827822254915507 0 0.0038916652166185129 0.0068862694704205623 0 0.0038937727765616594 0.0068858520098378775 0 0.0039139410954722774 0.0070473662076188581 0 0.0038988193597406704 0.0069827822254915507 0 0.003731540536099121 0.0071728462019626247 0 0.0035167600565301402 0.0077238934144935297 0 0.0040441533069910151 0.0078228002659562479 0 0.0037725198748272491 0.0069666642605531789 0 0.004290741357270424 0.0079357124634249886 0 0.003731540536099121 0.0071728462019626247 0 0.0040441533069910151 0.0078228002659562479 0 0.0041148291912587297 0.0071540661112409667 0 0.0040441533069910151 0.0078228002659562479 0 0.0041710281359332354 0.0079570917904889064 0 0.0041853905689320948 0.0079280282546763895 0 0.0040441533069910151 0.0078228002659562479 0 0.0042130023032423058 0.0079781899817232445 0 0.0041710281359332354 0.0079570917904889064 0 0.004204720722615133 0.0079909955877114254 0 0.0042130023032423058 0.0079781899817232445 0 0.0043274258637858347 0.0080513008081813352 0 0.004290741357270424 0.0079357124634249886 0 0.0038769487028560957 0.0078085291132963591 0 0.004204720722615133 0.0079909955877114254 0 0.0040441533069910151 0.0078228002659562479 0 0.0042130023032423058 0.0079781899817232445 0 0.0042130023032423058 0.0079781899817232445 0 0.0042636402512764649 0.0080440360935261877 0 0.0043274258637858347 0.0080513008081813352 0 0.0042636402512764649 0.0080440360935261877 0 0.0044552458154858091 0.0081809116448668482 0 0.0043274258637858347 0.0080513008081813352 0 0.0042130023032423058 0.0079781899817232445 0 0.0042636402512764649 0.0080440360935261877 0 0.0041710281359332354 0.0079570917904889064 0 0.0041710281359332354 0.0079570917904889064 0 0.0042094048954219023 0.0080185273509886367 0 0.0041853905689320948 0.0079280282546763895 0 0.0042636402512764649 0.0080440360935261877 0 0.0041710281359332354 0.0079570917904889064 0 0.0042094048954219023 0.0080185273509886367 0 0.0042636402512764649 0.0080440360935261877 0 0.0042094048954219023 0.0080185273509886367 0 0.0042311348993566882 0.0081359032601417743 0 0.0042094048954219023 0.0080185273509886367 0 0.0042311348993566882 0.0081359032601417743 0 0.0042367536900488039 0.008041881988893421 0 0.0042871152238726359 0.0080904811905507593 0 0.004380340514725807 0.0083139929346508316 0 0.0042636402512764649 0.0080440360935261877 0 0.0046367144676331832 0.0083403695882847181 0 0.0044552458154858091 0.0081809116448668482 0 0.0042636402512764649 0.0080440360935261877 0 0.0042311348993566882 0.0081359032601417743 0 0.0041494606769129083 0.0082614162207388982 0 0.0042311348993566882 0.0081359032601417743 0 0.0041799795416676538 0.0082816371486913697 0 0.0041494606769129083 0.0082614162207388982 0 0.0041940906593289111 0.0082900495619964761 0 0.0043600962409428672 0.0083935900314827672 0 0.0042311348993566882 0.0081359032601417743 0 0.0042327348267695367 0.0082022408509813544 0 0.0042627474303848075 0.0081529484489838763 0 0.0042311348993566882 0.0081359032601417743 0 0.0041799795416676538 0.0082816371486913697 0 0.0042327348267695367 0.0082022408509813544 0 0.0046259394902226133 0.0083533697126763305 0 0.0047566534160502303 0.0084408553634514796 0 0.0049159619629267643 0.0085181907758184443 0 0.0049231825005672967 0.0083382916662500337 0 0.0049228273248266051 0.0084778054365067194 0 0.0046259394902226133 0.0083533697126763305 0 0.0045468042904023426 0.0082887890616486996 0 0.0049159619629267643 0.0085181907758184443 0 0.0052702378000212859 0.0084841100630989649 0 0.0049923654459382797 0.0085208241198009346 0 0.0049159619629267643 0.0085181907758184443 0 0.0046367144676331832 0.0083403695882847181 0 0.0046259394902226133 0.0083533697126763305 0 0.0044552458154858091 0.0081809116448668482 0 0.0041799795416676538 0.0082816371486913697 0 0.0041494606769129083 0.0082614162207388982 0 0.0040710853231694178 0.0088997647517857804 0 0.0047151852945055382 0.0084128944462037794 0 0.0046259394902226133 0.0083533697126763305 0 0.0047566534160502303 0.0084408553634514796 0 0.0046367144676331832 0.0083403695882847181 0 0.0047151852945055382 0.0084128944462037794 0 0.0046259394902226133 0.0083533697126763305 0 0.0044552458154858091 0.0081809116448668482 0 0.0045468042904023426 0.0082887890616486996 0 0.0043274258637858347 0.0080513008081813352 0 0.0046259394902226133 0.0083533697126763305 0 0.0044552458154858091 0.0081809116448668482 0 0.0045468042904023426 0.0082887890616486996 0 0.0052702378000212859 0.0084841100630989649 0 0.0053612681676692793 0.00835940775051623 0 0.0050837994531467007 0.0083430158043390282 0 0.0055937135840574232 0.008334536544852526 0 0.006607639425846394 0.0086482559665766474 0 0.0065617372222304092 0.0080436775062951039 0 0.0055919039245833036 0.008370596268801633 0 0.0057683266733423322 0.0080748951553938787 0 0.0053612681676692793 0.00835940775051623 0 0.0055937135840574232 0.008334536544852526 0 0.0050837994531467007 0.0083430158043390282 0 0.0049231825005672967 0.0083382916662500337 0 0.0049271823844488759 0.0082445609516232296 0 0.0052702378000212859 0.0084841100630989649 0 0.0053612681676692793 0.00835940775051623 0 0.0054907645635656269 0.0082690314630636478 0 0.0053612681676692793 0.00835940775051623 0 0.0054907645635656269 0.0082690314630636478 0 0.0055937135840574232 0.008334536544852526 0 0.004290741357270424 0.0079357124634249886 0 0.0049271823844488759 0.0082445609516232296 0 0.0060672758165688069 0.0090895304242527147 0 0.0051059309956426064 0.008853188595999005 0 0.0055937135840574232 0.008334536544852526 0 0.0051059309956426064 0.008853188595999005 0 0.0054907645635656269 0.0082690314630636478 0 0.0055937135840574232 0.008334536544852526 0 0.0060672758165688069 0.0090895304242527147 0 0.0055937135840574232 0.008334536544852526 0 0.006607639425846394 0.0086482559665766474 0 0.0070699096999919915 0.0089643641801499009 0 0.006607639425846394 0.0086482559665766474 0 0.0073809871482468422 0.0087149489778173307 0 0.0065617372222304092 0.0080436775062951039 0 0.0073809871482468422 0.0087149489778173307 0 0.0073429386705622978 0.0076937224427412864 0 0.006607639425846394 0.0086482559665766474 0 0.0065617372222304092 0.0080436775062951039 0 0.0073809871482468422 0.0087149489778173307 0 0.0073271506775508567 0.0087476420468501782 0 0.0073809871482468422 0.0087149489778173307 0 0.0074679629866624764 0.0090847823984115273 0 0.0073271506775508567 0.0087476420468501782 0 0.0074679629866624764 0.0090847823984115273 0 0.0074444725759236028 0.0089203913882692429 0 0.0073809871482468422 0.0087149489778173307 0 0.0074679629866624764 0.0090847823984115273 0 0.0075875151347866978 0.0091367751454418649 0 0.0076409428583716918 0.0084622635730052555 0 0.0065348842761907494 0.0090106554493701585 0 0.0074679629866624764 0.0090847823984115273 0 0.007568737796509164 0.0093788030787553336 0 0.0075875151347866978 0.0091367751454418649 0 0.0072013387839896248 0.0099328808554213603 0 0.0065348842761907494 0.0090106554493701585 0 0.0067814076470214353 0.010233800239834959 0 0.0061246696978662736 0.010570622490054539 0 0.006056185077242383 0.0099127982915761005 0 0.0050837994531467007 0.0083430158043390282 0 0.0049148659001464288 0.0084668009511629175 0 0.0049923654459382797 0.0085208241198009346 0 0.0052702378000212859 0.0084841100630989649 0 0.0050837994531467007 0.0083430158043390282 0 0.0049923654459382797 0.0085208241198009346 0 0.0057683266733423322 0.0080748951553938787 0 0.0065348842761907494 0.0090106554493701585 0 0.0065348842761907494 0.0090106554493701585 0 0.0053701480857034625 0.0093476601113949894 0 0.0049148659001464288 0.0084668009511629175 0 0.0049923654459382797 0.0085208241198009346 0 0.0049489401299928366 0.0085662589667300174 0 0.0049923654459382797 0.0085208241198009346 0 0.0049635805037421734 0.00856173697389267 0 0.0049159619629267643 0.0085181907758184443 0 0.0049923654459382797 0.0085208241198009346 0 0.0049635805037421734 0.00856173697389267 0 0.0049489401299928366 0.0085662589667300174 0 0.0053701480857034625 0.0093476601113949894 0 0.0054838158812045585 0.0089082724224673181 0 0.0049635805037421734 0.00856173697389267 0 0.0049489401299928366 0.0085662589667300174 0 0.0050404035954091627 0.0086400507481191966 0 0.0049635805037421734 0.00856173697389267 0 0.0049560175600111851 0.0085826755913063438 0 0.0049118860435928254 0.0085376616553601969 0 0.0049635805037421734 0.00856173697389267 0 0.0049560175600111851 0.0085826755913063438 0 0.0050404035954091627 0.0086400507481191966 0 0.0067814076470214353 0.010233800239834959 0 0.006056185077242383 0.0099127982915761005 0 0.0068341660360567175 0.0097161581379604824 0 0.006056185077242383 0.0099127982915761005 0 0.0068341660360567175 0.0097161581379604824 0 0.0064144016557542375 0.0095106975047883919 0 0.006056185077242383 0.0099127982915761005 0 0.0064144016557542375 0.0095106975047883919 0 0.0058857147485335687 0.0092991965323084083 0 0.0068341660360567175 0.0097161581379604824 0 0.0064144016557542375 0.0095106975047883919 0 0.0068749740513955665 0.0093587234160879777 0 0.0064144016557542375 0.0095106975047883919 0 0.0068749740513955665 0.0093587234160879777 0 0.0063100380768936802 0.0090178875983873714 0 0.0068749740513955665 0.0093587234160879777 0 0.0063100380768936802 0.0090178875983873714 0 0.0068857194003288926 0.008743018481256401 0 0.0064144016557542375 0.0095106975047883919 0 0.0063100380768936802 0.0090178875983873714 0 0.0058857147485335687 0.0092991965323084083 0 0.0063100380768936802 0.0090178875983873714 0 0.0054701657825629033 0.0084327328197473395 0 0.0060502574060892992 0.0083733216957740646 0 0.0063100380768936802 0.0090178875983873714 0 0.0068857194003288926 0.008743018481256401 0 0.0060502574060892992 0.0083733216957740646 0 0.0078147617473802305 0.0098473893914190098 0 0.0077659844912698183 0.0096682255347071491 0 0.0049560175600111851 0.0085826755913063438 0 0.0050288746157909452 0.0086070843707432391 0 0.0049189233794806201 0.0085849464609235333 0 0.0049560175600111851 0.0085826755913063438 0 0.0050288746157909452 0.0086070843707432391 0 0.0050404035954091627 0.0086400507481191966 0 0.0050288746157909452 0.0086070843707432391 0 0.0054701657825629033 0.0084327328197473395 0 0.0050571875417703216 0.0085158623558751183 0 0.0054838158812045585 0.0089082724224673181 0 0.0054567979414332597 0.0084327427313953401 0 0.0063100380768936802 0.0090178875983873714 0 0.0058857147485335687 0.0092991965323084083 0 0.0054701657825629033 0.0084327328197473395 0 0.0050288746157909452 0.0086070843707432391 0 0.0050404035954091627 0.0086400507481191966 0 0.0054701657825629033 0.0084327328197473395 0 0.0049189233794806201 0.0085849464609235333 0 0.0049363869595941568 0.0085519508870024134 0 0.0048125550586691854 0.008574293849863069 0 0.0050288746157909452 0.0086070843707432391 0 0.0050571875417703216 0.0085158623558751183 0 0.0049189233794806201 0.0085849464609235333 0 0.0050571875417703216 0.0085158623558751183 0 0.0049189233794806201 0.0085849464609235333 0 0.0049363869595941568 0.0085519508870024134 0 0.0050571875417703216 0.0085158623558751183 0 0.0049363869595941568 0.0085519508870024134 0 0.0049494970395160508 0.0085198442501424401 0 0.0046323816222349498 0.0087805687781815009 0 0.0048018903313493053 0.0085709739569922033 0 0.0049189233794806201 0.0085849464609235333 0 0.0049184568563083444 0.0085671476338931764 0 0.0048125550586691854 0.008574293849863069 0 0.0043490172958190994 0.009046506555938548 0 0.0043864377287493733 0.0087735541863716172 0 0.0048125550586691854 0.008574293849863069 0 0.0049560175600111851 0.0085826755913063438 0 0.0049189233794806201 0.0085849464609235333 0 0.0049184568563083444 0.0085671476338931764 0 0.0043490172958190994 0.009046506555938548 0 0.0042225074468146898 0.0089475092505758407 0 0.0041829840370496644 0.0090215879901797066 0 0.0042225074468146898 0.0089475092505758407 0 0.0040866997672521941 0.00895790377509793 0 0.0041829840370496644 0.0090215879901797066 0 0.0043490172958190994 0.009046506555938548 0 0.0042225074468146898 0.0089475092505758407 0 0.0043864377287493733 0.0087735541863716172 0 0.0042225074468146898 0.0089475092505758407 0 0.0043864377287493733 0.0087735541863716172 0 0.0041448972298810541 0.0087778175643176137 0 0.0043864377287493733 0.0087735541863716172 0 0.0041448972298810541 0.0087778175643176137 0 0.0044148719223886281 0.0084713321458266908 0 0.0041448972298810541 0.0087778175643176137 0 0.0038849040103147749 0.0087650059555252121 0 0.0040866997672521941 0.00895790377509793 0 0.0044133515949035416 0.009523575435807197 0 0.0044574516556610726 0.0092959012495747225 0 0.0042691286680566565 0.0092620085649974763 0 0.0030578509006442402 0.012558767260341826 0 0.004014250651677001 0.0087190360866455773 0 0.0042225074468146898 0.0089475092505758407 0 0.0041448972298810541 0.0087778175643176137 0 0.0040866997672521941 0.00895790377509793 0 0.0030578509006442402 0.012558767260341826 0 0.0027469803117183516 0.012521840186675948 0 0.00091596443256936218 0.016032109184547075 0 0.00058816281677825282 0.016061817177596957 0 0.0010575268107899296 0.015601283747736176 0 0.0044133515949035416 0.009523575435807197 0 0.0044574516556610726 0.0092959012495747225 0 0.0046523746152234337 0.00931659187314785 0 0.0044574516556610726 0.0092959012495747225 0 0.004480031466022466 0.0090372358071221862 0 0.0046523746152234337 0.00931659187314785 0 0.0044574516556610726 0.0092959012495747225 0 0.0042691286680566565 0.0092620085649974763 0 0.004480031466022466 0.0090372358071221862 0 0.0042691286680566565 0.0092620085649974763 0 0.004290708726104763 0.0089733288193150802 0 0.0041829840370496644 0.0090215879901797066 0 0.0042691286680566565 0.0092620085649974763 0 0.004290708726104763 0.0089733288193150802 0 0.004480031466022466 0.0090372358071221862 0 0.004014250651677001 0.0087190360866455773 0 0.0042579386629924849 0.0091627387997771786 0 0.004290708726104763 0.0089733288193150802 0 0.004480031466022466 0.0090372358071221862 0 0.0043205548695487723 0.0087327465174827021 0 0.004290708726104763 0.0089733288193150802 0 0.0043205548695487723 0.0087327465174827021 0 0.0040710853231694178 0.0088997647517857804 0 0.0045780746232054765 0.0085884182314811906 0 0.004480031466022466 0.0090372358071221862 0 0.0047221887502720463 0.0089646390657930983 0 0.0045780746232054765 0.0085884182314811906 0 0.004480031466022466 0.0090372358071221862 0 0.0043205548695487723 0.0087327465174827021 0 0.0041799795416676538 0.0082816371486913697 0 0.0043205548695487723 0.0087327465174827021 0 0.0040710853231694178 0.0088997647517857804 0 0.0041799795416676538 0.0082816371486913697 0 0.0045780746232054765 0.0085884182314811906 0 0.0043205548695487723 0.0087327465174827021 0 0.0047151852945055382 0.0084128944462037794 0 0.0048197949148564342 0.0084894631082276691 0 0.0047566534160502303 0.0084408553634514796 0 0.004380340514725807 0.0083139929346508316 0 0.0044531375077507904 0.0086862096145252088 0 0.0046367144676331832 0.0083403695882847181 0 0.0047151852945055382 0.0084128944462037794 0 0.0048197949148564342 0.0084894631082276691 0 0.0048197949148564342 0.0084894631082276691 0 0.0049159619629267643 0.0085181907758184443 0 0.0049118860435928254 0.0085376616553601969 0 0.0049635805037421734 0.00856173697389267 0 0.0049159619629267643 0.0085181907758184443 0 0.0049118860435928254 0.0085376616553601969 0 0.0048197949148564342 0.0084894631082276691 0 0.0047566534160502303 0.0084408553634514796 0 0.0049159619629267643 0.0085181907758184443 0 0.0049184568563083444 0.0085671476338931764 0 0.0048197949148564342 0.0084894631082276691 0 0.0049118860435928254 0.0085376616553601969 0 0.0049560175600111851 0.0085826755913063438 0 0.0049184568563083444 0.0085671476338931764 0 0.0049118860435928254 0.0085376616553601969 0 0.0043490172958190994 0.009046506555938548 0 0.0040710853231694178 0.0088997647517857804 0 0.0041829840370496644 0.0090215879901797066 0 0.0046323816222349498 0.0087805687781815009 0 0.0044531375077507904 0.0086862096145252088 0 0.004290708726104763 0.0089733288193150802 0 0.0040710853231694178 0.0088997647517857804 0 0.0041829840370496644 0.0090215879901797066 0 0.011671852685337079 0.010735962290248527 0 0.011623855008878869 0.010775099765706503 0 0.011454448219708669 0.010571431742767107 0 0.012036199537657714 0.010629613083365547 0 0.011671852685337079 0.010735962290248527 0 0.011623855008878869 0.010775099765706503 0 0.012026901726136551 0.010772789521270225 0 0.012194398484465803 0.011161103235747353 0 0.012036199537657714 0.010629613083365547 0 0.011623855008878869 0.010775099765706503 0 0.012657358284135351 0.010469218411464851 0 0.0095950828920738362 0.010023620301201635 0 0.0092514368291894532 0.010083508353419745 0 0.0093222960589229974 0.010199481716721881 0 0.01066153792867508 0.010247725340672371 0 0.010877000923949226 0.01042826706100152 0 0.0095950828920738362 0.010023620301201635 0 0.0092514368291894532 0.010083508353419745 0 0.0092661708813172212 0.0099809399822315039 0 0.0095950828920738362 0.010023620301201635 0 0.0092661708813172212 0.0099809399822315039 0 0.0093780093793921441 0.0099026757863149538 0 0.012036199537657714 0.010629613083365547 0 0.012657358284135351 0.010469218411464851 0 0.012296733670758791 0.010444698241592389 0 0.0092514368291894532 0.010083508353419745 0 0.0093222960589229974 0.010199481716721881 0 0.0090582310339263703 0.010180938493280736 0 0.012657358284135351 0.010469218411464851 0 0.012296733670758791 0.010444698241592389 0 0.01291649890359127 0.010320127580645112 0 0.012036199537657714 0.010629613083365547 0 0.011866483972391387 0.010714229791680045 0 0.012296733670758791 0.010444698241592389 0 0.012194398484465803 0.011161103235747353 0 0.013064272361123124 0.010642820919180781 0 0.013507495146429955 0.011065124001326473 0 0.013580245832796978 0.011260460539840846 0 0.013710714510045024 0.010868142535896533 0 0.013463584533817189 0.010759952507501232 0 0.013507495146429955 0.011065124001326473 0 0.013710714510045024 0.010868142535896533 0 0.013463584533817189 0.010759952507501232 0 0.013710714510045024 0.010868142535896533 0 0.01353693314151499 0.010451444318208377 0 0.012296733670758791 0.010444698241592389 0 0.013532171139227715 0.01017684060744656 0 0.01330121042122333 0.010251343352351266 0 0.013710714510045024 0.010868142535896533 0 0.01353693314151499 0.010451444318208377 0 0.013532171139227715 0.01017684060744656 0 0.013064272361123124 0.010642820919180781 0 0.013380465223361053 0.010322504190171878 0 0.01353693314151499 0.010451444318208377 0 0.013536423491887625 0.010082191374121675 0 0.013532171139227715 0.01017684060744656 0 0.013345499193310602 0.010287283829079698 0 0.01353693314151499 0.010451444318208377 0 0.013536423491887625 0.010082191374121675 0 0.013345499193310602 0.010287283829079698 0 0.013463584533817189 0.010759952507501232 0 0.01353693314151499 0.010451444318208377 0 0.013345499193310602 0.010287283829079698 0 0.013536423491887625 0.010082191374121675 0 0.013469040448356501 0.0095401988752261795 0 0.013536423491887625 0.010082191374121675 0 0.013645876072277458 0.0098249717580182489 0 0.013532171139227715 0.01017684060744656 0 0.013536423491887625 0.010082191374121675 0 0.013645876072277458 0.0098249717580182489 0 0.013469040448356501 0.0095401988752261795 0 0.014310983064427713 0.0082950360142529725 0 0.012492862543727657 0.0099161307078228858 0 0.014293091830356238 0.0092650419566016728 0 0.013912947127238659 0.0096678613208759662 0 0.014005253383642344 0.010145508689033963 0 0.013788419599664379 0.0092427850113932768 0 0.013645876072277458 0.0098249717580182489 0 0.013912947127238659 0.0096678613208759662 0 0.013645876072277458 0.0098249717580182489 0 0.013912947127238659 0.0096678613208759662 0 0.013749951589807279 0.009940886302451565 0 0.013645876072277458 0.0098249717580182489 0 0.013532171139227715 0.01017684060744656 0 0.013749951589807279 0.009940886302451565 0 0.013912947127238659 0.0096678613208759662 0 0.013749951589807279 0.009940886302451565 0 0.014005253383642344 0.010145508689033963 0 0.013532171139227715 0.01017684060744656 0 0.013749951589807279 0.009940886302451565 0 0.014005253383642344 0.010145508689033963 0 0.0093222960589229974 0.010199481716721881 0 0.0092908445438471404 0.010697036536635687 0 0.0091051456627867944 0.010401853755259944 0 0.012657358284135351 0.010469218411464851 0 0.013281458303869438 0.01019890386508036 0 0.01291649890359127 0.010320127580645112 0 0.010877000923949226 0.01042826706100152 0 0.012492862543727657 0.0099161307078228858 0 0.013281458303869438 0.01019890386508036 0 0.01330121042122333 0.010251343352351266 0 0.01291649890359127 0.010320127580645112 0 0.012492862543727657 0.0099161307078228858 0 0.013371613749285765 0.0099285432463195912 0 0.013532171139227715 0.01017684060744656 0 0.014005253383642344 0.010145508689033963 0 0.01330121042122333 0.010251343352351266 0 0.012296733670758791 0.010444698241592389 0 0.01330121042122333 0.010251343352351266 0 0.01291649890359127 0.010320127580645112 0 0.0091051456627867944 0.010401853755259944 0 0.0088034916554316361 0.010325648095851861 0 0.0089216294307100409 0.010599014913429801 0 0.0088034916554316361 0.010325648095851861 0 0.0089216294307100409 0.010599014913429801 0 0.0085669551928495135 0.010596859360304847 0 0.0092908445438471404 0.010697036536635687 0 0.0091051456627867944 0.010401853755259944 0 0.0089216294307100409 0.010599014913429801 0 0.01405500189624909 0.0077201789565604908 0 0.01396798791701181 0.0080323666645814376 0 0.014201241013507327 0.0078858325115696206 0 0.0092908445438471404 0.010697036536635687 0 0.0089216294307100409 0.010599014913429801 0 0.0087928305890560138 0.010995924499903081 0 0.012492862543727657 0.0099161307078228858 0 0.011328673105470135 0.0095853161385227054 0 0.0089216294307100409 0.010599014913429801 0 0.0087928305890560138 0.010995924499903081 0 0.0085669551928495135 0.010596859360304847 0 0.0082116517550610349 0.011272317412722065 0 0.0087928305890560138 0.010995924499903081 0 0.0081327823088664514 0.010720942832878895 0 0.0087928305890560138 0.010995924499903081 0 0.0085669551928495135 0.010596859360304847 0 0.0081327823088664514 0.010720942832878895 0 0.010842935165979287 0.0072830114471110806 0 0.011328673105470135 0.0095853161385227054 0 0.0085669551928495135 0.010596859360304847 0 0.0079991693039689355 0.0099467644829936974 0 0.0081327823088664514 0.010720942832878895 0 0.0088034916554316361 0.010325648095851861 0 0.0085669551928495135 0.010596859360304847 0 0.0079991693039689355 0.0099467644829936974 0 0.0088034916554316361 0.010325648095851861 0 0.0087002042421060379 0.010073635528495627 0 0.0079991693039689355 0.0099467644829936974 0 0.0087002042421060379 0.010073635528495627 0 0.008482657970640432 0.009899940286063072 0 0.0079991693039689355 0.0099467644829936974 0 0.0087002042421060379 0.010073635528495627 0 0.0089905661844399461 0.0100405213898966 0 0.008482657970640432 0.009899940286063072 0 0.0088034916554316361 0.010325648095851861 0 0.0087002042421060379 0.010073635528495627 0 0.0090582310339263703 0.010180938493280736 0 0.0091051456627867944 0.010401853755259944 0 0.0088034916554316361 0.010325648095851861 0 0.0090582310339263703 0.010180938493280736 0 0.0093222960589229974 0.010199481716721881 0 0.0091051456627867944 0.010401853755259944 0 0.0090582310339263703 0.010180938493280736 0 0.0092514368291894532 0.010083508353419745 0 0.0090582310339263703 0.010180938493280736 0 0.0089905661844399461 0.0100405213898966 0 0.0087002042421060379 0.010073635528495627 0 0.0090582310339263703 0.010180938493280736 0 0.0089905661844399461 0.0100405213898966 0 0.0089905661844399461 0.0100405213898966 0 0.0089253104610930254 0.0098982786922644818 0 0.008482657970640432 0.009899940286063072 0 0.0092514368291894532 0.010083508353419745 0 0.0089905661844399461 0.0100405213898966 0 0.0092661708813172212 0.0099809399822315039 0 0.0089905661844399461 0.0100405213898966 0 0.0092661708813172212 0.0099809399822315039 0 0.0089253104610930254 0.0098982786922644818 0 0.0092661708813172212 0.0099809399822315039 0 0.0089253104610930254 0.0098982786922644818 0 0.0093780093793921441 0.0099026757863149538 0 0.0089253104610930254 0.0098982786922644818 0 0.0085712714733013791 0.0097899316142448858 0 0.0088820902238401587 0.0097646731132488319 0 0.0089253104610930254 0.0098982786922644818 0 0.0085712714733013791 0.0097899316142448858 0 0.008482657970640432 0.009899940286063072 0 0.0085712714733013791 0.0097899316142448858 0 0.00819846200888877 0.0097451453872689636 0 0.0083435557857757491 0.0096830719318296687 0 0.0085712714733013791 0.0097899316142448858 0 0.008482657970640432 0.009899940286063072 0 0.00819846200888877 0.0097451453872689636 0 0.008482657970640432 0.009899940286063072 0 0.00819846200888877 0.0097451453872689636 0 0.0079999508780861164 0.0097957922332536744 0 0.00819846200888877 0.0097451453872689636 0 0.007851414196150661 0.0096808745661101266 0 0.0079999508780861164 0.0097957922332536744 0 0.00819846200888877 0.0097451453872689636 0 0.007851414196150661 0.0096808745661101266 0 0.0080945993437890901 0.0096257306262832153 0 0.007851414196150661 0.0096808745661101266 0 0.007848271756010796 0.0096002492684514329 0 0.0080945993437890901 0.0096257306262832153 0 0.007851414196150661 0.0096808745661101266 0 0.0076275349582157915 0.0096063444857098883 0 0.007848271756010796 0.0096002492684514329 0 0.007851414196150661 0.0096808745661101266 0 0.0076737874427875484 0.0095737290943177372 0 0.0076275349582157915 0.0096063444857098883 0 0.007851414196150661 0.0096808745661101266 0 0.0077764405226586029 0.0096533510905274303 0 0.0076737874427875484 0.0095737290943177372 0 0.007851414196150661 0.0096808745661101266 0 0.0077764405226586029 0.0096533510905274303 0 0.0079999508780861164 0.0097957922332536744 0 0.0077764405226586029 0.0096533510905274303 0 0.0076737874427875484 0.0095737290943177372 0 0.0076392979501232021 0.0094089090440043505 0 0.0077764405226586029 0.0096533510905274303 0 0.0079991693039689355 0.0099467644829936974 0 0.0079999508780861164 0.0097957922332536744 0 0.008482657970640432 0.009899940286063072 0 0.0079991693039689355 0.0099467644829936974 0 0.0079999508780861164 0.0097957922332536744 0 0.0077764405226586029 0.0096533510905274303 0 0.0079991693039689355 0.0099467644829936974 0 0.0077552673726185763 0.0095438675393866839 0 0.0079991693039689355 0.0099467644829936974 0 0.0077552673726185763 0.0095438675393866839 0 0.0076021194057066307 0.0094373184250902027 0 0.0079451666205803909 0.009748826462820933 0 0.0078684453591654976 0.010572850003128652 0 0.0077552673726185763 0.0095438675393866839 0 0.0076021194057066307 0.0094373184250902027 0 0.0076544570961406995 0.0092339404371838719 0 0.010842935165979287 0.0072830114471110806 0 0.0078684453591654976 0.010572850003128652 0 0.0075444293519452161 0.009195221379377309 0 0.0076021194057066307 0.0094373184250902027 0 0.0076544570961406995 0.0092339404371838719 0 0.0077552673726185763 0.0095438675393866839 0 0.0076544570961406995 0.0092339404371838719 0 0.0076392979501232021 0.0094089090440043505 0 0.0077764405226586029 0.0096533510905274303 0 0.0077552673726185763 0.0095438675393866839 0 0.0076392979501232021 0.0094089090440043505 0 0.007538725543579379 0.0089483223131586378 0 0.0076544570961406995 0.0092339404371838719 0 0.0075540975780309504 0.0091139322976723815 0 0.0076544570961406995 0.0092339404371838719 0 0.0076392979501232021 0.0094089090440043505 0 0.0075540975780309504 0.0091139322976723815 0 0.007538725543579379 0.0089483223131586378 0 0.0075540975780309504 0.0091139322976723815 0 0.0074444725759236028 0.0089203913882692429 0 0.0074679629866624764 0.0090847823984115273 0 0.0075540975780309504 0.0091139322976723815 0 0.0074444725759236028 0.0089203913882692429 0 0.0074679629866624764 0.0090847823984115273 0 0.0076392979501232021 0.0094089090440043505 0 0.0075540975780309504 0.0091139322976723815 0 0.0074679629866624764 0.0090847823984115273 0 0.007568737796509164 0.0093788030787553336 0 0.0075572370225042802 0.0094400589323067122 0 0.0074679629866624764 0.0090847823984115273 0 0.0076392979501232021 0.0094089090440043505 0 0.0075572370225042802 0.0094400589323067122 0 0.0076737874427875484 0.0095737290943177372 0 0.0076392979501232021 0.0094089090440043505 0 0.0075572370225042802 0.0094400589323067122 0 0.0075572370225042802 0.0094400589323067122 0 0.0076275349582157915 0.0096063444857098883 0 0.0075472047075048621 0.0095349216239745405 0 0.0076737874427875484 0.0095737290943177372 0 0.0075572370225042802 0.0094400589323067122 0 0.0076275349582157915 0.0096063444857098883 0 0.0076275349582157915 0.0096063444857098883 0 0.0075472047075048621 0.0095349216239745405 0 0.007504976787048822 0.0096663052729695845 0 0.0072013387839896248 0.0099328808554213603 0 0.0074667092407696076 0.0096423518285011518 0 0.007568737796509164 0.0093788030787553336 0 0.0075572370225042802 0.0094400589323067122 0 0.0075472047075048621 0.0095349216239745405 0 0.007568737796509164 0.0093788030787553336 0 0.0075472047075048621 0.0095349216239745405 0 0.007504976787048822 0.0096663052729695845 0 0.0068341660360567175 0.0097161581379604824 0 0.007504976787048822 0.0096663052729695845 0 0.0072882503845643071 0.0095049456234245992 0 0.0067814076470214353 0.010233800239834959 0 0.0068341660360567175 0.0097161581379604824 0 0.007504976787048822 0.0096663052729695845 0 0.0076275349582157915 0.0096063444857098883 0 0.007504976787048822 0.0096663052729695845 0 0.0076415424487323936 0.0096079961945579571 0 0.007504976787048822 0.0096663052729695845 0 0.0076415424487323936 0.0096079961945579571 0 0.0075602879663292715 0.0094828055383549791 0 0.007504976787048822 0.0096663052729695845 0 0.0075602879663292715 0.0094828055383549791 0 0.0072882503845643071 0.0095049456234245992 0 0.0074426489478538914 0.0094401041741209359 0 0.0072882503845643071 0.0095049456234245992 0 0.0072620565207247804 0.0093031656631373874 0 0.0075602879663292715 0.0094828055383549791 0 0.0074426489478538914 0.0094401041741209359 0 0.0072882503845643071 0.0095049456234245992 0 0.0075602879663292715 0.0094828055383549791 0 0.0074426489478538914 0.0094401041741209359 0 0.0072971038090066812 0.0095296355268930256 0 0.0068749740513955665 0.0093587234160879777 0 0.0072882503845643071 0.0095049456234245992 0 0.0072620565207247804 0.0093031656631373874 0 0.0068341660360567175 0.0097161581379604824 0 0.0068749740513955665 0.0093587234160879777 0 0.0072882503845643071 0.0095049456234245992 0 0.0068749740513955665 0.0093587234160879777 0 0.0068857194003288926 0.008743018481256401 0 0.0072620565207247804 0.0093031656631373874 0 0.0088777843333414218 0.010942748000146161 0 0.0082761347894092681 0.010415807048756342 0 0.0083498451595327358 0.011139414643375081 0 0.0068857194003288926 0.008743018481256401 0 0.0072620565207247804 0.0093031656631373874 0 0.0073794056161155339 0.0091612389358493532 0 0.0078147617473802305 0.0098473893914190098 0 0.007771001686368074 0.0097855822282907692 0 0.0082761347894092681 0.010415807048756342 0 0.0074984992050552719 0.010971486344722163 0 0.0083498451595327358 0.011139414643375081 0 0.0074426489478538914 0.0094401041741209359 0 0.0072620565207247804 0.0093031656631373874 0 0.0074065412668630794 0.0094412508874639998 0 0.007771001686368074 0.0097855822282907692 0 0.0073165898493226696 0.0097081610182231746 0 0.0072620565207247804 0.0093031656631373874 0 0.0073794056161155339 0.0091612389358493532 0 0.0074065412668630794 0.0094412508874639998 0 0.0073794056161155339 0.0091612389358493532 0 0.0074065412668630794 0.0094412508874639998 0 0.0073270820554640565 0.0097333115432963399 0 0.0074426489478538914 0.0094401041741209359 0 0.0074065412668630794 0.0094412508874639998 0 0.0072971038090066812 0.0095296355268930256 0 0.0081694574136528756 0.0092181906655814799 0 0.0082015911565445423 0.0091459618135610026 0 0.0080321845081066691 0.0092931088109351589 0 0.0081694574136528756 0.0092181906655814799 0 0.0082167679949254613 0.0092086572278337418 0 0.0081721835682058569 0.0092614360669112574 0 0.0081694574136528756 0.0092181906655814799 0 0.0082015911565445423 0.0091459618135610026 0 0.0082167679949254613 0.0092086572278337418 0 0.0074065412668630794 0.0094412508874639998 0 0.0073270820554640565 0.0097333115432963399 0 0.0072971038090066812 0.0095296355268930256 0 0.0073270820554640565 0.0097333115432963399 0 0.0063859573907474529 0.010888809541950758 0 0.0074984992050552719 0.010971486344722163 0 0.0082761347894092681 0.010415807048756342 0 0.0073270820554640565 0.0097333115432963399 0 0.0074984992050552719 0.010971486344722163 0 0.008344354635172262 0.0092805281508351115 0 0.008303491785734066 0.0093670786518146743 0 0.0084840648231599893 0.0095423343961914629 0 0.0073270820554640565 0.0097333115432963399 0 0.0072971038090066812 0.0095296355268930256 0 0.0063859573907474529 0.010888809541950758 0 0.0082015911565445423 0.0091459618135610026 0 0.008344354635172262 0.0092805281508351115 0 0.0084840648231599893 0.0095423343961914629 0 0.0076800575533101786 0.0096672512854237488 0 0.0073493335525637521 0.0088639319536821196 0 0.008344354635172262 0.0092805281508351115 0 0.0082797917978038645 0.0092186014247151293 0 0.0083360847286013621 0.0092308602313826878 0 0.008344354635172262 0.0092805281508351115 0 0.0083360847286013621 0.0092308602313826878 0 0.0083674373693111651 0.0092393369443401676 0 0.0082015911565445423 0.0091459618135610026 0 0.008344354635172262 0.0092805281508351115 0 0.0082797917978038645 0.0092186014247151293 0 0.0082015911565445423 0.0091459618135610026 0 0.0082797917978038645 0.0092186014247151293 0 0.0082167679949254613 0.0092086572278337418 0 0.0082797917978038645 0.0092186014247151293 0 0.0082582217944588698 0.0092335272174396323 0 0.0083360847286013621 0.0092308602313826878 0 0.0082797917978038645 0.0092186014247151293 0 0.0082167679949254613 0.0092086572278337418 0 0.0082582217944588698 0.0092335272174396323 0 0.0082582217944588698 0.0092335272174396323 0 0.0082686592679014296 0.0092738640942730734 0 0.0081721835682058569 0.0092614360669112574 0 0.0082167679949254613 0.0092086572278337418 0 0.0082582217944588698 0.0092335272174396323 0 0.0081721835682058569 0.0092614360669112574 0 0.0082582217944588698 0.0092335272174396323 0 0.0083360847286013621 0.0092308602313826878 0 0.0082686592679014296 0.0092738640942730734 0 0.0083360847286013621 0.0092308602313826878 0 0.008388778127428477 0.0092839159723671297 0 0.0082686592679014296 0.0092738640942730734 0 0.008388778127428477 0.0092839159723671297 0 0.0082801145972324752 0.0093632715334608443 0 0.0082686592679014296 0.0092738640942730734 0 0.008388778127428477 0.0092839159723671297 0 0.0082801145972324752 0.0093632715334608443 0 0.008409222343446621 0.0093735469703333969 0 0.0082801145972324752 0.0093632715334608443 0 0.0083209204608831449 0.0094604675822166119 0 0.008409222343446621 0.0093735469703333969 0 0.0082801145972324752 0.0093632715334608443 0 0.0083209204608831449 0.0094604675822166119 0 0.0081471581759120556 0.0094716410299168618 0 0.0082801145972324752 0.0093632715334608443 0 0.0081471581759120556 0.0094716410299168618 0 0.0081579744982404039 0.0093437459707273775 0 0.0081471581759120556 0.0094716410299168618 0 0.0081579744982404039 0.0093437459707273775 0 0.0080572417493929571 0.0094160436972230508 0 0.0082801145972324752 0.0093632715334608443 0 0.0081579744982404039 0.0093437459707273775 0 0.0082686592679014296 0.0092738640942730734 0 0.0081579744982404039 0.0093437459707273775 0 0.0082686592679014296 0.0092738640942730734 0 0.0081721835682058569 0.0092614360669112574 0 0.0081694574136528756 0.0092181906655814799 0 0.0081721835682058569 0.0092614360669112574 0 0.0080321845081066691 0.0092931088109351589 0 0.0076041191149284213 0.009376622282189372 0 0.0076800575533101786 0.0096672512854237488 0 0.0081721835682058569 0.0092614360669112574 0 0.0080321845081066691 0.0092931088109351589 0 0.0080078737324311595 0.0093639476361576726 0 0.0075602879663292715 0.0094828055383549791 0 0.0082015911565445423 0.0091459618135610026 0 0.0080321845081066691 0.0092931088109351589 0 0.0081579744982404039 0.0093437459707273775 0 0.0081721835682058569 0.0092614360669112574 0 0.0080078737324311595 0.0093639476361576726 0 0.0075602879663292715 0.0094828055383549791 0 0.0080321845081066691 0.0092931088109351589 0 0.0080078737324311595 0.0093639476361576726 0 0.0075602879663292715 0.0094828055383549791 0 0.0080078737324311595 0.0093639476361576726 0 0.0079156985350115824 0.0094890836886523215 0 0.0081471581759120556 0.0094716410299168618 0 0.0080572417493929571 0.0094160436972230508 0 0.0079156985350115824 0.0094890836886523215 0 0.0080572417493929571 0.0094160436972230508 0 0.0080078737324311595 0.0093639476361576726 0 0.0079156985350115824 0.0094890836886523215 0 0.0081579744982404039 0.0093437459707273775 0 0.0080572417493929571 0.0094160436972230508 0 0.0080078737324311595 0.0093639476361576726 0 0.0081471581759120556 0.0094716410299168618 0 0.0079156985350115824 0.0094890836886523215 0 0.008003797742683734 0.0095452134588021841 0 0.0079156985350115824 0.0094890836886523215 0 0.008003797742683734 0.0095452134588021841 0 0.007848271756010796 0.0096002492684514329 0 0.0076415424487323936 0.0096079961945579571 0 0.0079156985350115824 0.0094890836886523215 0 0.007848271756010796 0.0096002492684514329 0 0.0076415424487323936 0.0096079961945579571 0 0.0075602879663292715 0.0094828055383549791 0 0.0079156985350115824 0.0094890836886523215 0 0.0076275349582157915 0.0096063444857098883 0 0.0076415424487323936 0.0096079961945579571 0 0.007848271756010796 0.0096002492684514329 0 0.008003797742683734 0.0095452134588021841 0 0.007848271756010796 0.0096002492684514329 0 0.0080945993437890901 0.0096257306262832153 0 0.0080945993437890901 0.0096257306262832153 0 0.0083435557857757491 0.0096830719318296687 0 0.0083171053939686251 0.0095668422470499056 0 0.00819846200888877 0.0097451453872689636 0 0.0080945993437890901 0.0096257306262832153 0 0.0083435557857757491 0.0096830719318296687 0 0.0083209204608831449 0.0094604675822166119 0 0.0081471581759120556 0.0094716410299168618 0 0.0083171053939686251 0.0095668422470499056 0 0.0083209204608831449 0.0094604675822166119 0 0.0083171053939686251 0.0095668422470499056 0 0.0084803317761944514 0.0095044327957694401 0 0.0081471581759120556 0.0094716410299168618 0 0.0080945993437890901 0.0096257306262832153 0 0.0083171053939686251 0.0095668422470499056 0 0.0081471581759120556 0.0094716410299168618 0 0.008003797742683734 0.0095452134588021841 0 0.0080945993437890901 0.0096257306262832153 0 0.0085481506823441005 0.0096450603076797918 0 0.0088820902238401587 0.0097646731132488319 0 0.008760022722874879 0.0095632736729039363 0 0.0083171053939686251 0.0095668422470499056 0 0.0085481506823441005 0.0096450603076797918 0 0.0084803317761944514 0.0095044327957694401 0 0.0085481506823441005 0.0096450603076797918 0 0.008760022722874879 0.0095632736729039363 0 0.0084803317761944514 0.0095044327957694401 0 0.0083435557857757491 0.0096830719318296687 0 0.0083171053939686251 0.0095668422470499056 0 0.0085481506823441005 0.0096450603076797918 0 0.0085712714733013791 0.0097899316142448858 0 0.0083435557857757491 0.0096830719318296687 0 0.0085481506823441005 0.0096450603076797918 0 0.0085712714733013791 0.0097899316142448858 0 0.0085481506823441005 0.0096450603076797918 0 0.0088820902238401587 0.0097646731132488319 0 0.0089253104610930254 0.0098982786922644818 0 0.0088820902238401587 0.0097646731132488319 0 0.0093780093793921441 0.0099026757863149538 0 0.0093780093793921441 0.0099026757863149538 0 0.0091197264612126929 0.0096791693884570248 0 0.0095097729020955698 0.0096626430064828545 0 0.0088820902238401587 0.0097646731132488319 0 0.0093780093793921441 0.0099026757863149538 0 0.0091197264612126929 0.0096791693884570248 0 0.0088820902238401587 0.0097646731132488319 0 0.0091197264612126929 0.0096791693884570248 0 0.008760022722874879 0.0095632736729039363 0 0.0091197264612126929 0.0096791693884570248 0 0.0090856836572536931 0.0094400919813104351 0 0.008760022722874879 0.0095632736729039363 0 0.0090856836572536931 0.0094400919813104351 0 0.0095097729020955698 0.0096626430064828545 0 0.0096143515532907103 0.0092933940628462264 0 0.0091197264612126929 0.0096791693884570248 0 0.0090856836572536931 0.0094400919813104351 0 0.0095097729020955698 0.0096626430064828545 0 0.0090856836572536931 0.0094400919813104351 0 0.0096143515532907103 0.0092933940628462264 0 0.0091396842391600411 0.0090732714985393131 0 0.0090856836572536931 0.0094400919813104351 0 0.0088865999734983984 0.0092872775386743447 0 0.0091396842391600411 0.0090732714985393131 0 0.0090856836572536931 0.0094400919813104351 0 0.0088865999734983984 0.0092872775386743447 0 0.0087801002988340347 0.0093965243233778729 0 0.0088865999734983984 0.0092872775386743447 0 0.0085981759442221636 0.0092448378960267689 0 0.0091396842391600411 0.0090732714985393131 0 0.0085981759442221636 0.0092448378960267689 0 0.0087801002988340347 0.0093965243233778729 0 0.008590787462311348 0.009418461375278667 0 0.0088865999734983984 0.0092872775386743447 0 0.0085981759442221636 0.0092448378960267689 0 0.0087801002988340347 0.0093965243233778729 0 0.0090856836572536931 0.0094400919813104351 0 0.0087801002988340347 0.0093965243233778729 0 0.008760022722874879 0.0095632736729039363 0 0.008590787462311348 0.009418461375278667 0 0.008760022722874879 0.0095632736729039363 0 0.0084803317761944514 0.0095044327957694401 0 0.0087801002988340347 0.0093965243233778729 0 0.008590787462311348 0.009418461375278667 0 0.008760022722874879 0.0095632736729039363 0 0.0083209204608831449 0.0094604675822166119 0 0.0084803317761944514 0.0095044327957694401 0 0.008409222343446621 0.0093735469703333969 0 0.008590787462311348 0.009418461375278667 0 0.0084803317761944514 0.0095044327957694401 0 0.008409222343446621 0.0093735469703333969 0 0.008388778127428477 0.0092839159723671297 0 0.008409222343446621 0.0093735469703333969 0 0.0084942080305939211 0.0093007484744567527 0 0.0085981759442221636 0.0092448378960267689 0 0.008590787462311348 0.009418461375278667 0 0.0084942080305939211 0.0093007484744567527 0 0.008590787462311348 0.009418461375278667 0 0.008409222343446621 0.0093735469703333969 0 0.0084942080305939211 0.0093007484744567527 0 0.0085981759442221636 0.0092448378960267689 0 0.0084942080305939211 0.0093007484744567527 0 0.0085052230395987818 0.0092451795268978544 0 0.008388778127428477 0.0092839159723671297 0 0.0084942080305939211 0.0093007484744567527 0 0.0085052230395987818 0.0092451795268978544 0 0.0083360847286013621 0.0092308602313826878 0 0.008388778127428477 0.0092839159723671297 0 0.0085052230395987818 0.0092451795268978544 0 0.0083360847286013621 0.0092308602313826878 0 0.0085052230395987818 0.0092451795268978544 0 0.0083674373693111651 0.0092393369443401676 0 0.0085052230395987818 0.0092451795268978544 0 0.0083674373693111651 0.0092393369443401676 0 0.0083333810579227091 0.0092650868701744278 0 0.0085052230395987818 0.0092451795268978544 0 0.0083333810579227091 0.0092650868701744278 0 0.0081226579168226093 0.0093049668771835476 0 0.0085052230395987818 0.0092451795268978544 0 0.0085566520257649818 0.0093387823683332549 0 0.0086798379920386606 0.0096267895298988611 0 0.0085062296097259283 0.0092334573633570394 0 0.0083247045534436195 0.0096841864802180849 0 0.0085981759442221636 0.0092448378960267689 0 0.0085566520257649818 0.0093387823683332549 0 0.0085251889073158747 0.0094322842583624972 0 0.0085981759442221636 0.0092448378960267689 0 0.0085052230395987818 0.0092451795268978544 0 0.0085566520257649818 0.0093387823683332549 0 0.0085566520257649818 0.0093387823683332549 0 0.0086798379920386606 0.0096267895298988611 0 0.0085251889073158747 0.0094322842583624972 0 0.008344354635172262 0.0092805281508351115 0 0.0083674373693111651 0.0092393369443401676 0 0.0083333810579227091 0.0092650868701744278 0 0.008344354635172262 0.0092805281508351115 0 0.0083333810579227091 0.0092650868701744278 0 0.008303491785734066 0.0093670786518146743 0 0.0083333810579227091 0.0092650868701744278 0 0.008303491785734066 0.0093670786518146743 0 0.0081226579168226093 0.0093049668771835476 0 0.008303491785734066 0.0093670786518146743 0 0.0081226579168226093 0.0093049668771835476 0 0.0081274143584409656 0.009627802716205603 0 0.008303491785734066 0.0093670786518146743 0 0.0081274143584409656 0.009627802716205603 0 0.0084840648231599893 0.0095423343961914629 0 0.0086798379920386606 0.0096267895298988611 0 0.0084162622987936433 0.0099134685162644981 0 0.0085932480643131394 0.010220639828818278 0 0.0081226579168226093 0.0093049668771835476 0 0.0077768873130016894 0.0098577533701057641 0 0.0081274143584409656 0.009627802716205603 0 0.0083247045534436195 0.0096841864802180849 0 0.0083442506696646528 0.0090862043740895394 0 0.0086798379920386606 0.0096267895298988611 0 0.0084162622987936433 0.0099134685162644981 0 0.0084381776941017585 0.009576064364609187 0 0.0084162622987936433 0.0099134685162644981 0 0.0084381776941017585 0.009576064364609187 0 0.0083616597910335672 0.0095769694757621218 0 0.009071081885855042 0.0095288141983897214 0 0.0093691362594201556 0.009526992557898838 0 0.0085981759442221636 0.0092448378960267689 0 0.0095621156042140932 0.0083412865486454553 0 0.0091396842391600411 0.0090732714985393131 0 0.0085981759442221636 0.0092448378960267689 0 0.0083996356912694158 0.009572064714766005 0 0.0085251889073158747 0.0094322842583624972 0 0.0085455437400967331 0.0090769454521308236 0 0.0093691362594201556 0.009526992557898838 0 0.0095621156042140932 0.0083412865486454553 0 0.0091396842391600411 0.0090732714985393131 0 0.0096360793361550418 0.0089198713115837304 0 0.0084381776941017585 0.009576064364609187 0 0.0083996356912694158 0.009572064714766005 0 0.0085251889073158747 0.0094322842583624972 0 0.0086798379920386606 0.0096267895298988611 0 0.0084381776941017585 0.009576064364609187 0 0.0085251889073158747 0.0094322842583624972 0 0.0096143515532907103 0.0092933940628462264 0 0.0091396842391600411 0.0090732714985393131 0 0.0096360793361550418 0.0089198713115837304 0 0.0095621156042140932 0.0083412865486454553 0 0.010253291985003021 0.0089431219291752195 0 0.011030140364850831 0.0085032847119523875 0 0.0096143515532907103 0.0092933940628462264 0 0.0096360793361550418 0.0089198713115837304 0 0.010253291985003021 0.0089431219291752195 0 0.0095621156042140932 0.0083412865486454553 0 0.0096360793361550418 0.0089198713115837304 0 0.010253291985003021 0.0089431219291752195 0 0.0093691362594201556 0.009526992557898838 0 0.011475152674495847 0.009041995726874405 0 0.010461698843040093 0.0096580094752501643 0 0.011677338445001776 0.0096702235717737294 0 0.011486761012199437 0.0086236985670573654 0 0.0084162622987936433 0.0099134685162644981 0 0.0083616597910335672 0.0095769694757621218 0 0.0078360358795148688 0.010274607324963176 0 0.0093691362594201556 0.009526992557898838 0 0.0097173164715133077 0.0083712909584620823 0 0.012343074428367672 0.0089450827452992755 0 0.011677338445001776 0.0096702235717737294 0 0.011486761012199437 0.0086236985670573654 0 0.010253291985003021 0.0089431219291752195 0 0.011030140364850831 0.0085032847119523875 0 0.011207618764267077 0.0094331604541526438 0 0.010253291985003021 0.0089431219291752195 0 0.011207618764267077 0.0094331604541526438 0 0.010525758772206869 0.0099036671748532566 0 0.012064718193437808 0.0099997523724203782 0 0.011207618764267077 0.0094331604541526438 0 0.011491606017138745 0.010067299831679956 0 0.011207618764267077 0.0094331604541526438 0 0.011491606017138745 0.010067299831679956 0 0.010525758772206869 0.0099036671748532566 0 0.0096143515532907103 0.0092933940628462264 0 0.010253291985003021 0.0089431219291752195 0 0.010525758772206869 0.0099036671748532566 0 0.0095097729020955698 0.0096626430064828545 0 0.0096143515532907103 0.0092933940628462264 0 0.010525758772206869 0.0099036671748532566 0 0.0093780093793921441 0.0099026757863149538 0 0.0095097729020955698 0.0096626430064828545 0 0.010525758772206869 0.0099036671748532566 0 0.0095950828920738362 0.010023620301201635 0 0.0093780093793921441 0.0099026757863149538 0 0.010525758772206869 0.0099036671748532566 0 0.01066153792867508 0.010247725340672371 0 0.010565877764409948 0.0098406204336014633 0 0.011623855008878869 0.010775099765706503 0 0.010525758772206869 0.0099036671748532566 0 0.011454448219708669 0.010571431742767107 0 0.011687813270411771 0.010890547699054003 0 0.012194398484465803 0.011161103235747353 0 0.011679377708123679 0.010476491723822021 0 0.011671852685337079 0.010735962290248527 0 0.011454448219708669 0.010571431742767107 0 0.011679377708123679 0.010476491723822021 0 0.011491606017138745 0.010067299831679956 0 0.011454448219708669 0.010571431742767107 0 0.011491606017138745 0.010067299831679956 0 0.010525758772206869 0.0099036671748532566 0 0.011454448219708669 0.010571431742767107 0 0.010921751737518028 0.025306075105086288 0 0.011561137853747346 0.025459213822795472 0 0.01168398314687407 0.026038410309378895 0 0.011561137853747346 0.025459213822795472 0 0.012000538367979421 0.025649097865269671 0 0.011814611713649354 0.025154725034397973 0 0.011561137853747346 0.025459213822795472 0 0.01168398314687407 0.026038410309378895 0 0.012000538367979421 0.025649097865269671 0 0.010960159117274869 0.027147687795613291 0 0.010915532219255031 0.026657149884908901 0 0.011679741458700163 0.026235735377414537 0 0.011872917643112187 0.027627610489047792 0 0.011768249960712802 0.025712205929876223 0 0.012000538367979421 0.025649097865269671 0 0.012547757742801731 0.025365432257900271 0 0.011679741458700163 0.026235735377414537 0 0.012000538367979421 0.025649097865269671 0 0.012182573465755806 0.024890930648480056 0 0.012547757742801731 0.025365432257900271 0 0.012122642407379891 0.025285596489915827 0 0.011742484402825163 0.025703776153749042 0 0.012000538367979421 0.025649097865269671 0 0.012302013279526692 0.025009064849797199 0 0.011814611713649354 0.025154725034397973 0 0.012302013279526692 0.025009064849797199 0 0.011814611713649354 0.025154725034397973 0 0.011736842437024171 0.024506286333782192 0 0.012182573465755806 0.024890930648480056 0 0.012515473620151131 0.023949070397874882 0 0.012547757742801731 0.025365432257900271 0 0.011742484402825163 0.025703776153749042 0 0.010477546633660092 0.017134153210610525 0 0.011814611713649354 0.025154725034397973 0 0.01137494658689665 0.025090587730681412 0 0.011736842437024171 0.024506286333782192 0 0.011080934181892354 0.024620211098299188 0 0.01137494658689665 0.025090587730681412 0 0.011736842437024171 0.024506286333782192 0 0.011561137853747346 0.025459213822795472 0 0.011814611713649354 0.025154725034397973 0 0.01137494658689665 0.025090587730681412 0 0.0073094616728981449 0.010985735968793667 0 0.0078386071326352561 0.010891498824956906 0 0.0078360358795148688 0.010274607324963176 0 0.010942726256128974 0.015480419535093793 0 0.0094348004937969826 0.017861531538069426 0 0.010942726256128974 0.015480419535093793 0 0.0097173164715133077 0.0083712909584620823 0 0.012343074428367672 0.0089450827452992755 0 0.01247704359113515 0.0076342152044356001 0 0.011486761012199437 0.0086236985670573654 0 0.0084162622987936433 0.0099134685162644981 0 0.0078360358795148688 0.010274607324963176 0 0.0082152041219430479 0.010425996252945609 0 0.0078386071326352561 0.010891498824956906 0 0.0082152041219430479 0.010425996252945609 0 0.0084006954453503639 0.010830921725446304 0 0.0094348004937969826 0.017861531538069426 0 0.010477546633660092 0.017134153210610525 0 0.012302013279526692 0.025009064849797199 0 0.011736842437024171 0.024506286333782192 0 0.012546680605466366 0.024374034693880661 0 0.0078386071326352561 0.010891498824956906 0 0.0078360358795148688 0.010274607324963176 0 0.0082152041219430479 0.010425996252945609 0 0.0074852374275951178 0.010609629871383112 0 0.0077768873130016894 0.0098577533701057641 0 0.0080871520451405703 0.010512004851056595 0 0.010477546633660092 0.017134153210610525 0 0.0083442506696646528 0.0090862043740895394 0 0.010477546633660092 0.017134153210610525 0 0.0090910036588089643 0.018620749229033097 0 0.0082152041219430479 0.010425996252945609 0 0.0084006954453503639 0.010830921725446304 0 0.0085932480643131394 0.010220639828818278 0 0.0077768873130016894 0.0098577533701057641 0 0.0081274143584409656 0.009627802716205603 0 0.0080871520451405703 0.010512004851056595 0 0.0084162622987936433 0.0099134685162644981 0 0.0082152041219430479 0.010425996252945609 0 0.0085932480643131394 0.010220639828818278 0 0.0090910036588089643 0.018620749229033097 0 0.0073493335525637521 0.0088639319536821196 0 0.0081274143584409656 0.009627802716205603 0 0.0080871520451405703 0.010512004851056595 0 0.0084840648231599893 0.0095423343961914629 0 0.0090910036588089643 0.018620749229033097 0 0.0076295626600538357 0.020258152193188876 0 0.010161753775024068 0.02805826443523814 0 0.0096700170978127435 0.027665469102861079 0 0.0089872353750278609 0.028144036112076106 0 0.0096685482677682962 0.027647171430454056 0 0.009746931638668882 0.026982573878760727 0 0.0096700170978127435 0.027665469102861079 0 0.010060756958433607 0.026807769440397328 0 0.010232335758776932 0.027039118216350602 0 0.0096700170978127435 0.027665469102861079 0 0.010276733338969363 0.027297768445171039 0 0.010232335758776932 0.027039118216350602 0 0.0096700170978127435 0.027665469102861079 0 0.0094127597751644046 0.027070806156769003 0 0.0093934780018569627 0.027334452210397726 0 0.010161753775024068 0.02805826443523814 0 0.0096700170978127435 0.027665469102861079 0 0.010306867528832062 0.027513385938394579 0 0.0096700170978127435 0.027665469102861079 0 0.010276733338969363 0.027297768445171039 0 0.010306867528832062 0.027513385938394579 0 0.012515473620151131 0.023949070397874882 0 0.013489720229920071 0.023828434793988898 0 0.012547757742801731 0.025365432257900271 0 0.0090910036588089643 0.018620749229033097 0 0.011872917643112187 0.027627610489047792 0 0.010161753775024068 0.02805826443523814 0 0.010306867528832062 0.027513385938394579 0 0.010960159117274869 0.027147687795613291 0 0.010306867528832062 0.027513385938394579 0 0.010615604513750841 0.027114085128719091 0 0.010960159117274869 0.027147687795613291 0 0.010276733338969363 0.027297768445171039 0 0.010306867528832062 0.027513385938394579 0 0.010615604513750841 0.027114085128719091 0 0.010276733338969363 0.027297768445171039 0 0.010615604513750841 0.027114085128719091 0 0.010232335758776932 0.027039118216350602 0 0.010615604513750841 0.027114085128719091 0 0.010502470954435411 0.026785978939236569 0 0.010232335758776932 0.027039118216350602 0 0.010615604513750841 0.027114085128719091 0 0.010960159117274869 0.027147687795613291 0 0.010915532219255031 0.026657149884908901 0 0.010915532219255031 0.026657149884908901 0 0.010502470954435411 0.026785978939236569 0 0.010704486209651604 0.026496855322978408 0 0.010615604513750841 0.027114085128719091 0 0.010915532219255031 0.026657149884908901 0 0.010502470954435411 0.026785978939236569 0 0.010299120238628985 0.026786163355179585 0 0.010060756958433607 0.026807769440397328 0 0.010402817140600552 0.026528623240208167 0 0.010502470954435411 0.026785978939236569 0 0.010299120238628985 0.026786163355179585 0 0.010402817140600552 0.026528623240208167 0 0.010502470954435411 0.026785978939236569 0 0.010299120238628985 0.026786163355179585 0 0.010232335758776932 0.027039118216350602 0 0.010299120238628985 0.026786163355179585 0 0.010060756958433607 0.026807769440397328 0 0.010232335758776932 0.027039118216350602 0 0.0093681002030777758 0.027068386622845778 0 0.0094127597751644046 0.027070806156769003 0 0.0092351513270996742 0.027091845806737052 0 0.0094127597751644046 0.027070806156769003 0 0.0093214460152804546 0.027150934337571448 0 0.0093934780018569627 0.027334452210397726 0 0.0093681002030777758 0.027068386622845778 0 0.0094127597751644046 0.027070806156769003 0 0.0093214460152804546 0.027150934337571448 0 0.0085277693048840808 0.027685454989362077 0 0.0079290113519360703 0.028199097270206672 0 0.0081111997661781274 0.026915587551466908 0 0.0090716536132485724 0.027093600950695945 0 0.0091565217325486996 0.026751381204215764 0 0.0081111997661781274 0.026915587551466908 0 0.0090716536132485724 0.027093600950695945 0 0.0093214460152804546 0.027150934337571448 0 0.0093934780018569627 0.027334452210397726 0 0.0093681002030777758 0.027068386622845778 0 0.0090716536132485724 0.027093600950695945 0 0.0093214460152804546 0.027150934337571448 0 0.0092296882575518564 0.02715525651040876 0 0.0086393965109960568 0.026994206864710508 0 0.0093681002030777758 0.027068386622845778 0 0.0090716536132485724 0.027093600950695945 0 0.0091565217325486996 0.026751381204215764 0 0.0093681002030777758 0.027068386622845778 0 0.009210259013263002 0.027103058517542366 0 0.0092351513270996742 0.027091845806737052 0 0.0075730354884786721 0.026945931569865977 0 0.006823297401240702 0.027228446594417768 0 0.0070119049654267717 0.026859562231419359 0 0.0086393965109960568 0.026994206864710508 0 0.0074038236695567194 0.027064635387783195 0 0.0090716536132485724 0.027093600950695945 0 0.0088676747864172706 0.027326689049083995 0 0.0081111997661781274 0.026915587551466908 0 0.0085277693048840808 0.027685454989362077 0 0.0088676747864172706 0.027326689049083995 0 0.0081111997661781274 0.026915587551466908 0 0.0085277693048840808 0.027685454989362077 0 0.0090915428553238597 0.027611169159098361 0 0.0088676747864172706 0.027326689049083995 0 0.0090915428553238597 0.027611169159098361 0 0.0088676747864172706 0.027326689049083995 0 0.0093934780018569627 0.027334452210397726 0 0.0090716536132485724 0.027093600950695945 0 0.0088676747864172706 0.027326689049083995 0 0.0093934780018569627 0.027334452210397726 0 0.0096700170978127435 0.027665469102861079 0 0.0090915428553238597 0.027611169159098361 0 0.0093934780018569627 0.027334452210397726 0 0.0055762123870510515 0.012218994081514082 0 0.0068394729679716621 0.012038492072381422 0 0.0063859573907474529 0.010888809541950758 0 0.0096700170978127435 0.027665469102861079 0 0.0090915428553238597 0.027611169159098361 0 0.0089872353750278609 0.028144036112076106 0 0.0085277693048840808 0.027685454989362077 0 0.0090915428553238597 0.027611169159098361 0 0.0089872353750278609 0.028144036112076106 0 0.0068394729679716621 0.012038492072381422 0 0.0063859573907474529 0.010888809541950758 0 0.0074984992050552719 0.010971486344722163 0 0.0068394729679716621 0.012038492072381422 0 0.0074984992050552719 0.010971486344722163 0 0.0079876597122394734 0.011804347573256697 0 0.0085277693048840808 0.027685454989362077 0 0.0089872353750278609 0.028144036112076106 0 0.0079290113519360703 0.028199097270206672 0 0.0076295626600538357 0.020258152193188876 0 0.0080201045258092418 0.019977510603786761 0 0.0074984992050552719 0.010971486344722163 0 0.0079876597122394734 0.011804347573256697 0 0.0083498451595327358 0.011139414643375081 0 0.0088777843333414218 0.010942748000146161 0 0.0083498451595327358 0.011139414643375081 0 0.0087605479311208354 0.011576842051336125 0 0.0079876597122394734 0.011804347573256697 0 0.0083498451595327358 0.011139414643375081 0 0.0087605479311208354 0.011576842051336125 0 0.0079290113519360703 0.028199097270206672 0 0.0067447157802551783 0.02825762970482492 0 0.0068623718736351104 0.027236145975424106 0 0.0080201045258092418 0.019977510603786761 0 0.0076732055858888711 0.019949767916644021 0 0.0079290113519360703 0.028199097270206672 0 0.0068623718736351104 0.027236145975424106 0 0.0081111997661781274 0.026915587551466908 0 0.0064828789312495133 0.027362693187551076 0 0.0074038236695567194 0.027064635387783195 0 0.0061027905754248799 0.027473285629664335 0 0.006823297401240702 0.027228446594417768 0 0.0063718491155294399 0.026810216029779954 0 0.006823297401240702 0.027228446594417768 0 0.0063718491155294399 0.026810216029779954 0 0.0070119049654267717 0.026859562231419359 0 0.0061027905754248799 0.027473285629664335 0 0.0063718491155294399 0.026810216029779954 0 0.005597968738845647 0.027100220876177694 0 0.0063718491155294399 0.026810216029779954 0 0.0063181262134965818 0.025941936442163176 0 0.0069323706991387072 0.026438023256646726 0 0.0063718491155294399 0.026810216029779954 0 0.0063181262134965818 0.025941936442163176 0 0.0058041866905662598 0.026555374646037383 0 0.0063718491155294399 0.026810216029779954 0 0.0069323706991387072 0.026438023256646726 0 0.0070119049654267717 0.026859562231419359 0 0.00661586917468137 0.026049895128425087 0 0.0074664946820870498 0.026629359496189012 0 0.00661586917468137 0.026049895128425087 0 0.0057294551293234465 0.025374299645220283 0 0.0066129268947853958 0.025446562733315605 0 0.0072666063750401553 0.024999912801485048 0 0.005898591426359112 0.024999916526562974 0 0.0069173362643647606 0.026189509286408327 0 0.0066129268947853958 0.025446562733315605 0 0.0056954137388346357 0.025348012665833905 0 0.0066129268947853958 0.025446562733315605 0 0.0072666063750401553 0.024999912801485048 0 0.0078203362403401252 0.025787904953235716 0 0.0069173362643647606 0.026189509286408327 0 0.0078203362403401252 0.025787904953235716 0 0.0081293762331771068 0.026855836443863797 0 0.0069173362643647606 0.026189509286408327 0 0.0066129268947853958 0.025446562733315605 0 0.0078203362403401252 0.025787904953235716 0 0.0078203362403401252 0.025787904953235716 0 0.0086342071309778255 0.02500000803526933 0 0.0088349121087903226 0.026262866701699417 0 0.0078203362403401252 0.025787904953235716 0 0.0088349121087903226 0.026262866701699417 0 0.0081293762331771068 0.026855836443863797 0 0.0072666063750401553 0.024999912801485048 0 0.0078203362403401252 0.025787904953235716 0 0.0086342071309778255 0.02500000803526933 0 0.0086342071309778255 0.02500000803526933 0 0.0088349121087903226 0.026262866701699417 0 0.0097420012413165624 0.026002347395667761 0 0.0088349121087903226 0.026262866701699417 0 0.0089658216361905175 0.026826777916825823 0 0.009498288651489533 0.026804619384668858 0 0.0088349121087903226 0.026262866701699417 0 0.0081293762331771068 0.026855836443863797 0 0.0089658216361905175 0.026826777916825823 0 0.0086393965109960568 0.026994206864710508 0 0.0074664946820870498 0.026629359496189012 0 0.0075730354884786721 0.026945931569865977 0 0.0069323706991387072 0.026438023256646726 0 0.0070119049654267717 0.026859562231419359 0 0.0092351513270996742 0.027091845806737052 0 0.0089658216361905175 0.026826777916825823 0 0.009498288651489533 0.026804619384668858 0 0.0091310954492890943 0.027163481228605169 0 0.0081293762331771068 0.026855836443863797 0 0.0089658216361905175 0.026826777916825823 0 0.0091310954492890943 0.027163481228605169 0 0.0092351513270996742 0.027091845806737052 0 0.0089658216361905175 0.026826777916825823 0 0.0086393965109960568 0.026994206864710508 0 0.0087982733011927987 0.026964162492751548 0 0.0094127597751644046 0.027070806156769003 0 0.0092351513270996742 0.027091845806737052 0 0.009498288651489533 0.026804619384668858 0 0.010060756958433607 0.026807769440397328 0 0.010402817140600552 0.026528623240208167 0 0.010306723383862024 0.026131251199741981 0 0.009746931638668882 0.026982573878760727 0 0.0098989508225769893 0.026456701282926803 0 0.010402817140600552 0.026528623240208167 0 0.01068795778896396 0.026139247330629518 0 0.010306723383862024 0.026131251199741981 0 0.010402817140600552 0.026528623240208167 0 0.010704486209651604 0.026496855322978408 0 0.01068795778896396 0.026139247330629518 0 0.010502470954435411 0.026785978939236569 0 0.010402817140600552 0.026528623240208167 0 0.010704486209651604 0.026496855322978408 0 0.010915532219255031 0.026657149884908901 0 0.010704486209651604 0.026496855322978408 0 0.011065624731522504 0.026203494016767866 0 0.010704486209651604 0.026496855322978408 0 0.01068795778896396 0.026139247330629518 0 0.011065624731522504 0.026203494016767866 0 0.010925424853654461 0.025798392529800322 0 0.01068795778896396 0.026139247330629518 0 0.010337408374591803 0.025617940416947767 0 0.010925424853654461 0.025798392529800322 0 0.01068795778896396 0.026139247330629518 0 0.011065624731522504 0.026203494016767866 0 0.0088349121087903226 0.026262866701699417 0 0.009498288651489533 0.026804619384668858 0 0.0097420012413165624 0.026002347395667761 0 0.0098989508225769893 0.026456701282926803 0 0.010022205757244312 0.025777787554351506 0 0.01068795778896396 0.026139247330629518 0 0.010306723383862024 0.026131251199741981 0 0.010337408374591803 0.025617940416947767 0 0.0086342071309778255 0.02500000803526933 0 0.0097420012413165624 0.026002347395667761 0 0.010001375374455281 0.024999880025926367 0 0.010022205757244312 0.025777787554351506 0 0.010001824244851854 0.025000080363199242 0 0.010337408374591803 0.025617940416947767 0 0.010002444267424271 0.024999903047453208 0 0.010710786716719933 0.025413506223435803 0 0.010002444267424271 0.024999903047453208 0 0.010710786716719933 0.025413506223435803 0 0.011149882356296697 0.024999693004172291 0 0.010925424853654461 0.025798392529800322 0 0.010337408374591803 0.025617940416947767 0 0.010710786716719933 0.025413506223435803 0 0.010925424853654461 0.025798392529800322 0 0.010710786716719933 0.025413506223435803 0 0.011287091025665292 0.02551295650629409 0 0.010925424853654461 0.025798392529800322 0 0.011287091025665292 0.02551295650629409 0 0.011498704140653435 0.025955578508871705 0 0.011287091025665292 0.02551295650629409 0 0.011810083203464522 0.025723089087271708 0 0.011498704140653435 0.025955578508871705 0 0.010710786716719933 0.025413506223435803 0 0.011287091025665292 0.02551295650629409 0 0.011149882356296697 0.024999693004172291 0 0.011287091025665292 0.02551295650629409 0 0.011149882356296697 0.024999693004172291 0 0.012296079191083199 0.025000019504233528 0 0.011287091025665292 0.02551295650629409 0 0.012296079191083199 0.025000019504233528 0 0.011810083203464522 0.025723089087271708 0 0.012302034827198063 0.025446621648476636 0 0.012296079191083199 0.025000019504233528 0 0.011810083203464522 0.025723089087271708 0 0.011810083203464522 0.025723089087271708 0 0.011498704140653435 0.025955578508871705 0 0.011907006151699474 0.026057019649706581 0 0.010925424853654461 0.025798392529800322 0 0.011498704140653435 0.025955578508871705 0 0.011065624731522504 0.026203494016767866 0 0.010915532219255031 0.026657149884908901 0 0.011679741458700163 0.026235735377414537 0 0.011065624731522504 0.026203494016767866 0 0.011498704140653435 0.025955578508871705 0 0.011679741458700163 0.026235735377414537 0 0.011065624731522504 0.026203494016767866 0 0.01168398314687407 0.026038410309378895 0 0.012000538367979421 0.025649097865269671 0 0.011679741458700163 0.026235735377414537 0 0.011498704140653435 0.025955578508871705 0 0.011679741458700163 0.026235735377414537 0 0.011907006151699474 0.026057019649706581 0 0.01168398314687407 0.026038410309378895 0 0.011679741458700163 0.026235735377414537 0 0.011907006151699474 0.026057019649706581 0 0.01201816464302226 0.026143819391333794 0 0.01168398314687407 0.026038410309378895 0 0.011907006151699474 0.026057019649706581 0 0.0028262557467622681 0.026690456651198641 0 0.0030262471021842408 0.026678673327224248 0 0.0027903667786928813 0.026506767531294804 0 0.0028262557467622681 0.026690456651198641 0 0.0027903667786928813 0.026506767531294804 0 0.0026659744383123098 0.026529928306284149 0 0.0030262471021842408 0.026678673327224248 0 0.0027903667786928813 0.026506767531294804 0 0.0030999784461170107 0.026494209035832876 0 0.0025300294064995949 0.025911858311001686 0 0.0022483111443932246 0.026431355339938768 0 0.0026659744383123098 0.026529928306284149 0 0.0027903667786928813 0.026506767531294804 0 0.002599613734649456 0.026452216351378986 0 0.0026779305905245384 0.026363548277034882 0 0.0027903667786928813 0.026506767531294804 0 0.002599613734649456 0.026452216351378986 0 0.0026659744383123098 0.026529928306284149 0 0.0025580996503238298 0.026125654575440423 0 0.0026650913917100529 0.026506610455453841 0 0.0025300294064995949 0.025911858311001686 0 0.0021235004496550996 0.026057742053412988 0 0.0022483111443932246 0.026431355339938768 0 0.0021235004496550996 0.026057742053412988 0 0.0020935302332959847 0.025682673789245252 0 0.001727744074252441 0.025882984422682009 0 0.0025300294064995949 0.025911858311001686 0 0.0021235004496550996 0.026057742053412988 0 0.0020935302332959847 0.025682673789245252 0 0.0021235004496550996 0.026057742053412988 0 0.0022483111443932246 0.026431355339938768 0 0.0018055500232758552 0.026295898017936123 0 0.0022483111443932246 0.026431355339938768 0 0.0025692843313838199 0.026704293558380603 0 0.0022708782668098321 0.026784566898225254 0 0.0022483111443932246 0.026431355339938768 0 0.0022708782668098321 0.026784566898225254 0 0.0017982030142945848 0.026753949327322207 0 0.0028262557467622681 0.026690456651198641 0 0.0026659744383123098 0.026529928306284149 0 0.0025692843313838199 0.026704293558380603 0 0.0022483111443932246 0.026431355339938768 0 0.0026659744383123098 0.026529928306284149 0 0.0025692843313838199 0.026704293558380603 0 0.0025692843313838199 0.026704293558380603 0 0.0024902206034289566 0.026887051510581454 0 0.0022708782668098321 0.026784566898225254 0 0.0025692843313838199 0.026704293558380603 0 0.0024902206034289566 0.026887051510581454 0 0.0027103774805124744 0.026834284326052678 0 0.0024902206034289566 0.026887051510581454 0 0.0026397283960482389 0.027005307666024964 0 0.0027103774805124744 0.026834284326052678 0 0.0024902206034289566 0.026887051510581454 0 0.0022708782668098321 0.026784566898225254 0 0.0021977969211363869 0.027113489447439611 0 0.0022708782668098321 0.026784566898225254 0 0.0021977969211363869 0.027113489447439611 0 0.0017982030142945848 0.026753949327322207 0 0.0030578509006442402 0.012558767260341826 0 0.0017342981209322527 0.022379546254610496 0 0.00091596443256936218 0.016032109184547075 0 0.00079967861255319508 0.016384572330239128 0 0.0012245771369253401 0.016081185082184611 0 0.00091596443256936218 0.016032109184547075 0 0.00058816281677825282 0.016061817177596957 0 0.00079967861255319508 0.016384572330239128 0 0.0017342981209322527 0.022379546254610496 0 0.0037629493122147244 0.018068023912434616 0 0.0041448972298810541 0.0087778175643176137 0 0.0038849040103147749 0.0087650059555252121 0 0.0040953957169113479 0.0085598071979895718 0 0.0024902206034289566 0.026887051510581454 0 0.0021977969211363869 0.027113489447439611 0 0.0026397283960482389 0.027005307666024964 0 0.00285498130731284 0.018160207157778267 0 0.0027880822761562635 0.018092585013655557 0 0.0029902298344491565 0.018063552280750499 0 0.0030578509006442402 0.012558767260341826 0 0.0037629493122147244 0.018068023912434616 0 0.0026397283960482389 0.027005307666024964 0 0.0028971162311091868 0.026885037711023848 0 0.0027103774805124744 0.026834284326052678 0 0.0041448972298810541 0.0087778175643176137 0 0.0040953957169113479 0.0085598071979895718 0 0.0044148719223886281 0.0084713321458266908 0 0.0028971162311091868 0.026885037711023848 0 0.0027103774805124744 0.026834284326052678 0 0.0031420378605343633 0.02676753398485161 0 0.0037629493122147244 0.018068023912434616 0 0.00367810700489556 0.017725607066554107 0 0.0027054771278914357 0.028584666654365185 0 0.003775849060832441 0.020884216180096685 0 0.0028262557467622681 0.026690456651198641 0 0.0027103774805124744 0.026834284326052678 0 0.0031032689530053835 0.026917788634569072 0 0.0028262557467622681 0.026690456651198641 0 0.0025692843313838199 0.026704293558380603 0 0.0027103774805124744 0.026834284326052678 0 0.0030262471021842408 0.026678673327224248 0 0.0031032689530053835 0.026917788634569072 0 0.0031783390894688499 0.0267770599229156 0 0.0028262557467622681 0.026690456651198641 0 0.0030262471021842408 0.026678673327224248 0 0.0031032689530053835 0.026917788634569072 0 0.0043864377287493733 0.0087735541863716172 0 0.0044148719223886281 0.0084713321458266908 0 0.0048125550586691854 0.008574293849863069 0 0.0044148719223886281 0.0084713321458266908 0 0.0048437596299106536 0.0084213147689201715 0 0.0048125550586691854 0.008574293849863069 0 0.00367810700489556 0.017725607066554107 0 0.003775849060832441 0.020884216180096685 0 0.0048437596299106536 0.0084213147689201715 0 0.0048125550586691854 0.008574293849863069 0 0.0049494970395160508 0.0085198442501424401 0 0.0042018174903999559 0.018698067030652327 0 0.0063872510712668215 0.018490788531320183 0 0.0062961099346303968 0.019281752968323403 0 0.0049363869595941568 0.0085519508870024134 0 0.0048125550586691854 0.008574293849863069 0 0.0049494970395160508 0.0085198442501424401 0 0.0048437596299106536 0.0084213147689201715 0 0.0049494970395160508 0.0085198442501424401 0 0.0050480358726581699 0.0084848527000340335 0 0.003775849060832441 0.020884216180096685 0 0.0057233181955078901 0.011906126190259374 0 0.003775849060832441 0.020884216180096685 0 0.0058870802211430269 0.022371874100479541 0 0.0058870802211430269 0.022371874100479541 0 0.0057233181955078901 0.011906126190259374 0 0.0053829085734931493 0.0077725104412240363 0 0.0057233181955078901 0.011906126190259374 0 0.0050571875417703216 0.0085158623558751183 0 0.0049494970395160508 0.0085198442501424401 0 0.0050480358726581699 0.0084848527000340335 0 0.0054701657825629033 0.0084327328197473395 0 0.0050565186287361884 0.0081192539173422108 0 0.0060502574060892992 0.0083733216957740646 0 0.0090782353032848734 0.011452261551673172 0 0.0090989625148636417 0.011409807700438809 0 0.0091022657728348933 0.011438891197151838 0 0.0058870802211430269 0.022371874100479541 0 0.0075961435006432002 0.019558101960680151 0 0.0090764623351463174 0.011455751626868658 0 0.0090989625148636417 0.011409807700438809 0 0.0091170908412761074 0.011309195357044634 0 0.0054701657825629033 0.0084327328197473395 0 0.0050571875417703216 0.0085158623558751183 0 0.0050565186287361884 0.0081192539173422108 0 0.0057233181955078901 0.011906126190259374 0 0.0077659844912698183 0.0096682255347071491 0 0.0090782353032848734 0.011452261551673172 0 0.0090764623351463174 0.011455751626868658 0 0.0090989625148636417 0.011409807700438809 0 0.0048085513957621204 0.028148600146709606 0 0.0051719095148537852 0.02782630252704707 0 0.0049028165741982748 0.027429529600957046 0 0.0048085513957621204 0.028148600146709606 0 0.0051719095148537852 0.02782630252704707 0 0.0055596001913229961 0.028224702756260021 0 0.0058870802211430269 0.022371874100479541 0 0.003810151669567169 0.0282353984052773 0 0.0032757272624379021 0.026879011737768334 0 0.0031783390894688499 0.0267770599229156 0 0.0033172927272008316 0.026687085092220033 0 0.0031032689530053835 0.026917788634569072 0 0.0032757272624379021 0.026879011737768334 0 0.0031783390894688499 0.0267770599229156 0 0.0088777843333414218 0.010942748000146161 0 0.0087605479311208354 0.011576842051336125 0 0.0089851909169978775 0.011285391668635684 0 0.0088777843333414218 0.010942748000146161 0 0.0089851909169978775 0.011285391668635684 0 0.0091170908412761074 0.011309195357044634 0 0.0087605479311208354 0.011576842051336125 0 0.0089851909169978775 0.011285391668635684 0 0.0091022657728348933 0.011438891197151838 0 0.0089851909169978775 0.011285391668635684 0 0.0091170908412761074 0.011309195357044634 0 0.0091022657728348933 0.011438891197151838 0 0.0090989625148636417 0.011409807700438809 0 0.0091170908412761074 0.011309195357044634 0 0.0091022657728348933 0.011438891197151838 0 0.0051719095148537852 0.02782630252704707 0 0.005530008775042063 0.027683048888840798 0 0.0055596001913229961 0.028224702756260021 0 0.0076732055858888711 0.019949767916644021 0 0.0075961435006432002 0.019558101960680151 0 0.0067447157802551783 0.02825762970482492 0 0.005530008775042063 0.027683048888840798 0 0.0055596001913229961 0.028224702756260021 0 0.0067447157802551783 0.02825762970482492 0 0.0068623718736351104 0.027236145975424106 0 0.005530008775042063 0.027683048888840798 0 0.0064828789312495133 0.027362693187551076 0 0.0055713570120196282 0.027672857598671319 0 0.0061027905754248799 0.027473285629664335 0 0.005530008775042063 0.027683048888840798 0 0.005597968738845647 0.027100220876177694 0 0.0051719095148537852 0.02782630252704707 0 0.005530008775042063 0.027683048888840798 0 0.0052926174661887208 0.027358317425390497 0 0.005530008775042063 0.027683048888840798 0 0.0052926174661887208 0.027358317425390497 0 0.005597968738845647 0.027100220876177694 0 0.0052926174661887208 0.027358317425390497 0 0.005597968738845647 0.027100220876177694 0 0.0049011368114735346 0.026759001564742174 0 0.0030262471021842408 0.026678673327224248 0 0.0031783390894688499 0.0267770599229156 0 0.0033172927272008316 0.026687085092220033 0 0.0051719095148537852 0.02782630252704707 0 0.0052926174661887208 0.027358317425390497 0 0.0049028165741982748 0.027429529600957046 0 0.003810151669567169 0.0282353984052773 0 0.004248843240827028 0.026330360338986929 0 0.0052926174661887208 0.027358317425390497 0 0.0049028165741982748 0.027429529600957046 0 0.0049011368114735346 0.026759001564742174 0 0.0033172927272008316 0.026687085092220033 0 0.0034756847487649963 0.026470780838820415 0 0.0030999784461170107 0.026494209035832876 0 0.0030262471021842408 0.026678673327224248 0 0.0033172927272008316 0.026687085092220033 0 0.0030999784461170107 0.026494209035832876 0 0.0034756847487649963 0.026470780838820415 0 0.0033469335698812662 0.026262232972037433 0 0.0030999784461170107 0.026494209035832876 0 0.0049011368114735346 0.026759001564742174 0 0.0053150778269817891 0.026517812759824226 0 0.0047971116494871886 0.026029858754510027 0 0.004248843240827028 0.026330360338986929 0 0.0043471848797328747 0.026029855563624107 0 0.0034756847487649963 0.026470780838820415 0 0.0033469335698812662 0.026262232972037433 0 0.0039120607630109792 0.026018540668491984 0 0.0033469335698812662 0.026262232972037433 0 0.0034488280954994965 0.02573295163213813 0 0.0028455042740809047 0.026226748041801078 0 0.005597968738845647 0.027100220876177694 0 0.0058041866905662598 0.026555374646037383 0 0.0053150778269817891 0.026517812759824226 0 0.0063718491155294399 0.026810216029779954 0 0.005597968738845647 0.027100220876177694 0 0.0058041866905662598 0.026555374646037383 0 0.005597968738845647 0.027100220876177694 0 0.0049011368114735346 0.026759001564742174 0 0.0053150778269817891 0.026517812759824226 0 0.0053150778269817891 0.026517812759824226 0 0.0055464799322738406 0.026081269277143448 0 0.0047971116494871886 0.026029858754510027 0 0.0058041866905662598 0.026555374646037383 0 0.0053150778269817891 0.026517812759824226 0 0.0055464799322738406 0.026081269277143448 0 0.0063181262134965818 0.025941936442163176 0 0.0058041866905662598 0.026555374646037383 0 0.0055464799322738406 0.026081269277143448 0 0.0063181262134965818 0.025941936442163176 0 0.0055464799322738406 0.026081269277143448 0 0.0057109040513235211 0.025765367450675945 0 0.0063181262134965818 0.025941936442163176 0 0.0057109040513235211 0.025765367450675945 0 0.0056954137388346357 0.025348012665833905 0 0.0055464799322738406 0.026081269277143448 0 0.005191032980594955 0.025676809035194814 0 0.0047971116494871886 0.026029858754510027 0 0.0055464799322738406 0.026081269277143448 0 0.0057109040513235211 0.025765367450675945 0 0.005191032980594955 0.025676809035194814 0 0.005898591426359112 0.024999916526562974 0 0.0056954137388346357 0.025348012665833905 0 0.0045317379838169204 0.025000031253894821 0 0.005191032980594955 0.025676809035194814 0 0.0056954137388346357 0.025348012665833905 0 0.0045317379838169204 0.025000031253894821 0 0.0066129268947853958 0.025446562733315605 0 0.005898591426359112 0.024999916526562974 0 0.0056954137388346357 0.025348012665833905 0 0.0057109040513235211 0.025765367450675945 0 0.005191032980594955 0.025676809035194814 0 0.0056954137388346357 0.025348012665833905 0 0.0033469335698812662 0.026262232972037433 0 0.0034488280954994965 0.02573295163213813 0 0.0039120607630109792 0.026018540668491984 0 0.0043471848797328747 0.026029855563624107 0 0.0045311013006759226 0.024999952311162754 0 0.0034488280954994965 0.02573295163213813 0 0.0039120607630109792 0.026018540668491984 0 0.0045305140998456745 0.025000027893913458 0 0.005191032980594955 0.025676809035194814 0 0.0047971116494871886 0.026029858754510027 0 0.0045317379838169204 0.025000031253894821 0 0.0034488280954994965 0.02573295163213813 0 0.0045305140998456745 0.025000027893913458 0 0.0034599132664382489 0.024999930872868194 0 0.0034488280954994965 0.02573295163213813 0 0.0034599132664382489 0.024999930872868194 0 0.0027312753024584194 0.025700531583639177 0 0.0034599132664382489 0.024999930872868194 0 0.0023889198764883188 0.02499990276601597 0 0.0027312753024584194 0.025700531583639177 0 0.0023889198764883188 0.02499990276601597 0 0.0018700485924192263 0.025789021368168994 0 0.0013178484229126501 0.024999941247786796 0 0.0023889198764883188 0.02499990276601597 0 0.0018700485924192263 0.025789021368168994 0 0.0027312753024584194 0.025700531583639177 0 0.0025629494795595528 0.025909779388534771 0 0.002690497733679879 0.026155550583362965 0 0.0018700485924192263 0.025789021368168994 0 0.0027312753024584194 0.025700531583639177 0 0.0028455042740809047 0.026226748041801078 0 0.0027308256317030094 0.02596166958931696 0 0.0027059046194947206 0.026153010455866516 0 0.0028455042740809047 0.026226748041801078 0 0.0027308256317030094 0.02596166958931696 0 0.0027059046194947206 0.026153010455866516 0 0.0025778598304545997 0.026094652193412057 0 0.0034488280954994965 0.02573295163213813 0 0.0027312753024584194 0.025700531583639177 0 0.0028455042740809047 0.026226748041801078 0 0.0033469335698812662 0.026262232972037433 0 0.0028455042740809047 0.026226748041801078 0 0.0030999784461170107 0.026494209035832876 0 0.0028455042740809047 0.026226748041801078 0 0.0027101523891952433 0.026258368319588644 0 0.0028091491595853141 0.026378863616291302 0 0.0027059046194947206 0.026153010455866516 0 0.0028455042740809047 0.026226748041801078 0 0.0027101523891952433 0.026258368319588644 0 0.0027059046194947206 0.026153010455866516 0 0.0027101523891952433 0.026258368319588644 0 0.0026230076020728422 0.026185398981745166 0 0.0027903667786928813 0.026506767531294804 0 0.0028091491595853141 0.026378863616291302 0 0.0026779305905245384 0.026363548277034882 0 0.0027101523891952433 0.026258368319588644 0 0.0028091491595853141 0.026378863616291302 0 0.0026779305905245384 0.026363548277034882 0 0.0027903667786928813 0.026506767531294804 0 0.0028091491595853141 0.026378863616291302 0 0.0030999784461170107 0.026494209035832876 0 0.0028455042740809047 0.026226748041801078 0 0.0028091491595853141 0.026378863616291302 0 0.0030999784461170107 0.026494209035832876 0 0.0025300294064995949 0.025911858311001686 0 0.0020935302332959847 0.025682673789245252 0 0.0023267751722821743 0.025254166028765651 0 0.0025580996503238298 0.026125654575440423 0 0.0021173833335009573 0.026157932552499322 0 0.0019881718715850302 0.025393881037303303 0 0.0020935302332959847 0.025682673789245252 0 0.0023267751722821743 0.025254166028765651 0 0.0019881718715850302 0.025393881037303303 0 0.0020935302332959847 0.025682673789245252 0 0.0017132001445400342 0.025530746350561954 0 0.002599613734649456 0.026452216351378986 0 0.0025527141517559995 0.026305419012063003 0 0.0024942812782355181 0.026296679281516081 0 0.002599613734649456 0.026452216351378986 0 0.0026779305905245384 0.026363548277034882 0 0.0025527141517559995 0.026305419012063003 0 0.0025527141517559995 0.026305419012063003 0 0.0025086024012609654 0.02623069733075515 0 0.002598499779295872 0.026244496060857041 0 0.0026779305905245384 0.026363548277034882 0 0.0025527141517559995 0.026305419012063003 0 0.002598499779295872 0.026244496060857041 0 0.0027101523891952433 0.026258368319588644 0 0.0026779305905245384 0.026363548277034882 0 0.002598499779295872 0.026244496060857041 0 0.0027101523891952433 0.026258368319588644 0 0.002598499779295872 0.026244496060857041 0 0.0026230076020728422 0.026185398981745166 0 0.002598499779295872 0.026244496060857041 0 0.0026230076020728422 0.026185398981745166 0 0.0025273572496238477 0.026177945988214515 0 0.0025086024012609654 0.02623069733075515 0 0.002598499779295872 0.026244496060857041 0 0.0025273572496238477 0.026177945988214515 0 0.0021173833335009573 0.026157932552499322 0 0.0013362340152608622 0.025846194287220209 0 0.0017182783075085039 0.026703247721219955 0 0.0014396332030289108 0.026003781806842298 0 0.00087678544938431485 0.02657778883431949 0 0.0025086024012609654 0.02623069733075515 0 0.0024701187437619729 0.026294246672529858 0 0.0024099978293859736 0.026144148200496611 0 0.0021173833335009573 0.026157932552499322 0 0.0019420062232335209 0.026121238196464568 0 0.0025086024012609654 0.02623069733075515 0 0.0025273572496238477 0.026177945988214515 0 0.0024099978293859736 0.026144148200496611 0 0.0019881718715850302 0.025393881037303303 0 0.0023267751722821743 0.025254166028765651 0 0.0017104909287381773 0.025115357848705888 0 0.0025527141517559995 0.026305419012063003 0 0.0025086024012609654 0.02623069733075515 0 0.0024701187437619729 0.026294246672529858 0 0.0024483706112111291 0.026235175055088038 0 0.0021173833335009573 0.026157932552499322 0 0.0024099978293859736 0.026144148200496611 0 0.0023557641426669956 0.026017540069460752 0 0.0025778598304545997 0.026094652193412057 0 0.0015776182209383803 0.025717706436375096 0 0.0027534103036724929 0.02617700541169497 0 0.0017300067134962481 0.025866968327665142 0 0.0025778598304545997 0.026094652193412057 0 0.0022700727545643036 0.02580824177924354 0 0.0019420062232335209 0.026121238196464568 0 0.0015776182209383803 0.025717706436375096 0 0.0025273572496238477 0.026177945988214515 0 0.0024099978293859736 0.026144148200496611 0 0.0025778598304545997 0.026094652193412057 0 0.0026230076020728422 0.026185398981745166 0 0.0025273572496238477 0.026177945988214515 0 0.0025778598304545997 0.026094652193412057 0 0.0027059046194947206 0.026153010455866516 0 0.0026230076020728422 0.026185398981745166 0 0.0025778598304545997 0.026094652193412057 0 0.0025778598304545997 0.026094652193412057 0 0.0024619034609255942 0.025827216288011982 0 0.0022700727545643036 0.02580824177924354 0 0.0027308256317030094 0.02596166958931696 0 0.0025778598304545997 0.026094652193412057 0 0.0024619034609255942 0.025827216288011982 0 0.0018700485924192263 0.025789021368168994 0 0.00088978866358769019 0.025062426587374082 0 0.0013178484229126501 0.024999941247786796 0 0.0027308256317030094 0.02596166958931696 0 0.0024619034609255942 0.025827216288011982 0 0.0022761532660158243 0.02541194868054043 0 0.0025629494795595528 0.025909779388534771 0 -0.00024235752292125416 0.025576468174905938 0 0.0024619034609255942 0.025827216288011982 0 0.0022700727545643036 0.02580824177924354 0 0.0022761532660158243 0.02541194868054043 0 -0.00024235752292125416 0.025576468174905938 0 0.0013232116946054124 0.025000462000793928 0 0.0017300067134962481 0.025866968327665142 0 0.0022700727545643036 0.02580824177924354 0 0.0022761532660158243 0.02541194868054043 0 -0.00024235752292125416 0.025576468174905938 0 0.00059444277420982248 0.025204178652589591 0 0.0017300067134962481 0.025866968327665142 0 0.0022761532660158243 0.02541194868054043 0 0.001573641412962844 0.025491465897523189 0 0.00088774161251111187 0.024945356950133352 0 -0.00029855521447489546 0.024999946898210366 0 -0.00022133144519198813 0.025187687559842964 0 0.0015776182209383803 0.025717706436375096 0 -0.00082433338221059608 0.025134597916670148 0 -0.00029856217620897812 0.024999999287509986 0 -0.00022066874624680031 0.025195265135599876 0 -0.0010791758688352918 0.024999998094284714 0 0.00059444277420982248 0.025204178652589591 0 -0.00082433338221059608 0.025134597916670148 0 0.0011458366263258366 0.025804091641353093 0 0.00082756698796406349 0.024997981339377123 0 -0.00065357832699720908 0.025184931699495476 0 0.0011618215741992883 0.025300971786792224 0 -0.00010249422759697534 0.024867634783983447 0 0.00035372707849038891 0.025437555128984168 0 -0.00029680383653815829 0.024999872426741697 0 0.00059444277420982248 0.025204178652589591 0 0.0015776182209383803 0.025717706436375096 0 0.00059444277420982248 0.025204178652589591 0 -0.00010249422759697534 0.024867634783983447 0 -0.0002322396656263997 0.025686623074002542 0 -0.0004991675378180347 0.024918033558861647 0 -0.00022066874624680031 0.025195265135599876 0 -0.0010791758688352918 0.024999998094284714 0 -0.0013121519394467312 0.025333502924303627 0 -0.00082433338221059608 0.025134597916670148 0 -0.0014219822346745736 0.025129821797787347 0 -0.00082433338221059608 0.025134597916670148 0 -0.0017054866151612728 0.025048239814443728 0 -0.0010791758688352918 0.024999998094284714 0 -0.0013121519394467312 0.025333502924303627 0 -0.0018031762482415444 0.025165260861769064 0 -0.0002322396656263997 0.025686623074002542 0 0.00058771659038509038 0.025894384769853097 0 3.2342833308408465e-05 0.026450656529286756 0 -0.00010249422759697534 0.024867634783983447 0 0.00035372707849038891 0.025437555128984168 0 -0.0002322396656263997 0.025686623074002542 0 0.00035372707849038891 0.025437555128984168 0 -0.0002322396656263997 0.025686623074002542 0 0.00058771659038509038 0.025894384769853097 0 0.0011618215741992883 0.025300971786792224 0 0.00035372707849038891 0.025437555128984168 0 0.00058771659038509038 0.025894384769853097 0 0.0014396332030289108 0.026003781806842298 0 0.0011618215741992883 0.025300971786792224 0 0.00058771659038509038 0.025894384769853097 0 -0.0026093608780927376 0.025363071385855203 0 -0.0022856311025065113 0.024999958022217127 0 -0.0031267132881602766 0.024999933376367786 0 -0.0026093608780927376 0.025363071385855203 0 -0.0029207499842576938 0.025799394475087611 0 -0.0031267132881602766 0.024999933376367786 0 -0.0026093608780927376 0.025363071385855203 0 -0.0024606264037071177 0.025614017815238789 0 -0.0029207499842576938 0.025799394475087611 0 -0.0026093608780927376 0.025363071385855203 0 -0.0024606264037071177 0.025614017815238789 0 -0.0021429591995449026 0.025356549277470778 0 -0.0024606264037071177 0.025614017815238789 0 -0.0021429591995449026 0.025356549277470778 0 -0.002168342040616261 0.025941519295695919 0 -0.0021429591995449026 0.025356549277470778 0 -0.0018363940477508643 0.025312864541256305 0 -0.002168342040616261 0.025941519295695919 0 -0.0021429591995449026 0.025356549277470778 0 -0.0022856311025065113 0.024999958022217127 0 -0.0019171136587023034 0.025139836942958516 0 -0.0026093608780927376 0.025363071385855203 0 -0.0021429591995449026 0.025356549277470778 0 -0.0022856311025065113 0.024999958022217127 0 -0.002285459237390442 0.024999999827017175 0 -0.0018036614733345914 0.025165367991270962 0 -0.001859790680078939 0.024999998830382491 0 -0.0022852450208972067 0.024999979135762958 0 -0.0017054866151612728 0.025048239814443728 0 -0.0017054866151612728 0.025048239814443728 0 -0.0014219822346745736 0.025129821797787347 0 -0.0021429591995449026 0.025356549277470778 0 -0.0019171136587023034 0.025139836942958516 0 -0.0018554985538793453 0.025320713465856626 0 -0.0010791758688352918 0.024999998094284714 0 -0.0018031762482415444 0.025165260861769064 0 -0.0018597869271225365 0.02499999863001286 0 -0.0010158562446734977 0.025165961924257164 0 -0.0014978784264723006 0.025000540049142216 0 -0.0014240843342129006 0.025217717194643528 0 -0.0017054866151612728 0.025048239814443728 0 -0.0018594026807073664 0.025000031602385037 0 -0.001959773910641829 0.02524820071417759 0 -0.0014219822346745736 0.025129821797787347 0 -0.00088656865664842781 0.025919642406836672 0 -0.0014219822346745736 0.025129821797787347 0 -0.0015871357498504527 0.026031296676616623 0 -0.002168342040616261 0.025941519295695919 0 -0.0013279655076200347 0.026761687712697678 0 -0.0015871357498504527 0.026031296676616623 0 -0.0018363940477508643 0.025312864541256305 0 -0.002168342040616261 0.025941519295695919 0 -0.0029207499842576938 0.025799394475087611 0 -0.0027030688237034859 0.026551802720786204 0 -0.0036051696783740584 0.026338637119282499 0 -0.0024606264037071177 0.025614017815238789 0 -0.002168342040616261 0.025941519295695919 0 -0.0029207499842576938 0.025799394475087611 0 -0.002168342040616261 0.025941519295695919 0 -0.0029207499842576938 0.025799394475087611 0 -0.0027030688237034859 0.026551802720786204 0 -0.0029722768766606545 0.026419208724647914 0 -0.0028259351571912352 0.026611007884166833 0 -0.0036729092699402553 0.027127337790803095 0 -0.0019057998217531238 0.025646750573712004 0 -0.0016080290575420314 0.025150776540590402 0 -0.0002487014603462875 0.024755220510548993 0 -6.6236635197752314e-05 0.025008814384814292 0 9.7680898128946065e-05 0.02490572349209608 0 -0.0016080290575420314 0.025150776540590402 0 -0.00088499667699908102 0.024837752524777396 0 -0.0019057998217531238 0.025646750573712004 0 7.5941983436094953e-05 0.026021946479839967 0 -0.002168342040616261 0.025941519295695919 0 -0.0027030688237034859 0.026551802720786204 0 -0.0013279655076200347 0.026761687712697678 0 9.7680898128946065e-05 0.02490572349209608 0 0.00055541476387548669 0.025214598174652748 0 0.0010255142943854424 0.024954896414636236 0 -0.0002487014603462875 0.024755220510548993 0 9.7680898128946065e-05 0.02490572349209608 0 0.0010255142943854424 0.024954896414636236 0 -5.8977741784521125e-05 0.025006688644503925 0 9.7680898128946065e-05 0.02490572349209608 0 0.00055541476387548669 0.025214598174652748 0 -0.0016080290575420314 0.025150776540590402 0 -0.00049267345212787789 0.02464837118594683 0 -5.8977741784521125e-05 0.025006688644503925 0 0.00055541476387548669 0.025214598174652748 0 0.00052601657187342278 0.025719194843118985 0 0.00055541476387548669 0.025214598174652748 0 0.00052601657187342278 0.025719194843118985 0 0.00087968802577800982 0.025445950399463641 0 -0.0019736876607961929 0.02321014702214691 0 -0.0015236728750609913 0.023796339800213884 0 -0.002232593741872204 0.023921609457578145 0 -0.0016080290575420314 0.025150776540590402 0 -0.0034348732883737409 0.025411570274574417 0 -0.0019736876607961929 0.02321014702214691 0 -0.002232593741872204 0.023921609457578145 0 -0.0028101003834816772 0.023713080354634906 0 0.0017104909287381773 0.025115357848705888 0 0.0010598066455829488 0.025060076838459892 0 0.0013854209884626057 0.025335308782202897 0 0.00058771659038509038 0.025894384769853097 0 0.00087678544938431485 0.02657778883431949 0 3.2342833308408465e-05 0.026450656529286756 0 0.0013362340152608622 0.025846194287220209 0 7.5941983436094953e-05 0.026021946479839967 0 0.0014396332030289108 0.026003781806842298 0 0.00058771659038509038 0.025894384769853097 0 0.00087678544938431485 0.02657778883431949 0 -0.00088656865664842781 0.025919642406836672 0 7.5941983436094953e-05 0.026021946479839967 0 0.0017104909287381773 0.025115357848705888 0 0.0010276373056028268 0.024966284649856573 0 0.0010598066455829488 0.025060076838459892 0 0.00055541476387548669 0.025214598174652748 0 0.0010255142943854424 0.024954896414636236 0 0.00092945493647580697 0.025201514008969379 0 0.0010255142943854424 0.024954896414636236 0 0.00092945493647580697 0.025201514008969379 0 0.0010598066455829488 0.025060076838459892 0 7.5941983436094953e-05 0.026021946479839967 0 0.00010449973623359368 0.025863645209878487 0 0.00092945493647580697 0.025201514008969379 0 0.0010598066455829488 0.025060076838459892 0 0.001121769554586805 0.02532164439270846 0 0.0010598066455829488 0.025060076838459892 0 0.001121769554586805 0.02532164439270846 0 0.0013854209884626057 0.025335308782202897 0 0.001121769554586805 0.02532164439270846 0 0.00087968802577800982 0.025445950399463641 0 0.0013001779154646488 0.025692257678551884 0 0.00052601657187342278 0.025719194843118985 0 0.00087968802577800982 0.025445950399463641 0 0.0013001779154646488 0.025692257678551884 0 0.001121769554586805 0.02532164439270846 0 0.0013001779154646488 0.025692257678551884 0 0.0013854209884626057 0.025335308782202897 0 0.00055541476387548669 0.025214598174652748 0 0.00092945493647580697 0.025201514008969379 0 0.00087968802577800982 0.025445950399463641 0 0.00092945493647580697 0.025201514008969379 0 0.001121769554586805 0.02532164439270846 0 0.00087968802577800982 0.025445950399463641 0 0.0013001779154646488 0.025692257678551884 0 0.0017132001445400342 0.025530746350561954 0 0.001727744074252441 0.025882984422682009 0 0.0013001779154646488 0.025692257678551884 0 0.0013854209884626057 0.025335308782202897 0 0.0017132001445400342 0.025530746350561954 0 0.0017104909287381773 0.025115357848705888 0 0.0013854209884626057 0.025335308782202897 0 0.0017132001445400342 0.025530746350561954 0 0.0019881718715850302 0.025393881037303303 0 0.0017104909287381773 0.025115357848705888 0 0.0017132001445400342 0.025530746350561954 0 0.0020935302332959847 0.025682673789245252 0 0.0017132001445400342 0.025530746350561954 0 0.001727744074252441 0.025882984422682009 0 0.0021235004496550996 0.026057742053412988 0 0.001727744074252441 0.025882984422682009 0 0.0018055500232758552 0.026295898017936123 0 0.0013001779154646488 0.025692257678551884 0 0.001727744074252441 0.025882984422682009 0 0.0010745135408421894 0.026374608479433272 0 0.001727744074252441 0.025882984422682009 0 0.0018055500232758552 0.026295898017936123 0 0.0010745135408421894 0.026374608479433272 0 0.0021193386602985169 0.026310540390922288 0 8.6822480629680752e-05 0.02523894263271214 0 8.6822480629680752e-05 0.02523894263271214 0 0.00099475578257114455 0.026516254025163197 0 0.0022483111443932246 0.026431355339938768 0 0.0018055500232758552 0.026295898017936123 0 0.0017982030142945848 0.026753949327322207 0 0.0018055500232758552 0.026295898017936123 0 0.0014116302268095968 0.02630800841894608 0 0.0017982030142945848 0.026753949327322207 0 -0.00072222951090146926 0.024177887552468011 0 -0.00015335033162277873 0.024935015746306247 0 -0.00095981776133738123 0.025009594225953589 0 0.00052601657187342278 0.025719194843118985 0 0.0013001779154646488 0.025692257678551884 0 0.0010745135408421894 0.026374608479433272 0 -0.00049267345212787789 0.02464837118594683 0 8.6822480629680752e-05 0.02523894263271214 0 -0.0015236728750609913 0.023796339800213884 0 -0.002232593741872204 0.023921609457578145 0 -0.0018256925259758703 0.024441279463676708 0 -0.0015236728750609913 0.023796339800213884 0 -0.00105651365124981 0.024415934264876274 0 -0.0018256925259758703 0.024441279463676708 0 8.6822480629680752e-05 0.02523894263271214 0 -0.0018896290457355873 0.024273819848977522 0 -0.002232593741872204 0.023921609457578145 0 -0.0018256925259758703 0.024441279463676708 0 -0.0025714301381932112 0.024448702752100628 0 -0.0015794250365587347 0.024226095400640062 0 -0.0017140543285634987 0.025111091940854906 0 -0.0024472026416015144 0.024302353591748913 0 -0.0018896290457355873 0.024273819848977522 0 -0.0024751048387293313 0.024380111158805742 0 -0.0015794250365587347 0.024226095400640062 0 -0.0017140543285634987 0.025111091940854906 0 -0.00095981776133738123 0.025009594225953589 0 -0.00072222951090146926 0.024177887552468011 0 -0.0015794250365587347 0.024226095400640062 0 -0.00095981776133738123 0.025009594225953589 0 -0.0017140543285634987 0.025111091940854906 0 -0.0012186097772088934 0.025836859306915483 0 -0.00095981776133738123 0.025009594225953589 0 -0.0017140543285634987 0.025111091940854906 0 -0.0024075771260436028 0.025152205199979735 0 -0.0024472026416015144 0.024302353591748913 0 -0.0017140543285634987 0.025111091940854906 0 -0.0020609300031628973 0.025925592857833104 0 -0.0024075771260436028 0.025152205199979735 0 -0.0017140543285634987 0.025111091940854906 0 -0.0020609300031628973 0.025925592857833104 0 -0.0012186097772088934 0.025836859306915483 0 -0.0023903812553616784 0.021197668419714478 0 8.6253706201340924e-05 0.021033785369483259 0 0.00080107847524970134 0.016250221261680665 0 0.0014449664422151304 0.016295727255476969 0 0.0011015780060405621 0.016506133962725482 0 0.00080107847524970134 0.016250221261680665 0 0.0014449664422151304 0.016295727255476969 0 0.0014855081013930918 0.016263471123395629 0 -0.0012186097772088934 0.025836859306915483 0 -0.00039339976374844551 0.025743621421245335 0 -0.00095981776133738123 0.025009594225953589 0 8.6253706201340924e-05 0.021033785369483259 0 0.00025456236729055871 0.020935855272262969 0 0.00079967861255319508 0.016384572330239128 0 0.0014855081013930918 0.016263471123395629 0 0.0012245771369253401 0.016081185082184611 0 0.0017342981209322527 0.022379546254610496 0 0.00025456236729055871 0.020935855272262969 0 0.0014449664422151304 0.016295727255476969 0 0.0014855081013930918 0.016263471123395629 0 0.0012245771369253401 0.016081185082184611 0 0.00040837151957330515 0.025651700668477492 0 -0.00039339976374844551 0.025743621421245335 0 -0.00015335033162277873 0.024935015746306247 0 0.0017342981209322527 0.022379546254610496 0 0.00099475578257114455 0.026516254025163197 0 -0.00039339976374844551 0.025743621421245335 0 -0.00015335033162277873 0.024935015746306247 0 -0.00095981776133738123 0.025009594225953589 0 -0.0068960000273424931 0.025882231125013585 0 -0.0069305825751449102 0.025659664347386771 0 -0.0073467923064230852 0.025822360378490554 0 -0.0068960000273424931 0.025882231125013585 0 -0.0069305825751449102 0.025659664347386771 0 -0.0066256976890753548 0.025971679517925887 0 -0.0069305825751449102 0.025659664347386771 0 -0.0073467923064230852 0.025822360378490554 0 -0.0074267699059335475 0.025674562546008927 0 -0.0053682059257089644 0.025234805220501175 0 -0.0060869537300678829 0.025935752849291147 0 -0.0073467923064230852 0.025822360378490554 0 -0.0074267699059335475 0.025674562546008927 0 -0.0074481998900418874 0.025829805212024975 0 -0.0073467923064230852 0.025822360378490554 0 -0.0073993773460134197 0.025767932444576234 0 -0.0074481998900418874 0.025829805212024975 0 -0.0079242517904228715 0.027584287697525297 0 -0.0064689151464619168 0.018487006880477892 0 -0.0074666771502626033 0.02571525019701848 0 -0.0069126726933627083 0.02605846886877242 0 -0.0073467923064230852 0.025822360378490554 0 -0.007457237909959457 0.025624830464745667 0 -0.0077162640614814489 0.025704676730516407 0 -0.007457237909959457 0.025624830464745667 0 -0.0073993773460134197 0.025767932444576234 0 -0.007412100164734408 0.025738337330484303 0 -0.0073467923064230852 0.025822360378490554 0 -0.007457237909959457 0.025624830464745667 0 -0.0073993773460134197 0.025767932444576234 0 -0.007457237909959457 0.025624830464745667 0 -0.0077162640614814489 0.025704676730516407 0 -0.0071337698030214296 0.024755124241079885 0 -0.0077162640614814489 0.025704676730516407 0 -0.0084604995864402226 0.024877596967777606 0 -0.0071337698030214296 0.024755124241079885 0 -0.0068960000273424931 0.025882231125013585 0 -0.0073467923064230852 0.025822360378490554 0 -0.0070530214534661817 0.026053400275405557 0 -0.0068960000273424931 0.025882231125013585 0 -0.0070530214534661817 0.026053400275405557 0 -0.0068250029704022162 0.026070182031038381 0 -0.0068960000273424931 0.025882231125013585 0 -0.0068250029704022162 0.026070182031038381 0 -0.0066256976890753548 0.025971679517925887 0 -0.0068250029704022162 0.026070182031038381 0 -0.0066256976890753548 0.025971679517925887 0 -0.0067169972938208502 0.026387348558352387 0 -0.0069126726933627083 0.02605846886877242 0 -0.0056098070324563697 0.019385084832405926 0 -0.0070530214534661817 0.026053400275405557 0 -0.0068250029704022162 0.026070182031038381 0 -0.0067169972938208502 0.026387348558352387 0 -0.006365261957411621 0.026141001558114368 0 -0.0059863850536679176 0.026343828388659653 0 -0.0067169972938208502 0.026387348558352387 0 -0.006365261957411621 0.026141001558114368 0 -0.0066256976890753548 0.025971679517925887 0 -0.0067169972938208502 0.026387348558352387 0 -0.006365261957411621 0.026141001558114368 0 -0.0061059661100419625 0.025854739965853125 0 -0.0059863850536679176 0.026343828388659653 0 -0.006365261957411621 0.026141001558114368 0 -0.0061059661100419625 0.025854739965853125 0 -0.0066256976890753548 0.025971679517925887 0 -0.005144896165468666 0.026212578387943938 0 -0.0061059661100419625 0.025854739965853125 0 -0.0059863850536679176 0.026343828388659653 0 -0.0020609300031628973 0.025925592857833104 0 -0.0029318990073970734 0.025517961561366442 0 -0.0024075771260436028 0.025152205199979735 0 -0.0023903812553616784 0.021197668419714478 0 -0.0043467609861475697 0.020799009879707741 0 -0.0023903812553616784 0.021197668419714478 0 -0.0045172625564161 0.026279125132795088 0 -0.0029318990073970734 0.025517961561366442 0 -0.0028767730760995134 0.024886166532728255 0 -0.0024075771260436028 0.025152205199979735 0 -0.0069305825751449102 0.025659664347386771 0 -0.0061059661100419625 0.025854739965853125 0 -0.0066256976890753548 0.025971679517925887 0 -0.0053682059257089644 0.025234805220501175 0 -0.0045172625564161 0.026279125132795088 0 -0.0037593645012238691 0.02511759421745249 0 -0.0029318990073970734 0.025517961561366442 0 -0.0028767730760995134 0.024886166532728255 0 -0.0037593645012238691 0.02511759421745249 0 -0.0028767730760995134 0.024886166532728255 0 -0.0032932989192207443 0.024427088563724001 0 -0.0028767730760995134 0.024886166532728255 0 -0.0024075771260436028 0.025152205199979735 0 -0.0024472026416015144 0.024302353591748913 0 -0.0028767730760995134 0.024886166532728255 0 -0.0032932989192207443 0.024427088563724001 0 -0.0024472026416015144 0.024302353591748913 0 -0.0032384998053642897 0.024421202061674956 0 -0.0024751048387293313 0.024380111158805742 0 -0.002232593741872204 0.023921609457578145 0 -0.0025714301381932112 0.024448702752100628 0 -0.0029526822462650928 0.024142038140042288 0 -0.002232593741872204 0.023921609457578145 0 -0.0029526822462650928 0.024142038140042288 0 -0.0028101003834816772 0.023713080354634906 0 -0.0032932989192207443 0.024427088563724001 0 -0.0025714301381932112 0.024448702752100628 0 -0.0029526822462650928 0.024142038140042288 0 -0.0029526822462650928 0.024142038140042288 0 -0.0036459254637679758 0.024167888284846308 0 -0.0028101003834816772 0.023713080354634906 0 -0.0032932989192207443 0.024427088563724001 0 -0.0029526822462650928 0.024142038140042288 0 -0.0036459254637679758 0.024167888284846308 0 -0.0038504581603117081 0.0259268991340432 0 -0.0034348732883737409 0.025411570274574417 0 -0.0037593645012238691 0.02511759421745249 0 -0.0032932989192207443 0.024427088563724001 0 -0.0037467555122836006 0.02463288798388294 0 -0.0036459254637679758 0.024167888284846308 0 -0.0037467555122836006 0.02463288798388294 0 -0.0045714206742606452 0.024720323143090344 0 -0.0032932989192207443 0.024427088563724001 0 -0.0036459254637679758 0.024167888284846308 0 -0.0037467555122836006 0.02463288798388294 0 -0.0037593645012238691 0.02511759421745249 0 -0.0037467555122836006 0.02463288798388294 0 -0.0045714206742606452 0.024720323143090344 0 -0.0038504581603117081 0.0259268991340432 0 -0.0060869537300678829 0.025935752849291147 0 -0.0053614154624287043 0.028109096757488156 0 -0.0049008321036053664 0.027115539273832655 0 -0.0055283231873452694 0.027126966725653186 0 -0.004532816260859285 0.027619120168244436 0 -0.0053614154624287043 0.028109096757488156 0 -0.0049008321036053664 0.027115539273832655 0 -0.0049008321036053664 0.027115539273832655 0 -0.004996639284942748 0.026497101985719734 0 -0.0055283231873452694 0.027126966725653186 0 -0.0054548343841883239 0.026509411293166796 0 -0.0061110005958840393 0.027004792284671248 0 -0.004532816260859285 0.027619120168244436 0 -0.0049008321036053664 0.027115539273832655 0 -0.004365906696396693 0.026765924341101876 0 -0.0049008321036053664 0.027115539273832655 0 -0.004996639284942748 0.026497101985719734 0 -0.004365906696396693 0.026765924341101876 0 -0.004996639284942748 0.026497101985719734 0 -0.004365906696396693 0.026765924341101876 0 -0.0044801024707428957 0.02582640949194449 0 -0.004532816260859285 0.027619120168244436 0 -0.0036729092699402553 0.027127337790803095 0 -0.004365906696396693 0.026765924341101876 0 -0.004365906696396693 0.026765924341101876 0 -0.0036051696783740584 0.026338637119282499 0 -0.0044801024707428957 0.02582640949194449 0 -0.0036729092699402553 0.027127337790803095 0 -0.004365906696396693 0.026765924341101876 0 -0.0036051696783740584 0.026338637119282499 0 -0.0029722768766606545 0.026419208724647914 0 -0.0036729092699402553 0.027127337790803095 0 -0.0036051696783740584 0.026338637119282499 0 -0.0019057998217531238 0.025646750573712004 0 -0.0038208772878126534 0.026379483991327946 0 -0.0029207499842576938 0.025799394475087611 0 -0.0036051696783740584 0.026338637119282499 0 -0.0036713795297983226 0.025667259366149567 0 -0.0036051696783740584 0.026338637119282499 0 -0.0036713795297983226 0.025667259366149567 0 -0.0044801024707428957 0.02582640949194449 0 -0.0039675351900466229 0.025000044066731203 0 -0.0036713795297983226 0.025667259366149567 0 -0.0044801024707428957 0.02582640949194449 0 -0.0039679273337516483 0.025000013434071971 0 -0.004911425265419312 0.025861414510341962 0 -0.0052202620317395379 0.024999898294976234 0 -0.0039679791755656184 0.025000133920554984 0 -0.004689943524586686 0.025820304422049568 0 -0.0039675351900466229 0.025000044066731203 0 -0.0036713795297983226 0.025667259366149567 0 -0.0031267132881602766 0.024999933376367786 0 -0.0029207499842576938 0.025799394475087611 0 -0.0036713795297983226 0.025667259366149567 0 -0.0031267132881602766 0.024999933376367786 0 -0.0059203988562276195 0.026565821163463822 0 -0.006148733857680078 0.025733880641804312 0 -0.0069632997635992169 0.026192956715912596 0 -0.0059203988562276195 0.026565821163463822 0 -0.006148733857680078 0.025733880641804312 0 -0.004911425265419312 0.025861414510341962 0 -0.0054548343841883239 0.026509411293166796 0 -0.004689943524586686 0.025820304422049568 0 -0.006148733857680078 0.025733880641804312 0 -0.004911425265419312 0.025861414510341962 0 -0.0052202620317395379 0.024999898294976234 0 -0.006148733857680078 0.025733880641804312 0 -0.0052202620317395379 0.024999898294976234 0 -0.0064723620528848724 0.02499992893639225 0 -0.006148733857680078 0.025733880641804312 0 -0.0064723620528848724 0.02499992893639225 0 -0.0070233361122742323 0.025588863544757864 0 -0.006148733857680078 0.025733880641804312 0 -0.0070233361122742323 0.025588863544757864 0 -0.0069632997635992169 0.026192956715912596 0 -0.0070233361122742323 0.025588863544757864 0 -0.0069632997635992169 0.026192956715912596 0 -0.0078028987709889116 0.025932658111094024 0 -0.0069632997635992169 0.026192956715912596 0 -0.0078028987709889116 0.025932658111094024 0 -0.007568647667311067 0.026495817030598192 0 -0.0070233361122742323 0.025588863544757864 0 -0.0077243601216474148 0.024999928470442908 0 -0.0078028987709889116 0.025932658111094024 0 -0.0064723620528848724 0.02499992893639225 0 -0.0070233361122742323 0.025588863544757864 0 -0.0077243601216474148 0.024999928470442908 0 -0.0077243601216474148 0.024999928470442908 0 -0.0078028987709889116 0.025932658111094024 0 -0.0085043975545506315 0.025687008525427098 0 -0.0077243601216474148 0.024999928470442908 0 -0.0089764870356551299 0.024999885781351889 0 -0.0085043975545506315 0.025687008525427098 0 -0.0089764870356551299 0.024999885781351889 0 -0.0085043975545506315 0.025687008525427098 0 -0.0095128996869557718 0.026078084957070955 0 -0.0085043975545506315 0.025687008525427098 0 -0.0084804386452038086 0.026392779138047415 0 -0.0095128996869557718 0.026078084957070955 0 -0.0078028987709889116 0.025932658111094024 0 -0.0085043975545506315 0.025687008525427098 0 -0.0084804386452038086 0.026392779138047415 0 -0.0078028987709889116 0.025932658111094024 0 -0.0084804386452038086 0.026392779138047415 0 -0.007568647667311067 0.026495817030598192 0 -0.0081711207944878302 0.027025570989068725 0 -0.0073895759411817148 0.02677259927396352 0 -0.007568647667311067 0.026495817030598192 0 -0.0084804386452038086 0.026392779138047415 0 -0.0081711207944878302 0.027025570989068725 0 -0.007568647667311067 0.026495817030598192 0 -0.0084804386452038086 0.026392779138047415 0 -0.0089052216591105817 0.027103107017505016 0 -0.0081711207944878302 0.027025570989068725 0 -0.0084804386452038086 0.026392779138047415 0 -0.0089052216591105817 0.027103107017505016 0 -0.0095128996869557718 0.026078084957070955 0 -0.008260687567534581 0.026911749175948553 0 -0.007685958768066296 0.026819880488923645 0 -0.0070754829458820204 0.026515650230067682 0 -0.0071042084423823017 0.026441950830350752 0 -0.0072607486120992047 0.026638565710042392 0 -0.008260687567534581 0.026911749175948553 0 -0.0079860840397230886 0.026767616730462532 0 -0.0071042084423823017 0.026441950830350752 0 -0.0072607486120992047 0.026638565710042392 0 -0.0072176825358084172 0.026515004257279751 0 -0.007169961722665005 0.026475755674028351 0 -0.0071042084423823017 0.026441950830350752 0 -0.0072176825358084172 0.026515004257279751 0 -0.007169961722665005 0.026475755674028351 0 -0.0072176825358084172 0.026515004257279751 0 -0.0072060933356519075 0.026459550004694979 0 -0.0070854461303330582 0.026151810108294354 0 -0.0071042084423823017 0.026441950830350752 0 -0.0073091861153411165 0.026556910361346057 0 -0.0071913754977054999 0.026496852753198748 0 -0.007219941080908749 0.026479609317053975 0 -0.0071974753730027728 0.026461502103970531 0 -0.007169961722665005 0.026475755674028351 0 -0.0071042084423823017 0.026441950830350752 0 -0.0071913754977054999 0.026496852753198748 0 -0.007169961722665005 0.026475755674028351 0 -0.0071913754977054999 0.026496852753198748 0 -0.0071974753730027728 0.026461502103970531 0 -0.0071913754977054999 0.026496852753198748 0 -0.0073091861153411165 0.026556910361346057 0 -0.007219941080908749 0.026479609317053975 0 -0.0072077419491029327 0.026475477146315495 0 -0.0073091861153411165 0.026556910361346057 0 -0.007219941080908749 0.026479609317053975 0 -0.0071042084423823017 0.026441950830350752 0 -0.0071913754977054999 0.026496852753198748 0 -0.0073091861153411165 0.026556910361346057 0 -0.0072607486120992047 0.026638565710042392 0 -0.0073147583314419487 0.026619447322504656 0 -0.0073895759411817148 0.02677259927396352 0 -0.007685958768066296 0.026819880488923645 0 -0.0074793450337886118 0.026793468107633913 0 -0.0072176825358084172 0.026515004257279751 0 -0.0073147583314419487 0.026619447322504656 0 -0.0072548151464460605 0.026470515686821277 0 -0.0072607486120992047 0.026638565710042392 0 -0.0072176825358084172 0.026515004257279751 0 -0.0073147583314419487 0.026619447322504656 0 -0.0073147583314419487 0.026619447322504656 0 -0.0073895759411817148 0.02677259927396352 0 -0.0072598200724527618 0.026753365013336999 0 -0.0073895759411817148 0.02677259927396352 0 -0.0072598200724527618 0.026753365013336999 0 -0.0070369301936202772 0.026679579958188846 0 -0.0059203988562276195 0.026565821163463822 0 -0.0068110110041417543 0.026907118235708242 0 -0.0070369301936202772 0.026679579958188846 0 -0.0072598200724527618 0.026753365013336999 0 -0.0068110110041417543 0.026907118235708242 0 -0.0070369301936202772 0.026679579958188846 0 -0.0059203988562276195 0.026565821163463822 0 -0.0069632997635992169 0.026192956715912596 0 -0.0070369301936202772 0.026679579958188846 0 -0.0069632997635992169 0.026192956715912596 0 -0.0070369301936202772 0.026679579958188846 0 -0.007568647667311067 0.026495817030598192 0 -0.0073895759411817148 0.02677259927396352 0 -0.0070369301936202772 0.026679579958188846 0 -0.007568647667311067 0.026495817030598192 0 -0.011933040527465483 0.025986679868732016 0 -0.011401794775169772 0.024999991502987456 0 -0.012574798745164772 0.02499998978062163 0 -0.011933040527465483 0.025986679868732016 0 -0.011401794775169772 0.024999991502987456 0 -0.010829669195428613 0.025690124385028393 0 -0.011933040527465483 0.025986679868732016 0 -0.010829669195428613 0.025690124385028393 0 -0.011041586198866055 0.026588370278928866 0 -0.010829669195428613 0.025690124385028393 0 -0.0096880304480792875 0.026247742782605298 0 -0.011041586198866055 0.026588370278928866 0 -0.011401794775169772 0.024999991502987456 0 -0.010829669195428613 0.025690124385028393 0 -0.01022882711215785 0.024999988433026928 0 -0.010829669195428613 0.025690124385028393 0 -0.01022882711215785 0.024999988433026928 0 -0.0096880304480792875 0.026247742782605298 0 -0.0089764870356551299 0.024999885781351889 0 -0.010228584031810145 0.024999976345418236 0 -0.0095128996869557718 0.026078084957070955 0 -0.010228638203403381 0.025000125012032238 0 -0.0097027744423990609 0.026206296655408714 0 -0.0091368303252915579 0.027498993514477495 0 -0.0096880304480792875 0.026247742782605298 0 -0.010547165762117124 0.027541259450127559 0 -0.008260687567534581 0.026911749175948553 0 -0.0097027744423990609 0.026206296655408714 0 -0.0073091861153411165 0.026556910361346057 0 -0.0087836377912973058 0.026035980962507074 0 -0.0075502729730937083 0.026761481138954393 0 -0.0070854461303330582 0.026151810108294354 0 -0.0073091861153411165 0.026556910361346057 0 -0.0087836377912973058 0.026035980962507074 0 -0.008260687567534581 0.026911749175948553 0 -0.0096392553507333618 0.026780771209559896 0 -0.0073945560354761438 0.026302056317316493 0 -0.0073273346364402794 0.026146531288263022 0 -0.0072077419491029327 0.026475477146315495 0 -0.0073091861153411165 0.026556910361346057 0 -0.0070806005580935014 0.026472965829337211 0 -0.0087836377912973058 0.026035980962507074 0 -0.0094596387180390651 0.027005809454357189 0 -0.0075502729730937083 0.026761481138954393 0 -0.0096880304480792875 0.026247742782605298 0 -0.010547165762117124 0.027541259450127559 0 -0.011041586198866055 0.026588370278928866 0 -0.011933040527465483 0.025986679868732016 0 -0.011041586198866055 0.026588370278928866 0 -0.011965309485834609 0.027580938409804863 0 -0.011933040527465483 0.025986679868732016 0 -0.011965309485834609 0.027580938409804863 0 -0.01315753270458732 0.026252156232559172 0 -0.010547165762117124 0.027541259450127559 0 -0.011041586198866055 0.026588370278928866 0 -0.011965309485834609 0.027580938409804863 0 -0.0087836377912973058 0.026035980962507074 0 -0.010844538002014384 0.026013733192057128 0 -0.0094596387180390651 0.027005809454357189 0 -0.0096392553507333618 0.026780771209559896 0 -0.011429754782842966 0.026793764470735677 0 -0.010844538002014384 0.026013733192057128 0 -0.011634880452409157 0.027243779531499469 0 -0.0094596387180390651 0.027005809454357189 0 -0.0092911146325153939 0.026140724430941831 0 -0.0099045082497705925 0.026310609692370271 0 -0.0092911146325153939 0.026140724430941831 0 -0.01224882631856769 0.025754308459511214 0 -0.0092984357492918081 0.025878001868896744 0 -0.012273115394076908 0.025025685513115462 0 -0.012416936733630224 0.027039394008402256 0 -0.011477102872394836 0.026655498762749186 0 -0.009387952590832702 0.026318991770130643 0 -0.011494127963705211 0.025882924598757052 0 -0.01010080903487881 0.027151174465631103 0 -0.0119230351283468 0.02664167937427675 0 -0.0092692452717264302 0.025667965935591126 0 -0.01010080903487881 0.027151174465631103 0 -0.0083507191278910254 0.026488375418548645 0 -0.011494127963705211 0.025882924598757052 0 -0.0092692452717264302 0.025667965935591126 0 -0.01010080903487881 0.027151174465631103 0 -0.0086427881680775625 0.026184901835871598 0 -0.0083034427894458796 0.026283381788856704 0 -0.0078089175142194182 0.025880779631369963 0 -0.0092911146325153939 0.026140724430941831 0 -0.0077809302427488316 0.026209640345456895 0 -0.0083280975975782521 0.025494172522031625 0 -0.0082593374459136153 0.025514815329759414 0 -0.0084086705335143421 0.025640038269733829 0 -0.0092911146325153939 0.026140724430941831 0 -0.007636778449058303 0.02583685119384857 0 -0.0066353361854924959 0.025966273668881403 0 -0.006911355655047381 0.026210712019045533 0 -0.0071129810194781682 0.025839734059869928 0 -0.007636778449058303 0.02583685119384857 0 -0.0068952979646519884 0.025835446617046263 0 -0.007636778449058303 0.02583685119384857 0 -0.0077809302427488316 0.026209640345456895 0 -0.009387952590832702 0.026318991770130643 0 -0.0073273346364402794 0.026146531288263022 0 -0.0092692452717264302 0.025667965935591126 0 -0.0083507191278910254 0.026488375418548645 0 -0.0070987069889156384 0.025457754337758123 0 -0.006911355655047381 0.026210712019045533 0 -0.0071470811355086863 0.026453852097763159 0 -0.0071113039540517103 0.026271371325383184 0 -0.0077809302427488316 0.026209640345456895 0 -0.0073273346364402794 0.026146531288263022 0 -0.006911355655047381 0.026210712019045533 0 -0.0071113039540517103 0.026271371325383184 0 -0.0070794329373756138 0.026077250440319832 0 -0.0071470811355086863 0.026453852097763159 0 -0.0071113039540517103 0.026271371325383184 0 -0.0071904819215993405 0.026391158195501065 0 -0.0072077419491029327 0.026475477146315495 0 -0.0071470811355086863 0.026453852097763159 0 -0.0071904819215993405 0.026391158195501065 0 -0.0072950950334783136 0.026170975107243651 0 -0.0073273346364402794 0.026146531288263022 0 -0.0071113039540517103 0.026271371325383184 0 -0.0071904819215993405 0.026391158195501065 0 -0.0071695311297310365 0.026223062732631225 0 -0.0071113039540517103 0.026271371325383184 0 -0.0070794329373756138 0.026077250440319832 0 -0.0071695311297310365 0.026223062732631225 0 -0.006911355655047381 0.026210712019045533 0 -0.0070794329373756138 0.026077250440319832 0 -0.0071129810194781682 0.025839734059869928 0 -0.0070794329373756138 0.026077250440319832 0 -0.0071129810194781682 0.025839734059869928 0 -0.0071848449247916731 0.026005431981556346 0 -0.0070794329373756138 0.026077250440319832 0 -0.0071695311297310365 0.026223062732631225 0 -0.0071848449247916731 0.026005431981556346 0 -0.0071129810194781682 0.025839734059869928 0 -0.0071848449247916731 0.026005431981556346 0 -0.0071877850628835763 0.025848202404539181 0 -0.0071129810194781682 0.025839734059869928 0 -0.0072190821345271576 0.025835869567749966 0 -0.0071877850628835763 0.025848202404539181 0 -0.0072190821345271576 0.025835869567749966 0 -0.0071877850628835763 0.025848202404539181 0 -0.0071952124801518795 0.025808178278012087 0 -0.0072190821345271576 0.025835869567749966 0 -0.0074076502449218302 0.025808675137265574 0 -0.0072940658530861163 0.025971231818885269 0 -0.0072190821345271576 0.025835869567749966 0 -0.0073233748400494125 0.025746717453440045 0 -0.0074076502449218302 0.025808675137265574 0 -0.0074271592097030978 0.025529225895764802 0 -0.0071129810194781682 0.025839734059869928 0 -0.0073233748400494125 0.025746717453440045 0 -0.0071129810194781682 0.025839734059869928 0 -0.0072190821345271576 0.025835869567749966 0 -0.0073233748400494125 0.025746717453440045 0 -0.007636778449058303 0.02583685119384857 0 -0.0081665193451493819 0.025594636843730249 0 -0.0074271592097030978 0.025529225895764802 0 -0.0075259449521682233 0.025700430582186299 0 -0.0078399869199387347 0.025608033565231208 0 -0.0074271592097030978 0.025529225895764802 0 -0.0073233748400494125 0.025746717453440045 0 -0.0075259449521682233 0.025700430582186299 0 -0.0073233748400494125 0.025746717453440045 0 -0.0075259449521682233 0.025700430582186299 0 -0.0074076502449218302 0.025808675137265574 0 -0.0075259449521682233 0.025700430582186299 0 -0.0074076502449218302 0.025808675137265574 0 -0.0076440567035575531 0.025829746066206121 0 -0.0074076502449218302 0.025808675137265574 0 -0.0076440567035575531 0.025829746066206121 0 -0.0074820219110935549 0.02595013869584873 0 -0.0075259449521682233 0.025700430582186299 0 -0.0076440567035575531 0.025829746066206121 0 -0.0078399869199387347 0.025608033565231208 0 -0.0076440567035575531 0.025829746066206121 0 -0.0079755388099062106 0.025894674915044276 0 -0.0078399869199387347 0.025608033565231208 0 -0.0083280975975782521 0.025494172522031625 0 -0.0084086705335143421 0.025640038269733829 0 -0.0085167540385594782 0.025544875332587296 0 -0.0074784764242229358 0.026092639713942621 0 -0.0074164778175756559 0.02609812680900947 0 -0.0074841931211595287 0.026207017933328584 0 -0.0074164778175756559 0.02609812680900947 0 -0.0074104575387450586 0.026226486427288944 0 -0.0073243703846935532 0.026124486321857484 0 -0.0074164778175756559 0.02609812680900947 0 -0.0074104575387450586 0.026226486427288944 0 -0.0074841931211595287 0.026207017933328584 0 -0.0074164778175756559 0.02609812680900947 0 -0.0073243703846935532 0.026124486321857484 0 -0.0073830479104080998 0.025944348948155203 0 -0.0074784764242229358 0.026092639713942621 0 -0.0074164778175756559 0.02609812680900947 0 -0.0074641202622179855 0.025965049886091395 0 -0.0074164778175756559 0.02609812680900947 0 -0.0074641202622179855 0.025965049886091395 0 -0.0073830479104080998 0.025944348948155203 0 -0.0076437465313453955 0.025959935104793372 0 -0.0074641202622179855 0.025965049886091395 0 -0.007503335134979785 0.025853122354279386 0 -0.0076437465313453955 0.025959935104793372 0 -0.0074784764242229358 0.026092639713942621 0 -0.0074641202622179855 0.025965049886091395 0 -0.0060869537300678829 0.025935752849291147 0 -0.0069446565286195323 0.027119866576205041 0 -0.0076437465313453955 0.025959935104793372 0 -0.0074784764242229358 0.026092639713942621 0 -0.0074841931211595287 0.026207017933328584 0 -0.0060869537300678829 0.025935752849291147 0 -0.0076111537679402772 0.026126490646385003 0 -0.0061110005958840393 0.027004792284671248 0 -0.0069446565286195323 0.027119866576205041 0 -0.0053614154624287043 0.028109096757488156 0 -0.0055283231873452694 0.027126966725653186 0 -0.0060696635096059662 0.027743330118276129 0 -0.0072598200724527618 0.026753365013336999 0 -0.0068110110041417543 0.026907118235708242 0 -0.0072608905464166939 0.02680780040143798 0 -0.0072598200724527618 0.026753365013336999 0 -0.0072608905464166939 0.02680780040143798 0 -0.0073321474842286674 0.02652082944056967 0 -0.0074104575387450586 0.026226486427288944 0 -0.0074841931211595287 0.026207017933328584 0 -0.0073321474842286674 0.02652082944056967 0 -0.0069446565286195323 0.027119866576205041 0 -0.0074816725275959955 0.026485056997776653 0 -0.0073147583314419487 0.026619447322504656 0 -0.0072598200724527618 0.026753365013336999 0 -0.0073321474842286674 0.02652082944056967 0 -0.0073147583314419487 0.026619447322504656 0 -0.0072548151464460605 0.026470515686821277 0 -0.0073321474842286674 0.02652082944056967 0 -0.0072176825358084172 0.026515004257279751 0 -0.0072548151464460605 0.026470515686821277 0 -0.0072060933356519075 0.026459550004694979 0 -0.0072548151464460605 0.026470515686821277 0 -0.007252866090110591 0.026306261937777225 0 -0.0073321474842286674 0.02652082944056967 0 -0.0072548151464460605 0.026470515686821277 0 -0.007252866090110591 0.026306261937777225 0 -0.0072118204755112622 0.026370988260803609 0 -0.007252866090110591 0.026306261937777225 0 -0.0073321474842286674 0.02652082944056967 0 -0.0073243703846935532 0.026124486321857484 0 -0.0071904819215993405 0.026391158195501065 0 -0.0071974753730027728 0.026461502103970531 0 -0.0072118204755112622 0.026370988260803609 0 -0.0071904819215993405 0.026391158195501065 0 -0.007219941080908749 0.026479609317053975 0 -0.0071974753730027728 0.026461502103970531 0 -0.0072077419491029327 0.026475477146315495 0 -0.0071904819215993405 0.026391158195501065 0 -0.007219941080908749 0.026479609317053975 0 -0.0072548151464460605 0.026470515686821277 0 -0.0072060933356519075 0.026459550004694979 0 -0.0072118204755112622 0.026370988260803609 0 -0.007169961722665005 0.026475755674028351 0 -0.0071974753730027728 0.026461502103970531 0 -0.0072060933356519075 0.026459550004694979 0 -0.0071974753730027728 0.026461502103970531 0 -0.0072060933356519075 0.026459550004694979 0 -0.0072118204755112622 0.026370988260803609 0 -0.007252866090110591 0.026306261937777225 0 -0.0072118204755112622 0.026370988260803609 0 -0.0072090755932802111 0.026209405826950347 0 -0.0072118204755112622 0.026370988260803609 0 -0.0071695311297310365 0.026223062732631225 0 -0.0072090755932802111 0.026209405826950347 0 -0.0071904819215993405 0.026391158195501065 0 -0.0072118204755112622 0.026370988260803609 0 -0.0071695311297310365 0.026223062732631225 0 -0.0071848449247916731 0.026005431981556346 0 -0.007247097584535369 0.026105551526449389 0 -0.0072650418776236125 0.02592529626752112 0 -0.0071695311297310365 0.026223062732631225 0 -0.0072090755932802111 0.026209405826950347 0 -0.0071848449247916731 0.026005431981556346 0 -0.007252866090110591 0.026306261937777225 0 -0.0072090755932802111 0.026209405826950347 0 -0.007247097584535369 0.026105551526449389 0 -0.0072090755932802111 0.026209405826950347 0 -0.0071848449247916731 0.026005431981556346 0 -0.007247097584535369 0.026105551526449389 0 -0.0073243703846935532 0.026124486321857484 0 -0.007247097584535369 0.026105551526449389 0 -0.0072650418776236125 0.02592529626752112 0 -0.0074104575387450586 0.026226486427288944 0 -0.0073321474842286674 0.02652082944056967 0 -0.0073243703846935532 0.026124486321857484 0 -0.007252866090110591 0.026306261937777225 0 -0.0073243703846935532 0.026124486321857484 0 -0.007247097584535369 0.026105551526449389 0 -0.0073243703846935532 0.026124486321857484 0 -0.0072650418776236125 0.02592529626752112 0 -0.0073830479104080998 0.025944348948155203 0 -0.0072650418776236125 0.02592529626752112 0 -0.0073201477657652038 0.025814667449017625 0 -0.0073830479104080998 0.025944348948155203 0 -0.0071848449247916731 0.026005431981556346 0 -0.0072650418776236125 0.02592529626752112 0 -0.0071877850628835763 0.025848202404539181 0 -0.0071877850628835763 0.025848202404539181 0 -0.0072355430319353065 0.025806298003356418 0 -0.0071952124801518795 0.025808178278012087 0 -0.0072650418776236125 0.02592529626752112 0 -0.0071877850628835763 0.025848202404539181 0 -0.0072355430319353065 0.025806298003356418 0 -0.0072355430319353065 0.025806298003356418 0 -0.0073201477657652038 0.025814667449017625 0 -0.0073079771638516 0.025712018733018094 0 -0.0072650418776236125 0.02592529626752112 0 -0.0072355430319353065 0.025806298003356418 0 -0.0073201477657652038 0.025814667449017625 0 -0.0073201477657652038 0.025814667449017625 0 -0.0073820879121066591 0.025762563339206866 0 -0.007409869575012786 0.02582299932345598 0 -0.0073201477657652038 0.025814667449017625 0 -0.0073820879121066591 0.025762563339206866 0 -0.0073079771638516 0.025712018733018094 0 -0.0073201477657652038 0.025814667449017625 0 -0.007409869575012786 0.02582299932345598 0 -0.0073830479104080998 0.025944348948155203 0 -0.0074641202622179855 0.025965049886091395 0 -0.0074451861501198431 0.025884632427248904 0 -0.0073830479104080998 0.025944348948155203 0 -0.007409869575012786 0.02582299932345598 0 -0.0074451861501198431 0.025884632427248904 0 -0.0073830479104080998 0.025944348948155203 0 -0.0074267699059335475 0.025674562546008927 0 -0.007503335134979785 0.025853122354279386 0 -0.0074481998900418874 0.025829805212024975 0 -0.0074641202622179855 0.025965049886091395 0 -0.0074451861501198431 0.025884632427248904 0 -0.007503335134979785 0.025853122354279386 0 -0.0074451861501198431 0.025884632427248904 0 -0.007503335134979785 0.025853122354279386 0 -0.0074481998900418874 0.025829805212024975 0 -0.007409869575012786 0.02582299932345598 0 -0.0074451861501198431 0.025884632427248904 0 -0.0074481998900418874 0.025829805212024975 0 -0.0073820879121066591 0.025762563339206866 0 -0.007412100164734408 0.025738337330484303 0 -0.0073986660758992174 0.02571261217677118 0 -0.007457237909959457 0.025624830464745667 0 -0.007412100164734408 0.025738337330484303 0 -0.0073986660758992174 0.02571261217677118 0 -0.0073993773460134197 0.025767932444576234 0 -0.0074481998900418874 0.025829805212024975 0 -0.007412100164734408 0.025738337330484303 0 -0.0073820879121066591 0.025762563339206866 0 -0.007409869575012786 0.02582299932345598 0 -0.007412100164734408 0.025738337330484303 0 -0.007409869575012786 0.02582299932345598 0 -0.0074481998900418874 0.025829805212024975 0 -0.007412100164734408 0.025738337330484303 0 -0.003803301838964563 0.011745625918599501 0 -0.0040690266450331795 0.011786486288491247 0 -0.0039487347809187313 0.011543076897159834 0 -0.0064689151464619168 0.018487006880477892 0 -0.0053977581113624565 0.018180888442358194 0 -0.0037086792232764797 0.011373264129211733 0 -0.0039487347809187313 0.011543076897159834 0 -0.0039630621286638919 0.01129155922457693 0 -0.003803301838964563 0.011745625918599501 0 -0.0037086792232764797 0.011373264129211733 0 -0.0039487347809187313 0.011543076897159834 0 -0.003803301838964563 0.011745625918599501 0 -0.0037086792232764797 0.011373264129211733 0 -0.0035086127017409149 0.011518136425045684 0 -0.0037086792232764797 0.011373264129211733 0 -0.0035086127017409149 0.011518136425045684 0 -0.0034811233859795023 0.011287494954028202 0 -0.0089003142785519518 0.012146650064607547 0 -0.0088949522480498994 0.012011729520712649 0 -0.00890107019572676 0.011953646759783365 0 -0.0064689151464619168 0.018487006880477892 0 -0.0057009108689542749 0.010801309271170435 0 -0.0073820879121066591 0.025762563339206866 0 -0.0073986660758992174 0.02571261217677118 0 -0.0073079771638516 0.025712018733018094 0 -0.0064689151464619168 0.018487006880477892 0 -0.0084840208624210982 0.018934142902199032 0 -0.0088949522480498994 0.012011729520712649 0 -0.0088367729432895347 0.011867103525029142 0 -0.00890107019572676 0.011953646759783365 0 -0.0072355430319353065 0.025806298003356418 0 -0.0073079771638516 0.025712018733018094 0 -0.0071952124801518795 0.025808178278012087 0 -0.0088949522480498994 0.012011729520712649 0 -0.008774656587232187 0.011949436775158565 0 -0.0088367729432895347 0.011867103525029142 0 -0.0084840208624210982 0.018934142902199032 0 -0.0078631780120188965 0.018869143152407411 0 -0.0088367729432895347 0.011867103525029142 0 -0.008821721397124456 0.011696761699692065 0 -0.00890107019572676 0.011953646759783365 0 -0.008774656587232187 0.011949436775158565 0 -0.0087774748194280588 0.011814624347160218 0 -0.0088367729432895347 0.011867103525029142 0 -0.0087774748194280588 0.011814624347160218 0 -0.0088367729432895347 0.011867103525029142 0 -0.008821721397124456 0.011696761699692065 0 -0.008821721397124456 0.011696761699692065 0 -0.0087370798878012614 0.01168677473072865 0 -0.0087576885832545016 0.0115502062312398 0 -0.0087774748194280588 0.011814624347160218 0 -0.008821721397124456 0.011696761699692065 0 -0.0087370798878012614 0.01168677473072865 0 -0.0071597003590936426 0.011478938937533899 0 -0.0057009108689542749 0.010801309271170435 0 -0.0032809305967214566 0.011339933031931562 0 -0.0035086127017409149 0.011518136425045684 0 -0.0034811233859795023 0.011287494954028202 0 -0.0032809305967214566 0.011339933031931562 0 -0.0034811233859795023 0.011287494954028202 0 -0.0034014980532398806 0.011120915106698019 0 -0.0034811233859795023 0.011287494954028202 0 -0.0034014980532398806 0.011120915106698019 0 -0.0035444738619540739 0.011102192004747831 0 -0.0088822528810658351 0.011600641008654612 0 -0.0088465898999250583 0.011391612408919942 0 -0.009057142743306542 0.011234318753624236 0 -0.0088465898999250583 0.011391612408919942 0 -0.008803191598846162 0.0112017901669612 0 -0.009057142743306542 0.011234318753624236 0 -0.0071597003590936426 0.011478938937533899 0 -0.0062895525886065198 0.011182038088413291 0 -0.0088822528810658351 0.011600641008654612 0 -0.0088465898999250583 0.011391612408919942 0 -0.0087576885832545016 0.0115502062312398 0 -0.0071597003590936426 0.011478938937533899 0 -0.008575109303753126 0.011875002677869822 0 -0.009057142743306542 0.011234318753624236 0 -0.0090066842773482911 0.010842494005131568 0 -0.0088357116033909739 0.010943690861785307 0 -0.008803191598846162 0.0112017901669612 0 -0.009057142743306542 0.011234318753624236 0 -0.0088357116033909739 0.010943690861785307 0 -0.0062895525886065198 0.011182038088413291 0 -0.004634378902511233 0.010676680984447609 0 -0.009057142743306542 0.011234318753624236 0 -0.0092056858490273067 0.010899614680314054 0 -0.0090066842773482911 0.010842494005131568 0 -0.0034014980532398806 0.011120915106698019 0 -0.0035444738619540739 0.011102192004747831 0 -0.0035267681849097368 0.010933498963289358 0 -0.0034876240873102623 0.011066504959003179 0 -0.004634378902511233 0.010676680984447609 0 -0.0035444738619540739 0.011102192004747831 0 -0.0037952180287980485 0.010857391687316052 0 -0.0034443120750371156 0.01077963186093378 0 -0.0035444738619540739 0.011102192004747831 0 -0.0037952180287980485 0.010857391687316052 0 -0.0037954999839126379 0.011139290673861862 0 -0.0037952180287980485 0.010857391687316052 0 -0.0037954999839126379 0.011139290673861862 0 -0.0039769851928696453 0.011063185081368563 0 -0.0037086792232764797 0.011373264129211733 0 -0.0037954999839126379 0.011139290673861862 0 -0.0039630621286638919 0.01129155922457693 0 -0.0037954999839126379 0.011139290673861862 0 -0.0039630621286638919 0.01129155922457693 0 -0.0039769851928696453 0.011063185081368563 0 -0.0037086792232764797 0.011373264129211733 0 -0.0034811233859795023 0.011287494954028202 0 -0.0035444738619540739 0.011102192004747831 0 -0.0037086792232764797 0.011373264129211733 0 -0.0035444738619540739 0.011102192004747831 0 -0.0037954999839126379 0.011139290673861862 0 -0.0080479887390794945 0.011720948542420817 0 -0.0079885908718453948 0.011554522004885189 0 -0.0078322076064188326 0.011959229027403876 0 -0.0080479887390794945 0.011720948542420817 0 -0.0081563700601654347 0.011924457175234469 0 -0.0078322076064188326 0.011959229027403876 0 -0.0080479887390794945 0.011720948542420817 0 -0.0081823045602193323 0.011690440240808991 0 -0.0081038679207480046 0.011603309924266678 0 -0.0080479887390794945 0.011720948542420817 0 -0.0081563700601654347 0.011924457175234469 0 -0.0081823045602193323 0.011690440240808991 0 -0.0079755388099062106 0.025894674915044276 0 -0.0076831955095879451 0.026155780834996787 0 -0.0081176082130902851 0.0260568670444759 0 -0.0076440567035575531 0.025829746066206121 0 -0.0079755388099062106 0.025894674915044276 0 -0.0076831955095879451 0.026155780834996787 0 -0.0076831955095879451 0.026155780834996787 0 -0.00834095058925516 0.026269275994287546 0 -0.0081176082130902851 0.0260568670444759 0 -0.0068430141293952243 0.018927270399017763 0 -0.013080151485456938 0.019704877033179326 0 -0.0076831955095879451 0.026155780834996787 0 -0.0074820219110935549 0.02595013869584873 0 -0.0072940658530861163 0.025971231818885269 0 -0.0068430141293952243 0.018927270399017763 0 -0.0081516317782312931 0.018975327943256577 0 -0.0076440567035575531 0.025829746066206121 0 -0.0076831955095879451 0.026155780834996787 0 -0.0074820219110935549 0.02595013869584873 0 -0.0081563700601654347 0.011924457175234469 0 -0.0083150467546499462 0.011740978975975456 0 -0.0084877634564031017 0.011928550128833806 0 -0.0081563700601654347 0.011924457175234469 0 -0.0081823045602193323 0.011690440240808991 0 -0.0083150467546499462 0.011740978975975456 0 -0.0081823045602193323 0.011690440240808991 0 -0.0083150467546499462 0.011740978975975456 0 -0.0082946289881366837 0.011552023159659672 0 -0.0083150467546499462 0.011740978975975456 0 -0.0084285046046253063 0.011640187567054042 0 -0.0082946289881366837 0.011552023159659672 0 -0.0083150467546499462 0.011740978975975456 0 -0.0084285046046253063 0.011640187567054042 0 -0.0084877634564031017 0.011928550128833806 0 -0.0085459707604371785 0.011662001277876899 0 -0.0084877634564031017 0.011928550128833806 0 -0.008668050726336583 0.011771838879889366 0 -0.0084285046046253063 0.011640187567054042 0 -0.0085459707604371785 0.011662001277876899 0 -0.0084877634564031017 0.011928550128833806 0 -0.0074076502449218302 0.025808675137265574 0 -0.0074820219110935549 0.02595013869584873 0 -0.0072940658530861163 0.025971231818885269 0 -0.0072190821345271576 0.025835869567749966 0 -0.0071952124801518795 0.025808178278012087 0 -0.0072940658530861163 0.025971231818885269 0 -0.0078631780120188965 0.018869143152407411 0 -0.0081516317782312931 0.018975327943256577 0 -0.008774656587232187 0.011949436775158565 0 -0.0084877634564031017 0.011928550128833806 0 -0.008668050726336583 0.011771838879889366 0 -0.008774656587232187 0.011949436775158565 0 -0.0087774748194280588 0.011814624347160218 0 -0.008668050726336583 0.011771838879889366 0 -0.0087774748194280588 0.011814624347160218 0 -0.008668050726336583 0.011771838879889366 0 -0.0087370798878012614 0.01168677473072865 0 -0.0085459707604371785 0.011662001277876899 0 -0.008668050726336583 0.011771838879889366 0 -0.0086456683597619498 0.011558744166779412 0 -0.008668050726336583 0.011771838879889366 0 -0.0087370798878012614 0.01168677473072865 0 -0.0086456683597619498 0.011558744166779412 0 -0.0087576885832545016 0.0115502062312398 0 -0.0086456683597619498 0.011558744166779412 0 -0.0087180135860274628 0.011380415171035581 0 -0.0087370798878012614 0.01168677473072865 0 -0.0087576885832545016 0.0115502062312398 0 -0.0086456683597619498 0.011558744166779412 0 -0.0088465898999250583 0.011391612408919942 0 -0.0087576885832545016 0.0115502062312398 0 -0.0087180135860274628 0.011380415171035581 0 -0.0086456683597619498 0.011558744166779412 0 -0.0085990853133364187 0.011350749798023791 0 -0.0085163511026561511 0.011480645976445521 0 -0.0086456683597619498 0.011558744166779412 0 -0.0085990853133364187 0.011350749798023791 0 -0.0087180135860274628 0.011380415171035581 0 -0.0085990853133364187 0.011350749798023791 0 -0.0087180135860274628 0.011380415171035581 0 -0.0086761875810159161 0.011236066597335845 0 -0.0088465898999250583 0.011391612408919942 0 -0.008803191598846162 0.0112017901669612 0 -0.0087180135860274628 0.011380415171035581 0 -0.008803191598846162 0.0112017901669612 0 -0.0086696838464364115 0.011051273488405974 0 -0.0086761875810159161 0.011236066597335845 0 -0.008803191598846162 0.0112017901669612 0 -0.0087180135860274628 0.011380415171035581 0 -0.0086761875810159161 0.011236066597335845 0 -0.008803191598846162 0.0112017901669612 0 -0.0086696838464364115 0.011051273488405974 0 -0.0088357116033909739 0.010943690861785307 0 -0.0085990853133364187 0.011350749798023791 0 -0.0086761875810159161 0.011236066597335845 0 -0.0085817300376799313 0.011182893387087453 0 -0.0086696838464364115 0.011051273488405974 0 -0.0086761875810159161 0.011236066597335845 0 -0.0085817300376799313 0.011182893387087453 0 -0.0085990853133364187 0.011350749798023791 0 -0.0085817300376799313 0.011182893387087453 0 -0.0084958894038798059 0.01131919275441234 0 -0.0085817300376799313 0.011182893387087453 0 -0.008472246386257801 0.011185391190081276 0 -0.0084958894038798059 0.01131919275441234 0 -0.0085817300376799313 0.011182893387087453 0 -0.008472246386257801 0.011185391190081276 0 -0.0084853900008463028 0.010960764148298704 0 -0.0086696838464364115 0.011051273488405974 0 -0.0085817300376799313 0.011182893387087453 0 -0.0084853900008463028 0.010960764148298704 0 -0.0083930293763926616 0.011113960485408022 0 -0.008472246386257801 0.011185391190081276 0 -0.0084853900008463028 0.010960764148298704 0 -0.0083930293763926616 0.011113960485408022 0 -0.0083183247867181336 0.010990521345645663 0 -0.0084853900008463028 0.010960764148298704 0 -0.0083930293763926616 0.011113960485408022 0 -0.008472246386257801 0.011185391190081276 0 -0.0083953561908557232 0.011280093165302452 0 -0.008472246386257801 0.011185391190081276 0 -0.0083953561908557232 0.011280093165302452 0 -0.0084958894038798059 0.01131919275441234 0 -0.0083953561908557232 0.011280093165302452 0 -0.0084085691081839924 0.011437395797280489 0 -0.0084958894038798059 0.01131919275441234 0 -0.0084085691081839924 0.011437395797280489 0 -0.0084958894038798059 0.01131919275441234 0 -0.0085163511026561511 0.011480645976445521 0 -0.0085990853133364187 0.011350749798023791 0 -0.0084958894038798059 0.01131919275441234 0 -0.0085163511026561511 0.011480645976445521 0 -0.0084285046046253063 0.011640187567054042 0 -0.0085459707604371785 0.011662001277876899 0 -0.0085163511026561511 0.011480645976445521 0 -0.0085459707604371785 0.011662001277876899 0 -0.0086456683597619498 0.011558744166779412 0 -0.0085163511026561511 0.011480645976445521 0 -0.0084285046046253063 0.011640187567054042 0 -0.0084085691081839924 0.011437395797280489 0 -0.0082946289881366837 0.011552023159659672 0 -0.0084285046046253063 0.011640187567054042 0 -0.0084085691081839924 0.011437395797280489 0 -0.0085163511026561511 0.011480645976445521 0 -0.0084085691081839924 0.011437395797280489 0 -0.0082946289881366837 0.011552023159659672 0 -0.0083169287856598613 0.011381537555784377 0 -0.0082946289881366837 0.011552023159659672 0 -0.0082239527672740894 0.01144774859566575 0 -0.0083169287856598613 0.011381537555784377 0 -0.0081823045602193323 0.011690440240808991 0 -0.0082946289881366837 0.011552023159659672 0 -0.0081765199999412012 0.011559222552571075 0 -0.0082946289881366837 0.011552023159659672 0 -0.0081765199999412012 0.011559222552571075 0 -0.0082239527672740894 0.01144774859566575 0 -0.0081765199999412012 0.011559222552571075 0 -0.0082239527672740894 0.01144774859566575 0 -0.0081348000341806195 0.011479751472222575 0 -0.0082239527672740894 0.01144774859566575 0 -0.008231933794078555 0.011306027089554941 0 -0.0083169287856598613 0.011381537555784377 0 -0.0082239527672740894 0.01144774859566575 0 -0.0081725385399212015 0.011390669313409431 0 -0.0081348000341806195 0.011479751472222575 0 -0.0082239527672740894 0.01144774859566575 0 -0.0081725385399212015 0.011390669313409431 0 -0.008231933794078555 0.011306027089554941 0 -0.0081725385399212015 0.011390669313409431 0 -0.008231933794078555 0.011306027089554941 0 -0.0081427455659746455 0.011239586417026499 0 -0.008231933794078555 0.011306027089554941 0 -0.0083169287856598613 0.011381537555784377 0 -0.0083146766880956655 0.011206760225371508 0 -0.0083953561908557232 0.011280093165302452 0 -0.0083169287856598613 0.011381537555784377 0 -0.0083146766880956655 0.011206760225371508 0 -0.0083953561908557232 0.011280093165302452 0 -0.0084085691081839924 0.011437395797280489 0 -0.0083169287856598613 0.011381537555784377 0 -0.0083930293763926616 0.011113960485408022 0 -0.0083953561908557232 0.011280093165302452 0 -0.0083146766880956655 0.011206760225371508 0 -0.0083930293763926616 0.011113960485408022 0 -0.0083146766880956655 0.011206760225371508 0 -0.0083183247867181336 0.010990521345645663 0 -0.0083146766880956655 0.011206760225371508 0 -0.0083183247867181336 0.010990521345645663 0 -0.0082369350498410678 0.011151456302895418 0 -0.0083183247867181336 0.010990521345645663 0 -0.0082369350498410678 0.011151456302895418 0 -0.0081658457186250481 0.011020918709667319 0 -0.0082369350498410678 0.011151456302895418 0 -0.0081427455659746455 0.011239586417026499 0 -0.0081658457186250481 0.011020918709667319 0 -0.008231933794078555 0.011306027089554941 0 -0.0083146766880956655 0.011206760225371508 0 -0.0082369350498410678 0.011151456302895418 0 -0.008231933794078555 0.011306027089554941 0 -0.0082369350498410678 0.011151456302895418 0 -0.0081427455659746455 0.011239586417026499 0 -0.0081427455659746455 0.011239586417026499 0 -0.0080603572032694366 0.011107213473691513 0 -0.0081658457186250481 0.011020918709667319 0 -0.0081427455659746455 0.011239586417026499 0 -0.0080603572032694366 0.011107213473691513 0 -0.008011197635150966 0.011277817551142919 0 -0.0080603572032694366 0.011107213473691513 0 -0.0081658457186250481 0.011020918709667319 0 -0.0080373551431133904 0.01079690663361943 0 -0.0080603572032694366 0.011107213473691513 0 -0.0080373551431133904 0.01079690663361943 0 -0.0079049761785494627 0.01113294596944682 0 -0.0080603572032694366 0.011107213473691513 0 -0.008011197635150966 0.011277817551142919 0 -0.0079049761785494627 0.01113294596944682 0 -0.008011197635150966 0.011277817551142919 0 -0.0079869661954144241 0.011531052197937942 0 -0.0079049761785494627 0.01113294596944682 0 -0.008011197635150966 0.011277817551142919 0 -0.0080213050836050771 0.011440400675044067 0 -0.0079869661954144241 0.011531052197937942 0 -0.008011197635150966 0.011277817551142919 0 -0.0080213050836050771 0.011440400675044067 0 -0.0080951684919239059 0.011382227497511476 0 -0.0081427455659746455 0.011239586417026499 0 -0.008011197635150966 0.011277817551142919 0 -0.0080951684919239059 0.011382227497511476 0 -0.0081725385399212015 0.011390669313409431 0 -0.0081427455659746455 0.011239586417026499 0 -0.0080951684919239059 0.011382227497511476 0 -0.0081725385399212015 0.011390669313409431 0 -0.0080951684919239059 0.011382227497511476 0 -0.0081348000341806195 0.011479751472222575 0 -0.0080951684919239059 0.011382227497511476 0 -0.0080654479150999922 0.011500461851196899 0 -0.0081348000341806195 0.011479751472222575 0 -0.0080213050836050771 0.011440400675044067 0 -0.0080951684919239059 0.011382227497511476 0 -0.0080654479150999922 0.011500461851196899 0 -0.0080654479150999922 0.011500461851196899 0 -0.0081038679207480046 0.011603309924266678 0 -0.0080282998473565036 0.011582827177723369 0 -0.0080654479150999922 0.011500461851196899 0 -0.0081348000341806195 0.011479751472222575 0 -0.0081038679207480046 0.011603309924266678 0 -0.0080479887390794945 0.011720948542420817 0 -0.0081038679207480046 0.011603309924266678 0 -0.0080282998473565036 0.011582827177723369 0 -0.0081765199999412012 0.011559222552571075 0 -0.0081348000341806195 0.011479751472222575 0 -0.0081038679207480046 0.011603309924266678 0 -0.0081823045602193323 0.011690440240808991 0 -0.0081765199999412012 0.011559222552571075 0 -0.0081038679207480046 0.011603309924266678 0 -0.0080479887390794945 0.011720948542420817 0 -0.0080282998473565036 0.011582827177723369 0 -0.0079885908718453948 0.011554522004885189 0 -0.0080213050836050771 0.011440400675044067 0 -0.0080654479150999922 0.011500461851196899 0 -0.0079727575936561108 0.011530668031030969 0 -0.0080654479150999922 0.011500461851196899 0 -0.0080282998473565036 0.011582827177723369 0 -0.0079727575936561108 0.011530668031030969 0 -0.011313835893699045 0.013952301436839542 0 -0.011822823934222145 0.014756096714642347 0 -0.010392338631510532 0.013572489403642826 0 -0.011822823934222145 0.014756096714642347 0 -0.0079337448723688243 0.00740781763537059 0 -0.0098338980541941168 0.010066102331962258 0 -0.0043769995078172747 -0.00056311674268840731 0 -0.0043467530294724393 0.00023422247917183461 0 -0.0052472430985450111 0.00034795051852317364 0 -0.0079337448723688243 0.00740781763537059 0 -0.0082227195188619429 0.00338074904481261 0 -0.013823151237532453 0.0095583199761226194 0 -0.01128959472686626 0.0070560503481136658 0 -0.010754711944679043 0.0096692221925653073 0 -0.0080373551431133904 0.01079690663361943 0 -0.008220871947799923 0.010819244316480993 0 -0.0082176693610235569 0.010500074847060385 0 -0.0080373551431133904 0.01079690663361943 0 -0.0082176693610235569 0.010500074847060385 0 -0.0079018510552392243 0.010343373879851922 0 -0.0081658457186250481 0.011020918709667319 0 -0.0080373551431133904 0.01079690663361943 0 -0.008220871947799923 0.010819244316480993 0 -0.0089384464934769634 0.011100926044090412 0 -0.0079337448723688243 0.00740781763537059 0 -0.008220871947799923 0.010819244316480993 0 -0.0083344212278847942 0.010788581630001274 0 -0.0082176693610235569 0.010500074847060385 0 -0.0083183247867181336 0.010990521345645663 0 -0.0081658457186250481 0.011020918709667319 0 -0.008220871947799923 0.010819244316480993 0 -0.0083183247867181336 0.010990521345645663 0 -0.0083344212278847942 0.010788581630001274 0 -0.0084853900008463028 0.010960764148298704 0 -0.0083183247867181336 0.010990521345645663 0 -0.008220871947799923 0.010819244316480993 0 -0.0083344212278847942 0.010788581630001274 0 -0.0083344212278847942 0.010788581630001274 0 -0.0081717303640476031 0.01061019751022048 0 -0.0084813617188534054 0.010643886418735492 0 -0.0043769995078172747 -0.00056311674268840731 0 -0.0028962501909264101 -0.00054855572682052309 0 -0.0035159968239612859 7.8244751573557463e-05 0 -0.0079337448723688243 0.00740781763537059 0 -0.0052888935910749869 0.0048006496950081133 0 -0.0043769995078172747 -0.00056311674268840731 0 -0.0035159968239612859 7.8244751573557463e-05 0 -0.0043467530294724393 0.00023422247917183461 0 -0.0028962501909264101 -0.00054855572682052309 0 -0.0025211990911596623 2.3557090611328924e-05 0 -0.0035159968239612859 7.8244751573557463e-05 0 -0.0083344212278847942 0.010788581630001274 0 -0.0084813617188534054 0.010643886418735492 0 -0.0084853900008463028 0.010960764148298704 0 -0.0084813617188534054 0.010643886418735492 0 -0.0084853900008463028 0.010960764148298704 0 -0.0086512195801911121 0.010846489297938505 0 -0.0086512195801911121 0.010846489297938505 0 -0.0088357116033909739 0.010943690861785307 0 -0.0087920793831404477 0.010640868918328383 0 -0.0086696838464364115 0.011051273488405974 0 -0.0084853900008463028 0.010960764148298704 0 -0.0086512195801911121 0.010846489297938505 0 -0.0086696838464364115 0.011051273488405974 0 -0.0086512195801911121 0.010846489297938505 0 -0.0088357116033909739 0.010943690861785307 0 -0.0052888935910749869 0.0048006496950081133 0 -0.0057852080733506095 0.0052871269793441974 0 -0.0084813617188534054 0.010643886418735492 0 -0.0086512195801911121 0.010846489297938505 0 -0.0087920793831404477 0.010640868918328383 0 -0.0028962501909264101 -0.00054855572682052309 0 -0.0025211990911596623 2.3557090611328924e-05 0 -0.0020472795595761085 -0.0003695405908662817 0 -0.0025211990911596623 2.3557090611328924e-05 0 -0.0021433414281695766 -3.2547891724747698e-05 0 -0.0020472795595761085 -0.0003695405908662817 0 -0.0025211990911596623 2.3557090611328924e-05 0 -0.0021433414281695766 -3.2547891724747698e-05 0 -0.0022778919522486053 8.504789733073561e-05 0 -0.0024863453671408811 3.712587225963861e-05 0 -0.0023678904909577316 0.00067272623091678538 0 -0.0021433414281695766 -3.2547891724747698e-05 0 -0.0022778919522486053 8.504789733073561e-05 0 -0.0019342868812481334 1.1836596865724535e-05 0 -0.0023678904909577316 0.00067272623091678538 0 -0.0026614739636608977 0.00062588791151031796 0 -0.0020541095138075383 0.00011479450633948218 0 -0.0022778919522486053 8.504789733073561e-05 0 -0.0022175178945794635 0.0002887342830320433 0 -0.0020541095138075383 0.00011479450633948218 0 -0.0022778919522486053 8.504789733073561e-05 0 -0.0019342868812481334 1.1836596865724535e-05 0 -0.0024382129541440554 0.0011049279091893077 0 -0.0033524993121181292 0.0013547947248363232 0 -0.0031504060891517599 0.00066048378434570472 0 -0.0024382129541440554 0.0011049279091893077 0 -0.0033524993121181292 0.0013547947248363232 0 -0.002346594713726953 0.0020662984146742609 0 -0.0033524993121181292 0.0013547947248363232 0 -0.0031504060891517599 0.00066048378434570472 0 -0.0039081845651088003 0.00070204606467844652 0 -0.0025211990911596623 2.3557090611328924e-05 0 -0.0024382129541440554 0.0011049279091893077 0 -0.0031504060891517599 0.00066048378434570472 0 -0.0025211990911596623 2.3557090611328924e-05 0 -0.0031504060891517599 0.00066048378434570472 0 -0.0035159968239612859 7.8244751573557463e-05 0 -0.0035159968239612859 7.8244751573557463e-05 0 -0.0043467530294724393 0.00023422247917183461 0 -0.0039081845651088003 0.00070204606467844652 0 -0.0043467530294724393 0.00023422247917183461 0 -0.0039081845651088003 0.00070204606467844652 0 -0.0046614876063178221 0.00077358344272180073 0 -0.0031504060891517599 0.00066048378434570472 0 -0.0035159968239612859 7.8244751573557463e-05 0 -0.0039081845651088003 0.00070204606467844652 0 -0.0033524993121181292 0.0013547947248363232 0 -0.0039081845651088003 0.00070204606467844652 0 -0.0042656656404902642 0.001393988975579386 0 -0.0033524993121181292 0.0013547947248363232 0 -0.0042656656404902642 0.001393988975579386 0 -0.0040186949025711634 0.0022731773559966383 0 -0.0039081845651088003 0.00070204606467844652 0 -0.0042656656404902642 0.001393988975579386 0 -0.0046614876063178221 0.00077358344272180073 0 -0.0042656656404902642 0.001393988975579386 0 -0.0049259561396903838 0.001364627197336153 0 -0.0046614876063178221 0.00077358344272180073 0 -0.0042656656404902642 0.001393988975579386 0 -0.0049259561396903838 0.001364627197336153 0 -0.0048643997373855391 0.001819004910292683 0 -0.0049259561396903838 0.001364627197336153 0 -0.0053911289673316811 0.0018091731742272781 0 -0.0048643997373855391 0.001819004910292683 0 -0.0049259561396903838 0.001364627197336153 0 -0.0046614876063178221 0.00077358344272180073 0 -0.0052604356871723216 0.0010530401497682146 0 -0.0043467530294724393 0.00023422247917183461 0 -0.0046614876063178221 0.00077358344272180073 0 -0.0052472430985450111 0.00034795051852317364 0 -0.0046614876063178221 0.00077358344272180073 0 -0.0052472430985450111 0.00034795051852317364 0 -0.0052604356871723216 0.0010530401497682146 0 -0.0048099641796553018 0.0054314507083872993 0 -0.0031555852607992691 0.0078790345177614223 0 -0.0026789712715721992 0.0054730979127022832 0 -0.002007910713144918 0.003868370812767705 0 -0.0041420880034474961 0.0038399496117681288 0 -0.00087064154231923966 -0.00084766535020023594 0 -0.0011286917591972383 -0.0008507264886113365 0 -0.00098283714478922626 -0.00067338407588163666 0 -0.002007910713144918 0.003868370812767705 0 -0.0016205685362878286 -0.00094601884306318379 0 -0.00087064154231923966 -0.00084766535020023594 0 -0.00098283714478922626 -0.00067338407588163666 0 -0.00069697417903563186 -0.00061387416109873996 0 -0.002007910713144918 0.003868370812767705 0 -0.0022614423620871517 0.0049262428888917405 0 -0.00066919337103166828 -0.00053137771722451392 0 -0.00069697417903563186 -0.00061387416109873996 0 -0.00070278610747245916 -0.00051693629797768621 0 -0.00069697417903563186 -0.00061387416109873996 0 -0.00067037322371768537 -0.00054138655690435437 0 -0.00070278610747245916 -0.00051693629797768621 0 -0.0037952180287980485 0.010857391687316052 0 -0.0036089507205960582 0.010466111610956121 0 -0.0039298762467986897 0.010463988705020676 0 -0.002007910713144918 0.003868370812767705 0 -0.004634378902511233 0.010676680984447609 0 -0.0037952180287980485 0.010857391687316052 0 -0.0036089507205960582 0.010466111610956121 0 -0.0034443120750371156 0.01077963186093378 0 -0.004634378902511233 0.010676680984447609 0 -0.0041420880034474961 0.0038399496117681288 0 -0.0092056858490273067 0.010899614680314054 0 -0.0090066842773482911 0.010842494005131568 0 -0.0091301526259633496 0.010602160446329756 0 -0.0090066842773482911 0.010842494005131568 0 -0.0088357116033909739 0.010943690861785307 0 -0.0087920793831404477 0.010640868918328383 0 -0.0020472795595761085 -0.0003695405908662817 0 -0.0017433972438491334 -0.00026561958308704472 0 -0.0019122914758258297 -0.00013874669659956116 0 -0.0021433414281695766 -3.2547891724747698e-05 0 -0.0020472795595761085 -0.0003695405908662817 0 -0.0019122914758258297 -0.00013874669659956116 0 -0.0057852080733506095 0.0052871269793441974 0 -0.0041420880034474961 0.0038399496117681288 0 -0.0090066842773482911 0.010842494005131568 0 -0.0087920793831404477 0.010640868918328383 0 -0.0091301526259633496 0.010602160446329756 0 -0.0011286917591972383 -0.0008507264886113365 0 -0.0012595813619509573 -0.00059398303415843289 0 -0.00098283714478922626 -0.00067338407588163666 0 -0.0017433972438491334 -0.00026561958308704472 0 -0.0017807589297342465 -5.028266663582417e-05 0 -0.0019122914758258297 -0.00013874669659956116 0 -0.0041420880034474961 0.0038399496117681288 0 -0.0011789982298628088 -0.0012946257209061269 0 -0.0017807589297342465 -5.028266663582417e-05 0 -0.0019122914758258297 -0.00013874669659956116 0 -0.0019342868812481334 1.1836596865724535e-05 0 -0.0021433414281695766 -3.2547891724747698e-05 0 -0.0019122914758258297 -0.00013874669659956116 0 -0.0019342868812481334 1.1836596865724535e-05 0 -0.0019342868812481334 1.1836596865724535e-05 0 -0.0016139937538845175 2.8673410393676665e-05 0 -0.0018090049906768324 9.4358315780610082e-05 0 -0.0020541095138075383 0.00011479450633948218 0 -0.0019342868812481334 1.1836596865724535e-05 0 -0.0018090049906768324 9.4358315780610082e-05 0 -0.0012595813619509573 -0.00059398303415843289 0 -0.0011770481844250685 -0.00031584326401999218 0 -0.0016139937538845175 2.8673410393676665e-05 0 -0.0017807589297342465 -5.028266663582417e-05 0 -0.0019342868812481334 1.1836596865724535e-05 0 -0.0016139937538845175 2.8673410393676665e-05 0 -0.0011789982298628088 -0.0012946257209061269 0 -0.0017112649031646068 0.00042927914006172965 0 -0.0011770481844250685 -0.00031584326401999218 0 -0.00099172352950287201 -0.00013866463631820341 0 -0.0016139937538845175 2.8673410393676665e-05 0 -0.0012595813619509573 -0.00059398303415843289 0 -0.0011770481844250685 -0.00031584326401999218 0 -0.00091078202045379833 -0.000516226425708369 0 -0.00060199676965341125 -0.00052797011401430549 0 -0.00054363940492386316 -0.00014704970580884107 0 -0.00099172352950287201 -0.00013866463631820341 0 -0.0011770481844250685 -0.00031584326401999218 0 -0.00091078202045379833 -0.000516226425708369 0 -0.00099172352950287201 -0.00013866463631820341 0 -0.00091078202045379833 -0.000516226425708369 0 -0.00060199676965341125 -0.00052797011401430549 0 -0.00099172352950287201 -0.00013866463631820341 0 -0.0012595813619509573 -0.00059398303415843289 0 -0.00091078202045379833 -0.000516226425708369 0 -0.00098283714478922626 -0.00067338407588163666 0 -0.00091078202045379833 -0.000516226425708369 0 -0.00098283714478922626 -0.00067338407588163666 0 -0.00069697417903563186 -0.00061387416109873996 0 -0.00091078202045379833 -0.000516226425708369 0 -0.00069697417903563186 -0.00061387416109873996 0 -0.00060199676965341125 -0.00052797011401430549 0 -0.00069697417903563186 -0.00061387416109873996 0 -0.00060199676965341125 -0.00052797011401430549 0 -0.00067037322371768537 -0.00054138655690435437 0 -0.00060199676965341125 -0.00052797011401430549 0 -7.9454676826999613e-05 -0.00030829670967141669 0 -0.00054363940492386316 -0.00014704970580884107 0 -0.00060199676965341125 -0.00052797011401430549 0 -7.9454676826999613e-05 -0.00030829670967141669 0 0.00029476503500152365 -0.00083755264959282309 0 -7.9454676826999613e-05 -0.00030829670967141669 0 0.00029476503500152365 -0.00083755264959282309 0 0.00054061064277675735 -0.0002184019116816774 0 -0.00053653270708575512 -0.00053738139079744125 0 -0.00027950565584121748 -0.00086644844158358981 0 0.0010764323745791427 -0.00096124932376911521 0 0.0014258628923895353 -9.7144670662475727e-05 0 0.00054061064277675735 -0.0002184019116816774 0 0.00029476503500152365 -0.00083755264959282309 0 0.0010764323745791427 -0.00096124932376911521 0 0.00054061064277675735 -0.0002184019116816774 0 -0.00027950565584121748 -0.00086644844158358981 0 0.0010259905074187471 0.0025580793268399566 0 -0.00067428956141819037 -0.00053627008726010142 0 -0.00069965879375707962 -0.00049161842288571211 0 -0.00068828125270886588 -0.00050690648578877672 0 -0.00069965879375707962 -0.00049161842288571211 0 -0.00068828125270886588 -0.00050690648578877672 0 -0.00070692659097079202 -0.00045667872439437383 0 0.0010259905074187471 0.0025580793268399566 0 -0.0029320862960239506 0.0068191461548617952 0 -0.00060199676965341125 -0.00052797011401430549 0 -0.00067428956141819037 -0.00053627008726010142 0 -0.00067037322371768537 -0.00054138655690435437 0 -0.00067428956141819037 -0.00053627008726010142 0 -0.00068828125270886588 -0.00050690648578877672 0 -0.00067037322371768537 -0.00054138655690435437 0 -0.00068828125270886588 -0.00050690648578877672 0 -0.00067037322371768537 -0.00054138655690435437 0 -0.00070278610747245916 -0.00051693629797768621 0 -0.00068828125270886588 -0.00050690648578877672 0 -0.00070278610747245916 -0.00051693629797768621 0 -0.00070692659097079202 -0.00045667872439437383 0 -0.0022614423620871517 0.0049262428888917405 0 -0.0029320862960239506 0.0068191461548617952 0 -0.0043824650859519499 0.010722484116418083 0 -0.0041430062721405508 0.010859573482406671 0 -0.0043441656836406559 0.010963475271664747 0 -0.0042166866528204252 0.010488711616826686 0 -0.0043824650859519499 0.010722484116418083 0 -0.0041430062721405508 0.010859573482406671 0 -0.0029320862960239506 0.0068191461548617952 0 -0.0041780705040863576 0.012145989000285635 0 -0.0039298762467986897 0.010463988705020676 0 -0.0042756634812863943 0.010438424886847607 0 -0.0041430062721405508 0.010859573482406671 0 -0.0037952180287980485 0.010857391687316052 0 -0.0039298762467986897 0.010463988705020676 0 -0.0041430062721405508 0.010859573482406671 0 -0.0047460975953569394 0.011162264389262117 0 -0.0019097052251451476 0.0089704491285991957 0 -0.0044717566039092918 0.010994006696426474 0 -0.0045171687510276804 0.010681515823437591 0 -0.0046713300116262343 0.010936486092801231 0 -0.0019097052251451476 0.0089704491285991957 0 -0.0024602451876062225 0.010463460269116018 0 -0.0045882456097404946 0.010849793937904435 0 -0.0043824650859519499 0.010722484116418083 0 -0.0043441656836406559 0.010963475271664747 0 -0.0045882456097404946 0.010849793937904435 0 -0.0043824650859519499 0.010722484116418083 0 -0.0046715324455380526 0.010474838755330887 0 -0.0004992861215921588 0.0067280203959744992 0 -0.0008442023438837656 0.0067439820977575502 0 -0.0007649380083465273 0.0066139375854085691 0 -0.0029320862960239506 0.0068191461548617952 0 -0.0019097052251451476 0.0089704491285991957 0 -0.0042166866528204252 0.010488711616826686 0 -0.0043824650859519499 0.010722484116418083 0 -0.0046715324455380526 0.010474838755330887 0 -0.0019097052251451476 0.0089704491285991957 0 -0.00049991426297638325 0.0062835071116335616 0 0.00049986349347085209 0.0089404682028800635 0 0.00010012158384206494 0.0089337948307941471 0 2.4857899018441273e-06 0.009811738325208208 0 -0.00084604345198309265 0.006774799258960542 0 -0.00088188658411642528 0.0066154836876587105 0 -0.0007649380083465273 0.0066139375854085691 0 -0.0019097052251451476 0.0089704491285991957 0 0.0028293504198234646 0.0085895434840569558 0 -0.0019097052251451476 0.0089704491285991957 0 0.0020705132045777518 0.0077187162054849819 0 0.0047235505545050486 0.0081680555204753681 0 0.0047997390087282186 0.0079942973421254174 0 0.0046539198764250648 0.0080099198788978841 0 0.0011012798583884659 0.0086700215192363952 0 0.0010261177256893669 0.0086684610804950088 0 0.0010772017925337527 0.008563355889283147 0 0.0028293504198234646 0.0085895434840569558 0 0.0020705132045777518 0.0077187162054849819 0 0.0027673379264352076 0.0077826097361347315 0 0.0028501821233412822 0.0076236788570343342 0 0.0027279228063963041 0.0076457395966357776 0 0.0047997390087282186 0.0079942973421254174 0 0.0047680099311807325 0.0078891033944733218 0 0.0046539198764250648 0.0080099198788978841 0 0.0020705132045777518 0.0077187162054849819 0 0.002756160352502807 0.0078379395792892558 0 0.0020705132045777518 0.0077187162054849819 0 0.0040946746506127082 0.0079298331301191211 0 -0.00088188658411642528 0.0066154836876587105 0 -0.0007649380083465273 0.0066139375854085691 0 -0.00082050707910593583 0.0065101509556583113 0 0.0048984740371971359 0.0075863199855103654 0 0.0049131228632124345 0.0075584042967634961 0 0.0048350862299968165 0.0075990318393648667 0 0.002756160352502807 0.0078379395792892558 0 0.0030249870829773249 0.0076128402952133278 0 0.0049131228632124345 0.0075584042967634961 0 0.0048350862299968165 0.0075990318393648667 0 0.0048879085666658694 0.0074908453022413885 0 0.002756160352502807 0.0078379395792892558 0 0.0040946746506127082 0.0079298331301191211 0 -0.00056370889250278739 0.0064438375448656266 0 -0.0007649380083465273 0.0066139375854085691 0 -0.00082050707910593583 0.0065101509556583113 0 -0.00056370889250278739 0.0064438375448656266 0 -0.0004992861215921588 0.0067280203959744992 0 -0.0007649380083465273 0.0066139375854085691 0 0.0051453183836669622 0.0075081177547576313 0 0.0048956057072642141 0.0075887560735936176 0 0.0049131228632124345 0.0075584042967634961 0 0.0010259905074187471 0.0025580793268399566 0 0.002756160352502807 0.0078379395792892558 0 0.0050182791418492646 0.0074471117049323184 0 0.0049479172314652094 0.0073666590007676952 0 0.0051288369271659121 0.007180743991540609 0 0.0010259905074187471 0.0025580793268399566 0 0.0039521232099388771 0.0041433419554365572 0 0.0051453183836669622 0.0075081177547576313 0 0.0050182791418492646 0.0074471117049323184 0 0.0051288369271659121 0.007180743991540609 0 0.0051453183836669622 0.0075081177547576313 0 0.0049131228632124345 0.0075584042967634961 0 0.0050182791418492646 0.0074471117049323184 0 0.0040946746506127082 0.0079298331301191211 0 0.0047596238130467585 0.0075183431930649722 0 0.0048350862299968165 0.0075990318393648667 0 0.0048879085666658694 0.0074908453022413885 0 0.0047688236114419866 0.007472472049088936 0 0.0050182791418492646 0.0074471117049323184 0 0.0048879085666658694 0.0074908453022413885 0 0.0049479172314652094 0.0073666590007676952 0 0.0049131228632124345 0.0075584042967634961 0 0.0050182791418492646 0.0074471117049323184 0 0.0048879085666658694 0.0074908453022413885 0 0.0048879085666658694 0.0074908453022413885 0 0.0049479172314652094 0.0073666590007676952 0 0.0047688236114419866 0.007472472049088936 0 0.0049479172314652094 0.0073666590007676952 0 0.0047688236114419866 0.007472472049088936 0 0.0048545621051103187 0.0072057649507347634 0 0.0047688236114419866 0.007472472049088936 0 0.0045655252003892859 0.0074769486556920109 0 0.0046408346035227734 0.0072462173996802968 0 0.0048889317896268127 0.0078588650671743907 0 0.0047688236114419866 0.007472472049088936 0 0.0046385966913183602 0.007702217801417513 0 0.0047688236114419866 0.007472472049088936 0 0.0046385966913183602 0.007702217801417513 0 0.0045655252003892859 0.0074769486556920109 0 0.0046385966913183602 0.007702217801417513 0 0.0045655252003892859 0.0074769486556920109 0 0.004424879013715648 0.0076618591369247667 0 0.0045655252003892859 0.0074769486556920109 0 0.004424879013715648 0.0076618591369247667 0 0.0044232373156410888 0.0073640982412651601 0 0.0043020582272258788 0.007489234953020534 0 0.004424879013715648 0.0076618591369247667 0 0.0044232373156410888 0.0073640982412651601 0 0.004424879013715648 0.0076618591369247667 0 0.0043305183325864412 0.0078781232412816447 0 0.0042689155399118651 0.0077323485334252423 0 0.0043020582272258788 0.007489234953020534 0 0.004424879013715648 0.0076618591369247667 0 0.0042689155399118651 0.0077323485334252423 0 0.0043305183325864412 0.0078781232412816447 0 0.0042689155399118651 0.0077323485334252423 0 0.0041653806794933381 0.0080772921490836758 0 0.004424879013715648 0.0076618591369247667 0 0.0043305183325864412 0.0078781232412816447 0 0.0044970733217549992 0.0079230457126288779 0 0.0043305183325864412 0.0078781232412816447 0 0.0043601623916345086 0.008028050877061526 0 0.0041653806794933381 0.0080772921490836758 0 0.0043601623916345086 0.008028050877061526 0 0.0044970733217549992 0.0079230457126288779 0 0.0045147616619733537 0.0080634078224199948 0 0.0043305183325864412 0.0078781232412816447 0 0.0043601623916345086 0.008028050877061526 0 0.0044970733217549992 0.0079230457126288779 0 0.0044970733217549992 0.0079230457126288779 0 0.0046539198764250648 0.0080099198788978841 0 0.0045147616619733537 0.0080634078224199948 0 0.0047680099311807325 0.0078891033944733218 0 0.0044970733217549992 0.0079230457126288779 0 0.0046539198764250648 0.0080099198788978841 0 0.0048889317896268127 0.0078588650671743907 0 0.0046385966913183602 0.007702217801417513 0 0.0044970733217549992 0.0079230457126288779 0 0.0040946746506127082 0.0079298331301191211 0 0.0047793082001423449 0.007877964865419744 0 0.0046385966913183602 0.007702217801417513 0 0.004424879013715648 0.0076618591369247667 0 0.0044970733217549992 0.0079230457126288779 0 0.0040441533069910151 0.0078228002659562479 0 0.0042011086077445321 0.0078102112397890619 0 0.0042311090691723044 0.0076379304494124944 0 0.0042011086077445321 0.0078102112397890619 0 0.0042267626171989293 0.0078080281627343458 0 0.0042311090691723044 0.0076379304494124944 0 0.0040441533069910151 0.0078228002659562479 0 0.0042011086077445321 0.0078102112397890619 0 0.0041853905689320948 0.0079280282546763895 0 0.0042011086077445321 0.0078102112397890619 0 0.0042267626171989293 0.0078080281627343458 0 0.004234723376228094 0.0079284932116322326 0 0.0043020582272258788 0.007489234953020534 0 0.0042689155399118651 0.0077323485334252423 0 0.0040416060946458559 0.0071519034054402294 0 0.0042267626171989293 0.0078080281627343458 0 0.0042689155399118651 0.0077323485334252423 0 0.0040416060946458559 0.0071519034054402294 0 0.0042657649419477611 0.0077491889648878464 0 0.0042753300921737868 0.0081084179122423057 0 0.0042689155399118651 0.0077323485334252423 0 0.0042742976810102125 0.0078996579243158418 0 0.0043896852050916042 0.0080216070266784165 0 0.0042742976810102125 0.0078996579243158418 0 0.00428783211834282 0.0080081727128498911 0 0.0043896852050916042 0.0080216070266784165 0 0.0042742976810102125 0.0078996579243158418 0 0.004234723376228094 0.0079284932116322326 0 0.00428783211834282 0.0080081727128498911 0 0.0042267626171989293 0.0078080281627343458 0 0.0042689155399118651 0.0077323485334252423 0 0.0042742976810102125 0.0078996579243158418 0 0.0042267626171989293 0.0078080281627343458 0 0.0042742976810102125 0.0078996579243158418 0 0.004234723376228094 0.0079284932116322326 0 0.0042094048954219023 0.0080185273509886367 0 0.0041853905689320948 0.0079280282546763895 0 0.0042367536900488039 0.008041881988893421 0 0.004234723376228094 0.0079284932116322326 0 0.0041853905689320948 0.0079280282546763895 0 0.0042367536900488039 0.008041881988893421 0 0.004234723376228094 0.0079284932116322326 0 0.0042367536900488039 0.008041881988893421 0 0.00428783211834282 0.0080081727128498911 0 0.0042011086077445321 0.0078102112397890619 0 0.004234723376228094 0.0079284932116322326 0 0.0041853905689320948 0.0079280282546763895 0 0.0042367536900488039 0.008041881988893421 0 0.0043069286431395935 0.0081049354729851048 0 0.0042627474303848075 0.0081529484489838763 0 0.0042311348993566882 0.0081359032601417743 0 0.0042367536900488039 0.008041881988893421 0 0.0042627474303848075 0.0081529484489838763 0 0.0042367536900488039 0.008041881988893421 0 0.0043069286431395935 0.0081049354729851048 0 0.00428783211834282 0.0080081727128498911 0 0.0043069286431395935 0.0081049354729851048 0 0.0043896852050916042 0.0080216070266784165 0 0.0044027990099593552 0.0081740999565857279 0 0.0043069286431395935 0.0081049354729851048 0 0.00428783211834282 0.0080081727128498911 0 0.0043896852050916042 0.0080216070266784165 0 0.0043069286431395935 0.0081049354729851048 0 0.0043257349922549261 0.0081845284318170577 0 0.0044027990099593552 0.0081740999565857279 0 0.0043257349922549261 0.0081845284318170577 0 0.0044027990099593552 0.0081740999565857279 0 0.0043635371140273117 0.0082424884148075955 0 0.0043069286431395935 0.0081049354729851048 0 0.0043257349922549261 0.0081845284318170577 0 0.0042627474303848075 0.0081529484489838763 0 0.0042327348267695367 0.0082022408509813544 0 0.0042627474303848075 0.0081529484489838763 0 0.0042959522109253558 0.0082471935375008493 0 0.0043257349922549261 0.0081845284318170577 0 0.0042627474303848075 0.0081529484489838763 0 0.0042959522109253558 0.0082471935375008493 0 0.0048341098328226742 0.0082309491511298582 0 0.0045450972969630866 0.0083735627610664644 0 0.004326960400364236 0.0081922925054712624 0 0.0047235505545050486 0.0081680555204753681 0 0.0045147616619733537 0.0080634078224199948 0 0.004326960400364236 0.0081922925054712624 0 0.0028293504198234646 0.0085895434840569558 0 0.0051308018646074923 0.0081353440796184291 0 0.0047235505545050486 0.0081680555204753681 0 0.0046539198764250648 0.0080099198788978841 0 0.0045147616619733537 0.0080634078224199948 0 0.004326960400364236 0.0081922925054712624 0 0.0041653806794933381 0.0080772921490836758 0 0.004121874196730213 0.0086547335490781922 0 0.0042753300921737868 0.0081084179122423057 0 0.0043122586261252266 0.0081699363354746438 0 0.0043601623916345086 0.008028050877061526 0 0.0045147616619733537 0.0080634078224199948 0 0.004326960400364236 0.0081922925054712624 0 0.0043601623916345086 0.008028050877061526 0 0.004326960400364236 0.0081922925054712624 0 0.0041653806794933381 0.0080772921490836758 0 0.0045450972969630866 0.0083735627610664644 0 0.004326960400364236 0.0081922925054712624 0 0.0043925811305978793 0.008501904869053287 0 0.004326960400364236 0.0081922925054712624 0 0.0043925811305978793 0.008501904869053287 0 0.004121874196730213 0.0086547335490781922 0 0.0043925811305978793 0.008501904869053287 0 0.004121874196730213 0.0086547335490781922 0 0.0043866156099430188 0.0087772986097979962 0 0.004121874196730213 0.0086547335490781922 0 0.0043866156099430188 0.0087772986097979962 0 0.0043710104254336456 0.00905507383494677 0 -0.00029129084763456642 0.0097129332999670772 0 2.4857899018441273e-06 0.009811738325208208 0 -0.00068862726307129698 0.010504578938061008 0 0.0043925811305978793 0.008501904869053287 0 0.0043866156099430188 0.0087772986097979962 0 0.0046590873452151188 0.0086273838943205193 0 0.0028293504198234646 0.0085895434840569558 0 0.0022255960753530838 0.0090807613442625661 0 0.0048341098328226742 0.0082309491511298582 0 0.0045450972969630866 0.0083735627610664644 0 0.0046590873452151188 0.0086273838943205193 0 0.00010012158384206494 0.0089337948307941471 0 -0.00029129084763456642 0.0097129332999670772 0 2.4857899018441273e-06 0.009811738325208208 0 0.0045450972969630866 0.0083735627610664644 0 0.0043925811305978793 0.008501904869053287 0 0.0046590873452151188 0.0086273838943205193 0 -0.0046713300116262343 0.010936486092801231 0 -0.0047798436085015666 0.011156279885719714 0 -0.0046024991346160218 0.011136327877283362 0 0.0022255960753530838 0.0090807613442625661 0 0.0013889841200372562 0.010403682088095339 0 -0.0024602451876062225 0.010463460269116018 0 -0.0014789319656416731 0.011661077370881586 0 2.4857899018441273e-06 0.009811738325208208 0 -0.0005064240381065882 0.010696803707331743 0 -0.00068862726307129698 0.010504578938061008 0 0.0043866156099430188 0.0087772986097979962 0 0.0046590873452151188 0.0086273838943205193 0 0.0044282678868219662 0.0091153596900133294 0 -0.0014789319656416731 0.011661077370881586 0 0.0013889841200372562 0.010403682088095339 0 0.0044027990099593552 0.0081740999565857279 0 0.004410405179117712 0.0083212222207762112 0 0.0043635371140273117 0.0082424884148075955 0 0.0043122586261252266 0.0081699363354746438 0 0.0034684378801006261 0.010113149241810785 0 0.004121874196730213 0.0086547335490781922 0 0.0043710104254336456 0.00905507383494677 0 0.0042531224380134942 0.009125987951235752 0 0.0043866156099430188 0.0087772986097979962 0 0.0043710104254336456 0.00905507383494677 0 0.0044282678868219662 0.0091153596900133294 0 0.004121874196730213 0.0086547335490781922 0 0.0042531224380134942 0.009125987951235752 0 0.0041396529035070666 0.0093443746090756275 0 0.0042181578904507983 0.0093007089238750854 0 0.0042531224380134942 0.009125987951235752 0 0.0041396529035070666 0.0093443746090756275 0 0.0013889841200372562 0.010403682088095339 0 0.0012818158218125986 0.011973492620151974 0 0.0044293711498637652 0.0091218738227104215 0 0.0042870116727236115 0.0092612717598077616 0 0.004281612322884756 0.0094076070123326177 0 0.00053927828085883589 0.0116932933593616 0 0.00013645818891632743 0.011275169750351999 0 -0.00034972368653959907 0.012226420306156449 0 0.0043710104254336456 0.00905507383494677 0 0.0044293711498637652 0.0091218738227104215 0 0.0042531224380134942 0.009125987951235752 0 0.0017796256021089744 0.010457569673453094 0 0.0013889841200372562 0.010403682088095339 0 0.0044293711498637652 0.0091218738227104215 0 0.0042531224380134942 0.009125987951235752 0 0.0042870116727236115 0.0092612717598077616 0 0.0042181578904507983 0.0093007089238750854 0 0.0042531224380134942 0.009125987951235752 0 0.0042870116727236115 0.0092612717598077616 0 0.0042181578904507983 0.0093007089238750854 0 0.0042870116727236115 0.0092612717598077616 0 0.004219071778092897 0.0093803531070070258 0 0.0025933835884409751 0.014159416883003824 0 0.002630533204772315 0.01448387159956121 0 0.0017199365319658085 0.014911858218169457 0 0.0012818158218125986 0.011973492620151974 0 -0.0011179420694855701 0.013819594215431363 0 0.00053927828085883589 0.0116932933593616 0 -0.00034972368653959907 0.012226420306156449 0 0.00011529439663308863 0.012413070738421803 0 -0.001630657769166433 0.014576626689060443 0 -0.0018557110181564537 0.014716820016302985 0 -0.0020637851417399187 0.015267452218035386 0 -0.0017507952519892928 0.014522374157447764 0 -0.001630657769166433 0.014576626689060443 0 -0.0018557110181564537 0.014716820016302985 0 0.0042870116727236115 0.0092612717598077616 0 0.004219071778092897 0.0093803531070070258 0 0.004281612322884756 0.0094076070123326177 0 0.0020166696043339176 0.011380952521955739 0 0.002468586232389337 0.011560602311456282 0 0.0015290562476393996 0.011777327667153331 0 0.0025420553369892057 0.011195954496445828 0 0.0012818158218125986 0.011973492620151974 0 0.0012818158218125986 0.011973492620151974 0 0.00099657085110267424 0.013993268200888889 0 0.0050710102160189232 0.0089458983616807104 0 0.0050677850389785027 0.0089129381805973084 0 0.004914258328161945 0.0089362646775069301 0 0.003004897993063371 0.011203801678494496 0 0.0034684378801006261 0.010113149241810785 0 0.0025420553369892057 0.011195954496445828 0 0.0034684378801006261 0.010113149241810785 0 0.0042181578904507983 0.0093007089238750854 0 0.004219071778092897 0.0093803531070070258 0 0.0041396529035070666 0.0093443746090756275 0 0.0034523207657509527 0.010759644469474068 0 0.0034951755481815142 0.01072588111115058 0 0.0035016179882406068 0.010778002719301341 0 0.0025420553369892057 0.011195954496445828 0 0.003004897993063371 0.011203801678494496 0 0.002468586232389337 0.011560602311456282 0 0.0015290562476393996 0.011777327667153331 0 0.0016831133719298324 0.013092453184163855 0 0.003004897993063371 0.011203801678494496 0 0.00099657085110267424 0.013993268200888889 0 -0.0021993990213444474 0.01548027212466925 0 -0.0021843956383418486 0.015411683445539509 0 -0.0022113522769545684 0.015444613975523326 0 -0.0021843956383418486 0.015411683445539509 0 -0.0022313965377221395 0.015422517372255126 0 -0.0022113522769545684 0.015444613975523326 0 -0.0022782089060351444 0.015411857150046981 0 -0.0022233237368378829 0.015464321727038566 0 -0.002373612365602525 0.015424207565292525 0 -0.002228494532500964 0.015505351198490126 0 -0.0022233237368378829 0.015464321727038566 0 -0.002373612365602525 0.015424207565292525 0 -0.0021843956383418486 0.015411683445539509 0 -0.0022313965377221395 0.015422517372255126 0 -0.0022193866182415025 0.015371514165771016 0 -0.0014789319656416731 0.011661077370881586 0 -0.0036280106537590552 0.013584391073695468 0 -0.0047798436085015666 0.011156279885719714 0 -0.0046024991346160218 0.011136327877283362 0 -0.0046477395478334771 0.011334824093672674 0 -0.0022313965377221395 0.015422517372255126 0 -0.0022782089060351444 0.015411857150046981 0 -0.0022233237368378829 0.015464321727038566 0 -0.0022313965377221395 0.015422517372255126 0 -0.0022782089060351444 0.015411857150046981 0 -0.0022193866182415025 0.015371514165771016 0 -0.0022313965377221395 0.015422517372255126 0 -0.0022113522769545684 0.015444613975523326 0 -0.0022233237368378829 0.015464321727038566 0 -0.002228494532500964 0.015505351198490126 0 -0.0022052080680152312 0.0154676678535843 0 -0.0022233237368378829 0.015464321727038566 0 -0.0014789319656416731 0.011661077370881586 0 -0.0011179420694855701 0.013819594215431363 0 -0.0021993990213444474 0.01548027212466925 0 -0.0022113522769545684 0.015444613975523326 0 -0.0022233237368378829 0.015464321727038566 0 -0.0011179420694855701 0.013819594215431363 0 -0.001285900686835704 0.013926188674948256 0 0.0045780746232054765 0.0085884182314811906 0 0.004828302573474887 0.0087682033143892078 0 0.0047221887502720463 0.0089646390657930983 0 0.0043600962409428672 0.0083935900314827672 0 0.004741488269354683 0.0084129560901834606 0 0.0050677850389785027 0.0089129381805973084 0 0.004828302573474887 0.0087682033143892078 0 0.004914258328161945 0.0089362646775069301 0 0.004410405179117712 0.0083212222207762112 0 0.0042959522109253558 0.0082471935375008493 0 0.0043635371140273117 0.0082424884148075955 0 0.0034684378801006261 0.010113149241810785 0 0.004741488269354683 0.0084129560901834606 0 0.0043257349922549261 0.0081845284318170577 0 0.0042959522109253558 0.0082471935375008493 0 0.0043635371140273117 0.0082424884148075955 0 0.003004897993063371 0.011203801678494496 0 0.0034247557419081216 0.01199005733084261 0 0.0050710102160189232 0.0089458983616807104 0 0.004914258328161945 0.0089362646775069301 0 0.0048759806777732128 0.0091189365610006481 0 0.004914258328161945 0.0089362646775069301 0 0.0047221887502720463 0.0089646390657930983 0 0.0048759806777732128 0.0091189365610006481 0 0.004828302573474887 0.0087682033143892078 0 0.004914258328161945 0.0089362646775069301 0 0.0047221887502720463 0.0089646390657930983 0 0.0010575268107899296 0.015601283747736176 0 0.0014870885416833227 0.015368587777557259 0 0.0017199365319658085 0.014911858218169457 0 0.0027469803117183516 0.012521840186675948 0 0.0034247557419081216 0.01199005733084261 0 0.004480031466022466 0.0090372358071221862 0 0.0047221887502720463 0.0089646390657930983 0 0.0046523746152234337 0.00931659187314785 0 0.0047221887502720463 0.0089646390657930983 0 0.0046523746152234337 0.00931659187314785 0 0.0048759806777732128 0.0091189365610006481 0 0.002630533204772315 0.01448387159956121 0 0.0019207124977625885 0.015169158020454553 0 0.0020150505084536416 0.015675533543971835 0 0.002630533204772315 0.01448387159956121 0 0.0017199365319658085 0.014911858218169457 0 0.0019207124977625885 0.015169158020454553 0 0.0014870885416833227 0.015368587777557259 0 0.0019207124977625885 0.015169158020454553 0 0.0020150505084536416 0.015675533543971835 0 0.0017176912210091141 0.015676271942428335 0 0.00066126207057670011 0.015762270462692171 0 0.0014870885416833227 0.015368587777557259 0 0.0017199365319658085 0.014911858218169457 0 0.0019207124977625885 0.015169158020454553 0 0.0014909910630228691 0.016327247094588191 0 0.00066126207057670011 0.015762270462692171 0 0.0014449664422151304 0.016295727255476969 0 0.0011511191306070442 0.016915423017337835 0 0.0011015780060405621 0.016506133962725482 0 0.0014449664422151304 0.016295727255476969 0 0.0019110760343952747 0.015639331090287301 0 0.001412872370555948 0.015814057462863986 0 0.0014870885416833227 0.015368587777557259 0 0.0019110760343952747 0.015639331090287301 0 0.001412872370555948 0.015814057462863986 0 0.0010575268107899296 0.015601283747736176 0 0.001412872370555948 0.015814057462863986 0 0.0012245771369253401 0.016081185082184611 0 0.0010575268107899296 0.015601283747736176 0 0.0014870885416833227 0.015368587777557259 0 0.001412872370555948 0.015814057462863986 0 0.0014449664422151304 0.016295727255476969 0 0.001412872370555948 0.015814057462863986 0 0.0012245771369253401 0.016081185082184611 0 0.00091596443256936218 0.016032109184547075 0 0.0010575268107899296 0.015601283747736176 0 0.0012245771369253401 0.016081185082184611 0 -0.0022593069403812169 0.015315256447831067 0 -0.002401048994668799 0.01528479354770839 0 -0.002373612365602525 0.015424207565292525 0 -0.0022593069403812169 0.015315256447831067 0 -0.0022193866182415025 0.015371514165771016 0 -0.0021968136286145555 0.015330568405326627 0 -0.0022782089060351444 0.015411857150046981 0 -0.0022593069403812169 0.015315256447831067 0 -0.002373612365602525 0.015424207565292525 0 -0.0022782089060351444 0.015411857150046981 0 -0.0022593069403812169 0.015315256447831067 0 -0.0022193866182415025 0.015371514165771016 0 -0.0011179420694855701 0.013819594215431363 0 -0.0023970105132958713 0.015793075829900329 0 -0.0018557110181564537 0.014716820016302985 0 -0.0020637851417399187 0.015267452218035386 0 -0.0021309016389618215 0.015322925200285551 0 0.00099657085110267424 0.013993268200888889 0 0.00066126207057670011 0.015762270462692171 0 -0.0021843956383418486 0.015411683445539509 0 -0.0022193866182415025 0.015371514165771016 0 -0.0021615805681169712 0.015337104675333172 0 -0.0021993990213444474 0.01548027212466925 0 -0.0021843956383418486 0.015411683445539509 0 -0.0020637851417399187 0.015267452218035386 0 -0.0021843956383418486 0.015411683445539509 0 -0.0020637851417399187 0.015267452218035386 0 -0.0021615805681169712 0.015337104675333172 0 -0.0022193866182415025 0.015371514165771016 0 -0.0021615805681169712 0.015337104675333172 0 -0.0021968136286145555 0.015330568405326627 0 -0.0020637851417399187 0.015267452218035386 0 -0.0021615805681169712 0.015337104675333172 0 -0.0021441947036015124 0.015288109879914705 0 -0.0022593069403812169 0.015315256447831067 0 -0.0021968136286145555 0.015330568405326627 0 -0.0021441947036015124 0.015288109879914705 0 -0.0021615805681169712 0.015337104675333172 0 -0.0021968136286145555 0.015330568405326627 0 -0.0021441947036015124 0.015288109879914705 0 -0.00013582895638741951 0.016367113595805779 0 0.00080107847524970134 0.016250221261680665 0 0.00055328083157002656 0.016653176233353106 0 -0.0022593069403812169 0.015315256447831067 0 -0.0021441947036015124 0.015288109879914705 0 -0.0021270353656534955 0.015222689265463735 0 0.00066126207057670011 0.015762270462692171 0 -0.0011459580019660799 0.015749322247188467 0 -0.0020637851417399187 0.015267452218035386 0 -0.0021441947036015124 0.015288109879914705 0 -0.0021270353656534955 0.015222689265463735 0 -0.0020637851417399187 0.015267452218035386 0 -0.0021309016389618215 0.015322925200285551 0 -0.0021270353656534955 0.015222689265463735 0 0.0011511191306070442 0.016915423017337835 0 0.0011015780060405621 0.016506133962725482 0 0.00055328083157002656 0.016653176233353106 0 0.00080107847524970134 0.016250221261680665 0 0.0011015780060405621 0.016506133962725482 0 0.00055328083157002656 0.016653176233353106 0 -0.0023030479818683916 0.015157136095444536 0 -0.0022593069403812169 0.015315256447831067 0 -0.002401048994668799 0.01528479354770839 0 -0.0023903812553616784 0.021197668419714478 0 -0.0011459580019660799 0.015749322247188467 0 -0.0023030479818683916 0.015157136095444536 0 -0.0022593069403812169 0.015315256447831067 0 -0.0021270353656534955 0.015222689265463735 0 -0.0023030479818683916 0.015157136095444536 0 -0.002521170248604454 0.015178513056716803 0 -0.002401048994668799 0.01528479354770839 0 -0.002521170248604454 0.015178513056716803 0 -0.002401048994668799 0.01528479354770839 0 -0.0025529864617216454 0.015327502712395731 0 -0.002401048994668799 0.01528479354770839 0 -0.0025529864617216454 0.015327502712395731 0 -0.002373612365602525 0.015424207565292525 0 -0.0036146078963487597 0.012747501063763975 0 -0.0036280106537590552 0.013584391073695468 0 -0.0045168335938812598 0.01155757586126155 0 -0.0046477395478334771 0.011334824093672674 0 -0.0044584425573358198 0.011235534785436251 0 -0.0045168335938812598 0.01155757586126155 0 -0.0042166012346630454 0.011487087323109976 0 -0.0044584425573358198 0.011235534785436251 0 -0.0036146078963487597 0.012747501063763975 0 -0.0056098070324563697 0.019385084832405926 0 -0.0043467609861475697 0.020799009879707741 0 -0.0056098070324563697 0.019385084832405926 0 -0.002521170248604454 0.015178513056716803 0 -0.0025529864617216454 0.015327502712395731 0 -0.0027475377214609422 0.015218599407814648 0 -0.0045168335938812598 0.01155757586126155 0 -0.0043333228332307272 0.011817577637462382 0 -0.0042166012346630454 0.011487087323109976 0 -0.0056098070324563697 0.019385084832405926 0 -0.0053977581113624565 0.018180888442358194 0 -0.0043333228332307272 0.011817577637462382 0 -0.0040690266450331795 0.011786486288491247 0 -0.0042166012346630454 0.011487087323109976 0 -0.007457237909959457 0.025624830464745667 0 -0.0056241548903707634 0.024534487757202569 0 -0.0071337698030214296 0.024755124241079885 0 -0.0040690266450331795 0.011786486288491247 0 -0.0039487347809187313 0.011543076897159834 0 -0.0042166012346630454 0.011487087323109976 0 -0.0039487347809187313 0.011543076897159834 0 -0.0042166012346630454 0.011487087323109976 0 -0.0039630621286638919 0.01129155922457693 0 -0.0042166012346630454 0.011487087323109976 0 -0.004186696176104834 0.011154851393147687 0 -0.0044584425573358198 0.011235534785436251 0 -0.0042166012346630454 0.011487087323109976 0 -0.004186696176104834 0.011154851393147687 0 -0.0039630621286638919 0.01129155922457693 0 -0.004186696176104834 0.011154851393147687 0 -0.0039630621286638919 0.01129155922457693 0 -0.0039769851928696453 0.011063185081368563 0 -0.004186696176104834 0.011154851393147687 0 -0.0039769851928696453 0.011063185081368563 0 -0.0041430062721405508 0.010859573482406671 0 -0.0037952180287980485 0.010857391687316052 0 -0.0039769851928696453 0.011063185081368563 0 -0.0041430062721405508 0.010859573482406671 0 -0.004186696176104834 0.011154851393147687 0 -0.0043441656836406559 0.010963475271664747 0 -0.0044584425573358198 0.011235534785436251 0 -0.004186696176104834 0.011154851393147687 0 -0.0041430062721405508 0.010859573482406671 0 -0.0043441656836406559 0.010963475271664747 0 -0.0047460975953569394 0.011162264389262117 0 -0.0044331246954893303 0.011130625262266877 0 -0.0045882456097404946 0.010849793937904435 0 -0.0043441656836406559 0.010963475271664747 0 -0.0044584425573358198 0.011235534785436251 0 -0.0044717566039092918 0.010994006696426474 0 -0.0046024991346160218 0.011136327877283362 0 -0.0044584425573358198 0.011235534785436251 0 -0.0044717566039092918 0.010994006696426474 0 -0.0046713300116262343 0.010936486092801231 0 -0.0046024991346160218 0.011136327877283362 0 -0.0046024991346160218 0.011136327877283362 0 -0.0046477395478334771 0.011334824093672674 0 -0.0044584425573358198 0.011235534785436251 0 -0.025829213771641577 0.019676703657220782 0 -0.026543309314335638 0.020714160981946429 0 -0.025601998158282731 0.020555799641085205 0 -0.024999746735703453 0.019455412940014249 0 -0.025601998158282731 0.020555799641085205 0 -0.024999728096269359 0.020874731605802829 0 -0.025829213771641577 0.019676703657220782 0 -0.024999746735703453 0.019455412940014249 0 -0.025601998158282731 0.020555799641085205 0 -0.025829213771641577 0.019676703657220782 0 -0.024999746735703453 0.019455412940014249 0 -0.025619061169496717 0.018735480887562612 0 -0.025829213771641577 0.019676703657220782 0 -0.026528134334969995 0.019062890860111936 0 -0.025619061169496717 0.018735480887562612 0 -0.02332808938076231 0.02280423172433562 0 -0.025640167394570448 0.022406834886703215 0 -0.025353845361638483 0.020312887185868919 0 -0.025640167394570448 0.022406834886703215 0 -0.024810597473700052 0.0247016149785046 0 -0.028097965370720016 0.023308354504821858 0 -0.02332808938076231 0.02280423172433562 0 -0.025640167394570448 0.022406834886703215 0 -0.024810597473700052 0.0247016149785046 0 -0.024824281945757587 0.02480276944392475 0 -0.025705132234911849 0.024771949362344198 0 -0.025640167394570448 0.022406834886703215 0 -0.028097965370720016 0.023308354504821858 0 -0.027279101754054257 0.0210443432186725 0 -0.024810597473700052 0.0247016149785046 0 -0.024592813538090463 0.024995899741071116 0 -0.02398863219025598 0.024563835055160497 0 -0.024810597473700052 0.0247016149785046 0 -0.02398863219025598 0.024563835055160497 0 -0.022643454738122838 0.025006950948581658 0 -0.025829213771641577 0.019676703657220782 0 -0.026528134334969995 0.019062890860111936 0 -0.026543309314335638 0.020714160981946429 0 -0.02332808938076231 0.02280423172433562 0 -0.024810597473700052 0.0247016149785046 0 -0.024592813538090463 0.024995899741071116 0 -0.024990799256735953 0.020909601027002341 0 -0.025501546713116868 0.022706273357224561 0 -0.024592813538090463 0.024995899741071116 0 -0.02398863219025598 0.024563835055160497 0 -0.024291406989989321 0.023867575740976706 0 -0.02398863219025598 0.024563835055160497 0 -0.023339142150993305 0.023719894947382678 0 -0.024291406989989321 0.023867575740976706 0 -0.023339142150993305 0.023719894947382678 0 -0.024291406989989321 0.023867575740976706 0 -0.02417454041554136 0.023008049196975966 0 -0.024291406989989321 0.023867575740976706 0 -0.02417454041554136 0.023008049196975966 0 -0.025455504473164452 0.022365282354747551 0 -0.023339142150993305 0.023719894947382678 0 -0.02417454041554136 0.023008049196975966 0 -0.023386794070511932 0.022916396544065132 0 -0.024592813538090463 0.024995899741071116 0 -0.024291406989989321 0.023867575740976706 0 -0.025455504473164452 0.022365282354747551 0 -0.026543309314335638 0.020714160981946429 0 -0.025455504473164452 0.022365282354747551 0 -0.025926349592186194 0.021518640046481165 0 -0.025501546713116868 0.022706273357224561 0 -0.025468418322806847 0.022296206797357741 0 -0.025455504473164452 0.022365282354747551 0 -0.025873473195509158 0.022102232876774732 0 -0.025926349592186194 0.021518640046481165 0 -0.025873473195509158 0.022102232876774732 0 -0.025674926538686419 0.02187103816386083 0 -0.025926349592186194 0.021518640046481165 0 -0.025674926538686419 0.02187103816386083 0 -0.025926349592186194 0.021518640046481165 0 -0.025490242559911284 0.021402598649204799 0 -0.025926349592186194 0.021518640046481165 0 -0.025601998158282731 0.020555799641085205 0 -0.025490242559911284 0.021402598649204799 0 -0.026543309314335638 0.020714160981946429 0 -0.025926349592186194 0.021518640046481165 0 -0.025601998158282731 0.020555799641085205 0 -0.025601998158282731 0.020555799641085205 0 -0.024999728096269359 0.020874731605802829 0 -0.025490242559911284 0.021402598649204799 0 -0.025674926538686419 0.02187103816386083 0 -0.025490242559911284 0.021402598649204799 0 -0.0249999514666224 0.022292736998766688 0 -0.024999728096269359 0.020874731605802829 0 -0.025490242559911284 0.021402598649204799 0 -0.0249999514666224 0.022292736998766688 0 -0.024999421976200357 0.022293506377719426 0 -0.024885206325397126 0.023187808800768466 0 -0.024998935350049482 0.022297995177649955 0 -0.023907036728443173 0.02420943836192457 0 -0.025000285325981371 0.022937227141569733 0 -0.025674926538686419 0.02187103816386083 0 -0.0249999514666224 0.022292736998766688 0 -0.025793651576850696 0.022166914575127646 0 -0.025873473195509158 0.022102232876774732 0 -0.025674926538686419 0.02187103816386083 0 -0.025793651576850696 0.022166914575127646 0 -0.023907036728443173 0.02420943836192457 0 -0.025000285325981371 0.022937227141569733 0 -0.023732676333260871 0.023511089933788188 0 -0.024999609558547665 0.022940731824436705 0 -0.023973015376246052 0.024073553736161806 0 -0.024999484550130308 0.024998461920124417 0 -0.024314991578895846 0.024706311443433621 0 -0.023588785685468967 0.025052530729996168 0 -0.024998477075518329 0.022944837272776623 0 -0.024999484550130308 0.024998461920124417 0 -0.024314991578895846 0.024706311443433621 0 -0.024999484550130308 0.024998461920124417 0 -0.023588785685468967 0.025052530729996168 0 -0.022763795868703599 0.024998991196635029 0 -0.022763795868703599 0.024998991196635029 0 -0.022646905422030201 0.025541802796731825 0 -0.021143778881288499 0.025086012327380683 0 -0.023588785685468967 0.025052530729996168 0 -0.022763795868703599 0.024998991196635029 0 -0.022646905422030201 0.025541802796731825 0 -0.023732676333260871 0.023511089933788188 0 -0.022222451018679052 0.024070033807391113 0 -0.022701089922589134 0.024298296123715042 0 -0.023973015376246052 0.024073553736161806 0 -0.022460917050316446 0.024790347083593574 0 -0.024314991578895846 0.024706311443433621 0 -0.023588785685468967 0.025052530729996168 0 -0.022646905422030201 0.025541802796731825 0 -0.022222451018679052 0.024070033807391113 0 -0.022701089922589134 0.024298296123715042 0 -0.021492251332629053 0.024748557873169038 0 -0.022701089922589134 0.024298296123715042 0 -0.021533826812672973 0.025126965623874852 0 -0.021492251332629053 0.024748557873169038 0 -0.023907036728443173 0.02420943836192457 0 -0.023732676333260871 0.023511089933788188 0 -0.022701089922589134 0.024298296123715042 0 -0.026209130201474643 0.022210544806349493 0 -0.023500358350763365 0.023243654107665077 0 -0.025873473195509158 0.022102232876774732 0 -0.025793651576850696 0.022166914575127646 0 -0.025965442042651426 0.022164132347701582 0 -0.023907036728443173 0.02420943836192457 0 -0.022701089922589134 0.024298296123715042 0 -0.022416596679216569 0.025059581579514961 0 -0.025455504473164452 0.022365282354747551 0 -0.025873473195509158 0.022102232876774732 0 -0.024429910452868176 0.021901188869448165 0 -0.024885206325397126 0.023187808800768466 0 -0.023500358350763365 0.023243654107665077 0 -0.023500358350763365 0.023243654107665077 0 -0.020896693029520828 0.024452988032607113 0 -0.023500358350763365 0.023243654107665077 0 -0.021461947007745036 0.023247292952453921 0 -0.022701089922589134 0.024298296123715042 0 -0.022416596679216569 0.025059581579514961 0 -0.021533826812672973 0.025126965623874852 0 -0.023386794070511932 0.022916396544065132 0 -0.024429910452868176 0.021901188869448165 0 -0.02235905757386418 0.022470189597291124 0 -0.02417454041554136 0.023008049196975966 0 -0.025455504473164452 0.022365282354747551 0 -0.024429910452868176 0.021901188869448165 0 -0.02417454041554136 0.023008049196975966 0 -0.023386794070511932 0.022916396544065132 0 -0.024429910452868176 0.021901188869448165 0 -0.021183094892179496 0.023929785103692217 0 -0.020717107602500787 0.023934364346168305 0 -0.020745151686674308 0.023778208127592765 0 -0.023386794070511932 0.022916396544065132 0 -0.02235905757386418 0.022470189597291124 0 -0.022505140818300271 0.023244784641045648 0 -0.02235905757386418 0.022470189597291124 0 -0.021606485186474532 0.023551445432060315 0 -0.022505140818300271 0.023244784641045648 0 -0.020717107602500787 0.023934364346168305 0 -0.020745151686674308 0.023778208127592765 0 -0.020592494139404831 0.023840032383550629 0 -0.020530785367553313 0.023854960667179001 0 -0.020592494139404831 0.023840032383550629 0 -0.020471440834308616 0.023785133079199022 0 -0.02235905757386418 0.022470189597291124 0 -0.020530785367553313 0.023854960667179001 0 -0.021606485186474532 0.023551445432060315 0 -0.021461947007745036 0.023247292952453921 0 -0.020764833552711068 0.023673919220344335 0 -0.020717107602500787 0.023934364346168305 0 -0.020530785367553313 0.023854960667179001 0 -0.020592494139404831 0.023840032383550629 0 -0.020896693029520828 0.024452988032607113 0 -0.020722837209110362 0.024518971873625731 0 -0.020745151686674308 0.023778208127592765 0 -0.020592494139404831 0.023840032383550629 0 -0.020471440834308616 0.023785133079199022 0 -0.021533826812672973 0.025126965623874852 0 -0.020881932033960753 0.025278109447477576 0 -0.021492251332629053 0.024748557873169038 0 -0.022460917050316446 0.024790347083593574 0 -0.021296608815193917 0.025025780063093903 0 -0.022763795868703599 0.024998991196635029 0 -0.021143778881288499 0.025086012327380683 0 -0.019723064090336709 0.02499875828347712 0 -0.022222451018679052 0.024070033807391113 0 -0.021492251332629053 0.024748557873169038 0 -0.021143778881288499 0.025086012327380683 0 -0.020809152275702375 0.025119969373444132 0 -0.021143778881288499 0.025086012327380683 0 -0.020127226802576351 0.025112062492579447 0 -0.021492251332629053 0.024748557873169038 0 -0.020809152275702375 0.025119969373444132 0 -0.021143778881288499 0.025086012327380683 0 -0.020881932033960753 0.025278109447477576 0 -0.021492251332629053 0.024748557873169038 0 -0.020809152275702375 0.025119969373444132 0 -0.018858357780339213 0.025089295600138686 0 -0.01972026767880803 0.024999767619478568 0 -0.01852171781556352 0.024999462382155994 0 -0.018858357780339213 0.025089295600138686 0 -0.01972026767880803 0.024999767619478568 0 -0.019243960005620481 0.02507925720654737 0 -0.019721608532450217 0.024999813167233428 0 -0.019690673782270882 0.025089578050411409 0 -0.021143778881288499 0.025086012327380683 0 -0.019723064090336709 0.02499875828347712 0 -0.020127226802576351 0.025112062492579447 0 -0.020809152275702375 0.025119969373444132 0 -0.020127226802576351 0.025112062492579447 0 -0.020292240602662343 0.025319643741020609 0 -0.019690673782270882 0.025089578050411409 0 -0.019646203587124111 0.024761138318741997 0 -0.019243960005620481 0.02507925720654737 0 -0.019090854301031746 0.025025309063690743 0 -0.019003467236880199 0.024971339684915408 0 -0.019646203587124111 0.024761138318741997 0 -0.019099167375953546 0.024782596489125244 0 -0.018858357780339213 0.025089295600138686 0 -0.019243960005620481 0.02507925720654737 0 -0.019003467236880199 0.024971339684915408 0 -0.018858357780339213 0.025089295600138686 0 -0.019003467236880199 0.024971339684915408 0 -0.018677304185695409 0.024972253555165188 0 -0.019003467236880199 0.024971339684915408 0 -0.019121911172919361 0.024656321489511818 0 -0.018677304185695409 0.024972253555165188 0 -0.019121911172919361 0.024656321489511818 0 -0.019337019807119937 0.024656129735362641 0 -0.018720190492503268 0.024882230535913496 0 -0.019121911172919361 0.024656321489511818 0 -0.019533501073447042 0.024278607464025992 0 -0.019337019807119937 0.024656129735362641 0 -0.019081150114728523 0.024731648473181437 0 -0.019003467236880199 0.024971339684915408 0 -0.019121911172919361 0.024656321489511818 0 -0.019081150114728523 0.024731648473181437 0 -0.019121911172919361 0.024656321489511818 0 -0.019533501073447042 0.024278607464025992 0 -0.020722837209110362 0.024518971873625731 0 -0.019646203587124111 0.024761138318741997 0 -0.020881932033960753 0.025278109447477576 0 -0.020809152275702375 0.025119969373444132 0 -0.020292240602662343 0.025319643741020609 0 -0.020530785367553313 0.023854960667179001 0 -0.020471440834308616 0.023785133079199022 0 -0.019533501073447042 0.024278607464025992 0 -0.020471440834308616 0.023785133079199022 0 -0.019574399639750429 0.023574376553366794 0 -0.019533501073447042 0.024278607464025992 0 -0.019646203587124111 0.024761138318741997 0 -0.019514029209937958 0.024169899626918984 0 -0.020530785367553313 0.023854960667179001 0 -0.019533501073447042 0.024278607464025992 0 -0.019873275379456726 0.024362693944805402 0 -0.020530785367553313 0.023854960667179001 0 -0.019873275379456726 0.024362693944805402 0 -0.020170908242700656 0.024474057834023073 0 -0.019533501073447042 0.024278607464025992 0 -0.019873275379456726 0.024362693944805402 0 -0.019337019807119937 0.024656129735362641 0 -0.019873275379456726 0.024362693944805402 0 -0.019337019807119937 0.024656129735362641 0 -0.019753633165771216 0.024687840607762777 0 -0.019337019807119937 0.024656129735362641 0 -0.019489251909664159 0.025124178543765044 0 -0.018765143651788392 0.025044204786960084 0 -0.019337019807119937 0.024656129735362641 0 -0.019489251909664159 0.025124178543765044 0 -0.019753633165771216 0.024687840607762777 0 -0.019753633165771216 0.024687840607762777 0 -0.019794383480416448 0.024658071159111491 0 -0.020170908242700656 0.024474057834023073 0 -0.019489251909664159 0.025124178543765044 0 -0.019753633165771216 0.024687840607762777 0 -0.019794383480416448 0.024658071159111491 0 -0.019489251909664159 0.025124178543765044 0 -0.019794383480416448 0.024658071159111491 0 -0.020149712771552215 0.024322882942077819 0 -0.019794383480416448 0.024658071159111491 0 -0.020462203805372007 0.024645103890528406 0 -0.01984015246402495 0.024944102867471545 0 -0.019794383480416448 0.024658071159111491 0 -0.01984015246402495 0.024944102867471545 0 -0.020149712771552215 0.024322882942077819 0 -0.018981529623214612 0.02268870329742036 0 -0.020264365071177053 0.022807809355900998 0 -0.020149712771552215 0.024322882942077819 0 -0.019537341249212102 0.023881358625356879 0 -0.020081091294776528 0.024328192607618728 0 -0.020462203805372007 0.024645103890528406 0 -0.021022081270422217 0.02511769230047764 0 -0.01984015246402495 0.024944102867471545 0 -0.020462203805372007 0.024645103890528406 0 -0.020170908242700656 0.024474057834023073 0 -0.020955087814076262 0.024128612823842325 0 -0.019794383480416448 0.024658071159111491 0 -0.020462203805372007 0.024645103890528406 0 -0.020170908242700656 0.024474057834023073 0 -0.019873275379456726 0.024362693944805402 0 -0.019753633165771216 0.024687840607762777 0 -0.020170908242700656 0.024474057834023073 0 -0.020530785367553313 0.023854960667179001 0 -0.020170908242700656 0.024474057834023073 0 -0.020955087814076262 0.024128612823842325 0 -0.020530785367553313 0.023854960667179001 0 -0.021606485186474532 0.023551445432060315 0 -0.020955087814076262 0.024128612823842325 0 -0.021606485186474532 0.023551445432060315 0 -0.020955087814076262 0.024128612823842325 0 -0.022020105301736221 0.023902953702131396 0 -0.020955087814076262 0.024128612823842325 0 -0.022020105301736221 0.023902953702131396 0 -0.021546196846685246 0.024511155525997433 0 -0.023339142150993305 0.023719894947382678 0 -0.023386794070511932 0.022916396544065132 0 -0.022505140818300271 0.023244784641045648 0 -0.021606485186474532 0.023551445432060315 0 -0.022505140818300271 0.023244784641045648 0 -0.022020105301736221 0.023902953702131396 0 -0.023339142150993305 0.023719894947382678 0 -0.022020105301736221 0.023902953702131396 0 -0.022684369437548747 0.024349300247793793 0 -0.023339142150993305 0.023719894947382678 0 -0.022505140818300271 0.023244784641045648 0 -0.022020105301736221 0.023902953702131396 0 -0.02398863219025598 0.024563835055160497 0 -0.022684369437548747 0.024349300247793793 0 -0.022643454738122838 0.025006950948581658 0 -0.02398863219025598 0.024563835055160497 0 -0.023339142150993305 0.023719894947382678 0 -0.022684369437548747 0.024349300247793793 0 -0.022020105301736221 0.023902953702131396 0 -0.022684369437548747 0.024349300247793793 0 -0.021546196846685246 0.024511155525997433 0 -0.022684369437548747 0.024349300247793793 0 -0.021546196846685246 0.024511155525997433 0 -0.022643454738122838 0.025006950948581658 0 -0.021546196846685246 0.024511155525997433 0 -0.021022081270422217 0.02511769230047764 0 -0.022643454738122838 0.025006950948581658 0 -0.020462203805372007 0.024645103890528406 0 -0.021546196846685246 0.024511155525997433 0 -0.021022081270422217 0.02511769230047764 0 -0.020462203805372007 0.024645103890528406 0 -0.020955087814076262 0.024128612823842325 0 -0.021546196846685246 0.024511155525997433 0 -0.02172496701104042 0.025812213415154862 0 -0.021022081270422217 0.02511769230047764 0 -0.022643454738122838 0.025006950948581658 0 -0.02172496701104042 0.025812213415154862 0 -0.021022081270422217 0.02511769230047764 0 -0.020589083240745019 0.025836678203726805 0 -0.024810597473700052 0.0247016149785046 0 -0.022643454738122838 0.025006950948581658 0 -0.022988951350854384 0.026206005366932156 0 -0.02172496701104042 0.025812213415154862 0 -0.022643454738122838 0.025006950948581658 0 -0.022988951350854384 0.026206005366932156 0 -0.028097965370720016 0.023308354504821858 0 -0.030805989491916819 0.02194777960564415 0 -0.028965750788142789 0.021536800037325853 0 -0.028097965370720016 0.023308354504821858 0 -0.027279101754054257 0.0210443432186725 0 -0.028965750788142789 0.021536800037325853 0 -0.02172496701104042 0.025812213415154862 0 -0.02158923330108653 0.026875045360358899 0 -0.020589083240745019 0.025836678203726805 0 -0.02172496701104042 0.025812213415154862 0 -0.022988951350854384 0.026206005366932156 0 -0.02158923330108653 0.026875045360358899 0 -0.025705132234911849 0.024771949362344198 0 -0.023802610406496331 0.021301043234904532 0 -0.018961272787349395 0.021046484161798409 0 -0.021447179904328862 0.017991755465941537 0 -0.01932928791234767 0.021219891866697045 0 -0.01807930183583736 0.02148217196174675 0 -0.017847611547509374 0.020235060235947532 0 -0.017271301488373789 0.020532237565204548 0 -0.01807930183583736 0.02148217196174675 0 -0.017847611547509374 0.020235060235947532 0 -0.023802610406496331 0.021301043234904532 0 -0.01898988495775782 0.023653381704838015 0 -0.01981094729812893 0.02059498487447653 0 -0.019232849558561627 0.019231162478681146 0 -0.017782157529577586 0.019100190498431258 0 -0.01981094729812893 0.02059498487447653 0 -0.020669585979282153 0.019479186453738393 0 -0.019232849558561627 0.019231162478681146 0 -0.01932928791234767 0.021219891866697045 0 -0.018981529623214612 0.02268870329742036 0 -0.020264365071177053 0.022807809355900998 0 -0.01932928791234767 0.021219891866697045 0 -0.018981529623214612 0.02268870329742036 0 -0.01807930183583736 0.02148217196174675 0 -0.021022081270422217 0.02511769230047764 0 -0.01984015246402495 0.024944102867471545 0 -0.020589083240745019 0.025836678203726805 0 -0.019537341249212102 0.023881358625356879 0 -0.01898988495775782 0.023653381704838015 0 -0.021625632989631726 0.022412203039107282 0 -0.023440837216375798 0.021581634576608534 0 -0.021432422236745408 0.023765694810964414 0 -0.022312194576559887 0.020866750065265741 0 -0.021625632989631726 0.022412203039107282 0 -0.021275660842856925 0.020597567864948665 0 -0.022312194576559887 0.020866750065265741 0 -0.021625632989631726 0.022412203039107282 0 -0.023440837216375798 0.021581634576608534 0 -0.018961272787349395 0.021046484161798409 0 -0.021790462881030367 0.022374463759763787 0 -0.01981094729812893 0.02059498487447653 0 -0.021625632989631726 0.022412203039107282 0 -0.021275660842856925 0.020597567864948665 0 -0.01932928791234767 0.021219891866697045 0 -0.021625632989631726 0.022412203039107282 0 -0.020264365071177053 0.022807809355900998 0 -0.01981094729812893 0.02059498487447653 0 -0.021275660842856925 0.020597567864948665 0 -0.020669585979282153 0.019479186453738393 0 -0.021275660842856925 0.020597567864948665 0 -0.020669585979282153 0.019479186453738393 0 -0.022031367650016894 0.01977603768809676 0 -0.022312194576559887 0.020866750065265741 0 -0.023343421571921704 0.019646240725366918 0 -0.023440837216375798 0.021581634576608534 0 -0.022312194576559887 0.020866750065265741 0 -0.021275660842856925 0.020597567864948665 0 -0.022031367650016894 0.01977603768809676 0 -0.022312194576559887 0.020866750065265741 0 -0.022031367650016894 0.01977603768809676 0 -0.023343421571921704 0.019646240725366918 0 -0.022031367650016894 0.01977603768809676 0 -0.023343421571921704 0.019646240725366918 0 -0.022676989118842712 0.018814800868961114 0 -0.023343421571921704 0.019646240725366918 0 -0.024613725678431536 0.0198424065818609 0 -0.024447233628909409 0.018835858454850495 0 -0.020826367766127937 0.022892021920398901 0 -0.020405030122530702 0.023895371241544464 0 -0.023343421571921704 0.019646240725366918 0 -0.024613725678431536 0.0198424065818609 0 -0.023440837216375798 0.021581634576608534 0 -0.017101530427697159 0.025905694269996726 0 -0.017176401200464115 0.025977385161573528 0 -0.017263937254382238 0.025788281923161505 0 -0.017187796098109533 0.026056937577547453 0 -0.017279761801566075 0.026070960923833805 0 -0.017138171358473779 0.026005489114614852 0 -0.017101530427697159 0.025905694269996726 0 -0.017187796098109533 0.026056937577547453 0 -0.017176401200464115 0.025977385161573528 0 -0.017187796098109533 0.026056937577547453 0 -0.017138171358473779 0.026005489114614852 0 -0.017176401200464115 0.025977385161573528 0 -0.017101530427697159 0.025905694269996726 0 -0.017187796098109533 0.026056937577547453 0 -0.01736937508332987 0.026204585394145719 0 -0.017187796098109533 0.026056937577547453 0 -0.01736937508332987 0.026204585394145719 0 -0.017279761801566075 0.026070960923833805 0 -0.01736937508332987 0.026204585394145719 0 -0.017279761801566075 0.026070960923833805 0 -0.017546268736086296 0.02611768853083386 0 -0.017279761801566075 0.026070960923833805 0 -0.017128673357502924 0.025970635612961878 0 -0.017333166847973019 0.02586657675000778 0 -0.017279761801566075 0.026070960923833805 0 -0.017554792456260661 0.02596820481908739 0 -0.017546268736086296 0.02611768853083386 0 -0.017279761801566075 0.026070960923833805 0 -0.017554792456260661 0.02596820481908739 0 -0.017333166847973019 0.02586657675000778 0 -0.017279761801566075 0.026070960923833805 0 -0.017138171358473779 0.026005489114614852 0 -0.017128673357502924 0.025970635612961878 0 -0.017138171358473779 0.026005489114614852 0 -0.017128673357502924 0.025970635612961878 0 -0.01708790542393698 0.025924771698718898 0 -0.017128673357502924 0.025970635612961878 0 -0.016990428341430205 0.025754776396297314 0 -0.016627557262918854 0.026038122250623307 0 -0.017051098408990047 0.025977947717628413 0 -0.016932592922519248 0.025989427621754654 0 -0.017128673357502924 0.025970635612961878 0 -0.016990428341430205 0.025754776396297314 0 -0.017333166847973019 0.02586657675000778 0 -0.016990428341430205 0.025754776396297314 0 -0.016617952939362787 0.0257775940580416 0 -0.016627557262918854 0.026038122250623307 0 -0.017554792456260661 0.02596820481908739 0 -0.017333166847973019 0.02586657675000778 0 -0.017696378715377176 0.025654492649387638 0 -0.016990428341430205 0.025754776396297314 0 -0.017333166847973019 0.02586657675000778 0 -0.017399880866566565 0.025644467344566189 0 -0.017333166847973019 0.02586657675000778 0 -0.017399880866566565 0.025644467344566189 0 -0.017696378715377176 0.025654492649387638 0 -0.017399880866566565 0.025644467344566189 0 -0.017696378715377176 0.025654492649387638 0 -0.017742989631363615 0.025406199134046705 0 -0.017696378715377176 0.025654492649387638 0 -0.018149049258360795 0.025394489358758626 0 -0.017742989631363615 0.025406199134046705 0 -0.017696378715377176 0.025654492649387638 0 -0.018149049258360795 0.025394489358758626 0 -0.017932535563544801 0.02579576495039029 0 -0.018149049258360795 0.025394489358758626 0 -0.017932535563544801 0.02579576495039029 0 -0.018475388351958673 0.025479378608510305 0 -0.017932535563544801 0.02579576495039029 0 -0.018135242345355136 0.026243367238329145 0 -0.018475388351958673 0.025479378608510305 0 -0.017554792456260661 0.02596820481908739 0 -0.017696378715377176 0.025654492649387638 0 -0.017932535563544801 0.02579576495039029 0 -0.017554792456260661 0.02596820481908739 0 -0.017765758159067852 0.026050644048102672 0 -0.017546268736086296 0.02611768853083386 0 -0.020405030122530702 0.023895371241544464 0 -0.019780176221637216 0.024932409647060193 0 -0.017765758159067852 0.026050644048102672 0 -0.018135242345355136 0.026243367238329145 0 -0.017546268736086296 0.02611768853083386 0 -0.01736937508332987 0.026204585394145719 0 -0.018135242345355136 0.026243367238329145 0 -0.017546268736086296 0.02611768853083386 0 -0.017554792456260661 0.02596820481908739 0 -0.017932535563544801 0.02579576495039029 0 -0.017765758159067852 0.026050644048102672 0 -0.017932535563544801 0.02579576495039029 0 -0.017765758159067852 0.026050644048102672 0 -0.018135242345355136 0.026243367238329145 0 -0.021432422236745408 0.023765694810964414 0 -0.020264365071177053 0.022807809355900998 0 -0.020149712771552215 0.024322882942077819 0 -0.021625632989631726 0.022412203039107282 0 -0.021432422236745408 0.023765694810964414 0 -0.020264365071177053 0.022807809355900998 0 -0.019489251909664159 0.025124178543765044 0 -0.021432422236745408 0.023765694810964414 0 -0.020149712771552215 0.024322882942077819 0 -0.019531133729092355 0.025130876584419575 0 -0.019780176221637216 0.024932409647060193 0 -0.019489251909664159 0.025124178543765044 0 -0.018135242345355136 0.026243367238329145 0 -0.018475388351958673 0.025479378608510305 0 -0.018149049258360795 0.025394489358758626 0 -0.018475388351958673 0.025479378608510305 0 -0.018765143651788392 0.025044204786960084 0 -0.019489251909664159 0.025124178543765044 0 -0.018475388351958673 0.025479378608510305 0 -0.018765143651788392 0.025044204786960084 0 -0.018149049258360795 0.025394489358758626 0 -0.018765143651788392 0.025044204786960084 0 -0.01820739182057296 0.0251410935719792 0 -0.018765143651788392 0.025044204786960084 0 -0.01820739182057296 0.0251410935719792 0 -0.018720190492503268 0.024882230535913496 0 -0.019337019807119937 0.024656129735362641 0 -0.018765143651788392 0.025044204786960084 0 -0.018720190492503268 0.024882230535913496 0 -0.018149049258360795 0.025394489358758626 0 -0.017742989631363615 0.025406199134046705 0 -0.01820739182057296 0.0251410935719792 0 -0.017742989631363615 0.025406199134046705 0 -0.01820739182057296 0.0251410935719792 0 -0.017703102475638367 0.025250857851819283 0 -0.01820739182057296 0.0251410935719792 0 -0.017703102475638367 0.025250857851819283 0 -0.018152226442525458 0.025082846018750868 0 -0.017703102475638367 0.025250857851819283 0 -0.018152226442525458 0.025082846018750868 0 -0.017470624747287833 0.025201225486126803 0 -0.01820739182057296 0.0251410935719792 0 -0.018152226442525458 0.025082846018750868 0 -0.018720190492503268 0.024882230535913496 0 -0.018152226442525458 0.025082846018750868 0 -0.018720190492503268 0.024882230535913496 0 -0.018677304185695409 0.024972253555165188 0 -0.019121911172919361 0.024656321489511818 0 -0.018720190492503268 0.024882230535913496 0 -0.018677304185695409 0.024972253555165188 0 -0.018858357780339213 0.025089295600138686 0 -0.018677304185695409 0.024972253555165188 0 -0.018028969155651459 0.025096647847763713 0 -0.018152226442525458 0.025082846018750868 0 -0.018677304185695409 0.024972253555165188 0 -0.018028969155651459 0.025096647847763713 0 -0.018152226442525458 0.025082846018750868 0 -0.018028969155651459 0.025096647847763713 0 -0.017470624747287833 0.025201225486126803 0 -0.018028969155651459 0.025096647847763713 0 -0.016933672675034116 0.025143722271217459 0 -0.017470624747287833 0.025201225486126803 0 -0.018028969155651459 0.025096647847763713 0 -0.017321504888786081 0.024999524303774515 0 -0.01852171781556352 0.024999462382155994 0 -0.018028969155651459 0.025096647847763713 0 -0.017321504888786081 0.024999524303774515 0 -0.016933672675034116 0.025143722271217459 0 -0.018858357780339213 0.025089295600138686 0 -0.018028969155651459 0.025096647847763713 0 -0.01852171781556352 0.024999462382155994 0 -0.016121269575508877 0.024999591652304622 0 -0.016933672675034116 0.025143722271217459 0 -0.015970623535437715 0.025250929061574872 0 -0.017321504888786081 0.024999524303774515 0 -0.016121269575508877 0.024999591652304622 0 -0.016933672675034116 0.025143722271217459 0 -0.017470624747287833 0.025201225486126803 0 -0.01674247982739541 0.025302195032160787 0 -0.017162143953752707 0.025349012947480855 0 -0.016933672675034116 0.025143722271217459 0 -0.017470624747287833 0.025201225486126803 0 -0.01674247982739541 0.025302195032160787 0 -0.016933672675034116 0.025143722271217459 0 -0.01674247982739541 0.025302195032160787 0 -0.015970623535437715 0.025250929061574872 0 -0.01674247982739541 0.025302195032160787 0 -0.016325494446234174 0.02545657953803749 0 -0.015970623535437715 0.025250929061574872 0 -0.01674247982739541 0.025302195032160787 0 -0.016722938279627366 0.025421226482218288 0 -0.016325494446234174 0.02545657953803749 0 -0.01674247982739541 0.025302195032160787 0 -0.016722938279627366 0.025421226482218288 0 -0.017162143953752707 0.025349012947480855 0 -0.016722938279627366 0.025421226482218288 0 -0.016712413407371521 0.025528924738148225 0 -0.016945961743235996 0.025529197535528746 0 -0.016722938279627366 0.025421226482218288 0 -0.017162143953752707 0.025349012947480855 0 -0.016945961743235996 0.025529197535528746 0 -0.016722938279627366 0.025421226482218288 0 -0.016712413407371521 0.025528924738148225 0 -0.016480973450454905 0.025549013797171984 0 -0.016722938279627366 0.025421226482218288 0 -0.016480973450454905 0.025549013797171984 0 -0.016325494446234174 0.02545657953803749 0 -0.017703102475638367 0.025250857851819283 0 -0.017470624747287833 0.025201225486126803 0 -0.017162143953752707 0.025349012947480855 0 -0.017703102475638367 0.025250857851819283 0 -0.017162143953752707 0.025349012947480855 0 -0.017349298915825335 0.025454016518243375 0 -0.017742989631363615 0.025406199134046705 0 -0.017703102475638367 0.025250857851819283 0 -0.017349298915825335 0.025454016518243375 0 -0.017162143953752707 0.025349012947480855 0 -0.017349298915825335 0.025454016518243375 0 -0.016945961743235996 0.025529197535528746 0 -0.017349298915825335 0.025454016518243375 0 -0.017161737402307514 0.025608908372039479 0 -0.016945961743235996 0.025529197535528746 0 -0.017399880866566565 0.025644467344566189 0 -0.017349298915825335 0.025454016518243375 0 -0.017161737402307514 0.025608908372039479 0 -0.016990428341430205 0.025754776396297314 0 -0.017399880866566565 0.025644467344566189 0 -0.017161737402307514 0.025608908372039479 0 -0.017399880866566565 0.025644467344566189 0 -0.017742989631363615 0.025406199134046705 0 -0.017349298915825335 0.025454016518243375 0 -0.016700365388469453 0.02562757729130255 0 -0.016712413407371521 0.025528924738148225 0 -0.016945961743235996 0.025529197535528746 0 -0.016700365388469453 0.02562757729130255 0 -0.016712413407371521 0.025528924738148225 0 -0.016480973450454905 0.025549013797171984 0 -0.016990428341430205 0.025754776396297314 0 -0.016700365388469453 0.02562757729130255 0 -0.016945961743235996 0.025529197535528746 0 -0.016990428341430205 0.025754776396297314 0 -0.017161737402307514 0.025608908372039479 0 -0.016945961743235996 0.025529197535528746 0 -0.016990428341430205 0.025754776396297314 0 -0.016700365388469453 0.02562757729130255 0 -0.016617952939362787 0.0257775940580416 0 -0.016700365388469453 0.02562757729130255 0 -0.016496934029486324 0.025667045148380974 0 -0.016617952939362787 0.0257775940580416 0 -0.016496934029486324 0.025667045148380974 0 -0.016617952939362787 0.0257775940580416 0 -0.016408902481358026 0.025806547836393343 0 -0.016318101448260017 0.025638806493336899 0 -0.016284526568755859 0.025642577205747721 0 -0.016325494446234174 0.02545657953803749 0 -0.016318101448260017 0.025638806493336899 0 -0.016275325355400366 0.025632207283355538 0 -0.016408902481358026 0.025806547836393343 0 -0.016496934029486324 0.025667045148380974 0 -0.016318101448260017 0.025638806493336899 0 -0.016408902481358026 0.025806547836393343 0 -0.01551059939341915 0.026447532767549554 0 -0.015285675210466462 0.026497770321149548 0 -0.016700365388469453 0.02562757729130255 0 -0.016496934029486324 0.025667045148380974 0 -0.016480973450454905 0.025549013797171984 0 -0.016496934029486324 0.025667045148380974 0 -0.016318101448260017 0.025638806493336899 0 -0.016480973450454905 0.025549013797171984 0 -0.01518778752702258 0.026089728958038717 0 -0.013014743406689526 0.026039668310293262 0 -0.014507051193143558 0.02680202443741132 0 -0.015285675210466462 0.026497770321149548 0 -0.013132148034531645 0.026875885167296568 0 -0.014793423383318157 0.027639880928143984 0 -0.013997848947543301 0.026794366969703696 0 -0.013385073621672952 0.027614207504307833 0 -0.015285675210466462 0.026497770321149548 0 -0.015405203978668193 0.025836080284147425 0 -0.014793423383318157 0.027639880928143984 0 -0.014848760758972962 0.026320570091467977 0 -0.013997848947543301 0.026794366969703696 0 -0.016284526568755859 0.025642577205747721 0 -0.016325494446234174 0.02545657953803749 0 -0.015955980110377369 0.025390359195623231 0 -0.016318101448260017 0.025638806493336899 0 -0.016480973450454905 0.025549013797171984 0 -0.016325494446234174 0.02545657953803749 0 -0.016325494446234174 0.02545657953803749 0 -0.015955980110377369 0.025390359195623231 0 -0.015970623535437715 0.025250929061574872 0 -0.014848760758972962 0.026320570091467977 0 -0.014025391376905044 0.02588619958283734 0 -0.013997848947543301 0.026794366969703696 0 -0.014920762359433962 0.024999991924196312 0 -0.013747800666625575 0.024999990154067092 0 -0.014025391376905044 0.02588619958283734 0 -0.014848760758972962 0.026320570091467977 0 -0.014920762359433962 0.024999991924196312 0 -0.014025391376905044 0.02588619958283734 0 -0.016121269575508877 0.024999591652304622 0 -0.014922485814635776 0.024999768962346305 0 -0.015970623535437715 0.025250929061574872 0 -0.015405203978668193 0.025836080284147425 0 -0.014920991786702151 0.024999926364933017 0 -0.015955980110377369 0.025390359195623231 0 -0.014922485814635776 0.024999768962346305 0 -0.015970623535437715 0.025250929061574872 0 -0.011933040527465483 0.025986679868732016 0 -0.012574798745164772 0.02499998978062163 0 -0.01315753270458732 0.026252156232559172 0 -0.012574798745164772 0.02499998978062163 0 -0.013747800666625575 0.024999990154067092 0 -0.01315753270458732 0.026252156232559172 0 -0.013747800666625575 0.024999990154067092 0 -0.014025391376905044 0.02588619958283734 0 -0.01315753270458732 0.026252156232559172 0 -0.014025391376905044 0.02588619958283734 0 -0.01315753270458732 0.026252156232559172 0 -0.013997848947543301 0.026794366969703696 0 -0.011965309485834609 0.027580938409804863 0 -0.01315753270458732 0.026252156232559172 0 -0.013385073621672952 0.027614207504307833 0 -0.01315753270458732 0.026252156232559172 0 -0.013997848947543301 0.026794366969703696 0 -0.013385073621672952 0.027614207504307833 0 -0.010844538002014384 0.026013733192057128 0 -0.011634880452409157 0.027243779531499469 0 -0.013014743406689526 0.026039668310293262 0 -0.011429754782842966 0.026793764470735677 0 -0.013132148034531645 0.026875885167296568 0 -0.011477102872394836 0.026655498762749186 0 -0.014238754096110596 0.026111586119907604 0 -0.011634880452409157 0.027243779531499469 0 -0.013014743406689526 0.026039668310293262 0 -0.013872080955726 0.027462409485361907 0 -0.011494127963705211 0.025882924598757052 0 -0.0119230351283468 0.02664167937427675 0 -0.013777290624889737 0.026110731369687099 0 -0.013340849846944147 0.025959978145711621 0 -0.012273115394076908 0.025025685513115462 0 -0.012416936733630224 0.027039394008402256 0 -0.013340849846944147 0.025959978145711621 0 -0.014637485000057177 0.026398036950595352 0 -0.012416936733630224 0.027039394008402256 0 -0.014637485000057177 0.026398036950595352 0 -0.015248042278965942 0.02422071150777768 0 -0.015779948655303667 0.025968929786561137 0 -0.013340849846944147 0.025959978145711621 0 -0.014637485000057177 0.026398036950595352 0 -0.015248042278965942 0.02422071150777768 0 -0.013340849846944147 0.025959978145711621 0 -0.012273115394076908 0.025025685513115462 0 -0.015248042278965942 0.02422071150777768 0 -0.014637485000057177 0.026398036950595352 0 -0.015779948655303667 0.025968929786561137 0 -0.015645766709053027 0.026759910518107159 0 -0.013014743406689526 0.026039668310293262 0 -0.014022440485281694 0.027418423473590275 0 -0.014507051193143558 0.02680202443741132 0 -0.013014743406689526 0.026039668310293262 0 -0.013872080955726 0.027462409485361907 0 -0.014022440485281694 0.027418423473590275 0 -0.01224882631856769 0.025754308459511214 0 -0.014238754096110596 0.026111586119907604 0 -0.014238754096110596 0.026111586119907604 0 -0.014162884287281768 0.026183639621642971 0 -0.014238754096110596 0.026111586119907604 0 -0.016161902698551479 0.026069659955506908 0 -0.01518778752702258 0.026089728958038717 0 -0.014507051193143558 0.02680202443741132 0 -0.015127206128015162 0.027585745970465644 0 -0.013873134151124433 0.027461431702915609 0 -0.014022440485281694 0.027418423473590275 0 -0.015127206128015162 0.027585745970465644 0 -0.014022440485281694 0.027418423473590275 0 -0.014507051193143558 0.02680202443741132 0 -0.015127206128015162 0.027585745970465644 0 -0.015285675210466462 0.026497770321149548 0 -0.016161902698551479 0.026069659955506908 0 -0.015248042278965942 0.02422071150777768 0 -0.017210921371656807 0.024500038807934454 0 -0.01646283307187402 0.025341799572086838 0 -0.016275325355400366 0.025632207283355538 0 -0.016274801315436866 0.026006513156657144 0 -0.016408902481358026 0.025806547836393343 0 -0.016617952939362787 0.0257775940580416 0 -0.016408902481358026 0.025806547836393343 0 -0.016627557262918854 0.026038122250623307 0 -0.017028481488279575 0.025911461925204382 0 -0.01708790542393698 0.025924771698718898 0 -0.017049096768515515 0.025933394272801398 0 -0.016161902698551479 0.026069659955506908 0 -0.016932592922519248 0.025989427621754654 0 -0.016274801315436866 0.026006513156657144 0 -0.016408902481358026 0.025806547836393343 0 -0.016627557262918854 0.026038122250623307 0 -0.017138171358473779 0.026005489114614852 0 -0.01708790542393698 0.025924771698718898 0 -0.017078986849967028 0.025951828286183688 0 -0.01708790542393698 0.025924771698718898 0 -0.017049096768515515 0.025933394272801398 0 -0.017078986849967028 0.025951828286183688 0 -0.017028481488279575 0.025911461925204382 0 -0.017049096768515515 0.025933394272801398 0 -0.017037464215068961 0.025943742387251549 0 -0.017049096768515515 0.025933394272801398 0 -0.017024635851228188 0.025930548980220628 0 -0.017078986849967028 0.025951828286183688 0 -0.017049096768515515 0.025933394272801398 0 -0.017024635851228188 0.025930548980220628 0 -0.017037464215068961 0.025943742387251549 0 -0.017024635851228188 0.025930548980220628 0 -0.017037464215068961 0.025943742387251549 0 -0.016945706687821145 0.025919405756435143 0 -0.017024635851228188 0.025930548980220628 0 -0.017078986849967028 0.025951828286183688 0 -0.017102280476199001 0.025963344634081745 0 -0.017024635851228188 0.025930548980220628 0 -0.017102280476199001 0.025963344634081745 0 -0.016945706687821145 0.025919405756435143 0 -0.017138171358473779 0.026005489114614852 0 -0.017078986849967028 0.025951828286183688 0 -0.017102280476199001 0.025963344634081745 0 -0.015248042278965942 0.02422071150777768 0 -0.01646283307187402 0.025341799572086838 0 -0.015779948655303667 0.025968929786561137 0 -0.01646283307187402 0.025341799572086838 0 -0.016873890039412181 0.026002682438021951 0 -0.015779948655303667 0.025968929786561137 0 -0.016161902698551479 0.026069659955506908 0 -0.016865222376210378 0.025587597598133269 0 -0.017210921371656807 0.024500038807934454 0 -0.01646283307187402 0.025341799572086838 0 -0.017037464215068961 0.025943742387251549 0 -0.01646283307187402 0.025341799572086838 0 -0.016873890039412181 0.026002682438021951 0 -0.017037464215068961 0.025943742387251549 0 -0.016873890039412181 0.026002682438021951 0 -0.017018072114307808 0.025630642810365194 0 -0.016945706687821145 0.025919405756435143 0 -0.016873890039412181 0.026002682438021951 0 -0.017037464215068961 0.025943742387251549 0 -0.016945706687821145 0.025919405756435143 0 -0.016873890039412181 0.026002682438021951 0 -0.015779948655303667 0.025968929786561137 0 -0.015645766709053027 0.026759910518107159 0 -0.016730015591993171 0.024953417838820362 0 -0.016945706687821145 0.025919405756435143 0 -0.01647825463015638 0.024433982314867295 0 -0.016873890039412181 0.026002682438021951 0 -0.015645766709053027 0.026759910518107159 0 -0.015531469715186437 0.028196042893677987 0 -0.016873890039412181 0.026002682438021951 0 -0.017018072114307808 0.025630642810365194 0 -0.0174739574822429 0.025371065390122665 0 -0.0170359693264442 0.026192676265163164 0 -0.014663618455473117 0.025597146349217895 0 -0.016940053366653066 0.025808137766303071 0 -0.017002268420333481 0.025035042893320748 0 -0.017018072114307808 0.025630642810365194 0 -0.016730015591993171 0.024953417838820362 0 -0.016945706687821145 0.025919405756435143 0 -0.016730015591993171 0.024953417838820362 0 -0.017504661870989986 0.025319321751060466 0 -0.017260825900956379 0.024405354276099071 0 -0.017239258063255197 0.025523022949269506 0 -0.014663618455473117 0.025597146349217895 0 -0.017018072114307808 0.025630642810365194 0 -0.016730015591993171 0.024953417838820362 0 -0.0174739574822429 0.025371065390122665 0 -0.016945706687821145 0.025919405756435143 0 -0.017170049839095765 0.025949170670031534 0 -0.017482336269377965 0.025894265546067531 0 -0.017138171358473779 0.026005489114614852 0 -0.017102280476199001 0.025963344634081745 0 -0.017176401200464115 0.025977385161573528 0 -0.017102280476199001 0.025963344634081745 0 -0.016945706687821145 0.025919405756435143 0 -0.017170049839095765 0.025949170670031534 0 -0.017102280476199001 0.025963344634081745 0 -0.017170049839095765 0.025949170670031534 0 -0.017176401200464115 0.025977385161573528 0 -0.017170049839095765 0.025949170670031534 0 -0.017176401200464115 0.025977385161573528 0 -0.017259051732953137 0.025911794693709963 0 -0.017101530427697159 0.025905694269996726 0 -0.017263937254382238 0.025788281923161505 0 -0.01725020670820742 0.025319044146750968 0 -0.017176401200464115 0.025977385161573528 0 -0.017259051732953137 0.025911794693709963 0 -0.017263937254382238 0.025788281923161505 0 -0.017259051732953137 0.025911794693709963 0 -0.017263937254382238 0.025788281923161505 0 -0.017482336269377965 0.025894265546067531 0 -0.017170049839095765 0.025949170670031534 0 -0.017259051732953137 0.025911794693709963 0 -0.017482336269377965 0.025894265546067531 0 -0.017263937254382238 0.025788281923161505 0 -0.017482336269377965 0.025894265546067531 0 -0.01746383113260128 0.025549535529898214 0 -0.016730015591993171 0.024953417838820362 0 -0.017260825900956379 0.024405354276099071 0 -0.01647825463015638 0.024433982314867295 0 -0.017260825900956379 0.024405354276099071 0 -0.01647825463015638 0.024433982314867295 0 -0.017271773485510906 0.02347078651116959 0 -0.014663618455473117 0.025597146349217895 0 -0.013296219921740907 0.02544956451912873 0 -0.017504661870989986 0.025319321751060466 0 -0.017260825900956379 0.024405354276099071 0 -0.018517197473857445 0.02368483320170358 0 -0.017260825900956379 0.024405354276099071 0 -0.017271773485510906 0.02347078651116959 0 -0.018517197473857445 0.02368483320170358 0 -0.0088385472542300871 0.025612506069097769 0 -0.0086585612299389589 0.025833658700156796 0 -0.0085835398283954263 0.025728921412459381 0 -0.0086585612299389589 0.025833658700156796 0 -0.0085312857714159931 0.025861397485936567 0 -0.0085835398283954263 0.025728921412459381 0 -0.0084086705335143421 0.025640038269733829 0 -0.0085312857714159931 0.025861397485936567 0 -0.0085835398283954263 0.025728921412459381 0 -0.0081665193451493819 0.025594636843730249 0 -0.0085108826409925949 0.025877311767574501 0 -0.0079755388099062106 0.025894674915044276 0 -0.0078399869199387347 0.025608033565231208 0 -0.0085312857714159931 0.025861397485936567 0 -0.0084086705335143421 0.025640038269733829 0 -0.0085835398283954263 0.025728921412459381 0 -0.0085728690374765361 0.025653265615508805 0 -0.0084086705335143421 0.025640038269733829 0 -0.0085167540385594782 0.025544875332587296 0 -0.0085728690374765361 0.025653265615508805 0 -0.0088385472542300871 0.025612506069097769 0 -0.0085835398283954263 0.025728921412459381 0 -0.0085728690374765361 0.025653265615508805 0 -0.014663618455473117 0.025597146349217895 0 -0.0099045082497705925 0.026310609692370271 0 -0.0088385472542300871 0.025612506069097769 0 -0.0085167540385594782 0.025544875332587296 0 -0.0085728690374765361 0.025653265615508805 0 -0.014637485000057177 0.026398036950595352 0 -0.015531469715186437 0.028196042893677987 0 -0.012416936733630224 0.027039394008402256 0 -0.014637485000057177 0.026398036950595352 0 -0.015645766709053027 0.026759910518107159 0 -0.015531469715186437 0.028196042893677987 0 -0.017859773452155097 0.020628358990481859 0 -0.01887397583487269 0.021440987592611108 0 -0.01828802073466548 0.019619706450374176 0 -0.013080151485456938 0.019704877033179326 0 -0.019813126401196895 0.021940655854257869 0 -0.017859773452155097 0.020628358990481859 0 -0.01887397583487269 0.021440987592611108 0 -0.017134552134895446 0.021454645143527181 0 -0.017859773452155097 0.020628358990481859 0 -0.017134552134895446 0.021454645143527181 0 -0.016912133601888594 0.020164573839221059 0 -0.011822823934222145 0.014756096714642347 0 -0.013080151485456938 0.019704877033179326 0 -0.01984492114690975 0.019735989691792969 0 -0.01887397583487269 0.021440987592611108 0 -0.01828802073466548 0.019619706450374176 0 -0.0086585612299389589 0.025833658700156796 0 -0.0085312857714159931 0.025861397485936567 0 -0.00834095058925516 0.026269275994287546 0 -0.0079755388099062106 0.025894674915044276 0 -0.0085312857714159931 0.025861397485936567 0 -0.0081176082130902851 0.0260568670444759 0 -0.013296219921740907 0.02544956451912873 0 -0.013080151485456938 0.019704877033179326 0 -0.0085312857714159931 0.025861397485936567 0 -0.00834095058925516 0.026269275994287546 0 -0.0081176082130902851 0.0260568670444759 0 -0.019677453356908403 0.021738446108276438 0 -0.017825223656531091 0.022520055031421859 0 -0.017134552134895446 0.021454645143527181 0 -0.018517197473857445 0.02368483320170358 0 -0.019677453356908403 0.021738446108276438 0 -0.017825223656531091 0.022520055031421859 0 -0.017271773485510906 0.02347078651116959 0 -0.018517197473857445 0.02368483320170358 0 -0.017825223656531091 0.022520055031421859 0 -0.017482336269377965 0.025894265546067531 0 -0.017905269534488504 0.025143679161939769 0 -0.01746383113260128 0.025549535529898214 0 -0.01647825463015638 0.024433982314867295 0 -0.017271773485510906 0.02347078651116959 0 -0.016561736338794431 0.022167902903623863 0 -0.017271773485510906 0.02347078651116959 0 -0.017825223656531091 0.022520055031421859 0 -0.016561736338794431 0.022167902903623863 0 -0.017905269534488504 0.025143679161939769 0 -0.01725020670820742 0.025319044146750968 0 -0.018054617132896945 0.024453727811404837 0 -0.017002268420333481 0.025035042893320748 0 -0.017391523188178833 0.023928754391769554 0 -0.017825223656531091 0.022520055031421859 0 -0.016561736338794431 0.022167902903623863 0 -0.017134552134895446 0.021454645143527181 0 -0.017905269534488504 0.025143679161939769 0 -0.01746383113260128 0.025549535529898214 0 -0.01725020670820742 0.025319044146750968 0 -0.017263937254382238 0.025788281923161505 0 -0.01746383113260128 0.025549535529898214 0 -0.01725020670820742 0.025319044146750968 0 -0.021410943517695433 0.018872696422582914 0 -0.025222959385977076 0.017594674021772672 0 -0.025299763821187253 0.018345687472209157 0 -0.025509698703119116 0.018215462225017239 0 -0.025005408406039376 0.018198321085983467 0 -0.025248802079867339 0.018715438488546621 0 -0.025299763821187253 0.018345687472209157 0 -0.025005408406039376 0.018198321085983467 0 -0.025248802079867339 0.018715438488546621 0 -0.025299763821187253 0.018345687472209157 0 -0.025469018917847096 0.018300606589133035 0 -0.021445992335552898 0.022055735336595494 0 -0.020414296235900898 0.020816133546265991 0 -0.017391523188178833 0.023928754391769554 0 -0.020414296235900898 0.020816133546265991 0 -0.016561736338794431 0.022167902903623863 0 -0.017134552134895446 0.021454645143527181 0 -0.016804754002304596 0.020825107375221971 0 -0.025299763821187253 0.018345687472209157 0 -0.025469018917847096 0.018300606589133035 0 -0.025509698703119116 0.018215462225017239 0 -0.020414296235900898 0.020816133546265991 0 -0.021410943517695433 0.018872696422582914 0 -0.017134552134895446 0.021454645143527181 0 -0.016804754002304596 0.020825107375221971 0 -0.016912133601888594 0.020164573839221059 0 -0.024159753108472855 0.017359878768549893 0 -0.024164316787244684 0.017283233595698444 0 -0.023911187720439722 0.017255314350992729 0 -0.021410943517695433 0.018872696422582914 0 -0.021158248069731562 0.018449334023362074 0 -0.016682215148236673 0.020135421816741664 0 -0.016821377563379546 0.01937253463151771 0 -0.016944246026630676 0.019357525765092375 0 -0.020939717804811259 0.016406942150220424 0 -0.021185825110608767 0.016424179125391569 0 -0.021077257734823652 0.016474114927181302 0 -0.021158248069731562 0.018449334023362074 0 -0.020795257977491575 0.018501595083112124 0 -0.024159753108472855 0.017359878768549893 0 -0.023911187720439722 0.017255314350992729 0 -0.023893360494193605 0.017506143320474538 0 -0.021158248069731562 0.018449334023362074 0 -0.02301193792302382 0.016528161687950856 0 -0.020939717804811259 0.016406942150220424 0 -0.021185825110608767 0.016424179125391569 0 -0.021447020102350729 0.016273230539189221 0 -0.021185825110608767 0.016424179125391569 0 -0.021333869825687937 0.016465247611386666 0 -0.021247446370500692 0.01650747544995081 0 -0.021185825110608767 0.016424179125391569 0 -0.021333869825687937 0.016465247611386666 0 -0.021447020102350729 0.016273230539189221 0 -0.021333869825687937 0.016465247611386666 0 -0.021325207583740822 0.016528000756551375 0 -0.02148843572172961 0.016556439695132069 0 -0.021333869825687937 0.016465247611386666 0 -0.02148843572172961 0.016556439695132069 0 -0.021447020102350729 0.016273230539189221 0 -0.02124250946389615 0.01657464346070487 0 -0.021169748302978294 0.016626624574686808 0 -0.02148843572172961 0.016556439695132069 0 -0.021325207583740822 0.016528000756551375 0 -0.02124250946389615 0.01657464346070487 0 -0.02148843572172961 0.016556439695132069 0 -0.021333869825687937 0.016465247611386666 0 -0.021325207583740822 0.016528000756551375 0 -0.021247446370500692 0.01650747544995081 0 -0.021325207583740822 0.016528000756551375 0 -0.021247446370500692 0.01650747544995081 0 -0.02124250946389615 0.01657464346070487 0 -0.021247446370500692 0.01650747544995081 0 -0.021148095354602398 0.016525956570976323 0 -0.02124250946389615 0.01657464346070487 0 -0.021185825110608767 0.016424179125391569 0 -0.021247446370500692 0.01650747544995081 0 -0.021148095354602398 0.016525956570976323 0 -0.021148095354602398 0.016525956570976323 0 -0.02124250946389615 0.01657464346070487 0 -0.021117350006686176 0.016597288609484721 0 -0.021158248069731562 0.018449334023362074 0 -0.013079302728152328 0.013629850699554465 0 -0.020939717804811259 0.016406942150220424 0 -0.021040978361663899 0.016531449573526407 0 -0.02094108225959759 0.016599745042974907 0 -0.016814300870432067 0.019372464801746495 0 -0.016944246026630676 0.019357525765092375 0 -0.017143028481955525 0.017354451948299539 0 -0.021040978361663899 0.016531449573526407 0 -0.02094108225959759 0.016599745042974907 0 -0.021117350006686176 0.016597288609484721 0 -0.020939717804811259 0.016406942150220424 0 -0.021077257734823652 0.016474114927181302 0 -0.021040978361663899 0.016531449573526407 0 -0.021148095354602398 0.016525956570976323 0 -0.021077257734823652 0.016474114927181302 0 -0.021040978361663899 0.016531449573526407 0 -0.021185825110608767 0.016424179125391569 0 -0.021148095354602398 0.016525956570976323 0 -0.021077257734823652 0.016474114927181302 0 -0.021148095354602398 0.016525956570976323 0 -0.021040978361663899 0.016531449573526407 0 -0.021117350006686176 0.016597288609484721 0 -0.0076337246823477084 0.011259417919678542 0 -0.0076621161260256847 0.010713104043470974 0 -0.007015753981790363 0.010919949895890466 0 -0.013331069635153195 0.015156248389078388 0 -0.013079302728152328 0.013629850699554465 0 -0.016944246026630676 0.019357525765092375 0 -0.017726717628282748 0.018790277108121697 0 -0.017143028481955525 0.017354451948299539 0 -0.017726717628282748 0.018790277108121697 0 -0.018587563116045931 0.018605933676217261 0 -0.017143028481955525 0.017354451948299539 0 -0.021410943517695433 0.018872696422582914 0 -0.016494480603193959 0.020210458210541835 0 -0.016944246026630676 0.019357525765092375 0 -0.017726717628282748 0.018790277108121697 0 -0.01828802073466548 0.019619706450374176 0 -0.017859773452155097 0.020628358990481859 0 -0.016912133601888594 0.020164573839221059 0 -0.01828802073466548 0.019619706450374176 0 -0.016682215148236673 0.020135421816741664 0 -0.016944246026630676 0.019357525765092375 0 -0.01828802073466548 0.019619706450374176 0 -0.017726717628282748 0.018790277108121697 0 -0.01828802073466548 0.019619706450374176 0 -0.018587563116045931 0.018605933676217261 0 -0.011822823934222145 0.014756096714642347 0 -0.013331069635153195 0.015156248389078388 0 -0.01984492114690975 0.019735989691792969 0 -0.01828802073466548 0.019619706450374176 0 -0.018587563116045931 0.018605933676217261 0 -0.0079869661954144241 0.011531052197937942 0 -0.0079049761785494627 0.01113294596944682 0 -0.0076337246823477084 0.011259417919678542 0 -0.0079049761785494627 0.01113294596944682 0 -0.0076337246823477084 0.011259417919678542 0 -0.0076621161260256847 0.010713104043470974 0 -0.0080373551431133904 0.01079690663361943 0 -0.0076621161260256847 0.010713104043470974 0 -0.0079018510552392243 0.010343373879851922 0 -0.0080373551431133904 0.01079690663361943 0 -0.0079049761785494627 0.01113294596944682 0 -0.0076621161260256847 0.010713104043470974 0 -0.0076621161260256847 0.010713104043470974 0 -0.0075782860645021441 0.010345624281741586 0 -0.0079018510552392243 0.010343373879851922 0 -0.0074988667359370594 0.0085184662611248272 0 -0.0075389805916910579 0.0082998605357675077 0 -0.0073861388701893359 0.0082285029270662367 0 -0.0076621161260256847 0.010713104043470974 0 -0.007015753981790363 0.010919949895890466 0 -0.0073513971008456747 0.010400186013042257 0 -0.007015753981790363 0.010919949895890466 0 -0.0073513971008456747 0.010400186013042257 0 -0.0069677836963404523 0.009664151126636435 0 -0.013079302728152328 0.013629850699554465 0 -0.0070575840249195616 0.0082081008749528509 0 -0.0076621161260256847 0.010713104043470974 0 -0.0075782860645021441 0.010345624281741586 0 -0.0073513971008456747 0.010400186013042257 0 -0.0075782860645021441 0.010345624281741586 0 -0.0073513971008456747 0.010400186013042257 0 -0.0073277054103383027 0.009894715254512616 0 -0.0075389805916910579 0.0082998605357675077 0 -0.0073551259382979564 0.0079547547949869683 0 -0.0077151197468137223 0.0057538353110921847 0 -0.0069677836963404523 0.009664151126636435 0 -0.0082341316080692759 0.0086800712416747385 0 -0.0077151197468137223 0.0057538353110921847 0 -0.0075389805916910579 0.0082998605357675077 0 -0.0073551259382979564 0.0079547547949869683 0 -0.0073861388701893359 0.0082285029270662367 0 -0.0073513971008456747 0.010400186013042257 0 -0.0069677836963404523 0.009664151126636435 0 -0.0073277054103383027 0.009894715254512616 0 -0.0069677836963404523 0.009664151126636435 0 -0.0073277054103383027 0.009894715254512616 0 -0.0082341316080692759 0.0086800712416747385 0 -0.0075782860645021441 0.010345624281741586 0 -0.0073277054103383027 0.009894715254512616 0 -0.0079018510552392243 0.010343373879851922 0 -0.0072777153557103975 0.0099341441767197003 0 -0.0098338980541941168 0.010066102331962258 0 -0.0073277054103383027 0.009894715254512616 0 -0.0082341316080692759 0.0086800712416747385 0 -0.010754711944679043 0.0096692221925653073 0 -0.0082341316080692759 0.0086800712416747385 0 -0.010754711944679043 0.0096692221925653073 0 -0.0093992233095730373 0.0078568961465742965 0 -0.01128959472686626 0.0070560503481136658 0 -0.010754711944679043 0.0096692221925653073 0 -0.0093992233095730373 0.0078568961465742965 0 -0.0082227195188619429 0.00338074904481261 0 -0.007214188024784329 0.0028638520574818527 0 -0.0052472430985450111 0.00034795051852317364 0 -0.0058748833026299428 0.001271830501780142 0 -0.0052604356871723216 0.0010530401497682146 0 -0.01128959472686626 0.0070560503481136658 0 -0.0093992233095730373 0.0078568961465742965 0 -0.0077151197468137223 0.0057538353110921847 0 -0.01128959472686626 0.0070560503481136658 0 -0.0077151197468137223 0.0057538353110921847 0 -0.0086169829842029522 0.0043643304047557806 0 -0.0070575840249195616 0.0082081008749528509 0 -0.0076844455556261343 0.006323918504301339 0 -0.0082341316080692759 0.0086800712416747385 0 -0.0093992233095730373 0.0078568961465742965 0 -0.0077151197468137223 0.0057538353110921847 0 -0.0073551259382979564 0.0079547547949869683 0 -0.0077151197468137223 0.0057538353110921847 0 -0.0055585689437606398 0.0049438548958493757 0 -0.0077151197468137223 0.0057538353110921847 0 -0.0069011006217168458 0.0042163314168138051 0 -0.0055585689437606398 0.0049438548958493757 0 -0.007214188024784329 0.0028638520574818527 0 -0.0061434415733137232 0.0021291160988276209 0 -0.0086169829842029522 0.0043643304047557806 0 -0.0069011006217168458 0.0042163314168138051 0 -0.0060335920184681003 0.0021502577511991199 0 -0.0077151197468137223 0.0057538353110921847 0 -0.0086169829842029522 0.0043643304047557806 0 -0.0069011006217168458 0.0042163314168138051 0 -0.0058748833026299428 0.001271830501780142 0 -0.0058129572116708645 0.0016819067169010716 0 -0.0060335920184681003 0.0021502577511991199 0 -0.0058129572116708645 0.0016819067169010716 0 -0.0054880387837559661 0.0014789219036658366 0 -0.0056619469111902927 0.001773007989931298 0 -0.0058748833026299428 0.001271830501780142 0 -0.0058129572116708645 0.0016819067169010716 0 -0.0054880387837559661 0.0014789219036658366 0 -0.0054880387837559661 0.0014789219036658366 0 -0.0053911289673316811 0.0018091731742272781 0 -0.0056619469111902927 0.001773007989931298 0 -0.0049259561396903838 0.001364627197336153 0 -0.0054880387837559661 0.0014789219036658366 0 -0.0053911289673316811 0.0018091731742272781 0 -0.0049259561396903838 0.001364627197336153 0 -0.0054880387837559661 0.0014789219036658366 0 -0.0052604356871723216 0.0010530401497682146 0 -0.0058748833026299428 0.001271830501780142 0 -0.0054880387837559661 0.0014789219036658366 0 -0.0052604356871723216 0.0010530401497682146 0 -0.0072647379085059496 0.0075854144135221145 0 -0.0073811012864462532 0.0073548050218323101 0 -0.0070414211275204898 0.0075319224316287917 0 -0.0073811012864462532 0.0073548050218323101 0 -0.006600450299613825 0.0074822377410165503 0 -0.0071054609923181132 0.0071318751477896739 0 -0.0057801695397884986 0.0076859631339814124 0 -0.011746079595301941 0.0078518477318406527 0 -0.0072647379085059496 0.0075854144135221145 0 -0.0073862355169430982 0.0076522263974528413 0 -0.0072483759824720955 0.0077806375640683788 0 -0.0072647379085059496 0.0075854144135221145 0 -0.0072483759824720955 0.0077806375640683788 0 -0.0070414211275204898 0.0075319224316287917 0 -0.0072647379085059496 0.0075854144135221145 0 -0.0073811012864462532 0.0073548050218323101 0 -0.0073862355169430982 0.0076522263974528413 0 -0.0065547115010868183 0.0062563501746116523 0 -0.0061276774222735917 0.005274990324636809 0 -0.0073811012864462532 0.0073548050218323101 0 -0.0073862355169430982 0.0076522263974528413 0 -0.0074928187408652867 0.0071802312997152583 0 -0.0055585689437606398 0.0049438548958493757 0 -0.0054482410598618598 0.0020681243676815369 0 -0.0047897189263608943 0.0020933304643347321 0 -0.0069011006217168458 0.0042163314168138051 0 -0.0055585689437606398 0.0049438548958493757 0 -0.0060335920184681003 0.0021502577511991199 0 -0.0073862355169430982 0.0076522263974528413 0 -0.0074923633655882369 0.007824448292744722 0 -0.0074928187408652867 0.0071802312997152583 0 -0.0055585689437606398 0.0049438548958493757 0 -0.0054482410598618598 0.0020681243676815369 0 -0.0060335920184681003 0.0021502577511991199 0 -0.0073862355169430982 0.0076522263974528413 0 -0.0074923633655882369 0.007824448292744722 0 -0.0072483759824720955 0.0077806375640683788 0 -0.0073551259382979564 0.0079547547949869683 0 -0.0074923633655882369 0.007824448292744722 0 -0.0073693129732891926 0.0080045003599567479 0 -0.0072711723475651141 0.0078602112079510338 0 -0.0065547115010868183 0.0062563501746116523 0 -0.0074923633655882369 0.007824448292744722 0 -0.0072483759824720955 0.0077806375640683788 0 -0.0073693129732891926 0.0080045003599567479 0 -0.0072483759824720955 0.0077806375640683788 0 -0.0071098318381258331 0.0080602259118070889 0 -0.0070414211275204898 0.0075319224316287917 0 -0.0072483759824720955 0.0077806375640683788 0 -0.0073693129732891926 0.0080045003599567479 0 -0.0071098318381258331 0.0080602259118070889 0 -0.021097399517967592 0.016613526947479213 0 -0.021169748302978294 0.016626624574686808 0 -0.021064403981344619 0.016548085500193991 0 -0.0073693129732891926 0.0080045003599567479 0 -0.0072954331697211586 0.0082634169711877908 0 -0.0071098318381258331 0.0080602259118070889 0 -0.013860308668718766 0.012086038261018601 0 -0.016597585046150234 0.013355087373405029 0 -0.0073551259382979564 0.0079547547949869683 0 -0.0073693129732891926 0.0080045003599567479 0 -0.0073861388701893359 0.0082285029270662367 0 -0.0073693129732891926 0.0080045003599567479 0 -0.0072954331697211586 0.0082634169711877908 0 -0.0073861388701893359 0.0082285029270662367 0 -0.0074988667359370594 0.0085184662611248272 0 -0.0072954331697211586 0.0082634169711877908 0 -0.0073861388701893359 0.0082285029270662367 0 -0.013079302728152328 0.013629850699554465 0 -0.013860308668718766 0.012086038261018601 0 -0.02094108225959759 0.016599745042974907 0 -0.021097399517967592 0.016613526947479213 0 -0.021117350006686176 0.016597288609484721 0 -0.02124250946389615 0.01657464346070487 0 -0.021117350006686176 0.016597288609484721 0 -0.021169748302978294 0.016626624574686808 0 -0.021097399517967592 0.016613526947479213 0 -0.021117350006686176 0.016597288609484721 0 -0.021169748302978294 0.016626624574686808 0 -0.021645384639414005 0.017676127379523975 0 -0.022183358288262123 0.017532431858468481 0 -0.022008877255703864 0.017016927944983554 0 -0.021645384639414005 0.017676127379523975 0 -0.022183358288262123 0.017532431858468481 0 -0.022083009354047861 0.018001737722715027 0 -0.022649234413040238 0.017763762922847221 0 -0.023105715644245985 0.017332930575640709 0 -0.022549206476774025 0.01717153600239275 0 -0.022183358288262123 0.017532431858468481 0 -0.022649234413040238 0.017763762922847221 0 -0.022549206476774025 0.01717153600239275 0 -0.022183358288262123 0.017532431858468481 0 -0.022083009354047861 0.018001737722715027 0 -0.022649234413040238 0.017763762922847221 0 -0.022649234413040238 0.017763762922847221 0 -0.022291983557364951 0.0184348430156701 0 -0.023017579780688469 0.018091940289137329 0 -0.022083009354047861 0.018001737722715027 0 -0.022649234413040238 0.017763762922847221 0 -0.022291983557364951 0.0184348430156701 0 -0.022291983557364951 0.0184348430156701 0 -0.022961101243873586 0.018538010606542435 0 -0.023017579780688469 0.018091940289137329 0 -0.022291983557364951 0.0184348430156701 0 -0.022625608852631585 0.018792983120921359 0 -0.022961101243873586 0.018538010606542435 0 -0.021868005371417028 0.018058851802766014 0 -0.016597585046150234 0.013355087373405029 0 -0.021645384639414005 0.017676127379523975 0 -0.022083009354047861 0.018001737722715027 0 -0.021670926253490371 0.018577493211719014 0 -0.022083009354047861 0.018001737722715027 0 -0.022291983557364951 0.0184348430156701 0 -0.021670926253490371 0.018577493211719014 0 -0.016597585046150234 0.013355087373405029 0 -0.011746079595301941 0.0078518477318406527 0 -0.016766713827216957 0.011610788699115721 0 -0.017085759691161117 0.011855353135230185 0 -0.016744778542073645 0.012209588642312046 0 -0.016597585046150234 0.013355087373405029 0 -0.020432285350550458 0.016113952176993032 0 -0.022291983557364951 0.0184348430156701 0 -0.021670926253490371 0.018577493211719014 0 -0.022247603703929173 0.019046581471573266 0 -0.022291983557364951 0.0184348430156701 0 -0.022625608852631585 0.018792983120921359 0 -0.022247603703929173 0.019046581471573266 0 -0.022625608852631585 0.018792983120921359 0 -0.023015758655019931 0.019000837583394811 0 -0.022961101243873586 0.018538010606542435 0 -0.022625608852631585 0.018792983120921359 0 -0.022709384841294176 0.01908985523696452 0 -0.023015758655019931 0.019000837583394811 0 -0.022709384841294176 0.01908985523696452 0 -0.022247603703929173 0.019046581471573266 0 -0.022830016852263654 0.019503514373781148 0 -0.022709384841294176 0.01908985523696452 0 -0.022908348588627517 0.019238305564008695 0 -0.023015758655019931 0.019000837583394811 0 -0.022625608852631585 0.018792983120921359 0 -0.022709384841294176 0.01908985523696452 0 -0.022247603703929173 0.019046581471573266 0 -0.015615010629582784 0.005445326063674768 0 -0.015685036056297941 0.0054984402963247307 0 -0.015530749686576339 0.0055570107923726166 0 -0.015615010629582784 0.005445326063674768 0 -0.015312118736984588 0.0054721065157838748 0 -0.015530749686576339 0.0055570107923726166 0 -0.017085759691161117 0.011855353135230185 0 -0.017422291312221758 0.012112316133848442 0 -0.016744778542073645 0.012209588642312046 0 -0.019826932169186885 0.011793784687284297 0 -0.011746079595301941 0.0078518477318406527 0 -0.020432285350550458 0.016113952176993032 0 -0.019826932169186885 0.011793784687284297 0 -0.022709384841294176 0.01908985523696452 0 -0.022908348588627517 0.019238305564008695 0 -0.022830016852263654 0.019503514373781148 0 -0.026560556769197809 0.013113001973497754 0 -0.026442919965948341 0.013282941186743566 0 -0.026631103293546683 0.013348485388905288 0 -0.026560556769197809 0.013113001973497754 0 -0.026442919965948341 0.013282941186743566 0 -0.026156530630485109 0.013132034595945799 0 -0.026442919965948341 0.013282941186743566 0 -0.026183757752459277 0.01326512000336489 0 -0.026156530630485109 0.013132034595945799 0 -0.024060564776047209 0.019335838179720965 0 -0.023105638788300634 0.01947286396876349 0 -0.023361501450293753 0.019199038437437137 0 -0.025483813514392824 0.016384248549873984 0 -0.023304961303693854 0.014330517510486264 0 -0.022553415791756043 0.011534381990110467 0 -0.022002423201078571 0.01106024698328347 0 -0.02210851648153804 0.011621900976609629 0 -0.019826932169186885 0.011793784687284297 0 -0.022254843446906883 0.008501694177979165 0 -0.022254843446906883 0.008501694177979165 0 -0.023304961303693854 0.014330517510486264 0 -0.022830016852263654 0.019503514373781148 0 -0.023097416993485713 0.019456888601338047 0 -0.023079865855137622 0.019356781089452366 0 -0.019826932169186885 0.011793784687284297 0 -0.023304961303693854 0.014330517510486264 0 -0.023105638788300634 0.01947286396876349 0 -0.023079865855137622 0.019356781089452366 0 -0.023361501450293753 0.019199038437437137 0 -0.023304961303693854 0.014330517510486264 0 -0.023463008107920395 0.015581411984596482 0 -0.022908348588627517 0.019238305564008695 0 -0.022830016852263654 0.019503514373781148 0 -0.023079865855137622 0.019356781089452366 0 -0.023361501450293753 0.019199038437437137 0 -0.023015758655019931 0.019000837583394811 0 -0.023550973620963644 0.018833426488400827 0 -0.022908348588627517 0.019238305564008695 0 -0.023079865855137622 0.019356781089452366 0 -0.023015758655019931 0.019000837583394811 0 -0.023079865855137622 0.019356781089452366 0 -0.023361501450293753 0.019199038437437137 0 -0.023015758655019931 0.019000837583394811 0 -0.023015758655019931 0.019000837583394811 0 -0.023550973620963644 0.018833426488400827 0 -0.022961101243873586 0.018538010606542435 0 -0.024060564776047209 0.019335838179720965 0 -0.023550973620963644 0.018833426488400827 0 -0.024311826999368923 0.018458364944233533 0 -0.024060564776047209 0.019335838179720965 0 -0.023361501450293753 0.019199038437437137 0 -0.023550973620963644 0.018833426488400827 0 -0.023550973620963644 0.018833426488400827 0 -0.023526920666347484 0.018268202374834366 0 -0.024311826999368923 0.018458364944233533 0 -0.023526920666347484 0.018268202374834366 0 -0.023920085961586859 0.017889243452235564 0 -0.024311826999368923 0.018458364944233533 0 -0.023550973620963644 0.018833426488400827 0 -0.022961101243873586 0.018538010606542435 0 -0.023526920666347484 0.018268202374834366 0 -0.023526920666347484 0.018268202374834366 0 -0.023017579780688469 0.018091940289137329 0 -0.023367854743304068 0.017782820316792597 0 -0.022961101243873586 0.018538010606542435 0 -0.023526920666347484 0.018268202374834366 0 -0.023017579780688469 0.018091940289137329 0 -0.022649234413040238 0.017763762922847221 0 -0.023017579780688469 0.018091940289137329 0 -0.023367854743304068 0.017782820316792597 0 -0.022649234413040238 0.017763762922847221 0 -0.023367854743304068 0.017782820316792597 0 -0.023105715644245985 0.017332930575640709 0 -0.023367854743304068 0.017782820316792597 0 -0.023776447193011301 0.017392297689350297 0 -0.023105715644245985 0.017332930575640709 0 -0.023920085961586859 0.017889243452235564 0 -0.023776447193011301 0.017392297689350297 0 -0.024517439635315955 0.017494064366392236 0 -0.023920085961586859 0.017889243452235564 0 -0.024517439635315955 0.017494064366392236 0 -0.024311826999368923 0.018458364944233533 0 -0.023526920666347484 0.018268202374834366 0 -0.023367854743304068 0.017782820316792597 0 -0.023920085961586859 0.017889243452235564 0 -0.023367854743304068 0.017782820316792597 0 -0.023920085961586859 0.017889243452235564 0 -0.023776447193011301 0.017392297689350297 0 -0.023776447193011301 0.017392297689350297 0 -0.024171162095906615 0.017013044485672663 0 -0.024517439635315955 0.017494064366392236 0 -0.023776447193011301 0.017392297689350297 0 -0.024171162095906615 0.017013044485672663 0 -0.023527552191956822 0.01688068862039049 0 -0.024171162095906615 0.017013044485672663 0 -0.023527552191956822 0.01688068862039049 0 -0.023939437697453929 0.016594129794478558 0 -0.022881895072583428 0.016790810634113577 0 -0.023879643402683767 0.01660253526523911 0 -0.023527552191956822 0.01688068862039049 0 -0.022929094004363656 0.016279045147420849 0 -0.023939437697453929 0.016594129794478558 0 -0.023527552191956822 0.01688068862039049 0 -0.022893124515509029 0.016848804900819199 0 -0.022929094004363656 0.016279045147420849 0 -0.023527552191956822 0.01688068862039049 0 -0.023105715644245985 0.017332930575640709 0 -0.022893124515509029 0.016848804900819199 0 -0.023776447193011301 0.017392297689350297 0 -0.023527552191956822 0.01688068862039049 0 -0.023105715644245985 0.017332930575640709 0 -0.023105715644245985 0.017332930575640709 0 -0.022549206476774025 0.01717153600239275 0 -0.022893124515509029 0.016848804900819199 0 -0.022183358288262123 0.017532431858468481 0 -0.022549206476774025 0.01717153600239275 0 -0.022008877255703864 0.017016927944983554 0 -0.022549206476774025 0.01717153600239275 0 -0.022893124515509029 0.016848804900819199 0 -0.022276405427719678 0.016556283282332378 0 -0.022549206476774025 0.01717153600239275 0 -0.022008877255703864 0.017016927944983554 0 -0.022276405427719678 0.016556283282332378 0 -0.021868005371417028 0.018058851802766014 0 -0.021383234219272559 0.01618920841421282 0 -0.021645384639414005 0.017676127379523975 0 -0.022008877255703864 0.017016927944983554 0 -0.02148843572172961 0.016556439695132069 0 -0.022008877255703864 0.017016927944983554 0 -0.021831966219284488 0.016600864196520286 0 -0.022276405427719678 0.016556283282332378 0 -0.022008877255703864 0.017016927944983554 0 -0.02148843572172961 0.016556439695132069 0 -0.021831966219284488 0.016600864196520286 0 -0.023911187720439722 0.017255314350992729 0 -0.023007383534727848 0.01723914450605565 0 -0.023555952259364014 0.017407881660347832 0 -0.02301193792302382 0.016528161687950856 0 -0.022881895072583428 0.016790810634113577 0 -0.021447020102350729 0.016273230539189221 0 -0.022276405427719678 0.016556283282332378 0 -0.022929094004363656 0.016279045147420849 0 -0.021831966219284488 0.016600864196520286 0 -0.021447020102350729 0.016273230539189221 0 -0.022276405427719678 0.016556283282332378 0 -0.02148843572172961 0.016556439695132069 0 -0.021831966219284488 0.016600864196520286 0 -0.021447020102350729 0.016273230539189221 0 -0.022893124515509029 0.016848804900819199 0 -0.022276405427719678 0.016556283282332378 0 -0.022929094004363656 0.016279045147420849 0 -0.023349933868254347 0.017531424686910473 0 -0.023353208384953261 0.018104510880383107 0 -0.023070122428186877 0.016909515914426822 0 -0.023349933868254347 0.017531424686910473 0 -0.023893360494193605 0.017506143320474538 0 -0.023353208384953261 0.018104510880383107 0 -0.023007383534727848 0.01723914450605565 0 -0.023349933868254347 0.017531424686910473 0 -0.023555952259364014 0.017407881660347832 0 -0.023007383534727848 0.01723914450605565 0 -0.023349933868254347 0.017531424686910473 0 -0.023070122428186877 0.016909515914426822 0 -0.023349933868254347 0.017531424686910473 0 -0.023555952259364014 0.017407881660347832 0 -0.023893360494193605 0.017506143320474538 0 -0.025222959385977076 0.017594674021772672 0 -0.023005116464035455 0.018238481179058446 0 -0.023911187720439722 0.017255314350992729 0 -0.023555952259364014 0.017407881660347832 0 -0.023893360494193605 0.017506143320474538 0 -0.020826367766127937 0.022892021920398901 0 -0.021445992335552898 0.022055735336595494 0 -0.024613725678431536 0.0198424065818609 0 -0.025248802079867339 0.018715438488546621 0 -0.024447233628909409 0.018835858454850495 0 -0.025248802079867339 0.018715438488546621 0 -0.025005408406039376 0.018198321085983467 0 -0.024447233628909409 0.018835858454850495 0 -0.025005408406039376 0.018198321085983467 0 -0.024447233628909409 0.018835858454850495 0 -0.023353208384953261 0.018104510880383107 0 -0.023343421571921704 0.019646240725366918 0 -0.024447233628909409 0.018835858454850495 0 -0.023353208384953261 0.018104510880383107 0 -0.023353208384953261 0.018104510880383107 0 -0.022676989118842712 0.018814800868961114 0 -0.023070122428186877 0.016909515914426822 0 -0.022676989118842712 0.018814800868961114 0 -0.021866725951679697 0.01830697431239894 0 -0.023070122428186877 0.016909515914426822 0 -0.022031367650016894 0.01977603768809676 0 -0.022676989118842712 0.018814800868961114 0 -0.021866725951679697 0.01830697431239894 0 -0.023343421571921704 0.019646240725366918 0 -0.023353208384953261 0.018104510880383107 0 -0.022676989118842712 0.018814800868961114 0 -0.020669585979282153 0.019479186453738393 0 -0.022031367650016894 0.01977603768809676 0 -0.021866725951679697 0.01830697431239894 0 -0.020669585979282153 0.019479186453738393 0 -0.021866725951679697 0.01830697431239894 0 -0.020072126093213877 0.017955829296075414 0 -0.023939437697453929 0.016594129794478558 0 -0.023070122428186877 0.016909515914426822 0 -0.024325391830237349 0.015878190891454459 0 -0.021866725951679697 0.01830697431239894 0 -0.023070122428186877 0.016909515914426822 0 -0.020072126093213877 0.017955829296075414 0 -0.022978719373901679 0.016893042795703077 0 -0.022278853525783269 0.016855617977857926 0 -0.023007383534727848 0.01723914450605565 0 -0.023939437697453929 0.016594129794478558 0 -0.023070122428186877 0.016909515914426822 0 -0.025429620624738743 0.016107538244891428 0 -0.025279147451704488 0.016393356044782276 0 -0.025719494498163808 0.016372385400396143 0 -0.025023097865631921 0.016074174524764 0 -0.025429620624738743 0.016107538244891428 0 -0.025279147451704488 0.016393356044782276 0 -0.025023097865631921 0.016074174524764 0 -0.025279147451704488 0.016393356044782276 0 -0.024674186105032858 0.016363898353722553 0 -0.023939437697453929 0.016594129794478558 0 -0.024674186105032858 0.016363898353722553 0 -0.024325391830237349 0.015878190891454459 0 -0.025023097865631921 0.016074174524764 0 -0.024674186105032858 0.016363898353722553 0 -0.024325391830237349 0.015878190891454459 0 -0.020072126093213877 0.017955829296075414 0 -0.019232849558561627 0.019231162478681146 0 -0.017782157529577586 0.019100190498431258 0 -0.020669585979282153 0.019479186453738393 0 -0.020072126093213877 0.017955829296075414 0 -0.019232849558561627 0.019231162478681146 0 -0.025023097865631921 0.016074174524764 0 -0.024325391830237349 0.015878190891454459 0 -0.025366222387892066 0.01559547301841472 0 -0.022278853525783269 0.016855617977857926 0 -0.021447179904328862 0.017991755465941537 0 -0.025023097865631921 0.016074174524764 0 -0.025429620624738743 0.016107538244891428 0 -0.025366222387892066 0.01559547301841472 0 -0.023802610406496331 0.021301043234904532 0 -0.021447179904328862 0.017991755465941537 0 -0.025461711461786815 0.016037344187847729 0 -0.025126921145117862 0.016193494984871163 0 -0.025666849169785601 0.016502836239088287 0 -0.030805989491916819 0.02194777960564415 0 -0.028965750788142789 0.021536800037325853 0 -0.028650762133873135 0.019626146373490517 0 -0.023802610406496331 0.021301043234904532 0 -0.027638181950260517 0.018079468330806338 0 -0.025461711461786815 0.016037344187847729 0 -0.025666849169785601 0.016502836239088287 0 -0.02598722142752569 0.016474810116740762 0 -0.025429620624738743 0.016107538244891428 0 -0.025366222387892066 0.01559547301841472 0 -0.025900425543813169 0.016115231936595437 0 -0.021447179904328862 0.017991755465941537 0 -0.026076099751255251 0.016480988392451566 0 -0.027279101754054257 0.0210443432186725 0 -0.028965750788142789 0.021536800037325853 0 -0.028650762133873135 0.019626146373490517 0 -0.027279101754054257 0.0210443432186725 0 -0.028650762133873135 0.019626146373490517 0 -0.026556477751644873 0.01936867711696786 0 -0.027638181950260517 0.018079468330806338 0 -0.026296059371860619 0.017248762364793609 0 -0.028650762133873135 0.019626146373490517 0 -0.026276832671400029 0.017279207277802036 0 -0.026556477751644873 0.01936867711696786 0 -0.02598722142752569 0.016474810116740762 0 -0.026139344054488159 0.016918123823527042 0 -0.026276832671400029 0.017279207277802036 0 -0.025900425543813169 0.016115231936595437 0 -0.025970183573992955 0.016624722279606468 0 -0.026139344054488159 0.016918123823527042 0 -0.025666849169785601 0.016502836239088287 0 -0.02598722142752569 0.016474810116740762 0 -0.026139344054488159 0.016918123823527042 0 -0.026076099751255251 0.016480988392451566 0 -0.026007863138565557 0.016715893203707023 0 -0.025970183573992955 0.016624722279606468 0 -0.025860854374950924 0.016666042967021871 0 -0.026103805336206411 0.016861649730892464 0 -0.025970183573992955 0.016624722279606468 0 -0.026139344054488159 0.016918123823527042 0 -0.026103805336206411 0.016861649730892464 0 -0.026139344054488159 0.016918123823527042 0 -0.026103805336206411 0.016861649730892464 0 -0.026276832671400029 0.017279207277802036 0 -0.025279147451704488 0.016393356044782276 0 -0.025719494498163808 0.016372385400396143 0 -0.025860854374950924 0.016666042967021871 0 -0.025429620624738743 0.016107538244891428 0 -0.025900425543813169 0.016115231936595437 0 -0.025719494498163808 0.016372385400396143 0 -0.025900425543813169 0.016115231936595437 0 -0.025970183573992955 0.016624722279606468 0 -0.025719494498163808 0.016372385400396143 0 -0.025970183573992955 0.016624722279606468 0 -0.025719494498163808 0.016372385400396143 0 -0.025860854374950924 0.016666042967021871 0 -0.025701324954993346 0.016712945376385908 0 -0.025860854374950924 0.016666042967021871 0 -0.02603838313396278 0.016686718649497431 0 -0.025279147451704488 0.016393356044782276 0 -0.025701324954993346 0.016712945376385908 0 -0.025860854374950924 0.016666042967021871 0 -0.025860854374950924 0.016666042967021871 0 -0.026103805336206411 0.016861649730892464 0 -0.02603838313396278 0.016686718649497431 0 -0.026103805336206411 0.016861649730892464 0 -0.02603838313396278 0.016686718649497431 0 -0.026047404141168694 0.016848654126576931 0 -0.02603838313396278 0.016686718649497431 0 -0.025874268369297689 0.016872755445873057 0 -0.025939553313703217 0.016154719098715357 0 -0.025701324954993346 0.016712945376385908 0 -0.02603838313396278 0.016686718649497431 0 -0.025874268369297689 0.016872755445873057 0 -0.025701324954993346 0.016712945376385908 0 -0.025874268369297689 0.016872755445873057 0 -0.024893276637854796 0.01677267103306819 0 -0.025874268369297689 0.016872755445873057 0 -0.024893276637854796 0.01677267103306819 0 -0.024517439635315955 0.017494064366392236 0 -0.025279147451704488 0.016393356044782276 0 -0.024674186105032858 0.016363898353722553 0 -0.024893276637854796 0.01677267103306819 0 -0.025279147451704488 0.016393356044782276 0 -0.025701324954993346 0.016712945376385908 0 -0.024893276637854796 0.01677267103306819 0 -0.024171162095906615 0.017013044485672663 0 -0.023939437697453929 0.016594129794478558 0 -0.024893276637854796 0.01677267103306819 0 -0.023939437697453929 0.016594129794478558 0 -0.024674186105032858 0.016363898353722553 0 -0.024893276637854796 0.01677267103306819 0 -0.024171162095906615 0.017013044485672663 0 -0.024893276637854796 0.01677267103306819 0 -0.024517439635315955 0.017494064366392236 0 -0.025874268369297689 0.016872755445873057 0 -0.024517439635315955 0.017494064366392236 0 -0.025396061179314252 0.018176280932615009 0 -0.025935664200320077 0.016717164188213757 0 -0.025772210892624017 0.017502229339758025 0 -0.024517439635315955 0.017494064366392236 0 -0.025396061179314252 0.018176280932615009 0 -0.024311826999368923 0.018458364944233533 0 -0.025396061179314252 0.018176280932615009 0 -0.024311826999368923 0.018458364944233533 0 -0.025019224849948868 0.019173228192013784 0 -0.025483813514392824 0.016384248549873984 0 -0.026029925399040851 0.015628076797013214 0 -0.024060564776047209 0.019335838179720965 0 -0.024311826999368923 0.018458364944233533 0 -0.025019224849948868 0.019173228192013784 0 -0.026350596834827347 0.016073765123068424 0 -0.026507340704357962 0.015614387901431331 0 -0.026072253155301196 0.015672687610175613 0 -0.025772210892624017 0.017502229339758025 0 -0.026029925399040851 0.015628076797013214 0 -0.026029925399040851 0.015628076797013214 0 -0.026410052012803557 0.014827321993724328 0 -0.026771167567402786 0.014062661497275274 0 -0.026598912050566519 0.013822488955822559 0 -0.026461312796342555 0.014195606985007167 0 -0.026771167567402786 0.014062661497275274 0 -0.026598912050566519 0.013822488955822559 0 -0.02681760007888 0.013781736657686006 0 -0.026560556769197809 0.013113001973497754 0 -0.026838368315401095 0.013097462906792741 0 -0.026782084178415457 0.013301954590441084 0 -0.026560556769197809 0.013113001973497754 0 -0.026782084178415457 0.013301954590441084 0 -0.026631103293546683 0.013348485388905288 0 -0.026029925399040851 0.015628076797013214 0 -0.026911374987762436 0.013167588524037179 0 -0.026598912050566519 0.013822488955822559 0 -0.026268120251227142 0.013947146140191031 0 -0.026461312796342555 0.014195606985007167 0 -0.026268120251227142 0.013947146140191031 0 -0.026461312796342555 0.014195606985007167 0 -0.026135181828682394 0.01442541067467719 0 -0.026410052012803557 0.014827321993724328 0 -0.025894913691905681 0.014984317957067913 0 -0.026072253155301196 0.015672687610175613 0 -0.025939553313703217 0.016154719098715357 0 -0.025811271607229347 0.015527094755386019 0 -0.026350596834827347 0.016073765123068424 0 -0.026072253155301196 0.015672687610175613 0 -0.025939553313703217 0.016154719098715357 0 -0.025874268369297689 0.016872755445873057 0 -0.026350596834827347 0.016073765123068424 0 -0.025939553313703217 0.016154719098715357 0 -0.02603838313396278 0.016686718649497431 0 -0.025939553313703217 0.016154719098715357 0 -0.025803499602221402 0.015947908091558778 0 -0.025803499602221402 0.015947908091558778 0 -0.025450606726219644 0.015419824452650228 0 -0.025464184649050668 0.016302523857434466 0 -0.025803499602221402 0.015947908091558778 0 -0.025602774812857367 0.014892732807986551 0 -0.025450606726219644 0.015419824452650228 0 -0.025803499602221402 0.015947908091558778 0 -0.025602774812857367 0.014892732807986551 0 -0.025811271607229347 0.015527094755386019 0 -0.025590388264722694 0.014925145351050181 0 -0.025894913691905681 0.014984317957067913 0 -0.025939553313703217 0.016154719098715357 0 -0.025803499602221402 0.015947908091558778 0 -0.025811271607229347 0.015527094755386019 0 -0.026268120251227142 0.013947146140191031 0 -0.026135181828682394 0.01442541067467719 0 -0.025872464038057021 0.014169250885933068 0 -0.025602774812857367 0.014892732807986551 0 -0.025872464038057021 0.014169250885933068 0 -0.025443110779405882 0.014232187845923217 0 -0.025602774812857367 0.014892732807986551 0 -0.026135181828682394 0.01442541067467719 0 -0.025872464038057021 0.014169250885933068 0 -0.025872464038057021 0.014169250885933068 0 -0.025533668031350577 0.013940669582879709 0 -0.025443110779405882 0.014232187845923217 0 -0.025872464038057021 0.014169250885933068 0 -0.025533668031350577 0.013940669582879709 0 -0.025928666686081982 0.013790824107914356 0 -0.025563796710177285 0.013941510064644586 0 -0.025912115950127726 0.013791413562101767 0 -0.026268120251227142 0.013947146140191031 0 -0.025872464038057021 0.014169250885933068 0 -0.025928666686081982 0.013790824107914356 0 -0.025466031882686011 0.013057207684426142 0 -0.024999575163984045 0.01219248319177672 0 -0.025487704360977022 0.012137420372630393 0 -0.025466031882686011 0.013057207684426142 0 -0.02500008878050046 0.013363135921939008 0 -0.024999575163984045 0.01219248319177672 0 -0.025354951172965878 0.013578956727746023 0 -0.025000360070941138 0.013363321008675778 0 -0.025175708715129225 0.014045762751069141 0 -0.025533668031350577 0.013940669582879709 0 -0.025443110779405882 0.014232187845923217 0 -0.025354951172965878 0.013578956727746023 0 -0.025814707907409029 0.012918505750680428 0 -0.025354951172965878 0.013578956727746023 0 -0.025563796710177285 0.013941510064644586 0 -0.025466031882686011 0.013057207684426142 0 -0.026021126809672349 0.012098159343159236 0 -0.025487704360977022 0.012137420372630393 0 -0.025399903317599459 0.01398107382072704 0 -0.02565359703908943 0.013882808548808332 0 -0.025613907026261627 0.013733187381095226 0 -0.025175708715129225 0.014045762751069141 0 -0.025443110779405882 0.014232187845923217 0 -0.025260429081287512 0.014273578531256529 0 -0.025602774812857367 0.014892732807986551 0 -0.025443110779405882 0.014232187845923217 0 -0.025260429081287512 0.014273578531256529 0 -0.025260429081287512 0.014273578531256529 0 -0.024999688483434639 0.013781687331322753 0 -0.025265279760673529 0.014760241715815197 0 -0.025175708715129225 0.014045762751069141 0 -0.025260429081287512 0.014273578531256529 0 -0.024999688483434639 0.013781687331322753 0 -0.025558346061035873 0.013134699201802517 0 -0.024999992029217689 0.013363363375264958 0 -0.025000004518889875 0.013779701864194929 0 -0.025354951172965878 0.013578956727746023 0 -0.025000087809349696 0.013779752339669793 0 -0.024999688483434639 0.013781687331322753 0 -0.025265279760673529 0.014760241715815197 0 -0.02499970059679844 0.015198806140637199 0 -0.025602774812857367 0.014892732807986551 0 -0.025265279760673529 0.014760241715815197 0 -0.025450606726219644 0.015419824452650228 0 -0.025602774812857367 0.014892732807986551 0 -0.025260429081287512 0.014273578531256529 0 -0.025265279760673529 0.014760241715815197 0 -0.025450606726219644 0.015419824452650228 0 -0.02499970059679844 0.015198806140637199 0 -0.025464184649050668 0.016302523857434466 0 -0.025265279760673529 0.014760241715815197 0 -0.025450606726219644 0.015419824452650228 0 -0.02499970059679844 0.015198806140637199 0 -0.024999493968285713 0.01661729308011952 0 -0.025464184649050668 0.016302523857434466 0 -0.026130398626972424 0.017548818563945356 0 -0.02499970059679844 0.015198806140637199 0 -0.024999493968285713 0.01661729308011952 0 -0.025464184649050668 0.016302523857434466 0 -0.025362152626957551 0.016490592475340363 0 -0.024986061840859768 0.017977078231610905 0 -0.025803499602221402 0.015947908091558778 0 -0.025464184649050668 0.016302523857434466 0 -0.025742157068692043 0.016512204284834471 0 -0.02603838313396278 0.016686718649497431 0 -0.025803499602221402 0.015947908091558778 0 -0.025742157068692043 0.016512204284834471 0 -0.02603838313396278 0.016686718649497431 0 -0.025742157068692043 0.016512204284834471 0 -0.026047404141168694 0.016848654126576931 0 -0.025742157068692043 0.016512204284834471 0 -0.026047404141168694 0.016848654126576931 0 -0.025304846659209231 0.017108489659885227 0 -0.026047404141168694 0.016848654126576931 0 -0.025304846659209231 0.017108489659885227 0 -0.026276832671400029 0.017279207277802036 0 -0.026103805336206411 0.016861649730892464 0 -0.026047404141168694 0.016848654126576931 0 -0.026276832671400029 0.017279207277802036 0 -0.025464184649050668 0.016302523857434466 0 -0.025742157068692043 0.016512204284834471 0 -0.025304846659209231 0.017108489659885227 0 -0.025464184649050668 0.016302523857434466 0 -0.025304846659209231 0.017108489659885227 0 -0.023744952253843616 0.018178896420781243 0 -0.025304846659209231 0.017108489659885227 0 -0.023744952253843616 0.018178896420781243 0 -0.02539641721038222 0.018346041038000992 0 -0.023744952253843616 0.018178896420781243 0 -0.02539641721038222 0.018346041038000992 0 -0.025353845361638483 0.020312887185868919 0 -0.025304846659209231 0.017108489659885227 0 -0.026276832671400029 0.017279207277802036 0 -0.02539641721038222 0.018346041038000992 0 -0.026276832671400029 0.017279207277802036 0 -0.02539641721038222 0.018346041038000992 0 -0.026556477751644873 0.01936867711696786 0 -0.027279101754054257 0.0210443432186725 0 -0.026556477751644873 0.01936867711696786 0 -0.025353845361638483 0.020312887185868919 0 -0.02539641721038222 0.018346041038000992 0 -0.026556477751644873 0.01936867711696786 0 -0.025353845361638483 0.020312887185868919 0 -0.025640167394570448 0.022406834886703215 0 -0.027279101754054257 0.0210443432186725 0 -0.025353845361638483 0.020312887185868919 0 -0.02332808938076231 0.02280423172433562 0 -0.023744952253843616 0.018178896420781243 0 -0.025353845361638483 0.020312887185868919 0 -0.024990799256735953 0.020909601027002341 0 -0.024986061840859768 0.017977078231610905 0 -0.024999493968285713 0.01661729308011952 0 -0.026130398626972424 0.017548818563945356 0 -0.024999894991703134 0.018036386957338873 0 -0.026130398626972424 0.017548818563945356 0 -0.025619061169496717 0.018735480887562612 0 -0.024999894991703134 0.018036386957338873 0 -0.026528134334969995 0.019062890860111936 0 -0.026130398626972424 0.017548818563945356 0 -0.025619061169496717 0.018735480887562612 0 -0.024999746735703453 0.019455412940014249 0 -0.025619061169496717 0.018735480887562612 0 -0.024999894991703134 0.018036386957338873 0 -0.025935846056076479 0.0070622582660843647 0 -0.025199124931828645 0.0073439318163628043 0 -0.025424796664418992 0.0067266419129955761 0 -0.025598136067137223 0.0065872822554718016 0 -0.025193872581604496 0.0074386344531025056 0 -0.025424796664418992 0.0067266419129955761 0 -0.025567472210917135 0.0064110089755698421 0 -0.025598136067137223 0.0065872822554718016 0 -0.025567472210917135 0.0064110089755698421 0 -0.025598136067137223 0.0065872822554718016 0 -0.025687013522068414 0.0061283058530446719 0 -0.025193872581604496 0.0074386344531025056 0 -0.024999776716603871 0.0064944706874483366 0 -0.024999855731226168 0.0078402039993010885 0 -0.025424796664418992 0.0067266419129955761 0 -0.025193872581604496 0.0074386344531025056 0 -0.024999776716603871 0.0064944706874483366 0 -0.026377488627597596 0.00751868269459058 0 -0.025193872581604496 0.0074386344531025056 0 -0.025580713206044974 0.0080993176334398717 0 -0.024999776716603871 0.0064944706874483366 0 -0.025510178660863934 0.0061282033932561781 0 -0.025322784590861996 0.0057272015954092119 0 -0.025424796664418992 0.0067266419129955761 0 -0.024999776716603871 0.0064944706874483366 0 -0.025510178660863934 0.0061282033932561781 0 -0.025510178660863934 0.0061282033932561781 0 -0.025687013522068414 0.0061283058530446719 0 -0.025603895524310773 0.0056106117705112318 0 -0.025424796664418992 0.0067266419129955761 0 -0.025567472210917135 0.0064110089755698421 0 -0.025510178660863934 0.0061282033932561781 0 -0.025567472210917135 0.0064110089755698421 0 -0.025510178660863934 0.0061282033932561781 0 -0.025687013522068414 0.0061283058530446719 0 -0.025687013522068414 0.0061283058530446719 0 -0.025716435066402858 0.0056428263317194255 0 -0.025603895524310773 0.0056106117705112318 0 -0.025687013522068414 0.0061283058530446719 0 -0.025807839826136998 0.0057849182586667842 0 -0.025716435066402858 0.0056428263317194255 0 -0.025807839826136998 0.0057849182586667842 0 -0.025862105719000012 0.0054024759027843042 0 -0.025783197193077347 0.005443923782983872 0 -0.025807839826136998 0.0057849182586667842 0 -0.025783197193077347 0.005443923782983872 0 -0.025716435066402858 0.0056428263317194255 0 -0.025807839826136998 0.0057849182586667842 0 -0.025977609875787844 0.0058236074614097851 0 -0.025862105719000012 0.0054024759027843042 0 -0.025995575127135864 0.0068824087262905386 0 -0.025565744629393799 0.0068746023684753306 0 -0.025143659182981049 0.0074196821084355552 0 -0.025807839826136998 0.0057849182586667842 0 -0.025812184622100748 0.0062325443992881707 0 -0.025977609875787844 0.0058236074614097851 0 -0.026636118175743621 0.0071863944962034798 0 -0.024613380593810054 0.0066800298474224504 0 -0.025598925825837268 0.0077095706623918911 0 -0.024613380593810054 0.0066800298474224504 0 -0.026636118175743621 0.0071863944962034798 0 -0.025598925825837268 0.0077095706623918911 0 -0.025687013522068414 0.0061283058530446719 0 -0.025807839826136998 0.0057849182586667842 0 -0.025812184622100748 0.0062325443992881707 0 -0.025935846056076479 0.0070622582660843647 0 -0.026636118175743621 0.0071863944962034798 0 -0.025598136067137223 0.0065872822554718016 0 -0.025687013522068414 0.0061283058530446719 0 -0.025812184622100748 0.0062325443992881707 0 -0.026636118175743621 0.0071863944962034798 0 -0.026229315268225802 0.0085208980831998366 0 -0.026377488627597596 0.00751868269459058 0 -0.027504763222055303 0.0075279760623427477 0 -0.026245876929200593 0.008367947114915333 0 -0.026989958187672171 0.0079137412417973185 0 -0.026668673361796066 0.0088416809883143307 0 -0.026018704182827382 0.008546562956696202 0 -0.026989958187672171 0.0079137412417973185 0 -0.027332486967969673 0.0079158436427523259 0 -0.026668673361796066 0.0088416809883143307 0 -0.026726672394715059 0.0084591557278460069 0 -0.026639374661296011 0.0087761836440506391 0 -0.026369182494945728 0.0088411129659157085 0 -0.025598925825837268 0.0077095706623918911 0 -0.026750661465404727 0.0088928276411270653 0 -0.026726672394715059 0.0084591557278460069 0 -0.026752078909409484 0.0086695050973452474 0 -0.026639374661296011 0.0087761836440506391 0 -0.026726672394715059 0.0084591557278460069 0 -0.026752078909409484 0.0086695050973452474 0 -0.026757013907293598 0.0085403133722342234 0 -0.026752078909409484 0.0086695050973452474 0 -0.026639374661296011 0.0087761836440506391 0 -0.026774293167858315 0.0089446320153032857 0 -0.026752078909409484 0.0086695050973452474 0 -0.026774293167858315 0.0089446320153032857 0 -0.026853490380099546 0.0087665328870631439 0 -0.026639374661296011 0.0087761836440506391 0 -0.026369182494945728 0.0088411129659157085 0 -0.026581152313801655 0.0092864369609902599 0 -0.026639374661296011 0.0087761836440506391 0 -0.026774293167858315 0.0089446320153032857 0 -0.026581152313801655 0.0092864369609902599 0 -0.026774293167858315 0.0089446320153032857 0 -0.026863987413970357 0.0093921017010031287 0 -0.026988652166299698 0.0089174848613288449 0 -0.026750661465404727 0.0088928276411270653 0 -0.025919248209759251 0.0097548629732759334 0 -0.026369182494945728 0.0088411129659157085 0 -0.025971887819908647 0.009820336772472885 0 -0.026581152313801655 0.0092864369609902599 0 -0.026668673361796066 0.0088416809883143307 0 -0.026018704182827382 0.008546562956696202 0 -0.025971887819908647 0.009820336772472885 0 -0.026018704182827382 0.008546562956696202 0 -0.024999954795685137 0.0091868511419993595 0 -0.025971887819908647 0.009820336772472885 0 -0.026377488627597596 0.00751868269459058 0 -0.026245876929200593 0.008367947114915333 0 -0.025580713206044974 0.0080993176334398717 0 -0.024999855731226168 0.0078402039993010885 0 -0.025580713206044974 0.0080993176334398717 0 -0.025000055864992883 0.0091868528201633649 0 -0.026245876929200593 0.008367947114915333 0 -0.025580713206044974 0.0080993176334398717 0 -0.025000055864992883 0.0091868528201633649 0 -0.025193872581604496 0.0074386344531025056 0 -0.024999855731226168 0.0078402039993010885 0 -0.025580713206044974 0.0080993176334398717 0 -0.026229315268225802 0.0085208980831998366 0 -0.025000083187100914 0.009186454769203491 0 -0.024999954795685137 0.0091868511419993595 0 -0.025971887819908647 0.009820336772472885 0 -0.024999879252186732 0.010689300099145385 0 -0.025783093274652731 0.010485787238334729 0 -0.025729531254140528 0.011212982960751473 0 -0.026296883189677035 0.010182144524708669 0 -0.025599623068620094 0.011192407947833417 0 -0.026149773646962721 0.01017356345241314 0 -0.025971887819908647 0.009820336772472885 0 -0.025783093274652731 0.010485787238334729 0 -0.026296883189677035 0.010182144524708669 0 -0.025783093274652731 0.010485787238334729 0 -0.024999879252186732 0.010689300099145385 0 -0.025729531254140528 0.011212982960751473 0 -0.025971887819908647 0.009820336772472885 0 -0.025783093274652731 0.010485787238334729 0 -0.024999879252186732 0.010689300099145385 0 -0.024999879252186732 0.010689300099145385 0 -0.025729531254140528 0.011212982960751473 0 -0.025000020025747652 0.012192602213995278 0 -0.025466744100857298 0.011189962509953766 0 -0.026010656583561848 0.011137774451381212 0 -0.026021126809672349 0.012098159343159236 0 -0.025466744100857298 0.011189962509953766 0 -0.026010656583561848 0.011137774451381212 0 -0.026011395275329998 0.010172879883868231 0 -0.025466744100857298 0.011189962509953766 0 -0.026021126809672349 0.012098159343159236 0 -0.025487704360977022 0.012137420372630393 0 -0.025466744100857298 0.011189962509953766 0 -0.024999575163984045 0.01219248319177672 0 -0.025487704360977022 0.012137420372630393 0 -0.025599623068620094 0.011192407947833417 0 -0.025000120203027779 0.012192321328504003 0 -0.026268120251227142 0.013947146140191031 0 -0.025928666686081982 0.013790824107914356 0 -0.026149302143338039 0.01354922821503971 0 -0.025928666686081982 0.013790824107914356 0 -0.02584468292694142 0.013451398156032832 0 -0.026149302143338039 0.01354922821503971 0 -0.02565359703908943 0.013882808548808332 0 -0.025613907026261627 0.013733187381095226 0 -0.025928666686081982 0.013790824107914356 0 -0.025814707907409029 0.012918505750680428 0 -0.026207462624607575 0.012235503787763776 0 -0.025613907026261627 0.013733187381095226 0 -0.025928666686081982 0.013790824107914356 0 -0.02584468292694142 0.013451398156032832 0 -0.026010656583561848 0.011137774451381212 0 -0.026021126809672349 0.012098159343159236 0 -0.026543204373200027 0.011091543148514738 0 -0.026010656583561848 0.011137774451381212 0 -0.026543204373200027 0.011091543148514738 0 -0.026011395275329998 0.010172879883868231 0 -0.02584468292694142 0.013451398156032832 0 -0.026074863791636906 0.013165803760237304 0 -0.026149302143338039 0.01354922821503971 0 -0.026543204373200027 0.011091543148514738 0 -0.026975913016716573 0.010096117725441544 0 -0.026534653801052247 0.0099246780621334955 0 -0.026207462624607575 0.012235503787763776 0 -0.026422746386840387 0.011912132013981364 0 -0.026543204373200027 0.011091543148514738 0 -0.026534653801052247 0.0099246780621334955 0 -0.026011395275329998 0.010172879883868231 0 -0.026534653801052247 0.0099246780621334955 0 -0.026011395275329998 0.010172879883868231 0 -0.026581152313801655 0.0092864369609902599 0 -0.026149773646962721 0.01017356345241314 0 -0.026574340092075391 0.0093769569033171282 0 -0.025971887819908647 0.009820336772472885 0 -0.026296883189677035 0.010182144524708669 0 -0.026581152313801655 0.0092864369609902599 0 -0.026975913016716573 0.010096117725441544 0 -0.026534653801052247 0.0099246780621334955 0 -0.026863987413970357 0.0093921017010031287 0 -0.026534653801052247 0.0099246780621334955 0 -0.026581152313801655 0.0092864369609902599 0 -0.026863987413970357 0.0093921017010031287 0 -0.026774293167858315 0.0089446320153032857 0 -0.026581152313801655 0.0092864369609902599 0 -0.026863987413970357 0.0093921017010031287 0 -0.026422746386840387 0.011912132013981364 0 -0.026766912346378638 0.0093786864758654762 0 -0.026975913016716573 0.010096117725441544 0 -0.026863987413970357 0.0093921017010031287 0 -0.027324005226755984 0.0091891234539947016 0 -0.026863987413970357 0.0093921017010031287 0 -0.027324005226755984 0.0091891234539947016 0 -0.026988652166299698 0.0089174848613288449 0 -0.026766912346378638 0.0093786864758654762 0 -0.026862870590227021 0.0091414044361823651 0 -0.026789711831084573 0.0071033063431076345 0 -0.02642855948498337 0.0063059912996381931 0 -0.026368965651579767 0.0071712213846646822 0 -0.026766912346378638 0.0093786864758654762 0 -0.026579483646882906 0.0098489182218726382 0 -0.027476340674993369 0.0071444082666660752 0 -0.026789711831084573 0.0071033063431076345 0 -0.02642855948498337 0.0063059912996381931 0 -0.026308583022074838 0.012867821779878438 0 -0.026579227098164463 0.013140073151535784 0 -0.026354802629322181 0.013339740675447088 0 -0.026579227098164463 0.013140073151535784 0 -0.026354802629322181 0.013339740675447088 0 -0.026589714172491327 0.013410331608758345 0 -0.026074863791636906 0.013165803760237304 0 -0.026308583022074838 0.012867821779878438 0 -0.026354802629322181 0.013339740675447088 0 -0.026354802629322181 0.013339740675447088 0 -0.026149302143338039 0.01354922821503971 0 -0.026447611039572907 0.013613365502515686 0 -0.026074863791636906 0.013165803760237304 0 -0.026354802629322181 0.013339740675447088 0 -0.026149302143338039 0.01354922821503971 0 -0.026447611039572907 0.013613365502515686 0 -0.026643147635391995 0.013574164336502468 0 -0.026589714172491327 0.013410331608758345 0 -0.026354802629322181 0.013339740675447088 0 -0.026447611039572907 0.013613365502515686 0 -0.026589714172491327 0.013410331608758345 0 -0.026598912050566519 0.013822488955822559 0 -0.026268120251227142 0.013947146140191031 0 -0.026447611039572907 0.013613365502515686 0 -0.026598912050566519 0.013822488955822559 0 -0.026447611039572907 0.013613365502515686 0 -0.026643147635391995 0.013574164336502468 0 -0.026268120251227142 0.013947146140191031 0 -0.026149302143338039 0.01354922821503971 0 -0.026447611039572907 0.013613365502515686 0 -0.026782084178415457 0.013301954590441084 0 -0.026731732140691983 0.013504499872588158 0 -0.026631103293546683 0.013348485388905288 0 -0.026911374987762436 0.013167588524037179 0 -0.026708188377686012 0.013657335930783098 0 -0.02681760007888 0.013781736657686006 0 -0.026732681183572991 0.013610111469990117 0 -0.026731732140691983 0.013504499872588158 0 -0.026598912050566519 0.013822488955822559 0 -0.02681760007888 0.013781736657686006 0 -0.026732681183572991 0.013610111469990117 0 -0.026598912050566519 0.013822488955822559 0 -0.026732681183572991 0.013610111469990117 0 -0.026643147635391995 0.013574164336502468 0 -0.026732681183572991 0.013610111469990117 0 -0.026643147635391995 0.013574164336502468 0 -0.026782832946691894 0.013438725136606391 0 -0.026643147635391995 0.013574164336502468 0 -0.026589714172491327 0.013410331608758345 0 -0.026782832946691894 0.013438725136606391 0 -0.026038286113269218 0.009516440499767298 0 -0.026259856790676165 0.0096747151078882977 0 -0.026731732140691983 0.013504499872588158 0 -0.026782832946691894 0.013438725136606391 0 -0.026600633004971508 0.013508791982678934 0 -0.026732681183572991 0.013610111469990117 0 -0.026731732140691983 0.013504499872588158 0 -0.026782832946691894 0.013438725136606391 0 -0.025541839534862117 0.005767267485543957 0 -0.024933101595399406 0.0057856626481364798 0 -0.024839841107536818 0.0053403671115656009 0 -0.025541839534862117 0.005767267485543957 0 -0.025081328816003386 0.0062867975201581928 0 -0.025770947514284236 0.0065763277048625814 0 -0.025541839534862117 0.005767267485543957 0 -0.025081328816003386 0.0062867975201581928 0 -0.024933101595399406 0.0057856626481364798 0 -0.02642855948498337 0.0063059912996381931 0 -0.025541839534862117 0.005767267485543957 0 -0.025770947514284236 0.0065763277048625814 0 -0.026579227098164463 0.013140073151535784 0 -0.026589714172491327 0.013410331608758345 0 -0.026782832946691894 0.013438725136606391 0 -0.026579483646882906 0.0098489182218726382 0 -0.026038286113269218 0.009516440499767298 0 -0.02642855948498337 0.0063059912996381931 0 -0.025770947514284236 0.0065763277048625814 0 -0.026368965651579767 0.0071712213846646822 0 -0.025770947514284236 0.0065763277048625814 0 -0.025723778181182651 0.0071773700991339794 0 -0.026368965651579767 0.0071712213846646822 0 -0.024499256185334127 0.0057880706365163355 0 -0.025770947514284236 0.0065763277048625814 0 -0.024923329200030812 0.0066287299572121731 0 -0.025871598604668589 0.0065430082763021889 0 -0.02527552508003961 0.0063231818331017002 0 -0.025723778181182651 0.0071773700991339794 0 -0.024923329200030812 0.0066287299572121731 0 -0.024914528284847075 0.0075331031725439134 0 -0.025770947514284236 0.0065763277048625814 0 -0.025723778181182651 0.0071773700991339794 0 -0.024923329200030812 0.0066287299572121731 0 -0.024914528284847075 0.0075331031725439134 0 -0.025117143904062281 0.0086555914041880795 0 -0.026192910515652333 0.0078858232452620296 0 -0.024914528284847075 0.0075331031725439134 0 -0.025117143904062281 0.0086555914041880795 0 -0.023826229564832394 0.008055043931821413 0 -0.025758106032681777 0.0086299280591094502 0 -0.021424830680286472 0.0022701089783474793 0 -0.026221019041601751 0.0081980980706087628 0 -0.026385185653645487 0.0082176333187142497 0 -0.026192910515652333 0.0078858232452620296 0 -0.026221019041601751 0.0081980980706087628 0 -0.026385185653645487 0.0082176333187142497 0 -0.026078164351596014 0.0079323717562639305 0 -0.026385185653645487 0.0082176333187142497 0 -0.026676352873218415 0.0085228266965418197 0 -0.026078164351596014 0.0079323717562639305 0 -0.025758106032681777 0.0086299280591094502 0 -0.026186709976144945 0.0079114742464575158 0 -0.026385185653645487 0.0082176333187142497 0 -0.026192910515652333 0.0078858232452620296 0 -0.026886894371220681 0.0077888380785224066 0 -0.025723778181182651 0.0071773700991339794 0 -0.024914528284847075 0.0075331031725439134 0 -0.026192910515652333 0.0078858232452620296 0 -0.026368965651579767 0.0071712213846646822 0 -0.026192910515652333 0.0078858232452620296 0 -0.026886894371220681 0.0077888380785224066 0 -0.025723778181182651 0.0071773700991339794 0 -0.026368965651579767 0.0071712213846646822 0 -0.026192910515652333 0.0078858232452620296 0 -0.026789711831084573 0.0071033063431076345 0 -0.026368965651579767 0.0071712213846646822 0 -0.026886894371220681 0.0077888380785224066 0 -0.026766912346378638 0.0093786864758654762 0 -0.026947443484318323 0.0080205037553902851 0 -0.027476340674993369 0.0071444082666660752 0 -0.026789711831084573 0.0071033063431076345 0 -0.026886894371220681 0.0077888380785224066 0 -0.026988652166299698 0.0089174848613288449 0 -0.026879327379768104 0.008749860597777874 0 -0.026853490380099546 0.0087665328870631439 0 -0.026774293167858315 0.0089446320153032857 0 -0.026988652166299698 0.0089174848613288449 0 -0.026853490380099546 0.0087665328870631439 0 -0.026909300715642039 0.0088007556393383066 0 -0.02678230670680342 0.0085634768890049933 0 -0.026879327379768104 0.008749860597777874 0 -0.026909300715642039 0.0088007556393383066 0 -0.026988652166299698 0.0089174848613288449 0 -0.026879327379768104 0.008749860597777874 0 -0.026879327379768104 0.008749860597777874 0 -0.026853490380099546 0.0087665328870631439 0 -0.026810097191599679 0.0086088640705622773 0 -0.02678230670680342 0.0085634768890049933 0 -0.026879327379768104 0.008749860597777874 0 -0.026810097191599679 0.0086088640705622773 0 -0.026752078909409484 0.0086695050973452474 0 -0.026853490380099546 0.0087665328870631439 0 -0.026810097191599679 0.0086088640705622773 0 -0.026743796337836991 0.0085154599414813126 0 -0.026757013907293598 0.0085403133722342234 0 -0.026676352873218415 0.0085228266965418197 0 -0.026752078909409484 0.0086695050973452474 0 -0.026810097191599679 0.0086088640705622773 0 -0.026757013907293598 0.0085403133722342234 0 -0.026810097191599679 0.0086088640705622773 0 -0.026743796337836991 0.0085154599414813126 0 -0.026683205428945804 0.0084334659891202243 0 -0.026810097191599679 0.0086088640705622773 0 -0.026743796337836991 0.0085154599414813126 0 -0.026757013907293598 0.0085403133722342234 0 -0.026427965220941815 0.0083386750780492704 0 -0.026947443484318323 0.0080205037553902851 0 -0.026385185653645487 0.0082176333187142497 0 -0.02678230670680342 0.0085634768890049933 0 -0.026683205428945804 0.0084334659891202243 0 -0.02678230670680342 0.0085634768890049933 0 -0.026810097191599679 0.0086088640705622773 0 -0.026683205428945804 0.0084334659891202243 0 -0.026743796337836991 0.0085154599414813126 0 -0.026683205428945804 0.0084334659891202243 0 -0.026676352873218415 0.0085228266965418197 0 -0.026385185653645487 0.0082176333187142497 0 -0.026683205428945804 0.0084334659891202243 0 -0.026676352873218415 0.0085228266965418197 0 -0.024272936741568774 0.0078119123175349929 0 -0.024640548377541812 0.0070263920099887375 0 -0.023221939320537021 0.0070358680782978064 0 -0.024272936741568774 0.0078119123175349929 0 -0.024640548377541812 0.0070263920099887375 0 -0.026078164351596014 0.0079323717562639305 0 -0.025598925825837268 0.0077095706623918911 0 -0.025290882372704784 0.0081762877849319796 0 -0.022703230903517831 0.007752959424705449 0 -0.024272936741568774 0.0078119123175349929 0 -0.023221939320537021 0.0070358680782978064 0 -0.026726672394715059 0.0084591557278460069 0 -0.026757013907293598 0.0085403133722342234 0 -0.026676352873218415 0.0085228266965418197 0 -0.024613380593810054 0.0066800298474224504 0 -0.025218798301207473 0.0052822871452366492 0 -0.025977609875787844 0.0058236074614097851 0 -0.025862105719000012 0.0054024759027843042 0 -0.025898901526373207 0.0051117641919720307 0 -0.024613380593810054 0.0066800298474224504 0 -0.024235276701833956 0.0062821704032571708 0 -0.023809193023779141 0.0065633938414149523 0 -0.0245286038337479 0.0060759565477434205 0 -0.0244697750401618 0.005634743830636669 0 -0.024640548377541812 0.0070263920099887375 0 -0.023221939320537021 0.0070358680782978064 0 -0.024229415066361223 0.0063317500935828261 0 -0.024235276701833956 0.0062821704032571708 0 -0.02528162357774507 0.0056107928525278 0 -0.024229415066361223 0.0063317500935828261 0 -0.024907668356762138 0.0064079611160997281 0 -0.025314509249647437 0.005585562845937901 0 -0.024640548377541812 0.0070263920099887375 0 -0.024229415066361223 0.0063317500935828261 0 -0.024907668356762138 0.0064079611160997281 0 -0.025449354604209763 0.0066741226335522152 0 -0.026011037816437061 0.0059557255047969979 0 -0.025314509249647437 0.005585562845937901 0 -0.024907668356762138 0.0064079611160997281 0 -0.025449354604209763 0.0066741226335522152 0 -0.025314509249647437 0.005585562845937901 0 -0.024640548377541812 0.0070263920099887375 0 -0.024907668356762138 0.0064079611160997281 0 -0.025449354604209763 0.0066741226335522152 0 -0.025449354604209763 0.0066741226335522152 0 -0.026011037816437061 0.0059557255047969979 0 -0.026185577135423466 0.006859803287461959 0 -0.026185577135423466 0.006859803287461959 0 -0.026484029099545697 0.007492487356612617 0 -0.026876018500999934 0.0062033240002263559 0 -0.026011037816437061 0.0059557255047969979 0 -0.026185577135423466 0.006859803287461959 0 -0.026876018500999934 0.0062033240002263559 0 -0.026221019041601751 0.0081980980706087628 0 -0.026484029099545697 0.007492487356612617 0 -0.026078164351596014 0.0079323717562639305 0 -0.026185577135423466 0.006859803287461959 0 -0.026484029099545697 0.007492487356612617 0 -0.026078164351596014 0.0079323717562639305 0 -0.026221019041601751 0.0081980980706087628 0 -0.026484029099545697 0.007492487356612617 0 -0.027082750104769862 0.0077697316982214886 0 -0.026484029099545697 0.007492487356612617 0 -0.027082750104769862 0.0077697316982214886 0 -0.026876018500999934 0.0062033240002263559 0 -0.025449354604209763 0.0066741226335522152 0 -0.026185577135423466 0.006859803287461959 0 -0.026078164351596014 0.0079323717562639305 0 -0.024640548377541812 0.0070263920099887375 0 -0.025449354604209763 0.0066741226335522152 0 -0.026078164351596014 0.0079323717562639305 0 -0.025290882372704784 0.0081762877849319796 0 -0.026168708874795055 0.0079770736302743755 0 -0.012934852508144161 -0.00050840441891459567 0 -0.011882554585904884 0.00024299005665972553 0 -0.011938784808389917 -0.00090866883347167531 0 -0.011882554585904884 0.00024299005665972553 0 -0.010915972670708689 -0.00034298803311250922 0 -0.011938784808389917 -0.00090866883347167531 0 -0.021424830680286472 0.0022701089783474793 0 -0.025007513613850379 0.00091208056521695203 0 -0.021777516850595108 -0.0082191075537314476 0 -0.020679083374198489 -0.0050418934115556121 0 -0.017862398075399626 -0.0055411839475904773 0 -0.021424830680286472 0.0022701089783474793 0 -0.014566168392571242 -0.00331934520099524 0 -0.021777516850595108 -0.0082191075537314476 0 -0.020679083374198489 -0.0050418934115556121 0 -0.022574218918562219 -0.0033754885390382284 0 -0.020679083374198489 -0.0050418934115556121 0 -0.022574218918562219 -0.0033754885390382284 0 -0.020696849796338249 -0.0025387338570365425 0 -0.017862398075399626 -0.0055411839475904773 0 -0.016915830790496505 -0.0023311164553072505 0 -0.020696849796338249 -0.0025387338570365425 0 -0.020679083374198489 -0.0050418934115556121 0 -0.017862398075399626 -0.0055411839475904773 0 -0.020696849796338249 -0.0025387338570365425 0 -0.017862398075399626 -0.0055411839475904773 0 -0.013469207337710723 -0.0021140801762362651 0 -0.016915830790496505 -0.0023311164553072505 0 -0.014566168392571242 -0.00331934520099524 0 -0.012201651290371573 -0.00044305534664627395 0 -0.011882554585904884 0.00024299005665972553 0 -0.010915972670708689 -0.00034298803311250922 0 -0.010838601124854899 0.00098329280393915329 0 -0.0098974011610157911 0.00051330170943563282 0 -0.010915972670708689 -0.00034298803311250922 0 -0.010838601124854899 0.00098329280393915329 0 -0.0098974011610157911 0.00051330170943563282 0 -0.010915972670708689 -0.00034298803311250922 0 -0.0099685185392538889 -0.00079879088398853912 0 -0.010915972670708689 -0.00034298803311250922 0 -0.011266739486848837 -0.0013973411148930264 0 -0.010570145733471625 -0.0012156991291243401 0 -0.010915972670708689 -0.00034298803311250922 0 -0.011266739486848837 -0.0013973411148930264 0 -0.011938784808389917 -0.00090866883347167531 0 -0.011266739486848837 -0.0013973411148930264 0 -0.010570145733471625 -0.0012156991291243401 0 -0.010679617517881325 -0.0019529804876285866 0 -0.0099685185392538889 -0.00079879088398853912 0 -0.010570145733471625 -0.0012156991291243401 0 -0.010026123622267853 -0.0017582112583059558 0 -0.0099685185392538889 -0.00079879088398853912 0 -0.010026123622267853 -0.0017582112583059558 0 -0.0092426249566241389 -0.0016504978888875882 0 -0.010915972670708689 -0.00034298803311250922 0 -0.0099685185392538889 -0.00079879088398853912 0 -0.010570145733471625 -0.0012156991291243401 0 -0.010570145733471625 -0.0012156991291243401 0 -0.010026123622267853 -0.0017582112583059558 0 -0.010679617517881325 -0.0019529804876285866 0 -0.010207309137879371 -0.0023595324508647241 0 -0.010679617517881325 -0.0019529804876285866 0 -0.010721884483570939 -0.002702197673854342 0 -0.010026123622267853 -0.0017582112583059558 0 -0.010207309137879371 -0.0023595324508647241 0 -0.010679617517881325 -0.0019529804876285866 0 -0.010026123622267853 -0.0017582112583059558 0 -0.010207309137879371 -0.0023595324508647241 0 -0.0094182188237653328 -0.0025380441066289536 0 -0.011266739486848837 -0.0013973411148930264 0 -0.010679617517881325 -0.0019529804876285866 0 -0.011278973926874611 -0.0022573233198256502 0 -0.010679617517881325 -0.0019529804876285866 0 -0.011278973926874611 -0.0022573233198256502 0 -0.010721884483570939 -0.002702197673854342 0 -0.011278973926874611 -0.0022573233198256502 0 -0.011881616820159124 -0.0019181182742159812 0 -0.011704904530565699 -0.0026557318071882682 0 -0.011266739486848837 -0.0013973411148930264 0 -0.011278973926874611 -0.0022573233198256502 0 -0.011881616820159124 -0.0019181182742159812 0 -0.011881616820159124 -0.0019181182742159812 0 -0.012674649447442645 -0.0015941187994687085 0 -0.012418149800868972 -0.0026751431110738234 0 -0.011266739486848837 -0.0013973411148930264 0 -0.011881616820159124 -0.0019181182742159812 0 -0.011938784808389917 -0.00090866883347167531 0 -0.011881616820159124 -0.0019181182742159812 0 -0.011938784808389917 -0.00090866883347167531 0 -0.012674649447442645 -0.0015941187994687085 0 -0.025117143904062281 0.0086555914041880795 0 -0.024107940181653648 0.0093553638794152492 0 -0.023826229564832394 0.008055043931821413 0 -0.012934852508144161 -0.00050840441891459567 0 -0.011938784808389917 -0.00090866883347167531 0 -0.012674649447442645 -0.0015941187994687085 0 -0.021424830680286472 0.0022701089783474793 0 -0.018130793226984972 0.0036653908690658004 0 -0.018130793226984972 0.0036653908690658004 0 -0.017840572938683765 0.001444059627968332 0 -0.024914528284847075 0.0075331031725439134 0 -0.023826229564832394 0.008055043931821413 0 -0.02347887295688059 0.0066755328606043687 0 -0.024499256185334127 0.0057880706365163355 0 -0.024923329200030812 0.0066287299572121731 0 -0.02347887295688059 0.0066755328606043687 0 -0.024923329200030812 0.0066287299572121731 0 -0.024914528284847075 0.0075331031725439134 0 -0.02347887295688059 0.0066755328606043687 0 -0.011881616820159124 -0.0019181182742159812 0 -0.012418149800868972 -0.0026751431110738234 0 -0.011704904530565699 -0.0026557318071882682 0 -0.012418149800868972 -0.0026751431110738234 0 -0.011704904530565699 -0.0026557318071882682 0 -0.011622182402944777 -0.0033995496913968967 0 -0.011704904530565699 -0.0026557318071882682 0 -0.011622182402944777 -0.0033995496913968967 0 -0.011150781117792236 -0.002974404018978089 0 -0.017840572938683765 0.001444059627968332 0 -0.018323205310480362 0.0031170939553603833 0 -0.012418149800868972 -0.0026751431110738234 0 -0.01218357438162733 -0.0037403049771257135 0 -0.011622182402944777 -0.0033995496913968967 0 -0.01218357438162733 -0.0037403049771257135 0 -0.011622182402944777 -0.0033995496913968967 0 -0.011235036856969633 -0.0037734835574722023 0 -0.025871598604668589 0.0065430082763021889 0 -0.018323205310480362 0.0031170939553603833 0 -0.024499256185334127 0.0057880706365163355 0 -0.02347887295688059 0.0066755328606043687 0 -0.023101655250420829 0.0051080298910910638 0 -0.025081328816003386 0.0062867975201581928 0 -0.024457386793042941 0.0059902627747414755 0 -0.024933101595399406 0.0057856626481364798 0 -0.024933101595399406 0.0057856626481364798 0 -0.024361968311668685 0.0054340900738379322 0 -0.024839841107536818 0.0053403671115656009 0 -0.024457386793042941 0.0059902627747414755 0 -0.024933101595399406 0.0057856626481364798 0 -0.024361968311668685 0.0054340900738379322 0 -0.018323205310480362 0.0031170939553603833 0 -0.012676616449478382 0.0001407264349738706 0 -0.015734948891410881 0.0057270270643906742 0 -0.015698412301317695 0.0056146828449351784 0 -0.015529220937887951 0.005677945738178476 0 -0.018323205310480362 0.0031170939553603833 0 -0.019995552131594155 0.0054181754385333623 0 -0.01218357438162733 -0.0037403049771257135 0 -0.010993538537029633 -0.0041883260124054369 0 -0.011235036856969633 -0.0037734835574722023 0 -0.022254843446906883 0.008501694177979165 0 -0.019995552131594155 0.0054181754385333623 0 -0.022254843446906883 0.008501694177979165 0 -0.026259856790676165 0.0096747151078882977 0 -0.015685036056297941 0.0054984402963247307 0 -0.015698412301317695 0.0056146828449351784 0 -0.015530749686576339 0.0055570107923726166 0 -0.024240909830395632 0.0049524140816688015 0 -0.024361968311668685 0.0054340900738379322 0 -0.024839841107536818 0.0053403671115656009 0 -0.026442919965948341 0.013282941186743566 0 -0.026183757752459277 0.01326512000336489 0 -0.026600633004971508 0.013508791982678934 0 -0.026442919965948341 0.013282941186743566 0 -0.026631103293546683 0.013348485388905288 0 -0.026600633004971508 0.013508791982678934 0 -0.026731732140691983 0.013504499872588158 0 -0.026631103293546683 0.013348485388905288 0 -0.026600633004971508 0.013508791982678934 0 -0.011746079595301941 0.0078518477318406527 0 -0.01077022235325234 0.0034537532348288798 0 -0.015312118736984588 0.0054721065157838748 0 -0.015308033225423814 0.0056182457560270049 0 -0.015530749686576339 0.0055570107923726166 0 -0.006600450299613825 0.0074822377410165503 0 -0.0065826728311872817 0.0065559009497227266 0 -0.0067209202959542559 0.0067484722719141407 0 -0.01077022235325234 0.0034537532348288798 0 -0.0084316303563792445 0.0048038059065942705 0 -0.0065826728311872817 0.0065559009497227266 0 -0.0067209202959542559 0.0067484722719141407 0 -0.0067742632318323519 0.0066448536902044665 0 -0.015308033225423814 0.0056182457560270049 0 -0.015530749686576339 0.0055570107923726166 0 -0.015529220937887951 0.005677945738178476 0 -0.015698412301317695 0.0056146828449351784 0 -0.015530749686576339 0.0055570107923726166 0 -0.015529220937887951 0.005677945738178476 0 -0.010993538537029633 -0.0041883260124054369 0 -0.010907300450104707 -0.0041164031959827442 0 -0.011235036856969633 -0.0037734835574722023 0 -0.010907300450104707 -0.0041164031959827442 0 -0.0099085184231332557 -0.0042227112684670616 0 -0.010353971447809347 -0.0037186089431558429 0 -0.011038723189727567 -0.004136064792662591 0 -0.0096070181828772187 -0.0029504204783992669 0 -0.010633960593808353 -0.004166154763566291 0 -0.010907300450104707 -0.0041164031959827442 0 -0.010643942753052943 -0.0040482180837192964 0 -0.01077022235325234 0.0034537532348288798 0 -0.012676616449478382 0.0001407264349738706 0 -0.010633960593808353 -0.004166154763566291 0 -0.010993538537029633 -0.0041883260124054369 0 -0.010907300450104707 -0.0041164031959827442 0 -0.0083256348695197081 0.001995843980788507 0 -0.0083079884452498601 0.00014812719141117403 0 -0.0090649549463943206 0.001004185593250883 0 -0.01077022235325234 0.0034537532348288798 0 -0.0096070181828772187 -0.0029504204783992669 0 -0.0099085184231332557 -0.0042227112684670616 0 -0.010353971447809347 -0.0037186089431558429 0 -0.0098424039576904612 -0.0032434994892099355 0 -0.0096070181828772187 -0.0029504204783992669 0 -0.0098562368227637503 -0.0037683515517386201 0 -0.0097606353217878934 -0.0041585571917637475 0 -0.0098424039576904612 -0.0032434994892099355 0 -0.0096429401223664477 -0.0035292992853612659 0 -0.010353971447809347 -0.0037186089431558429 0 -0.010791474677696066 -0.0037192762054465696 0 -0.010618961454029239 -0.0034487179466740478 0 -0.010353971447809347 -0.0037186089431558429 0 -0.010286197212691502 -0.0033361937495138966 0 -0.0098424039576904612 -0.0032434994892099355 0 -0.010353971447809347 -0.0037186089431558429 0 -0.010286197212691502 -0.0033361937495138966 0 -0.010618961454029239 -0.0034487179466740478 0 -0.010286197212691502 -0.0033361937495138966 0 -0.010618961454029239 -0.0034487179466740478 0 -0.010465514336095615 -0.0031314273915218093 0 -0.010286197212691502 -0.0033361937495138966 0 -0.010124791547345422 -0.0030990158928977428 0 -0.010465514336095615 -0.0031314273915218093 0 -0.010286197212691502 -0.0033361937495138966 0 -0.0098424039576904612 -0.0032434994892099355 0 -0.010124791547345422 -0.0030990158928977428 0 -0.011622182402944777 -0.0033995496913968967 0 -0.011235036856969633 -0.0037734835574722023 0 -0.011002097957717564 -0.0034600701638848493 0 -0.010907300450104707 -0.0041164031959827442 0 -0.010353971447809347 -0.0037186089431558429 0 -0.010791474677696066 -0.0037192762054465696 0 -0.010907300450104707 -0.0041164031959827442 0 -0.011235036856969633 -0.0037734835574722023 0 -0.010791474677696066 -0.0037192762054465696 0 -0.011235036856969633 -0.0037734835574722023 0 -0.010791474677696066 -0.0037192762054465696 0 -0.011002097957717564 -0.0034600701638848493 0 -0.010828155772971653 -0.0031883023652680654 0 -0.011002097957717564 -0.0034600701638848493 0 -0.011150781117792236 -0.002974404018978089 0 -0.010791474677696066 -0.0037192762054465696 0 -0.010618961454029239 -0.0034487179466740478 0 -0.011002097957717564 -0.0034600701638848493 0 -0.010618961454029239 -0.0034487179466740478 0 -0.010828155772971653 -0.0031883023652680654 0 -0.010465514336095615 -0.0031314273915218093 0 -0.010618961454029239 -0.0034487179466740478 0 -0.010828155772971653 -0.0031883023652680654 0 -0.011002097957717564 -0.0034600701638848493 0 -0.011622182402944777 -0.0033995496913968967 0 -0.011002097957717564 -0.0034600701638848493 0 -0.011150781117792236 -0.002974404018978089 0 -0.010828155772971653 -0.0031883023652680654 0 -0.010721884483570939 -0.002702197673854342 0 -0.010465514336095615 -0.0031314273915218093 0 -0.010828155772971653 -0.0031883023652680654 0 -0.011150781117792236 -0.002974404018978089 0 -0.010721884483570939 -0.002702197673854342 0 -0.011278973926874611 -0.0022573233198256502 0 -0.011150781117792236 -0.002974404018978089 0 -0.010721884483570939 -0.002702197673854342 0 -0.011278973926874611 -0.0022573233198256502 0 -0.011704904530565699 -0.0026557318071882682 0 -0.011150781117792236 -0.002974404018978089 0 -0.010124791547345422 -0.0030990158928977428 0 -0.010103295507210256 -0.0027841130789115296 0 -0.0096568159837017633 -0.0028745818384370496 0 -0.0098424039576904612 -0.0032434994892099355 0 -0.010124791547345422 -0.0030990158928977428 0 -0.0096568159837017633 -0.0028745818384370496 0 -0.010124791547345422 -0.0030990158928977428 0 -0.010465514336095615 -0.0031314273915218093 0 -0.010103295507210256 -0.0027841130789115296 0 -0.010721884483570939 -0.002702197673854342 0 -0.010465514336095615 -0.0031314273915218093 0 -0.010103295507210256 -0.0027841130789115296 0 -0.010207309137879371 -0.0023595324508647241 0 -0.010721884483570939 -0.002702197673854342 0 -0.010103295507210256 -0.0027841130789115296 0 -0.010207309137879371 -0.0023595324508647241 0 -0.010103295507210256 -0.0027841130789115296 0 -0.0094182188237653328 -0.0025380441066289536 0 -0.010103295507210256 -0.0027841130789115296 0 -0.0094182188237653328 -0.0025380441066289536 0 -0.0096568159837017633 -0.0028745818384370496 0 -0.0094182188237653328 -0.0025380441066289536 0 -0.009260389625373849 -0.0031674111969406519 0 -0.0085916952949793308 -0.0030549436769843506 0 -0.0098424039576904612 -0.0032434994892099355 0 -0.0096568159837017633 -0.0028745818384370496 0 -0.009260389625373849 -0.0031674111969406519 0 -0.0094182188237653328 -0.0025380441066289536 0 -0.0096568159837017633 -0.0028745818384370496 0 -0.009260389625373849 -0.0031674111969406519 0 -0.0048329176061149568 0.00081259887605567721 0 -0.0044316259831713766 0.0010034092359219474 0 -0.0046011858048023921 0.0012551860120402925 0 -0.0094182188237653328 -0.0025380441066289536 0 -0.0085916952949793308 -0.0030549436769843506 0 -0.0077388736395481404 -0.0019001253329202486 0 -0.0048329176061149568 0.00081259887605567721 0 -0.0048427977704256905 0.00051136485929166575 0 -0.0051143896644337775 0.00031372727276073194 0 -0.0048329176061149568 0.00081259887605567721 0 -0.0048427977704256905 0.00051136485929166575 0 -0.0045930040060436035 0.00054951110421517157 0 -0.0048427977704256905 0.00051136485929166575 0 -0.0045930040060436035 0.00054951110421517157 0 -0.0047882416537459345 0.00041846291129236409 0 -0.009260389625373849 -0.0031674111969406519 0 -0.0096429401223664477 -0.0035292992853612659 0 -0.0092687149344487449 -0.0042294506589936054 0 -0.009260389625373849 -0.0031674111969406519 0 -0.0085916952949793308 -0.0030549436769843506 0 -0.0092687149344487449 -0.0042294506589936054 0 -0.0067338388016018498 -0.0014948108646338522 0 -0.0074953830235767347 -7.2638429288665615e-05 0 -0.0098424039576904612 -0.0032434994892099355 0 -0.009260389625373849 -0.0031674111969406519 0 -0.0096429401223664477 -0.0035292992853612659 0 -0.0090118300806992999 -0.0043196577391328679 0 -0.0074953830235767347 -7.2638429288665615e-05 0 -0.0097606353217878934 -0.0041585571917637475 0 -0.0096429401223664477 -0.0035292992853612659 0 -0.0092892436806134675 -0.0041682569469895254 0 -0.0096070181828772187 -0.0029504204783992669 0 -0.0074953830235767347 -7.2638429288665615e-05 0 -0.0070801816145115559 0.0057725391691214011 0 -0.0069632994326696562 0.0067443258090118018 0 -0.0071515747062613775 0.0067946979145555222 0 -0.0048358882382445005 0.0010645516507671213 0 -0.0049730449054245307 0.0014770228109402545 0 -0.0047897189263608943 0.0020933304643347321 0 -0.0083079884452498601 0.00014812719141117403 0 -0.0099405880413499965 0.00024148547066790552 0 -0.0090649549463943206 0.001004185593250883 0 -0.0074953830235767347 -7.2638429288665615e-05 0 -0.0084316303563792445 0.0048038059065942705 0 -0.0070801816145115559 0.0057725391691214011 0 -0.0069632994326696562 0.0067443258090118018 0 -0.0066586784383869642 0.0065929234141617991 0 -0.0083256348695197081 0.001995843980788507 0 -0.0090649549463943206 0.001004185593250883 0 -0.00896193690756719 0.0022928475703877429 0 -0.0099405880413499965 0.00024148547066790552 0 -0.0090649549463943206 0.001004185593250883 0 -0.00896193690756719 0.0022928475703877429 0 -0.0048358882382445005 0.0010645516507671213 0 -0.0049730449054245307 0.0014770228109402545 0 -0.0049858169149595323 0.0012209857450570835 0 -0.0049730449054245307 0.0014770228109402545 0 -0.0049858169149595323 0.0012209857450570835 0 -0.0051532183115244289 0.0013982032531712886 0 -0.0048358882382445005 0.0010645516507671213 0 -0.0049858169149595323 0.0012209857450570835 0 -0.0053636512577409498 0.0013576570600285854 0 -0.0074953830235767347 -7.2638429288665615e-05 0 -0.0045553465056004244 0.00087633468071713608 0 -0.0048427977704256905 0.00051136485929166575 0 -0.0051143896644337775 0.00031372727276073194 0 -0.0047882416537459345 0.00041846291129236409 0 -0.0051143896644337775 0.00031372727276073194 0 -0.0047882416537459345 0.00041846291129236409 0 -0.0046046176445963087 0.00030094673822793182 0 -0.0048358882382445005 0.0010645516507671213 0 -0.0056072612363408094 0.0014288077226177842 0 -0.0053636512577409498 0.0013576570600285854 0 -0.0045930040060436035 0.00054951110421517157 0 -0.0047882416537459345 0.00041846291129236409 0 -0.0046046176445963087 0.00030094673822793182 0 -0.0056072612363408094 0.0014288077226177842 0 -0.0056847011505287955 0.0014161651796386861 0 -0.0053636512577409498 0.0013576570600285854 0 -0.0056847011505287955 0.0014161651796386861 0 -0.0053636512577409498 0.0013576570600285854 0 -0.0053377985368565934 0.0014755639590960836 0 -0.0056847011505287955 0.0014161651796386861 0 -0.0053377985368565934 0.0014755639590960836 0 -0.0055186942253097971 0.0015940002933485355 0 -0.0049858169149595323 0.0012209857450570835 0 -0.0053636512577409498 0.0013576570600285854 0 -0.0051532183115244289 0.0013982032531712886 0 -0.0053636512577409498 0.0013576570600285854 0 -0.0053377985368565934 0.0014755639590960836 0 -0.0051532183115244289 0.0013982032531712886 0 -0.0053377985368565934 0.0014755639590960836 0 -0.0051532183115244289 0.0013982032531712886 0 -0.0051185157415299196 0.0016068535738700707 0 -0.0049730449054245307 0.0014770228109402545 0 -0.0051532183115244289 0.0013982032531712886 0 -0.0051185157415299196 0.0016068535738700707 0 -0.0049730449054245307 0.0014770228109402545 0 -0.0051185157415299196 0.0016068535738700707 0 -0.0047897189263608943 0.0020933304643347321 0 -0.0051185157415299196 0.0016068535738700707 0 -0.0053301927677224465 0.0017242279180658311 0 -0.0047897189263608943 0.0020933304643347321 0 -0.0053377985368565934 0.0014755639590960836 0 -0.0051185157415299196 0.0016068535738700707 0 -0.0053301927677224465 0.0017242279180658311 0 -0.0056847011505287955 0.0014161651796386861 0 -0.0055186942253097971 0.0015940002933485355 0 -0.0057378626507885297 0.0017782217054684905 0 -0.0053377985368565934 0.0014755639590960836 0 -0.0053301927677224465 0.0017242279180658311 0 -0.0055186942253097971 0.0015940002933485355 0 -0.0053301927677224465 0.0017242279180658311 0 -0.0055186942253097971 0.0015940002933485355 0 -0.0057378626507885297 0.0017782217054684905 0 -0.0053301927677224465 0.0017242279180658311 0 -0.0057378626507885297 0.0017782217054684905 0 -0.0054482410598618598 0.0020681243676815369 0 -0.0057378626507885297 0.0017782217054684905 0 -0.0054482410598618598 0.0020681243676815369 0 -0.0060335920184681003 0.0021502577511991199 0 -0.0053301927677224465 0.0017242279180658311 0 -0.0054482410598618598 0.0020681243676815369 0 -0.0047897189263608943 0.0020933304643347321 0 -0.0074953830235767347 -7.2638429288665615e-05 0 -0.0061276774222735917 0.005274990324636809 0 -0.0074928187408652867 0.0071802312997152583 0 -0.0071054609923181132 0.0071318751477896739 0 -0.0071515747062613775 0.0067946979145555222 0 -0.0070801816145115559 0.0057725391691214011 0 -0.0074928187408652867 0.0071802312997152583 0 -0.0071515747062613775 0.0067946979145555222 0 -0.0073811012864462532 0.0073548050218323101 0 -0.0074928187408652867 0.0071802312997152583 0 -0.0071054609923181132 0.0071318751477896739 0 -0.0071054609923181132 0.0071318751477896739 0 -0.0069994750687324267 0.0069384864282806538 0 -0.0071515747062613775 0.0067946979145555222 0 -0.006600450299613825 0.0074822377410165503 0 -0.0068510175377485532 0.0070328532022077518 0 -0.0067209202959542559 0.0067484722719141407 0 -0.006600450299613825 0.0074822377410165503 0 -0.0071054609923181132 0.0071318751477896739 0 -0.0068510175377485532 0.0070328532022077518 0 -0.0071054609923181132 0.0071318751477896739 0 -0.0068510175377485532 0.0070328532022077518 0 -0.0069994750687324267 0.0069384864282806538 0 -0.0068510175377485532 0.0070328532022077518 0 -0.0069994750687324267 0.0069384864282806538 0 -0.0068564065610087705 0.0068224781052185941 0 -0.0069632994326696562 0.0067443258090118018 0 -0.0068564065610087705 0.0068224781052185941 0 -0.0067642988989375843 0.006659393660178591 0 -0.0069994750687324267 0.0069384864282806538 0 -0.0069632994326696562 0.0067443258090118018 0 -0.0071515747062613775 0.0067946979145555222 0 -0.0069994750687324267 0.0069384864282806538 0 -0.0069632994326696562 0.0067443258090118018 0 -0.0068564065610087705 0.0068224781052185941 0 -0.0068510175377485532 0.0070328532022077518 0 -0.0068564065610087705 0.0068224781052185941 0 -0.0067209202959542559 0.0067484722719141407 0 -0.0068564065610087705 0.0068224781052185941 0 -0.0067209202959542559 0.0067484722719141407 0 -0.0067642988989375843 0.006659393660178591 0 -0.0082078459436601258 0.0051872827101699034 0 -0.0084316303563792445 0.0048038059065942705 0 -0.00783699554984741 0.005153800669080404 0 -0.0084316303563792445 0.0048038059065942705 0 -0.005633047069687723 0.0022121121551021902 0 -0.0057076074118613809 0.0019379293580037999 0 -0.0057829286306776227 0.0018618393605228667 0 -0.005633047069687723 0.0022121121551021902 0 -0.0053911289673316811 0.0018091731742272781 0 -0.0057076074118613809 0.0019379293580037999 0 -0.0053911289673316811 0.0018091731742272781 0 -0.0056619469111902927 0.001773007989931298 0 -0.0057076074118613809 0.0019379293580037999 0 -0.0058129572116708645 0.0016819067169010716 0 -0.0056619469111902927 0.001773007989931298 0 -0.0058149889257050292 0.0018846436436637207 0 -0.0056619469111902927 0.001773007989931298 0 -0.0057076074118613809 0.0019379293580037999 0 -0.0058149889257050292 0.0018846436436637207 0 -0.0056847011505287955 0.0014161651796386861 0 -0.005633047069687723 0.0022121121551021902 0 -0.0057829286306776227 0.0018618393605228667 0 -0.0057076074118613809 0.0019379293580037999 0 -0.0058149889257050292 0.0018846436436637207 0 -0.0057829286306776227 0.0018618393605228667 0 -0.0058129572116708645 0.0016819067169010716 0 -0.0060335920184681003 0.0021502577511991199 0 -0.0058149889257050292 0.0018846436436637207 0 -0.0057378626507885297 0.0017782217054684905 0 -0.0060335920184681003 0.0021502577511991199 0 -0.0057829286306776227 0.0018618393605228667 0 -0.0060335920184681003 0.0021502577511991199 0 -0.0058149889257050292 0.0018846436436637207 0 -0.0057829286306776227 0.0018618393605228667 0 -0.0056847011505287955 0.0014161651796386861 0 -0.0057378626507885297 0.0017782217054684905 0 -0.0057829286306776227 0.0018618393605228667 0 -0.0055917654138224011 0.0014144595917550756 0 -0.0049923922453397433 0.0013651427353694335 0 -0.0056847011505287955 0.0014161651796386861 0 -0.0044768326443070036 0.00055567392452768294 0 -0.0046605137406531567 0.0010352939237482611 0 -0.0046046176445963087 0.00030094673822793182 0 -0.0041018801954234305 0.00035698207008239485 0 -0.0043502037484582255 0.0004921507268813238 0 -0.0056072612363408094 0.0014288077226177842 0 -0.0056847011505287955 0.0014161651796386861 0 -0.0046605137406531567 0.0010352939237482611 0 -0.0045553465056004244 0.00087633468071713608 0 -0.0045311178111235055 0.00070090355126977777 0 -0.0045930040060436035 0.00054951110421517157 0 -0.0046046176445963087 0.00030094673822793182 0 -0.0043502037484582255 0.0004921507268813238 0 -0.0044768326443070036 0.00055567392452768294 0 -0.0046605137406531567 0.0010352939237482611 0 -0.0038038597511480688 0.00055421816111410501 0 -0.0041018801954234305 0.00035698207008239485 0 -0.0041364513873568369 0.00053315188084002661 0 -0.0043502037484582255 0.0004921507268813238 0 -0.0041018801954234305 0.00035698207008239485 0 -0.0041364513873568369 0.00053315188084002661 0 -0.0039213956198499511 0.00052927917884732943 0 -0.0041364513873568369 0.00053315188084002661 0 -0.0039882795445855017 0.00067516224911944131 0 -0.0043424689412966278 0.00070909913412069224 0 -0.0041364513873568369 0.00053315188084002661 0 -0.0039882795445855017 0.00067516224911944131 0 -0.0039213956198499511 0.00052927917884732943 0 -0.0048329176061149568 0.00081259887605567721 0 -0.0045930040060436035 0.00054951110421517157 0 -0.0043424689412966278 0.00070909913412069224 0 -0.0045930040060436035 0.00054951110421517157 0 -0.0043502037484582255 0.0004921507268813238 0 -0.0043424689412966278 0.00070909913412069224 0 -0.0041364513873568369 0.00053315188084002661 0 -0.0043502037484582255 0.0004921507268813238 0 -0.0043424689412966278 0.00070909913412069224 0 -0.0048329176061149568 0.00081259887605567721 0 -0.0043424689412966278 0.00070909913412069224 0 -0.0044316259831713766 0.0010034092359219474 0 -0.0043424689412966278 0.00070909913412069224 0 -0.0044316259831713766 0.0010034092359219474 0 -0.0041053327605170553 0.00091366937239109234 0 -0.0039882795445855017 0.00067516224911944131 0 -0.0043424689412966278 0.00070909913412069224 0 -0.0041053327605170553 0.00091366937239109234 0 -0.0039882795445855017 0.00067516224911944131 0 -0.0041053327605170553 0.00091366937239109234 0 -0.0038309229249944396 0.00087315342690960922 0 -0.0042552299130454059 0.0012608898931535182 0 -0.0039546897201092725 0.001542979545699224 0 -0.0038873467193229067 0.0011715333072941838 0 -0.0041053327605170553 0.00091366937239109234 0 -0.0042552299130454059 0.0012608898931535182 0 -0.0038873467193229067 0.0011715333072941838 0 -0.0044316259831713766 0.0010034092359219474 0 -0.0041053327605170553 0.00091366937239109234 0 -0.0042552299130454059 0.0012608898931535182 0 -0.0042552299130454059 0.0012608898931535182 0 -0.0045001808392499589 0.0016718325083514938 0 -0.0039546897201092725 0.001542979545699224 0 -0.0077388736395481404 -0.0019001253329202486 0 -0.0081108519912682347 -0.00086621251166532447 0 -0.0064582901632850992 -0.00053728115720528765 0 -0.0042552299130454059 0.0012608898931535182 0 -0.0046011858048023921 0.0012551860120402925 0 -0.0045001808392499589 0.0016718325083514938 0 -0.0061350334369729307 -0.00023217887797054491 0 -0.0054737079882238426 0.00061815356864807175 0 -0.0044316259831713766 0.0010034092359219474 0 -0.0042552299130454059 0.0012608898931535182 0 -0.0046011858048023921 0.0012551860120402925 0 -0.0067338388016018498 -0.0014948108646338522 0 -0.0061350334369729307 -0.00023217887797054491 0 -0.0094182188237653328 -0.0025380441066289536 0 -0.0077388736395481404 -0.0019001253329202486 0 -0.0092426249566241389 -0.0016504978888875882 0 -0.010026123622267853 -0.0017582112583059558 0 -0.0094182188237653328 -0.0025380441066289536 0 -0.0092426249566241389 -0.0016504978888875882 0 -0.0099685185392538889 -0.00079879088398853912 0 -0.0092426249566241389 -0.0016504978888875882 0 -0.0090352190085853518 -0.00047845638633628755 0 -0.0092426249566241389 -0.0016504978888875882 0 -0.0081108519912682347 -0.00086621251166532447 0 -0.0090352190085853518 -0.00047845638633628755 0 -0.0077388736395481404 -0.0019001253329202486 0 -0.0092426249566241389 -0.0016504978888875882 0 -0.0081108519912682347 -0.00086621251166532447 0 -0.0081108519912682347 -0.00086621251166532447 0 -0.0090352190085853518 -0.00047845638633628755 0 -0.0078288363108919342 0.00054399355940258794 0 -0.0098974011610157911 0.00051330170943563282 0 -0.0090352190085853518 -0.00047845638633628755 0 -0.0078288363108919342 0.00054399355940258794 0 -0.0098974011610157911 0.00051330170943563282 0 -0.0099685185392538889 -0.00079879088398853912 0 -0.0090352190085853518 -0.00047845638633628755 0 -0.0098974011610157911 0.00051330170943563282 0 -0.0078288363108919342 0.00054399355940258794 0 -0.008925724589908578 0.001300470401540373 0 -0.0078288363108919342 0.00054399355940258794 0 -0.0063875399603406362 0.002357843033451679 0 -0.008925724589908578 0.001300470401540373 0 -0.0078288363108919342 0.00054399355940258794 0 -0.0047649238060859401 0.0020000599543934638 0 -0.0064582901632850992 -0.00053728115720528765 0 -0.0078288363108919342 0.00054399355940258794 0 -0.0047649238060859401 0.0020000599543934638 0 -0.0063875399603406362 0.002357843033451679 0 -0.0047649238060859401 0.0020000599543934638 0 -0.0045001808392499589 0.0016718325083514938 0 -0.0038981272053418919 0.0019277178215595099 0 -0.0047834102370030206 0.0019590201073934883 0 -0.0054737079882238426 0.00061815356864807175 0 -0.0045001808392499589 0.0016718325083514938 0 -0.0039546897201092725 0.001542979545699224 0 -0.0038981272053418919 0.0019277178215595099 0 -0.0081108519912682347 -0.00086621251166532447 0 -0.0078288363108919342 0.00054399355940258794 0 -0.0064582901632850992 -0.00053728115720528765 0 -0.0067493007452817779 0.0027138397537760759 0 -0.006659200497842281 0.0012442300122905701 0 -0.007856537621857439 0.0021123179771187031 0 -0.0067493007452817779 0.0027138397537760759 0 -0.0054620035683416793 0.0025398972260655198 0 -0.006659200497842281 0.0012442300122905701 0 -0.0067493007452817779 0.0027138397537760759 0 -0.0078550625479150982 0.0028754511924013802 0 -0.0071088509399889798 0.0038092125120909354 0 -0.0054620035683416793 0.0025398972260655198 0 -0.0055279028244101724 0.0038302333454913349 0 -0.0046585283221609918 0.0033628557154252209 0 -0.0067493007452817779 0.0027138397537760759 0 -0.0054620035683416793 0.0025398972260655198 0 -0.0055279028244101724 0.0038302333454913349 0 -0.0054620035683416793 0.0025398972260655198 0 -0.0044338672404176842 0.0027444064339240447 0 -0.0046585283221609918 0.0033628557154252209 0 -0.0054620035683416793 0.0025398972260655198 0 -0.006659200497842281 0.0012442300122905701 0 -0.0045315223834343395 0.0017199271185048288 0 -0.0047649238060859401 0.0020000599543934638 0 -0.0063875399603406362 0.002357843033451679 0 -0.0039907231333460528 0.0025542864270463399 0 -0.006533175814488661 0.0017741528225245862 0 -0.0043052735437038459 0.0021543415465574331 0 -0.006659200497842281 0.0012442300122905701 0 -0.008925724589908578 0.001300470401540373 0 -0.007856537621857439 0.0021123179771187031 0 -0.008925724589908578 0.001300470401540373 0 -0.0089551310209652728 0.0024431619556228028 0 -0.007856537621857439 0.0021123179771187031 0 -0.006533175814488661 0.0017741528225245862 0 -0.008717916607538078 0.0013929340588606307 0 -0.0098974011610157911 0.00051330170943563282 0 -0.008925724589908578 0.001300470401540373 0 -0.010186551521818084 0.0015176617964716827 0 -0.008925724589908578 0.001300470401540373 0 -0.0089551310209652728 0.0024431619556228028 0 -0.010186551521818084 0.0015176617964716827 0 -0.0089551310209652728 0.0024431619556228028 0 -0.010238222666608414 0.0038050385210133863 0 -0.010186551521818084 0.0015176617964716827 0 -0.0067493007452817779 0.0027138397537760759 0 -0.007856537621857439 0.0021123179771187031 0 -0.0078550625479150982 0.0028754511924013802 0 -0.0089551310209652728 0.0024431619556228028 0 -0.007856537621857439 0.0021123179771187031 0 -0.0078550625479150982 0.0028754511924013802 0 -0.0089551310209652728 0.0024431619556228028 0 -0.0078550625479150982 0.0028754511924013802 0 -0.008587369306829927 0.0037949783567011335 0 -0.0078550625479150982 0.0028754511924013802 0 -0.008587369306829927 0.0037949783567011335 0 -0.0071088509399889798 0.0038092125120909354 0 -0.008587369306829927 0.0037949783567011335 0 -0.0080245325712017743 0.0049398713093520823 0 -0.0071088509399889798 0.0038092125120909354 0 -0.008587369306829927 0.0037949783567011335 0 -0.010238222666608414 0.0038050385210133863 0 -0.0094326901940436515 0.0048197889687562152 0 -0.0089551310209652728 0.0024431619556228028 0 -0.008587369306829927 0.0037949783567011335 0 -0.010238222666608414 0.0038050385210133863 0 -0.0094326901940436515 0.0048197889687562152 0 -0.0093591468664913566 0.0058222871063105868 0 -0.010876518576625385 0.0058098724215345518 0 -0.010238222666608414 0.0038050385210133863 0 -0.0094326901940436515 0.0048197889687562152 0 -0.010876518576625385 0.0058098724215345518 0 -0.008587369306829927 0.0037949783567011335 0 -0.0094326901940436515 0.0048197889687562152 0 -0.0080245325712017743 0.0049398713093520823 0 -0.0094326901940436515 0.0048197889687562152 0 -0.0080245325712017743 0.0049398713093520823 0 -0.0093591468664913566 0.0058222871063105868 0 -0.0080245325712017743 0.0049398713093520823 0 -0.0061361980353078884 0.0050205342021302345 0 -0.0075520690508930561 0.0062201858757311851 0 -0.0080245325712017743 0.0049398713093520823 0 -0.0061361980353078884 0.0050205342021302345 0 -0.0071088509399889798 0.0038092125120909354 0 -0.0067493007452817779 0.0027138397537760759 0 -0.0071088509399889798 0.0038092125120909354 0 -0.0055279028244101724 0.0038302333454913349 0 -0.0061361980353078884 0.0050205342021302345 0 -0.0071088509399889798 0.0038092125120909354 0 -0.0055279028244101724 0.0038302333454913349 0 -0.0055279028244101724 0.0038302333454913349 0 -0.0041721028530686214 0.0042132802252215079 0 -0.0046585283221609918 0.0033628557154252209 0 -0.0061361980353078884 0.0050205342021302345 0 -0.0055279028244101724 0.0038302333454913349 0 -0.0045638469531918847 0.0051236089840608458 0 -0.0055279028244101724 0.0038302333454913349 0 -0.0045638469531918847 0.0051236089840608458 0 -0.0041721028530686214 0.0042132802252215079 0 -0.0045638469531918847 0.0051236089840608458 0 -0.0048272651057380432 0.0060881831036899581 0 -0.0038772343713591264 0.0058243197818120826 0 -0.0061361980353078884 0.0050205342021302345 0 -0.0045638469531918847 0.0051236089840608458 0 -0.0048272651057380432 0.0060881831036899581 0 -0.0061361980353078884 0.0050205342021302345 0 -0.0048272651057380432 0.0060881831036899581 0 -0.0075520690508930561 0.0062201858757311851 0 -0.0049263285270462649 0.0062191857191346697 0 -0.0062963194580544484 0.0071854149621280823 0 -0.0048272651057380432 0.0060881831036899581 0 -0.0071891287183092831 0.0085401042129505302 0 -0.0075520690508930561 0.0062201858757311851 0 -0.0048272651057380432 0.0060881831036899581 0 -0.0045466864017603857 0.0060440589718922686 0 -0.0038772343713591264 0.0058243197818120826 0 -0.0048272651057380432 0.0060881831036899581 0 -0.005135933599989019 0.0057957786564230927 0 -0.0045466864017603857 0.0060440589718922686 0 -0.0045466864017603857 0.0060440589718922686 0 -0.0049197957397341344 0.0062305410194115219 0 -0.0043422632662553154 0.0063774414993622401 0 -0.0045466864017603857 0.0060440589718922686 0 -0.0043422632662553154 0.0063774414993622401 0 -0.0036737093725063797 0.006189834936157752 0 -0.005135933599989019 0.0057957786564230927 0 -0.0045466864017603857 0.0060440589718922686 0 -0.0049197957397341344 0.0062305410194115219 0 -0.005135933599989019 0.0057957786564230927 0 -0.0049197957397341344 0.0062305410194115219 0 -0.0054700532636319859 0.0062086237539195465 0 -0.0049197957397341344 0.0062305410194115219 0 -0.0053131970997954197 0.006576687200455681 0 -0.0054700532636319859 0.0062086237539195465 0 -0.0049197957397341344 0.0062305410194115219 0 -0.0053131970997954197 0.006576687200455681 0 -0.0047101489687192116 0.006654993327382272 0 -0.0053131970997954197 0.006576687200455681 0 -0.005691899331072176 0.0070653933094333519 0 -0.0050730765594581353 0.0070679969911526088 0 -0.0053131970997954197 0.006576687200455681 0 -0.0047101489687192116 0.006654993327382272 0 -0.0050730765594581353 0.0070679969911526088 0 -0.0047101489687192116 0.006654993327382272 0 -0.0040833665958774738 0.0067939450013966953 0 -0.0045409113930463827 0.007099400344971348 0 -0.0040833665958774738 0.0067939450013966953 0 -0.0043422632662553154 0.0063774414993622401 0 -0.0037826275582838031 0.0064740281474314201 0 -0.0047101489687192116 0.006654993327382272 0 -0.0040833665958774738 0.0067939450013966953 0 -0.0043422632662553154 0.0063774414993622401 0 -0.0049197957397341344 0.0062305410194115219 0 -0.0047101489687192116 0.006654993327382272 0 -0.0043422632662553154 0.0063774414993622401 0 -0.006369547428178979 0.0065679525938076933 0 -0.0068172003801519922 0.0064534158424936353 0 -0.0061855707070980117 0.0059600125386892674 0 -0.006369547428178979 0.0065679525938076933 0 -0.0059008027939477558 0.0065545977807599243 0 -0.0061855707070980117 0.0059600125386892674 0 -0.006369547428178979 0.0065679525938076933 0 -0.0068172003801519922 0.0064534158424936353 0 -0.0066819323463148776 0.0067674458272124743 0 -0.0068172003801519922 0.0064534158424936353 0 -0.0066819323463148776 0.0067674458272124743 0 -0.0071176315523342887 0.0066543425578842715 0 -0.0066819323463148776 0.0067674458272124743 0 -0.006992062324125037 0.0069715894437503752 0 -0.0062872872559915048 0.0070621873804527138 0 -0.006369547428178979 0.0065679525938076933 0 -0.0066819323463148776 0.0067674458272124743 0 -0.0062872872559915048 0.0070621873804527138 0 -0.006369547428178979 0.0065679525938076933 0 -0.0059008027939477558 0.0065545977807599243 0 -0.0062872872559915048 0.0070621873804527138 0 -0.0059008027939477558 0.0065545977807599243 0 -0.005691899331072176 0.0070653933094333519 0 -0.0062872872559915048 0.0070621873804527138 0 -0.0053131970997954197 0.006576687200455681 0 -0.0059008027939477558 0.0065545977807599243 0 -0.005691899331072176 0.0070653933094333519 0 -0.0053131970997954197 0.006576687200455681 0 -0.0059008027939477558 0.0065545977807599243 0 -0.0054700532636319859 0.0062086237539195465 0 -0.0062963194580544484 0.0071854149621280823 0 -0.0079313674184264323 0.0084439791012788021 0 -0.0059008027939477558 0.0065545977807599243 0 -0.0054700532636319859 0.0062086237539195465 0 -0.0061855707070980117 0.0059600125386892674 0 -0.005135933599989019 0.0057957786564230927 0 -0.0054700532636319859 0.0062086237539195465 0 -0.0061855707070980117 0.0059600125386892674 0 -0.010357332634069117 0.010839885047168178 0 -0.011689030406671762 0.0090544267010223643 0 -0.013436057191029837 0.010029612748174351 0 -0.0068172003801519922 0.0064534158424936353 0 -0.0061855707070980117 0.0059600125386892674 0 -0.0073358359763203203 0.0063903896478655761 0 -0.0079313674184264323 0.0084439791012788021 0 -0.012963004045132974 0.0083482092347685298 0 -0.010357332634069117 0.010839885047168178 0 -0.011689030406671762 0.0090544267010223643 0 -0.010098264739618643 0.0074081079931484729 0 -0.011689030406671762 0.0090544267010223643 0 -0.010098264739618643 0.0074081079931484729 0 -0.013167511695607046 0.0072854564171357244 0 -0.0071891287183092831 0.0085401042129505302 0 -0.010098264739618643 0.0074081079931484729 0 -0.0075520690508930561 0.0062201858757311851 0 -0.0071891287183092831 0.0085401042129505302 0 -0.010357332634069117 0.010839885047168178 0 -0.010098264739618643 0.0074081079931484729 0 -0.0080245325712017743 0.0049398713093520823 0 -0.0075520690508930561 0.0062201858757311851 0 -0.0093591468664913566 0.0058222871063105868 0 -0.010098264739618643 0.0074081079931484729 0 -0.0075520690508930561 0.0062201858757311851 0 -0.0093591468664913566 0.0058222871063105868 0 -0.010218947357326169 0.0073319708797410796 0 -0.01239120012872833 0.0050667633448278487 0 -0.010098264739618643 0.0074081079931484729 0 -0.0093591468664913566 0.0058222871063105868 0 -0.010876518576625385 0.0058098724215345518 0 -0.010098264739618643 0.0074081079931484729 0 -0.013167511695607046 0.0072854564171357244 0 -0.013963960057616161 0.0041125301996787472 0 -0.015835931584324687 0.0058725767929026082 0 -0.013167511695607046 0.0072854564171357244 0 -0.013963960057616161 0.0041125301996787472 0 -0.015835931584324687 0.0058725767929026082 0 -0.017801772194042591 0.0040547117740901565 0 -0.013963960057616161 0.0041125301996787472 0 -0.015835931584324687 0.0058725767929026082 0 -0.01611322761227665 0.0081121139219849283 0 -0.013167511695607046 0.0072854564171357244 0 -0.015835931584324687 0.0058725767929026082 0 -0.018310475659842264 0.006195796630713085 0 -0.017801772194042591 0.0040547117740901565 0 -0.015835931584324687 0.0058725767929026082 0 -0.018310475659842264 0.006195796630713085 0 -0.01611322761227665 0.0081121139219849283 0 -0.01611322761227665 0.0081121139219849283 0 -0.016583871139649712 0.010007443856090419 0 -0.018942632320974425 0.0083925836629081159 0 -0.018310475659842264 0.006195796630713085 0 -0.01611322761227665 0.0081121139219849283 0 -0.018942632320974425 0.0083925836629081159 0 -0.011689030406671762 0.0090544267010223643 0 -0.013167511695607046 0.0072854564171357244 0 -0.013436057191029837 0.010029612748174351 0 -0.013165802968742394 0.0073505090638068 0 -0.013987215462825517 0.010549261689329605 0 -0.01611322761227665 0.0081121139219849283 0 -0.013167511695607046 0.0072854564171357244 0 -0.014217362240286189 0.010008707012205137 0 -0.01611322761227665 0.0081121139219849283 0 -0.014217362240286189 0.010008707012205137 0 -0.016583871139649712 0.010007443856090419 0 -0.010357332634069117 0.010839885047168178 0 -0.013436057191029837 0.010029612748174351 0 -0.013823894657639373 0.012863419816303439 0 -0.014217362240286189 0.010008707012205137 0 -0.016583871139649712 0.010007443856090419 0 -0.014998610775880303 0.012734880316551771 0 -0.013436057191029837 0.010029612748174351 0 -0.013823894657639373 0.012863419816303439 0 -0.01412722186722264 0.012718103067153123 0 -0.013987215462825517 0.010549261689329605 0 -0.015478253563684912 0.0086961090005267545 0 -0.023233233197404429 0.0062611049033284589 0 -0.022447854016364364 0.006157879842382156 0 -0.023936897107786376 0.0055690743635329783 0 -0.016583871139649712 0.010007443856090419 0 -0.014998610775880303 0.012734880316551771 0 -0.018900705569965905 0.01079212059057082 0 -0.015478253563684912 0.0086961090005267545 0 -0.02200728980075542 0.0081410396410258948 0 -0.016583871139649712 0.010007443856090419 0 -0.018900705569965905 0.01079212059057082 0 -0.018942632320974425 0.0083925836629081159 0 -0.023233233197404429 0.0062611049033284589 0 -0.023268766077655802 0.0066082632626766388 0 -0.02260143988719001 0.0063678760632668065 0 -0.023233233197404429 0.0062611049033284589 0 -0.023862612952200189 0.0064302721882744263 0 -0.023936897107786376 0.0055690743635329783 0 -0.023233233197404429 0.0062611049033284589 0 -0.023268766077655802 0.0066082632626766388 0 -0.023862612952200189 0.0064302721882744263 0 -0.023268766077655802 0.0066082632626766388 0 -0.023862612952200189 0.0064302721882744263 0 -0.023332326130628783 0.0070622588310435934 0 -0.023268766077655802 0.0066082632626766388 0 -0.02260143988719001 0.0063678760632668065 0 -0.023332326130628783 0.0070622588310435934 0 -0.02260143988719001 0.0063678760632668065 0 -0.0224926539350392 0.0063087492826845318 0 -0.022881368052041343 0.0076497546613442918 0 -0.0073248192978107802 0.0067806452647442093 0 -0.0074786561870182032 0.0064599108263037512 0 -0.0074446017231862612 0.0070569480662263659 0 -0.006992062324125037 0.0069715894437503752 0 -0.0073248192978107802 0.0067806452647442093 0 -0.0071176315523342887 0.0066543425578842715 0 -0.006992062324125037 0.0069715894437503752 0 -0.0073248192978107802 0.0067806452647442093 0 -0.0074446017231862612 0.0070569480662263659 0 -0.0066819323463148776 0.0067674458272124743 0 -0.006992062324125037 0.0069715894437503752 0 -0.0071176315523342887 0.0066543425578842715 0 -0.0073248192978107802 0.0067806452647442093 0 -0.0071176315523342887 0.0066543425578842715 0 -0.0073007741402607669 0.0065471944300104805 0 -0.0071176315523342887 0.0066543425578842715 0 -0.0073007741402607669 0.0065471944300104805 0 -0.0072129332606198472 0.006452979237319004 0 -0.0068172003801519922 0.0064534158424936353 0 -0.0072129332606198472 0.006452979237319004 0 -0.0073358359763203203 0.0063903896478655761 0 -0.012005231315621891 0.0085213529863674229 0 -0.012963004045132974 0.0083482092347685298 0 -0.0073007741402607669 0.0065471944300104805 0 -0.0072129332606198472 0.006452979237319004 0 -0.0073466668823718032 0.0063891148174101678 0 -0.0068172003801519922 0.0064534158424936353 0 -0.0071176315523342887 0.0066543425578842715 0 -0.0072129332606198472 0.006452979237319004 0 -0.023233233197404429 0.0062611049033284589 0 -0.022447854016364364 0.006157879842382156 0 -0.02260143988719001 0.0063678760632668065 0 -0.016211968242114582 0.0084875019604306289 0 -0.015286031213914298 0.0089268707067316922 0 -0.014981971679870362 0.0077600762583725363 0 -0.012963004045132974 0.0083482092347685298 0 -0.015478253563684912 0.0086961090005267545 0 -0.0073248192978107802 0.0067806452647442093 0 -0.0073007741402607669 0.0065471944300104805 0 -0.0074786561870182032 0.0064599108263037512 0 -0.012963004045132974 0.0083482092347685298 0 -0.015098723583119226 0.0078251382423366409 0 -0.0073007741402607669 0.0065471944300104805 0 -0.0073466668823718032 0.0063891148174101678 0 -0.0074786561870182032 0.0064599108263037512 0 -0.022447854016364364 0.006157879842382156 0 -0.02260143988719001 0.0063678760632668065 0 -0.022486960951415641 0.0063060696568435623 0 -0.015478253563684912 0.0086961090005267545 0 -0.015098723583119226 0.0078251382423366409 0 -0.01589091041705086 0.0080675384931639445 0 -0.015098723583119226 0.0078251382423366409 0 -0.024530573016188256 0.0067889619844695732 0 -0.024731322929550766 0.0059311992216627401 0 -0.025555240503088272 0.0058942498398635631 0 -0.030079568011030969 0.0020951917203121356 0 -0.028569664055718706 0.003472378745459474 0 -0.02862786085645919 0.0017934790259617442 0 -0.027720946728911545 0.0045175045313345895 0 -0.026931723087986522 0.004696546014364456 0 -0.024530573016188256 0.0067889619844695732 0 -0.023862612952200189 0.0064302721882744263 0 -0.023332326130628783 0.0070622588310435934 0 -0.024530573016188256 0.0067889619844695732 0 -0.023862612952200189 0.0064302721882744263 0 -0.024731322929550766 0.0059311992216627401 0 -0.02200728980075542 0.0081410396410258948 0 -0.0237434796293923 0.0068822306385645784 0 -0.024731322929550766 0.0059311992216627401 0 -0.023936897107786376 0.0055690743635329783 0 -0.025347560165956805 0.0051868685330725972 0 -0.023862612952200189 0.0064302721882744263 0 -0.024731322929550766 0.0059311992216627401 0 -0.023936897107786376 0.0055690743635329783 0 -0.024731322929550766 0.0059311992216627401 0 -0.025347560165956805 0.0051868685330725972 0 -0.025555240503088272 0.0058942498398635631 0 -0.022536192476801723 0.0085007878232693044 0 -0.018942632320974425 0.0083925836629081159 0 -0.0208601818187839 0.0067347865991072573 0 -0.018310475659842264 0.006195796630713085 0 -0.018942632320974425 0.0083925836629081159 0 -0.0208601818187839 0.0067347865991072573 0 -0.018900705569965905 0.01079212059057082 0 -0.022536192476801723 0.0085007878232693044 0 -0.018942632320974425 0.0083925836629081159 0 -0.018310475659842264 0.006195796630713085 0 -0.020240957585367241 0.0046818530810452058 0 -0.017801772194042591 0.0040547117740901565 0 -0.018310475659842264 0.006195796630713085 0 -0.0208601818187839 0.0067347865991072573 0 -0.020240957585367241 0.0046818530810452058 0 -0.022536192476801723 0.0085007878232693044 0 -0.0208601818187839 0.0067347865991072573 0 -0.022949227473837382 0.0052144643596266482 0 -0.0208601818187839 0.0067347865991072573 0 -0.022949227473837382 0.0052144643596266482 0 -0.020240957585367241 0.0046818530810452058 0 -0.022949227473837382 0.0052144643596266482 0 -0.020754110887263755 0.0022661067621889057 0 -0.020240957585367241 0.0046818530810452058 0 -0.022949227473837382 0.0052144643596266482 0 -0.020754110887263755 0.0022661067621889057 0 -0.024822835292322775 0.0035271592721945943 0 -0.020754110887263755 0.0022661067621889057 0 -0.023493966087725551 -0.00017095160455314246 0 -0.024822835292322775 0.0035271592721945943 0 -0.020754110887263755 0.0022661067621889057 0 -0.016925085785948868 0.0018191740200652104 0 -0.019196277523994519 -0.00033756251240574356 0 -0.020754110887263755 0.0022661067621889057 0 -0.020240957585367241 0.0046818530810452058 0 -0.017801772194042591 0.0040547117740901565 0 -0.017801772194042591 0.0040547117740901565 0 -0.013963960057616161 0.0041125301996787472 0 -0.016925085785948868 0.0018191740200652104 0 -0.01239120012872833 0.0050667633448278487 0 -0.01491518272166451 0.0031149709878313774 0 -0.010238222666608414 0.0038050385210133863 0 -0.010876518576625385 0.0058098724215345518 0 -0.012854533919686049 0.0044599706021320636 0 -0.010238222666608414 0.0038050385210133863 0 -0.012854533919686049 0.0044599706021320636 0 -0.012847708839759692 0.0022728770065349761 0 -0.020754110887263755 0.0022661067621889057 0 -0.017801772194042591 0.0040547117740901565 0 -0.016925085785948868 0.0018191740200652104 0 -0.012854533919686049 0.0044599706021320636 0 -0.012847708839759692 0.0022728770065349761 0 -0.016374391217707073 0.0019943328623778728 0 -0.01491518272166451 0.0031149709878313774 0 -0.017814124307366789 0.00069568745519686182 0 -0.010238222666608414 0.0038050385210133863 0 -0.012847708839759692 0.0022728770065349761 0 -0.010186551521818084 0.0015176617964716827 0 -0.0098974011610157911 0.00051330170943563282 0 -0.010186551521818084 0.0015176617964716827 0 -0.010838601124854899 0.00098329280393915329 0 -0.012847708839759692 0.0022728770065349761 0 -0.010186551521818084 0.0015176617964716827 0 -0.013469207337710723 -0.0021140801762362651 0 -0.010314812069944836 0.0012770424161805884 0 -0.012201651290371573 -0.00044305534664627395 0 -0.013469207337710723 -0.0021140801762362651 0 -0.016915830790496505 -0.0023311164553072505 0 -0.016374391217707073 0.0019943328623778728 0 -0.012847708839759692 0.0022728770065349761 0 -0.013469207337710723 -0.0021140801762362651 0 -0.016374391217707073 0.0019943328623778728 0 -0.016915830790496505 -0.0023311164553072505 0 -0.020696849796338249 -0.0025387338570365425 0 -0.016374391217707073 0.0019943328623778728 0 -0.020525919944689528 -0.0023591227259586178 0 -0.017814124307366789 0.00069568745519686182 0 -0.020696849796338249 -0.0025387338570365425 0 -0.021264609815286658 -0.00078957482312187819 0 -0.019196277523994519 -0.00033756251240574356 0 -0.022574218918562219 -0.0033754885390382284 0 -0.020696849796338249 -0.0025387338570365425 0 -0.021264609815286658 -0.00078957482312187819 0 -0.022574218918562219 -0.0033754885390382284 0 -0.021264609815286658 -0.00078957482312187819 0 -0.023493966087725551 -0.00017095160455314246 0 -0.020754110887263755 0.0022661067621889057 0 -0.021264609815286658 -0.00078957482312187819 0 -0.023493966087725551 -0.00017095160455314246 0 -0.020754110887263755 0.0022661067621889057 0 -0.021264609815286658 -0.00078957482312187819 0 -0.019196277523994519 -0.00033756251240574356 0 -0.025294118065838277 0.0045931978323882931 0 -0.026182541548497827 0.0046593776736522296 0 -0.025339241794388088 0.0041504100609004698 0 -0.025294118065838277 0.0045931978323882931 0 -0.026182541548497827 0.0046593776736522296 0 -0.025314509249647437 0.005585562845937901 0 -0.025007513613850379 0.00091208056521695203 0 -0.024809216175741434 0.0024455339294222585 0 -0.026011037816437061 0.0059557255047969979 0 -0.026182541548497827 0.0046593776736522296 0 -0.025314509249647437 0.005585562845937901 0 -0.026011037816437061 0.0059557255047969979 0 -0.026876018500999934 0.0062033240002263559 0 -0.026182541548497827 0.0046593776736522296 0 -0.025294118065838277 0.0045931978323882931 0 -0.025314509249647437 0.005585562845937901 0 -0.0244697750401618 0.005634743830636669 0 -0.02527587645909787 0.0047517528029849855 0 -0.025218798301207473 0.0052822871452366492 0 -0.0245286038337479 0.0060759565477434205 0 -0.025314509249647437 0.005585562845937901 0 -0.0244697750401618 0.005634743830636669 0 -0.025898901526373207 0.0051117641919720307 0 -0.025800523867397614 0.0050641812194836579 0 -0.025685490921639534 0.004809344049477993 0 -0.025862105719000012 0.0054024759027843042 0 -0.025898901526373207 0.0051117641919720307 0 -0.025800523867397614 0.0050641812194836579 0 -0.025800523867397614 0.0050641812194836579 0 -0.025739935944799581 0.0049468750196024454 0 -0.02576921745276859 0.0051392602853259093 0 -0.025862105719000012 0.0054024759027843042 0 -0.025800523867397614 0.0050641812194836579 0 -0.02576921745276859 0.0051392602853259093 0 -0.025685490921639534 0.004809344049477993 0 -0.025692158322257942 0.0048211819566591815 0 -0.025612014663022074 0.0046406888264191306 0 -0.025800523867397614 0.0050641812194836579 0 -0.025739935944799581 0.0049468750196024454 0 -0.025685490921639534 0.004809344049477993 0 -0.025739935944799581 0.0049468750196024454 0 -0.025692158322257942 0.0048211819566591815 0 -0.025718150735873049 0.0049903172707408969 0 -0.025739935944799581 0.0049468750196024454 0 -0.025685490921639534 0.004809344049477993 0 -0.025692158322257942 0.0048211819566591815 0 -0.025294118065838277 0.0045931978323882931 0 -0.025685490921639534 0.004809344049477993 0 -0.025506979538213861 0.0046179338608247494 0 -0.025294118065838277 0.0045931978323882931 0 -0.025898901526373207 0.0051117641919720307 0 -0.025685490921639534 0.004809344049477993 0 -0.025506979538213861 0.0046179338608247494 0 -0.025612014663022074 0.0046406888264191306 0 -0.025459097270690088 0.0043177494992772247 0 -0.025612014663022074 0.0046406888264191306 0 -0.025605142627639979 0.0046315605989427295 0 -0.025459097270690088 0.0043177494992772247 0 -0.025685490921639534 0.004809344049477993 0 -0.025506979538213861 0.0046179338608247494 0 -0.025612014663022074 0.0046406888264191306 0 -0.025294118065838277 0.0045931978323882931 0 -0.025506979538213861 0.0046179338608247494 0 -0.025459097270690088 0.0043177494992772247 0 -0.025692158322257942 0.0048211819566591815 0 -0.025612014663022074 0.0046406888264191306 0 -0.025636369696085234 0.0047030812627912874 0 -0.025612014663022074 0.0046406888264191306 0 -0.025596147010866835 0.0046741136333008915 0 -0.025636369696085234 0.0047030812627912874 0 -0.025596147010866835 0.0046741136333008915 0 -0.025502188894700899 0.0046760748207781318 0 -0.025554962587326452 0.0046338920036751181 0 -0.025596147010866835 0.0046741136333008915 0 -0.025554962587326452 0.0046338920036751181 0 -0.025636369696085234 0.0047030812627912874 0 -0.025612014663022074 0.0046406888264191306 0 -0.025596147010866835 0.0046741136333008915 0 -0.025605142627639979 0.0046315605989427295 0 -0.025596147010866835 0.0046741136333008915 0 -0.025586985705724232 0.0047616475375328081 0 -0.025502188894700899 0.0046760748207781318 0 -0.025605142627639979 0.0046315605989427295 0 -0.025498173996273993 0.0045974680724600999 0 -0.025459097270690088 0.0043177494992772247 0 -0.025605142627639979 0.0046315605989427295 0 -0.02565009799335307 0.0048723381316387055 0 -0.025586985705724232 0.0047616475375328081 0 -0.025596147010866835 0.0046741136333008915 0 -0.025605142627639979 0.0046315605989427295 0 -0.025586985705724232 0.0047616475375328081 0 -0.025605142627639979 0.0046315605989427295 0 -0.025498173996273993 0.0045974680724600999 0 -0.02565009799335307 0.0048723381316387055 0 -0.025498173996273993 0.0045974680724600999 0 -0.025459097270690088 0.0043177494992772247 0 -0.024822835292322775 0.0035271592721945943 0 -0.025294118065838277 0.0045931978323882931 0 -0.025459097270690088 0.0043177494992772247 0 -0.025339241794388088 0.0041504100609004698 0 -0.025459097270690088 0.0043177494992772247 0 -0.025339241794388088 0.0041504100609004698 0 -0.024822835292322775 0.0035271592721945943 0 -0.024809216175741434 0.0024455339294222585 0 -0.024880365457201133 0.0034847616141072436 0 -0.026182541548497827 0.0046593776736522296 0 -0.025339241794388088 0.0041504100609004698 0 -0.024822835292322775 0.0035271592721945943 0 -0.025498173996273993 0.0045974680724600999 0 -0.024822835292322775 0.0035271592721945943 0 -0.024810760383612601 0.0048793920081790631 0 -0.022949227473837382 0.0052144643596266482 0 -0.024822835292322775 0.0035271592721945943 0 -0.024810760383612601 0.0048793920081790631 0 -0.022949227473837382 0.0052144643596266482 0 -0.024810760383612601 0.0048793920081790631 0 -0.025603913310536339 0.0056933498620392216 0 -0.025498173996273993 0.0045974680724600999 0 -0.025659592290028559 0.0051469425494861873 0 -0.02565009799335307 0.0048723381316387055 0 -0.025498173996273993 0.0045974680724600999 0 -0.024810760383612601 0.0048793920081790631 0 -0.025659592290028559 0.0051469425494861873 0 -0.024810760383612601 0.0048793920081790631 0 -0.025659592290028559 0.0051469425494861873 0 -0.025603913310536339 0.0056933498620392216 0 -0.025659592290028559 0.0051469425494861873 0 -0.025801688727760539 0.0052330803894862629 0 -0.025679846852532384 0.0050114187541860592 0 -0.025659592290028559 0.0051469425494861873 0 -0.025801688727760539 0.0052330803894862629 0 -0.025603913310536339 0.0056933498620392216 0 -0.025801688727760539 0.0052330803894862629 0 -0.025603913310536339 0.0056933498620392216 0 -0.026142038097316366 0.0050796038356162865 0 -0.025801688727760539 0.0052330803894862629 0 -0.026142038097316366 0.0050796038356162865 0 -0.025747556745170066 0.0048123980962175772 0 -0.0237434796293923 0.0068822306385645784 0 -0.02549662875386308 0.005824871852026515 0 -0.025347560165956805 0.0051868685330725972 0 -0.025603913310536339 0.0056933498620392216 0 -0.025662858676369246 0.005331658688164269 0 -0.022536192476801723 0.0085007878232693044 0 -0.022949227473837382 0.0052144643596266482 0 -0.025603913310536339 0.0056933498620392216 0 -0.025603913310536339 0.0056933498620392216 0 -0.026142038097316366 0.0050796038356162865 0 -0.025662858676369246 0.005331658688164269 0 -0.026142038097316366 0.0050796038356162865 0 -0.025662858676369246 0.005331658688164269 0 -0.025555240503088272 0.0058942498398635631 0 -0.026244996622914258 0.0050731502203166592 0 -0.026931723087986522 0.004696546014364456 0 -0.025347560165956805 0.0051868685330725972 0 -0.025662858676369246 0.005331658688164269 0 -0.025555240503088272 0.0058942498398635631 0 -0.026142038097316366 0.0050796038356162865 0 -0.028569664055718706 0.003472378745459474 0 -0.026891584430176058 0.0034635635687170628 0 -0.026142038097316366 0.0050796038356162865 0 -0.026891584430176058 0.0034635635687170628 0 -0.025990410332243689 0.0040413812536365641 0 -0.026142038097316366 0.0050796038356162865 0 -0.025990410332243689 0.0040413812536365641 0 -0.025747556745170066 0.0048123980962175772 0 -0.026891584430176058 0.0034635635687170628 0 -0.026473830665953667 0.0027676492138535747 0 -0.027537662605207014 0.0020782615152063846 0 -0.026891584430176058 0.0034635635687170628 0 -0.026473830665953667 0.0027676492138535747 0 -0.025990410332243689 0.0040413812536365641 0 -0.026473830665953667 0.0027676492138535747 0 -0.027537662605207014 0.0020782615152063846 0 -0.026897632818628427 0.0018547041373663746 0 -0.028569664055718706 0.003472378745459474 0 -0.027537662605207014 0.0020782615152063846 0 -0.02862786085645919 0.0017934790259617442 0 -0.028569664055718706 0.003472378745459474 0 -0.026891584430176058 0.0034635635687170628 0 -0.027537662605207014 0.0020782615152063846 0 -0.024685971405682641 0.0028216295238705099 0 -0.025514287139277666 0.0033590303280949308 0 -0.025081240168885327 0.0037658343664573567 0 -0.024685971405682641 0.0028216295238705099 0 -0.025081240168885327 0.0037658343664573567 0 -0.024741900453602 0.0039347274080324965 0 -0.026549006394515066 0.00089247152581227484 0 -0.026329526607765323 0.0024432855170512576 0 -0.024685971405682641 0.0028216295238705099 0 -0.025628456358417817 0.0022486423730683101 0 -0.025514287139277666 0.0033590303280949308 0 -0.026473830665953667 0.0027676492138535747 0 -0.025628456358417817 0.0022486423730683101 0 -0.026405531181268631 0.0014938621716653392 0 -0.026473830665953667 0.0027676492138535747 0 -0.025628456358417817 0.0022486423730683101 0 -0.025514287139277666 0.0033590303280949308 0 -0.026473830665953667 0.0027676492138535747 0 -0.025514287139277666 0.0033590303280949308 0 -0.025990410332243689 0.0040413812536365641 0 -0.025514287139277666 0.0033590303280949308 0 -0.025433285079831083 0.0043135528066766187 0 -0.025081240168885327 0.0037658343664573567 0 -0.025514287139277666 0.0033590303280949308 0 -0.025990410332243689 0.0040413812536365641 0 -0.025433285079831083 0.0043135528066766187 0 -0.025990410332243689 0.0040413812536365641 0 -0.025433285079831083 0.0043135528066766187 0 -0.025747556745170066 0.0048123980962175772 0 -0.025433285079831083 0.0043135528066766187 0 -0.025081240168885327 0.0037658343664573567 0 -0.025100768984625901 0.0042214788040358421 0 -0.025433285079831083 0.0043135528066766187 0 -0.025100768984625901 0.0042214788040358421 0 -0.025292182670334187 0.0046100526563863783 0 -0.025081240168885327 0.0037658343664573567 0 -0.025100768984625901 0.0042214788040358421 0 -0.024741900453602 0.0039347274080324965 0 -0.025100768984625901 0.0042214788040358421 0 -0.025118971855729623 0.0044645209297578137 0 -0.024932396043373502 0.0043799613359837069 0 -0.025100768984625901 0.0042214788040358421 0 -0.024932396043373502 0.0043799613359837069 0 -0.024741900453602 0.0039347274080324965 0 -0.025118971855729623 0.0044645209297578137 0 -0.025292182670334187 0.0046100526563863783 0 -0.025201369817019832 0.0045830477706012354 0 -0.025100768984625901 0.0042214788040358421 0 -0.025118971855729623 0.0044645209297578137 0 -0.025292182670334187 0.0046100526563863783 0 -0.025433285079831083 0.0043135528066766187 0 -0.025292182670334187 0.0046100526563863783 0 -0.025513307476226713 0.0047668707477047535 0 -0.025513307476226713 0.0047668707477047535 0 -0.025584174514328113 0.0048572481328766695 0 -0.025424272212829929 0.0047335962055860305 0 -0.025292182670334187 0.0046100526563863783 0 -0.025513307476226713 0.0047668707477047535 0 -0.025424272212829929 0.0047335962055860305 0 -0.025292182670334187 0.0046100526563863783 0 -0.025424272212829929 0.0047335962055860305 0 -0.025201369817019832 0.0045830477706012354 0 -0.025433285079831083 0.0043135528066766187 0 -0.025747556745170066 0.0048123980962175772 0 -0.025513307476226713 0.0047668707477047535 0 -0.025513307476226713 0.0047668707477047535 0 -0.025679846852532384 0.0050114187541860592 0 -0.025584174514328113 0.0048572481328766695 0 -0.025801688727760539 0.0052330803894862629 0 -0.025747556745170066 0.0048123980962175772 0 -0.025679846852532384 0.0050114187541860592 0 -0.025747556745170066 0.0048123980962175772 0 -0.025513307476226713 0.0047668707477047535 0 -0.025679846852532384 0.0050114187541860592 0 -0.025659592290028559 0.0051469425494861873 0 -0.025679846852532384 0.0050114187541860592 0 -0.02565009799335307 0.0048723381316387055 0 -0.025679846852532384 0.0050114187541860592 0 -0.025584174514328113 0.0048572481328766695 0 -0.02565009799335307 0.0048723381316387055 0 -0.025584174514328113 0.0048572481328766695 0 -0.02565009799335307 0.0048723381316387055 0 -0.025586985705724232 0.0047616475375328081 0 -0.025424272212829929 0.0047335962055860305 0 -0.025502188894700899 0.0046760748207781318 0 -0.025368264288974551 0.0046243954208562118 0 -0.025424272212829929 0.0047335962055860305 0 -0.025368264288974551 0.0046243954208562118 0 -0.025201369817019832 0.0045830477706012354 0 -0.025584174514328113 0.0048572481328766695 0 -0.025424272212829929 0.0047335962055860305 0 -0.025586985705724232 0.0047616475375328081 0 -0.025424272212829929 0.0047335962055860305 0 -0.025586985705724232 0.0047616475375328081 0 -0.025502188894700899 0.0046760748207781318 0 -0.025502188894700899 0.0046760748207781318 0 -0.025458880446494109 0.0045920111575474517 0 -0.025368264288974551 0.0046243954208562118 0 -0.025458880446494109 0.0045920111575474517 0 -0.025392218213878548 0.0045693338982743005 0 -0.025368264288974551 0.0046243954208562118 0 -0.025458880446494109 0.0045920111575474517 0 -0.025392218213878548 0.0045693338982743005 0 -0.025451073516313701 0.00453631331480823 0 -0.025392218213878548 0.0045693338982743005 0 -0.025368264288974551 0.0046243954208562118 0 -0.02529861677223165 0.0045697228071737497 0 -0.025392218213878548 0.0045693338982743005 0 -0.025434318365635814 0.0045406311401814869 0 -0.02529861677223165 0.0045697228071737497 0 -0.025466533734429409 0.0044694751902486706 0 -0.025451073516313701 0.00453631331480823 0 -0.025505583905372522 0.0045542074812400055 0 -0.025466533734429409 0.0044694751902486706 0 -0.025451073516313701 0.00453631331480823 0 -0.025434318365635814 0.0045406311401814869 0 -0.025392218213878548 0.0045693338982743005 0 -0.025451073516313701 0.00453631331480823 0 -0.025434318365635814 0.0045406311401814869 0 -0.025466533734429409 0.0044694751902486706 0 -0.025434318365635814 0.0045406311401814869 0 -0.025456463974074091 0.0045172627158593893 0 -0.026671273792471799 0.0024401468074903079 0 -0.026730562834596471 0.0016902329462004052 0 -0.027491134643428505 0.0017797121012502698 0 -0.026178047849249694 0.0033681859554192234 0 -0.02587119309891853 0.0036820987042494079 0 -0.025434318365635814 0.0045406311401814869 0 -0.025456463974074091 0.0045172627158593893 0 -0.02543400286780827 0.004534826439081859 0 -0.025228632410460725 0.0048169863338755302 0 -0.02587119309891853 0.0036820987042494079 0 -0.025434318365635814 0.0045406311401814869 0 -0.02529861677223165 0.0045697228071737497 0 -0.025151561740187497 0.0045372024038764988 0 -0.025368264288974551 0.0046243954208562118 0 -0.025201369817019832 0.0045830477706012354 0 -0.02529861677223165 0.0045697228071737497 0 -0.025201369817019832 0.0045830477706012354 0 -0.02529861677223165 0.0045697228071737497 0 -0.025151561740187497 0.0045372024038764988 0 -0.025118971855729623 0.0044645209297578137 0 -0.025201369817019832 0.0045830477706012354 0 -0.024932396043373502 0.0043799613359837069 0 -0.025201369817019832 0.0045830477706012354 0 -0.025151561740187497 0.0045372024038764988 0 -0.024932396043373502 0.0043799613359837069 0 -0.02587119309891853 0.0036820987042494079 0 -0.02490751269136816 0.0044606398641798741 0 -0.027491134643428505 0.0017797121012502698 0 -0.027900831555580267 0.0010434767817763117 0 -0.026792469051769536 0.00092712708382180033 0 -0.027900831555580267 0.0010434767817763117 0 -0.026792469051769536 0.00092712708382180033 0 -0.027388173459943585 0.00052707377902603105 0 -0.024800468635539964 0.0046494790630569978 0 -0.024932396043373502 0.0043799613359837069 0 -0.024741900453602 0.0039347274080324965 0 -0.02587119309891853 0.0036820987042494079 0 -0.026329526607765323 0.0024432855170512576 0 -0.026730562834596471 0.0016902329462004052 0 -0.027491134643428505 0.0017797121012502698 0 -0.026792469051769536 0.00092712708382180033 0 -0.026595549632702886 6.1304590703850601e-05 0 -0.027388173459943585 0.00052707377902603105 0 -0.027315820229227784 -0.00020544170673535589 0 -0.026792469051769536 0.00092712708382180033 0 -0.026595549632702886 6.1304590703850601e-05 0 -0.027388173459943585 0.00052707377902603105 0 -0.02830887307505002 0.00031691537242131278 0 -0.027388173459943585 0.00052707377902603105 0 -0.027315820229227784 -0.00020544170673535589 0 -0.02830887307505002 0.00031691537242131278 0 -0.027900831555580267 0.0010434767817763117 0 -0.027388173459943585 0.00052707377902603105 0 -0.026549006394515066 0.00089247152581227484 0 -0.027334505803323517 -0.00074625467884976613 0 -0.025692854814678843 7.2537410990508025e-05 0 -0.024999929769452138 0.00079937725521396291 0 -0.024973856642642581 -0.00071888595947036085 0 -0.026792469051769536 0.00092712708382180033 0 -0.026595549632702886 6.1304590703850601e-05 0 -0.025692854814678843 7.2537410990508025e-05 0 -0.026792469051769536 0.00092712708382180033 0 -0.025692854814678843 7.2537410990508025e-05 0 -0.025963811601536869 0.0016136532529028198 0 -0.026730562834596471 0.0016902329462004052 0 -0.026792469051769536 0.00092712708382180033 0 -0.025963811601536869 0.0016136532529028198 0 -0.025692854814678843 7.2537410990508025e-05 0 -0.024999929769452138 0.00079937725521396291 0 -0.025963811601536869 0.0016136532529028198 0 -0.024999929769452138 0.00079937725521396291 0 -0.024999991272590432 0.0023013381149541929 0 -0.025963811601536869 0.0016136532529028198 0 -0.026671273792471799 0.0024401468074903079 0 -0.026730562834596471 0.0016902329462004052 0 -0.025963811601536869 0.0016136532529028198 0 -0.025466533734429409 0.0044694751902486706 0 -0.025456463974074091 0.0045172627158593893 0 -0.025389112118467082 0.0042490196655106368 0 -0.026671273792471799 0.0024401468074903079 0 -0.025963811601536869 0.0016136532529028198 0 -0.02584323361494888 0.0031154047542273121 0 -0.026178047849249694 0.0033681859554192234 0 -0.025550219490192427 0.0037101559563527758 0 -0.024999991272590432 0.0023013381149541929 0 -0.02499998528792317 0.0038033201149318538 0 -0.02584323361494888 0.0031154047542273121 0 -0.024999991272590432 0.0023013381149541929 0 -0.025963811601536869 0.0016136532529028198 0 -0.02584323361494888 0.0031154047542273121 0 -0.02500003625177483 0.0038053860313891235 0 -0.025422812116814752 0.0044844310703509825 0 -0.025389112118467082 0.0042490196655106368 0 -0.025000128250497064 0.0038034175456972468 0 -0.025550219490192427 0.0037101559563527758 0 -0.02500003625177483 0.0038053860313891235 0 -0.025422812116814752 0.0044844310703509825 0 -0.024999655806333995 0.0051487253810876465 0 -0.025422812116814752 0.0044844310703509825 0 -0.025568744082485814 0.0047272576979075316 0 -0.025490508798680592 0.0051794545126951424 0 -0.025422812116814752 0.0044844310703509825 0 -0.025498894326345913 0.0045029905366477845 0 -0.025568744082485814 0.0047272576979075316 0 -0.025422812116814752 0.0044844310703509825 0 -0.025389112118467082 0.0042490196655106368 0 -0.025498894326345913 0.0045029905366477845 0 -0.025466533734429409 0.0044694751902486706 0 -0.025389112118467082 0.0042490196655106368 0 -0.025498894326345913 0.0045029905366477845 0 -0.025466533734429409 0.0044694751902486706 0 -0.025505583905372522 0.0045542074812400055 0 -0.025498894326345913 0.0045029905366477845 0 -0.025505583905372522 0.0045542074812400055 0 -0.025498894326345913 0.0045029905366477845 0 -0.025581444312722808 0.0046533302103701117 0 -0.025502188894700899 0.0046760748207781318 0 -0.025458880446494109 0.0045920111575474517 0 -0.025554962587326452 0.0046338920036751181 0 -0.025458880446494109 0.0045920111575474517 0 -0.025451073516313701 0.00453631331480823 0 -0.025505583905372522 0.0045542074812400055 0 -0.025458880446494109 0.0045920111575474517 0 -0.025505583905372522 0.0045542074812400055 0 -0.025554962587326452 0.0046338920036751181 0 -0.025505583905372522 0.0045542074812400055 0 -0.025554962587326452 0.0046338920036751181 0 -0.025581444312722808 0.0046533302103701117 0 -0.025554962587326452 0.0046338920036751181 0 -0.025636369696085234 0.0047030812627912874 0 -0.025581444312722808 0.0046533302103701117 0 -0.025636369696085234 0.0047030812627912874 0 -0.025581444312722808 0.0046533302103701117 0 -0.025665830316728623 0.0048571874037931506 0 -0.025692158322257942 0.0048211819566591815 0 -0.025636369696085234 0.0047030812627912874 0 -0.025665830316728623 0.0048571874037931506 0 -0.025498894326345913 0.0045029905366477845 0 -0.025581444312722808 0.0046533302103701117 0 -0.025568744082485814 0.0047272576979075316 0 -0.025581444312722808 0.0046533302103701117 0 -0.025568744082485814 0.0047272576979075316 0 -0.025665830316728623 0.0048571874037931506 0 -0.025568744082485814 0.0047272576979075316 0 -0.025618794010644978 0.0050625569673944902 0 -0.025665830316728623 0.0048571874037931506 0 -0.025618794010644978 0.0050625569673944902 0 -0.025665830316728623 0.0048571874037931506 0 -0.025707704847224171 0.0052102554876010095 0 -0.025692158322257942 0.0048211819566591815 0 -0.025665830316728623 0.0048571874037931506 0 -0.025718150735873049 0.0049903172707408969 0 -0.025718150735873049 0.0049903172707408969 0 -0.02576921745276859 0.0051392602853259093 0 -0.025707704847224171 0.0052102554876010095 0 -0.025665830316728623 0.0048571874037931506 0 -0.025718150735873049 0.0049903172707408969 0 -0.025707704847224171 0.0052102554876010095 0 -0.025739935944799581 0.0049468750196024454 0 -0.025718150735873049 0.0049903172707408969 0 -0.02576921745276859 0.0051392602853259093 0 -0.02576921745276859 0.0051392602853259093 0 -0.025783197193077347 0.005443923782983872 0 -0.025707704847224171 0.0052102554876010095 0 -0.025783197193077347 0.005443923782983872 0 -0.025707704847224171 0.0052102554876010095 0 -0.025716435066402858 0.0056428263317194255 0 -0.025862105719000012 0.0054024759027843042 0 -0.02576921745276859 0.0051392602853259093 0 -0.025783197193077347 0.005443923782983872 0 -0.025618794010644978 0.0050625569673944902 0 -0.025707704847224171 0.0052102554876010095 0 -0.025603895524310773 0.0056106117705112318 0 -0.025707704847224171 0.0052102554876010095 0 -0.025716435066402858 0.0056428263317194255 0 -0.025603895524310773 0.0056106117705112318 0 -0.025603895524310773 0.0056106117705112318 0 -0.025322784590861996 0.0057272015954092119 0 -0.025490508798680592 0.0051794545126951424 0 -0.025510178660863934 0.0061282033932561781 0 -0.025603895524310773 0.0056106117705112318 0 -0.025322784590861996 0.0057272015954092119 0 -0.024999776716603871 0.0064944706874483366 0 -0.025322784590861996 0.0057272015954092119 0 -0.024999655806333995 0.0051487253810876465 0 -0.025422812116814752 0.0044844310703509825 0 -0.024999655806333995 0.0051487253810876465 0 -0.025490508798680592 0.0051794545126951424 0 -0.025322784590861996 0.0057272015954092119 0 -0.024999655806333995 0.0051487253810876465 0 -0.025490508798680592 0.0051794545126951424 0 -0.025618794010644978 0.0050625569673944902 0 -0.025603895524310773 0.0056106117705112318 0 -0.025490508798680592 0.0051794545126951424 0 -0.025568744082485814 0.0047272576979075316 0 -0.025618794010644978 0.0050625569673944902 0 -0.025490508798680592 0.0051794545126951424 0 0.0023270052550567171 0.0027399943313232253 0 0.0033354266390543505 0.0032949532836231608 0 0.0011631492446972848 0.0031327480882465107 0 0.0023270052550567171 0.0027399943313232253 0 0.0017375173829589808 0.0022175126228688711 0 0.0011631492446972848 0.0031327480882465107 0 0.003316211354773317 0.0032900593007731205 0 0.0020222981118301997 0.0033930698037962551 0 0.0033354266390543505 0.0032949532836231608 0 0.00283541895506135 0.0037085431617969078 0 0.0032501577448599489 0.003942473806877669 0 0.0033354266390543505 0.0032949532836231608 0 0.0032975270802326697 0.0030916542050772387 0 0.0039775252038384374 0.0044942723336240543 0 0.0047550499220832326 0.0054743389651017828 0 0.0044887354742681289 0.0054740636182105656 0 0.0045857895259660457 0.0056489896976000759 0 0.0023270052550567171 0.0027399943313232253 0 0.0033354266390543505 0.0032949532836231608 0 0.0028854426820727808 0.0028698744472380193 0 0.0032975270802326697 0.0030916542050772387 0 0.0028854426820727808 0.0028698744472380193 0 0.0025814506958179383 0.0023543409142969588 0 0.0023270052550567171 0.0027399943313232253 0 0.0028854426820727808 0.0028698744472380193 0 0.0025814506958179383 0.0023543409142969588 0 0.0033354266390543505 0.0032949532836231608 0 0.0032975270802326697 0.0030916542050772387 0 0.0028854426820727808 0.0028698744472380193 0 0.0032975270802326697 0.0030916542050772387 0 0.0025814506958179383 0.0023543409142969588 0 0.0023799966440163169 0.0014613717536460103 0 0.0039819884703514458 0.0042894899931361424 0 0.0035936718086904428 0.0037429695029008643 0 0.0047550499220832326 0.0054743389651017828 0 0.0047399427225400395 0.0058224734916321316 0 0.0047196625367580463 0.0057995583118807788 0 0.0047550499220832326 0.0054743389651017828 0 0.0047399427225400395 0.0058224734916321316 0 0.0045857895259660457 0.0056489896976000759 0 0.0025814506958179383 0.0023543409142969588 0 0.0019573806367239399 0.0017772679713000438 0 0.0023799966440163169 0.0014613717536460103 0 0.0025814506958179383 0.0023543409142969588 0 0.0019573806367239399 0.0017772679713000438 0 0.0017375173829589808 0.0022175126228688711 0 0.0023270052550567171 0.0027399943313232253 0 0.0025814506958179383 0.0023543409142969588 0 0.0017375173829589808 0.0022175126228688711 0 0.0019573806367239399 0.0017772679713000438 0 0.0017375173829589808 0.0022175126228688711 0 0.0014702496746008867 0.0015915820775613077 0 0.00094818152428781334 0.0017692614855424735 0 0.00034902355174698627 0.0021936242258840011 0 0.0011631492446972848 0.0031327480882465107 0 0.0017375173829589808 0.0022175126228688711 0 0.00094818152428781334 0.0017692614855424735 0 0.0014702496746008867 0.0015915820775613077 0 0.0017375173829589808 0.0022175126228688711 0 0.00094818152428781334 0.0017692614855424735 0 0.0011631492446972848 0.0031327480882465107 0 0.00094818152428781334 0.0017692614855424735 0 0.00034902355174698627 0.0021936242258840011 0 0.00023011798959173335 0.0012585597320887462 0 0.00034902355174698627 0.0021936242258840011 0 0.00023011798959173335 0.0012585597320887462 0 -0.00035828129816143869 0.001618711412425978 0 0.00034902355174698627 0.0021936242258840011 0 -0.0003210981258732507 0.0021360940966199341 0 -7.3714702433510425e-05 0.0028427070057548539 0 0.00034902355174698627 0.0021936242258840011 0 0.0011631492446972848 0.0031327480882465107 0 -7.3714702433510425e-05 0.0028427070057548539 0 0.0020222981118301997 0.0033930698037962551 0 0.0012278731332147081 0.0033841558679301477 0 0.00283541895506135 0.0037085431617969078 0 0.0026568784272529493 0.0040910458502660917 0 0.0030981369791108463 0.0043050682896636277 0 0.0026568784272529493 0.0040910458502660917 0 0.0023974483714993646 0.0043086168310069181 0 0.0022465495101925449 0.003787596680429267 0 0.00283541895506135 0.0037085431617969078 0 0.0026568784272529493 0.0040910458502660917 0 0.0022465495101925449 0.003787596680429267 0 0.0026568784272529493 0.0040910458502660917 0 0.0023974483714993646 0.0043086168310069181 0 0.002844622830404704 0.0044941892287706179 0 0.0026568784272529493 0.0040910458502660917 0 0.0030981369791108463 0.0043050682896636277 0 0.002844622830404704 0.0044941892287706179 0 0.00283541895506135 0.0037085431617969078 0 0.0030981369791108463 0.0043050682896636277 0 0.0032501577448599489 0.003942473806877669 0 0.0039819884703514458 0.0042894899931361424 0 0.004015270684703743 0.0045428933251499435 0 0.0033354266390543505 0.0032949532836231608 0 0.0032501577448599489 0.003942473806877669 0 0.0039775252038384374 0.0044942723336240543 0 0.0030981369791108463 0.0043050682896636277 0 0.0032501577448599489 0.003942473806877669 0 0.0039775252038384374 0.0044942723336240543 0 0.0047550499220832326 0.0054743389651017828 0 0.0039775252038384374 0.0044942723336240543 0 0.004240006117111882 0.0051400154379529434 0 0.0030981369791108463 0.0043050682896636277 0 0.0039775252038384374 0.0044942723336240543 0 0.0037321230765583781 0.0045877614782160753 0 0.0039775252038384374 0.0044942723336240543 0 0.0040532298621870164 0.0047349106898231675 0 0.0037321230765583781 0.0045877614782160753 0 0.0040532298621870164 0.0047349106898231675 0 0.0040274833520162522 0.0047592390894904907 0 0.0040602217176800926 0.0050447285414547986 0 0.0040532298621870164 0.0047349106898231675 0 0.0040274833520162522 0.0047592390894904907 0 0.0038221846658943611 0.0046533517840146995 0 0.0040532298621870164 0.0047349106898231675 0 0.004240006117111882 0.0051400154379529434 0 0.0041913823530369187 0.0054435580740526826 0 0.0040532298621870164 0.0047349106898231675 0 0.0040602217176800926 0.0050447285414547986 0 0.0041913823530369187 0.0054435580740526826 0 0.0039775252038384374 0.0044942723336240543 0 0.0040532298621870164 0.0047349106898231675 0 0.004240006117111882 0.0051400154379529434 0 0.0042176999084436893 0.0048423442174770816 0 0.0041182773420471112 0.0049045114566200381 0 0.0040822669239907929 0.0047463488742818024 0 0.0041182773420471112 0.0049045114566200381 0 0.0040274833520162522 0.0047592390894904907 0 0.0040602217176800926 0.0050447285414547986 0 0.0041182773420471112 0.0049045114566200381 0 0.0040274833520162522 0.0047592390894904907 0 0.0040822669239907929 0.0047463488742818024 0 0.0041015168995086407 0.0050964490084063627 0 0.0040734739722997158 0.0054084001245607296 0 0.0041182773420471112 0.0049045114566200381 0 0.0040602217176800926 0.0050447285414547986 0 0.0042129190394240047 0.0050757763977892318 0 0.0042176999084436893 0.0048423442174770816 0 0.0041182773420471112 0.0049045114566200381 0 0.0042129190394240047 0.0050757763977892318 0 0.0039018668271558563 0.0057531996434527551 0 0.0040575800738889573 0.0056942322797286227 0 0.0040227869266640168 0.0061684456620347862 0 0.0040602217176800926 0.0050447285414547986 0 0.0040575800738889573 0.0056942322797286227 0 0.0041913823530369187 0.0054435580740526826 0 0.0040602217176800926 0.0050447285414547986 0 0.0039018668271558563 0.0057531996434527551 0 0.0040575800738889573 0.0056942322797286227 0 0.0040575800738889573 0.0056942322797286227 0 0.0040227869266640168 0.0061684456620347862 0 0.0042803815862742728 0.0059200235856016106 0 0.0039109171471511835 0.0063646542866764829 0 0.0039018668271558563 0.0057531996434527551 0 0.0040227869266640168 0.0061684456620347862 0 0.004240006117111882 0.0051400154379529434 0 0.0041913823530369187 0.0054435580740526826 0 0.0044005227743587868 0.0056469298559391192 0 0.0044887354742681289 0.0054740636182105656 0 0.004240006117111882 0.0051400154379529434 0 0.0044005227743587868 0.0056469298559391192 0 0.0047550499220832326 0.0054743389651017828 0 0.0044887354742681289 0.0054740636182105656 0 0.004240006117111882 0.0051400154379529434 0 0.0040575800738889573 0.0056942322797286227 0 0.0041913823530369187 0.0054435580740526826 0 0.0042803815862742728 0.0059200235856016106 0 0.0041913823530369187 0.0054435580740526826 0 0.0042803815862742728 0.0059200235856016106 0 0.0044005227743587868 0.0056469298559391192 0 0.0042803815862742728 0.0059200235856016106 0 0.0044005227743587868 0.0056469298559391192 0 0.0044637890538254668 0.0060014137419070407 0 0.0044005227743587868 0.0056469298559391192 0 0.0045540678840419535 0.0058170659739812825 0 0.0044637890538254668 0.0060014137419070407 0 0.0044887354742681289 0.0054740636182105656 0 0.0044005227743587868 0.0056469298559391192 0 0.0045857895259660457 0.0056489896976000759 0 0.0044005227743587868 0.0056469298559391192 0 0.0045857895259660457 0.0056489896976000759 0 0.0045540678840419535 0.0058170659739812825 0 0.0047399427225400395 0.0058224734916321316 0 0.0045857895259660457 0.0056489896976000759 0 0.0045540678840419535 0.0058170659739812825 0 0.0047399427225400395 0.0058224734916321316 0 0.0045540678840419535 0.0058170659739812825 0 0.0046095792548287934 0.0060714546569054862 0 0.0045540678840419535 0.0058170659739812825 0 0.0046095792548287934 0.0060714546569054862 0 0.0044637890538254668 0.0060014137419070407 0 0.0046095792548287934 0.0060714546569054862 0 0.0045464795040263918 0.0063648379593272556 0 0.0047772920740737929 0.0063760077739171035 0 0.0046095792548287934 0.0060714546569054862 0 0.0044637890538254668 0.0060014137419070407 0 0.0045464795040263918 0.0063648379593272556 0 0.0044637890538254668 0.0060014137419070407 0 0.0045464795040263918 0.0063648379593272556 0 0.0040985293951371522 0.006453044360185527 0 0.0042957992505923632 0.0059809559046727669 0 0.0042895811316264951 0.0065920254494021341 0 0.0042803815862742728 0.0059200235856016106 0 0.0044637890538254668 0.0060014137419070407 0 0.0040985293951371522 0.006453044360185527 0 0.0045464795040263918 0.0063648379593272556 0 0.0040985293951371522 0.006453044360185527 0 0.0044698426289462509 0.0067047249655169446 0 0.0045464795040263918 0.0063648379593272556 0 0.0044698426289462509 0.0067047249655169446 0 0.0047561444853571437 0.0066792313219289435 0 0.0045464795040263918 0.0063648379593272556 0 0.0047561444853571437 0.0066792313219289435 0 0.0047772920740737929 0.0063760077739171035 0 0.0039254221652635273 0.0067129477231686286 0 0.0040227869266640168 0.0061684456620347862 0 0.0041450988061971185 0.0065740987115307167 0 0.0040227869266640168 0.0061684456620347862 0 0.0042803815862742728 0.0059200235856016106 0 0.0041450988061971185 0.0065740987115307167 0 0.0042803815862742728 0.0059200235856016106 0 0.0041450988061971185 0.0065740987115307167 0 0.0044984568154404006 0.0067228784123254384 0 0.0041450988061971185 0.0065740987115307167 0 0.0044984568154404006 0.0067228784123254384 0 0.0041148291912587297 0.0071540661112409667 0 0.0039254221652635273 0.0067129477231686286 0 0.0041450988061971185 0.0065740987115307167 0 0.0041148291912587297 0.0071540661112409667 0 0.0044984568154404006 0.0067228784123254384 0 0.0041148291912587297 0.0071540661112409667 0 0.0044764933618707918 0.0074061613399098404 0 0.0042895811316264951 0.0065920254494021341 0 0.0042612967852175467 0.0072710329324507609 0 0.0042246747862869551 0.0077549665978184322 0 0.0042612967852175467 0.0072710329324507609 0 0.0042267626171989293 0.0078080281627343458 0 0.0044764933618707918 0.0074061613399098404 0 0.0042311090691723044 0.0076379304494124944 0 0.0040441533069910151 0.0078228002659562479 0 0.0041148291912587297 0.0071540661112409667 0 0.0042311090691723044 0.0076379304494124944 0 0.0041148291912587297 0.0071540661112409667 0 0.0044764933618707918 0.0074061613399098404 0 0.0042311090691723044 0.0076379304494124944 0 0.0046279199124065152 0.0069585865635152892 0 0.0044698426289462509 0.0067047249655169446 0 0.0043559719670244008 0.0070248974515004477 0 0.0046279199124065152 0.0069585865635152892 0 0.0044698426289462509 0.0067047249655169446 0 0.0047561444853571437 0.0066792313219289435 0 0.0040985293951371522 0.006453044360185527 0 0.0044698426289462509 0.0067047249655169446 0 0.0043559719670244008 0.0070248974515004477 0 0.0040985293951371522 0.006453044360185527 0 0.0040416060946458559 0.0071519034054402294 0 0.0043559719670244008 0.0070248974515004477 0 0.0043020582272258788 0.007489234953020534 0 0.0040416060946458559 0.0071519034054402294 0 0.0044232373156410888 0.0073640982412651601 0 0.0040416060946458559 0.0071519034054402294 0 0.0043559719670244008 0.0070248974515004477 0 0.0044232373156410888 0.0073640982412651601 0 0.0043559719670244008 0.0070248974515004477 0 0.0044232373156410888 0.0073640982412651601 0 0.0046408346035227734 0.0072462173996802968 0 0.0045655252003892859 0.0074769486556920109 0 0.0044232373156410888 0.0073640982412651601 0 0.0046408346035227734 0.0072462173996802968 0 0.0046279199124065152 0.0069585865635152892 0 0.0043559719670244008 0.0070248974515004477 0 0.0046408346035227734 0.0072462173996802968 0 0.0046279199124065152 0.0069585865635152892 0 0.0046408346035227734 0.0072462173996802968 0 0.0048545621051103187 0.0072057649507347634 0 0.0047688236114419866 0.007472472049088936 0 0.0046408346035227734 0.0072462173996802968 0 0.0048545621051103187 0.0072057649507347634 0 0.0049479172314652094 0.0073666590007676952 0 0.0048545621051103187 0.0072057649507347634 0 0.0051288369271659121 0.007180743991540609 0 0.0048545621051103187 0.0072057649507347634 0 0.0051288369271659121 0.007180743991540609 0 0.0049620465880364142 0.0069481894191639141 0 0.0014258628923895353 -9.7144670662475727e-05 0 0.0017495686407801101 0.00063105122302897906 0 0.0012352938886139992 0.00063176475602155064 0 0.0039521232099388771 0.0041433419554365572 0 0.0030411419106305404 0.002648853141914773 0 0.0039521232099388771 0.0041433419554365572 0 0.0050479316398628141 0.0065004796970786092 0 0.0051288369271659121 0.007180743991540609 0 0.0049620465880364142 0.0069481894191639141 0 0.0050622697174700429 0.0065919420415562957 0 0.0044706774327113348 0.0048519446630217386 0 0.0046941952974310884 0.0055085876600172992 0 0.0046119718781862124 0.0054482632244760489 0 0.0049620465880364142 0.0069481894191639141 0 0.0049113302709248826 0.0067042437259999792 0 0.0050622697174700429 0.0065919420415562957 0 0.0046279199124065152 0.0069585865635152892 0 0.0048545621051103187 0.0072057649507347634 0 0.0049620465880364142 0.0069481894191639141 0 0.0046279199124065152 0.0069585865635152892 0 0.0049620465880364142 0.0069481894191639141 0 0.0047561444853571437 0.0066792313219289435 0 0.0049620465880364142 0.0069481894191639141 0 0.0049113302709248826 0.0067042437259999792 0 0.0047561444853571437 0.0066792313219289435 0 0.0030411419106305404 0.002648853141914773 0 0.0035936718086904428 0.0037429695029008643 0 0.0048710918580245344 0.0065889837842188267 0 0.0047772920740737929 0.0063760077739171035 0 0.0050622697174700429 0.0065919420415562957 0 0.0046941952974310884 0.0055085876600172992 0 0.0046119718781862124 0.0054482632244760489 0 0.0047196625367580463 0.0057995583118807788 0 0.0047561444853571437 0.0066792313219289435 0 0.0048710918580245344 0.0065889837842188267 0 0.0047772920740737929 0.0063760077739171035 0 0.0049113302709248826 0.0067042437259999792 0 0.0047561444853571437 0.0066792313219289435 0 0.0048710918580245344 0.0065889837842188267 0 0.0049113302709248826 0.0067042437259999792 0 0.0048710918580245344 0.0065889837842188267 0 0.0050622697174700429 0.0065919420415562957 0 0.0017495686407801101 0.00063105122302897906 0 0.0016351647130722789 0.00096641350299814471 0 0.0023799966440163169 0.0014613717536460103 0 0.0012352938886139992 0.00063176475602155064 0 0.0016351647130722789 0.00096641350299814471 0 0.0012431529364088341 0.0011803240013370866 0 0.0017495686407801101 0.00063105122302897906 0 0.0012352938886139992 0.00063176475602155064 0 0.0016351647130722789 0.00096641350299814471 0 0.0016351647130722789 0.00096641350299814471 0 0.0017252036469159139 0.0013780684705744265 0 0.0023799966440163169 0.0014613717536460103 0 0.0016351647130722789 0.00096641350299814471 0 0.0017252036469159139 0.0013780684705744265 0 0.0012431529364088341 0.0011803240013370866 0 0.0017252036469159139 0.0013780684705744265 0 0.0014702496746008867 0.0015915820775613077 0 0.0012431529364088341 0.0011803240013370866 0 0.0019573806367239399 0.0017772679713000438 0 0.0017252036469159139 0.0013780684705744265 0 0.0014702496746008867 0.0015915820775613077 0 0.0019573806367239399 0.0017772679713000438 0 0.0017252036469159139 0.0013780684705744265 0 0.0023799966440163169 0.0014613717536460103 0 0.0046805966407068231 0.0056326230966989039 0 0.0050479316398628141 0.0065004796970786092 0 0.0047399427225400395 0.0058224734916321316 0 0.0046941952974310884 0.0055085876600172992 0 0.0047196625367580463 0.0057995583118807788 0 0.0047399427225400395 0.0058224734916321316 0 0.0047772920740737929 0.0063760077739171035 0 0.0050622697174700429 0.0065919420415562957 0 0.0047399427225400395 0.0058224734916321316 0 0.0046095792548287934 0.0060714546569054862 0 0.0047772920740737929 0.0063760077739171035 0 0.00094818152428781334 0.0017692614855424735 0 0.00023011798959173335 0.0012585597320887462 0 0.0012431529364088341 0.0011803240013370866 0 0.00094818152428781334 0.0017692614855424735 0 0.0014702496746008867 0.0015915820775613077 0 0.0012431529364088341 0.0011803240013370866 0 0.0012352938886139992 0.00063176475602155064 0 0.0012431529364088341 0.0011803240013370866 0 0.00069784879770500821 0.00079244977235843066 0 0.00023011798959173335 0.0012585597320887462 0 0.0012431529364088341 0.0011803240013370866 0 0.00069784879770500821 0.00079244977235843066 0 0.0012352938886139992 0.00063176475602155064 0 0.00069784879770500821 0.00079244977235843066 0 0.00064564896299744261 0.00033464144766132109 0 0.00023011798959173335 0.0012585597320887462 0 0.00016706504865663196 0.00062908998682271718 0 -0.00046154763333862339 0.00069880883108681068 0 0.00023011798959173335 0.0012585597320887462 0 0.00069784879770500821 0.00079244977235843066 0 0.00016706504865663196 0.00062908998682271718 0 0.00016706504865663196 0.00062908998682271718 0 0.00064564896299744261 0.00033464144766132109 0 -0.00013784886530613649 0.00019566209248136055 0 0.00069784879770500821 0.00079244977235843066 0 0.00016706504865663196 0.00062908998682271718 0 0.00064564896299744261 0.00033464144766132109 0 0.0014258628923895353 -9.7144670662475727e-05 0 0.0012352938886139992 0.00063176475602155064 0 0.00064564896299744261 0.00033464144766132109 0 0.0014258628923895353 -9.7144670662475727e-05 0 0.00064564896299744261 0.00033464144766132109 0 0.00054061064277675735 -0.0002184019116816774 0 -7.9454676826999613e-05 -0.00030829670967141669 0 0.00054061064277675735 -0.0002184019116816774 0 -0.00013784886530613649 0.00019566209248136055 0 0.00064564896299744261 0.00033464144766132109 0 0.00054061064277675735 -0.0002184019116816774 0 -0.00013784886530613649 0.00019566209248136055 0 -0.00054363940492386316 -0.00014704970580884107 0 -0.00013784886530613649 0.00019566209248136055 0 -0.0010302557151571983 0.00034379564568890787 0 -7.9454676826999613e-05 -0.00030829670967141669 0 -0.00054363940492386316 -0.00014704970580884107 0 -0.00013784886530613649 0.00019566209248136055 0 0.00016706504865663196 0.00062908998682271718 0 -0.00013784886530613649 0.00019566209248136055 0 -0.00046154763333862339 0.00069880883108681068 0 -0.00013784886530613649 0.00019566209248136055 0 -0.0010302557151571983 0.00034379564568890787 0 -0.00046154763333862339 0.00069880883108681068 0 -0.00054363940492386316 -0.00014704970580884107 0 -0.0010302557151571983 0.00034379564568890787 0 -0.00099172352950287201 -0.00013866463631820341 0 -0.0010302557151571983 0.00034379564568890787 0 -0.00099172352950287201 -0.00013866463631820341 0 -0.0013989769060630051 0.00021891852601447893 0 -0.00099172352950287201 -0.00013866463631820341 0 -0.0016139937538845175 2.8673410393676665e-05 0 -0.0013989769060630051 0.00021891852601447893 0 -0.0016139937538845175 2.8673410393676665e-05 0 -0.0013989769060630051 0.00021891852601447893 0 -0.0017090538203764743 0.00027366602942749385 0 -0.0018090049906768324 9.4358315780610082e-05 0 -0.0019609144597004103 0.00034343854983873655 0 -0.0022434017200288997 0.00013775327015703605 0 -0.0016139937538845175 2.8673410393676665e-05 0 -0.0018090049906768324 9.4358315780610082e-05 0 -0.0017090538203764743 0.00027366602942749385 0 -0.0018090049906768324 9.4358315780610082e-05 0 -0.0017090538203764743 0.00027366602942749385 0 -0.0019609144597004103 0.00034343854983873655 0 -0.0016296699558659413 0.00047760759432417056 0 -0.0024998577944612041 0.00050134622105770454 0 -0.0019609144597004103 0.00034343854983873655 0 -0.001711134920110596 0.00058651973166679548 0 -0.002195467542254402 0.00068278518191674468 0 -0.0017090538203764743 0.00027366602942749385 0 -0.0019609144597004103 0.00034343854983873655 0 -0.001711134920110596 0.00058651973166679548 0 -0.0011157272770693739 0.00035752588591944585 0 -0.0016296699558659413 0.00047760759432417056 0 -0.0010302557151571983 0.00034379564568890787 0 -0.0013989769060630051 0.00021891852601447893 0 -0.001711134920110596 0.00058651973166679548 0 -0.0010302557151571983 0.00034379564568890787 0 -0.0016720527750655021 0.00037691565133748906 0 -0.0012259290631008665 0.00085930654298848577 0 -0.0013989769060630051 0.00021891852601447893 0 -0.0017090538203764743 0.00027366602942749385 0 -0.001711134920110596 0.00058651973166679548 0 -0.0012259290631008665 0.00085930654298848577 0 -0.0019257773902573777 0.00069408997543978933 0 -0.0016746737203507135 0.0010272575761261678 0 -0.0016720527750655021 0.00037691565133748906 0 -0.0012259290631008665 0.00085930654298848577 0 -0.0019257773902573777 0.00069408997543978933 0 -0.0016720527750655021 0.00037691565133748906 0 -0.0019257773902573777 0.00069408997543978933 0 -0.0022663181338071947 0.00048167948386505782 0 -0.0019257773902573777 0.00069408997543978933 0 -0.0016746737203507135 0.0010272575761261678 0 -0.0022638874872394879 0.00090063465182364322 0 -0.0016746737203507135 0.0010272575761261678 0 -0.0013692045193157123 0.0013288490572447072 0 -0.0018953582664611402 0.0013787667645621391 0 -0.0016746737203507135 0.0010272575761261678 0 -0.0022638874872394879 0.00090063465182364322 0 -0.0018953582664611402 0.0013787667645621391 0 -0.0012259290631008665 0.00085930654298848577 0 -0.0016746737203507135 0.0010272575761261678 0 -0.0013692045193157123 0.0013288490572447072 0 -0.0012259290631008665 0.00085930654298848577 0 -0.0013692045193157123 0.0013288490572447072 0 -0.00096692702361577776 0.0012950734323312031 0 -0.0012259290631008665 0.00085930654298848577 0 -0.00096692702361577776 0.0012950734323312031 0 -0.00057761398668248597 0.0011403426334929598 0 -0.00096692702361577776 0.0012950734323312031 0 -0.00057761398668248597 0.0011403426334929598 0 -0.00035828129816143869 0.001618711412425978 0 0.00023011798959173335 0.0012585597320887462 0 -0.00057761398668248597 0.0011403426334929598 0 -0.00035828129816143869 0.001618711412425978 0 0.00023011798959173335 0.0012585597320887462 0 -0.00057761398668248597 0.0011403426334929598 0 -0.00046154763333862339 0.00069880883108681068 0 -0.0010302557151571983 0.00034379564568890787 0 -0.0012259290631008665 0.00085930654298848577 0 -0.00046154763333862339 0.00069880883108681068 0 -0.0012259290631008665 0.00085930654298848577 0 -0.00057761398668248597 0.0011403426334929598 0 -0.00046154763333862339 0.00069880883108681068 0 -0.0045311178111235055 0.00070090355126977777 0 -0.0038311148788484372 0.00058087941356535673 0 -0.0041018801954234305 0.00035698207008239485 0 -0.0038038597511480688 0.00055421816111410501 0 -0.0039213956198499511 0.00052927917884732943 0 -0.0049923922453397433 0.0013651427353694335 0 -0.0038492696779044138 0.0013458825345609108 0 -0.005633047069687723 0.0022121121551021902 0 -0.0048643997373855391 0.001819004910292683 0 -0.0040186949025711634 0.0022731773559966383 0 -0.0044768326443070036 0.00055567392452768294 0 -0.0038038597511480688 0.00055421816111410501 0 -0.0036019105259135421 0.00027308822462798901 0 -0.005633047069687723 0.0022121121551021902 0 -0.0053911289673316811 0.0018091731742272781 0 -0.0048643997373855391 0.001819004910292683 0 -0.0042656656404902642 0.001393988975579386 0 -0.0048643997373855391 0.001819004910292683 0 -0.0040186949025711634 0.0022731773559966383 0 -0.0038038597511480688 0.00055421816111410501 0 -0.0035976218548648023 0.00054586593647924591 0 -0.0036467343362663854 0.00061207795283036283 0 -0.0036019105259135421 0.00027308822462798901 0 -0.0035976218548648023 0.00054586593647924591 0 -0.0034103024529271728 0.00044314177887858736 0 -0.0038038597511480688 0.00055421816111410501 0 -0.0036019105259135421 0.00027308822462798901 0 -0.0035976218548648023 0.00054586593647924591 0 -0.0034103024529271728 0.00044314177887858736 0 -0.0031972406069488675 0.00059107359867249082 0 -0.0034713920267166088 0.00064683120331913795 0 -0.0035976218548648023 0.00054586593647924591 0 -0.0034103024529271728 0.00044314177887858736 0 -0.0034713920267166088 0.00064683120331913795 0 -0.0036019105259135421 0.00027308822462798901 0 -0.0034103024529271728 0.00044314177887858736 0 -0.0032336012811403298 0.00025223816219474587 0 -0.0033524993121181292 0.0013547947248363232 0 -0.0040186949025711634 0.0022731773559966383 0 -0.002346594713726953 0.0020662984146742609 0 -0.0038492696779044138 0.0013458825345609108 0 -0.0026614739636608977 0.00062588791151031796 0 -0.0016692699886544414 3.7926576982660416e-05 0 -0.0026614739636608977 0.00062588791151031796 0 -0.0020541095138075383 0.00011479450633948218 0 -0.0018090049906768324 9.4358315780610082e-05 0 -0.0022175178945794635 0.0002887342830320433 0 -0.0019609144597004103 0.00034343854983873655 0 -0.0022434017200288997 0.00013775327015703605 0 -0.002195467542254402 0.00068278518191674468 0 -0.0034103024529271728 0.00044314177887858736 0 -0.0032336012811403298 0.00025223816219474587 0 -0.0031972406069488675 0.00059107359867249082 0 -0.0026614739636608977 0.00062588791151031796 0 -0.0024998577944612041 0.00050134622105770454 0 -0.0024998577944612041 0.00050134622105770454 0 -0.0022525015036129721 0.00080737038490616333 0 -0.0019257773902573777 0.00069408997543978933 0 -0.0022663181338071947 0.00048167948386505782 0 -0.0022638874872394879 0.00090063465182364322 0 -0.0023449018296765587 0.00022163447113196188 0 -0.0022638874872394879 0.00090063465182364322 0 -0.0029999780614941725 0.00037779957762442302 0 -0.0022638874872394879 0.00090063465182364322 0 -0.002942981573064839 0.00093264681338398156 0 -0.0024642734520884109 0.001395949681604715 0 -0.0022638874872394879 0.00090063465182364322 0 -0.002942981573064839 0.00093264681338398156 0 -0.0029999780614941725 0.00037779957762442302 0 -0.0024998577944612041 0.00050134622105770454 0 -0.0032821489535518455 0.00051915254192206738 0 -0.0035976218548648023 0.00054586593647924591 0 -0.0034713920267166088 0.00064683120331913795 0 -0.0036467343362663854 0.00061207795283036283 0 -0.002942981573064839 0.00093264681338398156 0 -0.0029999780614941725 0.00037779957762442302 0 -0.0036467343362663854 0.00061207795283036283 0 -0.0032821489535518455 0.00051915254192206738 0 -0.0035796029516953335 0.00059617671419940667 0 -0.002942981573064839 0.00093264681338398156 0 -0.0034984104350814825 0.0010299781174353062 0 -0.0030390907942943668 0.0012801308717078793 0 -0.002942981573064839 0.00093264681338398156 0 -0.0036467343362663854 0.00061207795283036283 0 -0.0034984104350814825 0.0010299781174353062 0 -0.0036467343362663854 0.00061207795283036283 0 -0.0034984104350814825 0.0010299781174353062 0 -0.0038309229249944396 0.00087315342690960922 0 -0.0034984104350814825 0.0010299781174353062 0 -0.0038309229249944396 0.00087315342690960922 0 -0.0038873467193229067 0.0011715333072941838 0 -0.0041053327605170553 0.00091366937239109234 0 -0.0038309229249944396 0.00087315342690960922 0 -0.0038873467193229067 0.0011715333072941838 0 -0.0039882795445855017 0.00067516224911944131 0 -0.0036467343362663854 0.00061207795283036283 0 -0.0039213956198499511 0.00052927917884732943 0 -0.0038038597511480688 0.00055421816111410501 0 -0.0036467343362663854 0.00061207795283036283 0 -0.0039213956198499511 0.00052927917884732943 0 -0.0039882795445855017 0.00067516224911944131 0 -0.0036467343362663854 0.00061207795283036283 0 -0.0038309229249944396 0.00087315342690960922 0 -0.0039546897201092725 0.001542979545699224 0 -0.0038873467193229067 0.0011715333072941838 0 -0.0034941289580083731 0.0014134803436936794 0 -0.0039546897201092725 0.001542979545699224 0 -0.0034941289580083731 0.0014134803436936794 0 -0.0033554204204777546 0.0017564326511584454 0 -0.0034984104350814825 0.0010299781174353062 0 -0.0038873467193229067 0.0011715333072941838 0 -0.0034941289580083731 0.0014134803436936794 0 -0.0034984104350814825 0.0010299781174353062 0 -0.0034941289580083731 0.0014134803436936794 0 -0.0030390907942943668 0.0012801308717078793 0 -0.0034941289580083731 0.0014134803436936794 0 -0.0029066607943052064 0.001606869814901006 0 -0.0033554204204777546 0.0017564326511584454 0 -0.0034941289580083731 0.0014134803436936794 0 -0.0029066607943052064 0.001606869814901006 0 -0.0030390907942943668 0.0012801308717078793 0 -0.0029066607943052064 0.001606869814901006 0 -0.0024642734520884109 0.001395949681604715 0 -0.0023750721642197331 0.0018117180750618891 0 -0.0029066607943052064 0.001606869814901006 0 -0.0023750721642197331 0.0018117180750618891 0 -0.002689272713508909 0.0019829339544310078 0 -0.002942981573064839 0.00093264681338398156 0 -0.0030390907942943668 0.0012801308717078793 0 -0.0024642734520884109 0.001395949681604715 0 -0.0029066607943052064 0.001606869814901006 0 -0.0030390907942943668 0.0012801308717078793 0 -0.0024642734520884109 0.001395949681604715 0 -0.0024642734520884109 0.001395949681604715 0 -0.0018953582664611402 0.0013787667645621391 0 -0.0020638786866885648 0.0017105909141065146 0 -0.0022638874872394879 0.00090063465182364322 0 -0.0024642734520884109 0.001395949681604715 0 -0.0018953582664611402 0.0013787667645621391 0 -0.0024642734520884109 0.001395949681604715 0 -0.0023750721642197331 0.0018117180750618891 0 -0.0020638786866885648 0.0017105909141065146 0 -0.0023750721642197331 0.0018117180750618891 0 -0.0020638786866885648 0.0017105909141065146 0 -0.0019332923963643472 0.0020079292828581972 0 -0.0023750721642197331 0.0018117180750618891 0 -0.0021961803375951405 0.0021585855123419785 0 -0.0019332923963643472 0.0020079292828581972 0 -0.0023750721642197331 0.0018117180750618891 0 -0.0021961803375951405 0.0021585855123419785 0 -0.002689272713508909 0.0019829339544310078 0 -0.0021961803375951405 0.0021585855123419785 0 -0.0024721508803618973 0.002446525103837382 0 -0.002689272713508909 0.0019829339544310078 0 -0.0021961803375951405 0.0021585855123419785 0 -0.0024721508803618973 0.002446525103837382 0 -0.0017617729883461384 0.0027129271708706002 0 -0.0024721508803618973 0.002446525103837382 0 -0.0031438393188402969 0.0021068552740720779 0 -0.0030863567993219122 0.0025270588832282869 0 -0.0024721508803618973 0.002446525103837382 0 -0.002689272713508909 0.0019829339544310078 0 -0.0031438393188402969 0.0021068552740720779 0 -0.0029066607943052064 0.001606869814901006 0 -0.002689272713508909 0.0019829339544310078 0 -0.0033554204204777546 0.0017564326511584454 0 -0.002689272713508909 0.0019829339544310078 0 -0.0033554204204777546 0.0017564326511584454 0 -0.0031438393188402969 0.0021068552740720779 0 -0.0033554204204777546 0.0017564326511584454 0 -0.0031438393188402969 0.0021068552740720779 0 -0.0038981272053418919 0.0019277178215595099 0 -0.0031438393188402969 0.0021068552740720779 0 -0.0038981272053418919 0.0019277178215595099 0 -0.0030863567993219122 0.0025270588832282869 0 -0.0047649238060859401 0.0020000599543934638 0 -0.0038981272053418919 0.0019277178215595099 0 -0.0039907231333460528 0.0025542864270463399 0 -0.0039546897201092725 0.001542979545699224 0 -0.0033554204204777546 0.0017564326511584454 0 -0.0038981272053418919 0.0019277178215595099 0 -0.0007747618585753367 0.002269641378186792 0 -0.0003210981258732507 0.0021360940966199341 0 -0.00089208902139851522 0.0017709005319022357 0 -0.0011466289766573655 0.0020026362434336265 0 -0.0007747618585753367 0.002269641378186792 0 -0.00089208902139851522 0.0017709005319022357 0 -0.0007747618585753367 0.002269641378186792 0 -0.0012114992089229909 0.0022539194280040684 0 -0.0011161375515518948 0.0026483691069571981 0 -0.0011466289766573655 0.0020026362434336265 0 -0.0007747618585753367 0.002269641378186792 0 -0.0012114992089229909 0.0022539194280040684 0 -0.0007747618585753367 0.002269641378186792 0 -0.0003210981258732507 0.0021360940966199341 0 -7.3714702433510425e-05 0.0028427070057548539 0 0.00034902355174698627 0.0021936242258840011 0 -0.0003210981258732507 0.0021360940966199341 0 -0.00035828129816143869 0.001618711412425978 0 -0.0003210981258732507 0.0021360940966199341 0 -0.00035828129816143869 0.001618711412425978 0 -0.00089208902139851522 0.0017709005319022357 0 -0.00096692702361577776 0.0012950734323312031 0 -0.00035828129816143869 0.001618711412425978 0 -0.00089208902139851522 0.0017709005319022357 0 -0.0013692045193157123 0.0013288490572447072 0 -0.00096692702361577776 0.0012950734323312031 0 -0.00089208902139851522 0.0017709005319022357 0 -0.0013692045193157123 0.0013288490572447072 0 -0.0014265688093942316 0.0016950259502845281 0 -0.0018953582664611402 0.0013787667645621391 0 -0.0011466289766573655 0.0020026362434336265 0 -0.00089208902139851522 0.0017709005319022357 0 -0.0014265688093942316 0.0016950259502845281 0 -0.0013692045193157123 0.0013288490572447072 0 -0.00089208902139851522 0.0017709005319022357 0 -0.0014265688093942316 0.0016950259502845281 0 -0.0018953582664611402 0.0013787667645621391 0 -0.0020638786866885648 0.0017105909141065146 0 -0.0017278678063635401 0.0017239874731957477 0 -0.0014265688093942316 0.0016950259502845281 0 -0.0018953582664611402 0.0013787667645621391 0 -0.0017278678063635401 0.0017239874731957477 0 -0.0020638786866885648 0.0017105909141065146 0 -0.0017278678063635401 0.0017239874731957477 0 -0.0016462296561224703 0.0019551751548614765 0 -0.0020638786866885648 0.0017105909141065146 0 -0.0016462296561224703 0.0019551751548614765 0 -0.0019332923963643472 0.0020079292828581972 0 -0.0011466289766573655 0.0020026362434336265 0 -0.0014265688093942316 0.0016950259502845281 0 -0.0014165948761914533 0.0019684269264140341 0 -0.0017278678063635401 0.0017239874731957477 0 -0.0016462296561224703 0.0019551751548614765 0 -0.0014165948761914533 0.0019684269264140341 0 -0.0014265688093942316 0.0016950259502845281 0 -0.0017278678063635401 0.0017239874731957477 0 -0.0014165948761914533 0.0019684269264140341 0 -0.0016462296561224703 0.0019551751548614765 0 -0.0014165948761914533 0.0019684269264140341 0 -0.0013832331237557027 0.00211368796639501 0 -0.0011466289766573655 0.0020026362434336265 0 -0.0014165948761914533 0.0019684269264140341 0 -0.0012114992089229909 0.0022539194280040684 0 -0.0014165948761914533 0.0019684269264140341 0 -0.0012114992089229909 0.0022539194280040684 0 -0.0013832331237557027 0.00211368796639501 0 -0.0012114992089229909 0.0022539194280040684 0 -0.0012451577129527112 0.0021746522153184705 0 -0.0012575977878388391 0.0021922911762878427 0 -0.0012114992089229909 0.0022539194280040684 0 -0.0013832331237557027 0.00211368796639501 0 -0.0012451577129527112 0.0021746522153184705 0 -0.0010190865574443834 0.00257676904229654 0 -0.00034913918927786773 0.0027147693324196271 0 -0.0016462296561224703 0.0019551751548614765 0 -0.0013832331237557027 0.00211368796639501 0 -0.0015403333131089622 0.0021596163848345584 0 -0.0013832331237557027 0.00211368796639501 0 -0.0012451577129527112 0.0021746522153184705 0 -0.0015403333131089622 0.0021596163848345584 0 -0.0012451577129527112 0.0021746522153184705 0 -0.0015403333131089622 0.0021596163848345584 0 -0.00134818817875597 0.0024756311651998914 0 -0.0016462296561224703 0.0019551751548614765 0 -0.0019332923963643472 0.0020079292828581972 0 -0.0015403333131089622 0.0021596163848345584 0 -0.0019332923963643472 0.0020079292828581972 0 -0.0015403333131089622 0.0021596163848345584 0 -0.0017351858441053023 0.0023026868099202901 0 -0.0021961803375951405 0.0021585855123419785 0 -0.0019332923963643472 0.0020079292828581972 0 -0.0017351858441053023 0.0023026868099202901 0 -0.0017351858441053023 0.0023026868099202901 0 -0.00134818817875597 0.0024756311651998914 0 -0.0017617729883461384 0.0027129271708706002 0 -0.0021961803375951405 0.0021585855123419785 0 -0.0017351858441053023 0.0023026868099202901 0 -0.0017617729883461384 0.0027129271708706002 0 -0.0015403333131089622 0.0021596163848345584 0 -0.0017351858441053023 0.0023026868099202901 0 -0.00134818817875597 0.0024756311651998914 0 -0.00134818817875597 0.0024756311651998914 0 -0.00077034609368468608 0.0025935680766984398 0 -0.0010861233772415681 0.002962472160375164 0 -0.0012451577129527112 0.0021746522153184705 0 -0.00134818817875597 0.0024756311651998914 0 -0.00077034609368468608 0.0025935680766984398 0 0.0017382478592956291 0.0043148079526050438 0 0.0016029537909130276 0.0038585767867701892 0 0.0019981138954032265 0.0041125533806812596 0 0.00053990481404668717 0.0035368873706764789 0 -0.00034913918927786773 0.0027147693324196271 0 -0.0012451577129527112 0.0021746522153184705 0 -0.00077034609368468608 0.0025935680766984398 0 -0.0010432822391436684 0.0021358059190367835 0 -0.0007747618585753367 0.002269641378186792 0 -0.0011161375515518948 0.0026483691069571981 0 -7.3714702433510425e-05 0.0028427070057548539 0 -0.00086351479435906725 0.0022102146097262741 0 -0.00034913918927786773 0.0027147693324196271 0 0.0016029537909130276 0.0038585767867701892 0 0.0022465495101925449 0.003787596680429267 0 0.0019981138954032265 0.0041125533806812596 0 0.0023974483714993646 0.0043086168310069181 0 0.0022465495101925449 0.003787596680429267 0 0.0019981138954032265 0.0041125533806812596 0 -0.00034913918927786773 0.0027147693324196271 0 0.0012278731332147081 0.0033841558679301477 0 0.0017382478592956291 0.0043148079526050438 0 0.0019981138954032265 0.0041125533806812596 0 0.0020864652133277435 0.0044868214839834282 0 0.0023974483714993646 0.0043086168310069181 0 0.0019981138954032265 0.0041125533806812596 0 0.0020864652133277435 0.0044868214839834282 0 0.0020864652133277435 0.0044868214839834282 0 0.0021788948980024556 0.0048409221431110856 0 0.0018682402413617396 0.0047565402283750837 0 0.0020864652133277435 0.0044868214839834282 0 0.0021788948980024556 0.0048409221431110856 0 0.0024641184852132888 0.0046718387001612174 0 0.0021788948980024556 0.0048409221431110856 0 0.0018682402413617396 0.0047565402283750837 0 0.0019884025783162506 0.0052034105614339604 0 0.0006654826095208972 0.0039777596886095322 0 0.0012294300873505011 0.0042534277029955851 0 0.0021788948980024556 0.0048409221431110856 0 0.0019884025783162506 0.0052034105614339604 0 0.0024252920628725859 0.0050493237058337947 0 -0.00047535592355382869 0.0031677812099966565 0 -0.00080547799010929932 0.0034861168993342859 0 -0.0002926605221873386 0.0037184595428007396 0 -0.00047535592355382869 0.0031677812099966565 0 -0.0010861233772415681 0.002962472160375164 0 -0.00080547799010929932 0.0034861168993342859 0 -0.00077034609368468608 0.0025935680766984398 0 -0.00047535592355382869 0.0031677812099966565 0 -0.0010861233772415681 0.002962472160375164 0 0.00053990481404668717 0.0035368873706764789 0 0.0006654826095208972 0.0039777596886095322 0 0.0017382478592956291 0.0043148079526050438 0 0.0020864652133277435 0.0044868214839834282 0 0.0018682402413617396 0.0047565402283750837 0 -0.00134818817875597 0.0024756311651998914 0 -0.0010861233772415681 0.002962472160375164 0 -0.0017617729883461384 0.0027129271708706002 0 -0.0010861233772415681 0.002962472160375164 0 -0.0017617729883461384 0.0027129271708706002 0 -0.0013898619465038682 0.0033856445142901462 0 -0.0013898619465038682 0.0033856445142901462 0 -0.0016510271267237829 0.0039976215537820617 0 -0.0022371406953127356 0.0032254786558075601 0 -0.0017617729883461384 0.0027129271708706002 0 -0.0013898619465038682 0.0033856445142901462 0 -0.0022371406953127356 0.0032254786558075601 0 -0.0010861233772415681 0.002962472160375164 0 -0.0013898619465038682 0.0033856445142901462 0 -0.00080547799010929932 0.0034861168993342859 0 -0.0013898619465038682 0.0033856445142901462 0 -0.00080547799010929932 0.0034861168993342859 0 -0.00086352013029987907 0.0040717612595668204 0 -0.0013898619465038682 0.0033856445142901462 0 -0.00086352013029987907 0.0040717612595668204 0 -0.0016510271267237829 0.0039976215537820617 0 -0.00086352013029987907 0.0040717612595668204 0 -0.0016510271267237829 0.0039976215537820617 0 -0.0012609414268226319 0.0047442304467820934 0 -0.0016510271267237829 0.0039976215537820617 0 -0.0012609414268226319 0.0047442304467820934 0 -0.0018609917888775349 0.0045806390904825998 0 -0.00086352013029987907 0.0040717612595668204 0 1.0081435638451652e-05 0.0046164146171324581 0 -0.00060660240864438345 0.0051586385487264706 0 -0.00086352013029987907 0.0040717612595668204 0 -0.0012609414268226319 0.0047442304467820934 0 -0.00060660240864438345 0.0051586385487264706 0 -0.00086352013029987907 0.0040717612595668204 0 1.0081435638451652e-05 0.0046164146171324581 0 0.001114845915429753 0.0038619461922880538 0 1.0081435638451652e-05 0.0046164146171324581 0 0.001114845915429753 0.0038619461922880538 0 0.00045052957788505667 0.0051139673467545891 0 0.0011420553896629457 0.0038646491359911744 0 0.0012184967989804919 0.0049812750155588635 0 0.0018464307300503349 0.0043999879204127254 0 0.001114845915429753 0.0038619461922880538 0 0.0020203509635336025 0.0050649740699023416 0 0.0018464307300503349 0.0043999879204127254 0 0.0020203509635336025 0.0050649740699023416 0 0.0022925303664874542 0.0048721103401407695 0 0.0018464307300503349 0.0043999879204127254 0 0.0022925303664874542 0.0048721103401407695 0 0.0023984876099308978 0.0045791560571215029 0 0.0018464307300503349 0.0043999879204127254 0 0.0021904847369301384 0.0043466831234255758 0 0.0023984876099308978 0.0045791560571215029 0 0.0018464307300503349 0.0043999879204127254 0 0.001114845915429753 0.0038619461922880538 0 0.0011986832570441116 0.0035002931986465773 0 0.0012294300873505011 0.0042534277029955851 0 0.0025052098318558052 0.0046441179969877724 0 0.0017180310644316413 0.0043179954452720075 0 0.0012294300873505011 0.0042534277029955851 0 0.0021904847369301384 0.0043466831234255758 0 0.0019158524053322146 0.0042363020017107478 0 0.0023964724504389962 0.0042140210577075879 0 0.0018464307300503349 0.0043999879204127254 0 0.0021904847369301384 0.0043466831234255758 0 0.0019158524053322146 0.0042363020017107478 0 -0.00080547799010929932 0.0034861168993342859 0 -0.00086352013029987907 0.0040717612595668204 0 -0.0002926605221873386 0.0037184595428007396 0 -0.00086352013029987907 0.0040717612595668204 0 0.001114845915429753 0.0038619461922880538 0 0.0011986832570441116 0.0035002931986465773 0 -0.0011181373159474179 0.0039098257825423508 0 0.0012294300873505011 0.0042534277029955851 0 -0.0044338672404176842 0.0027444064339240447 0 -0.0038372537279624001 0.0034289425524608019 0 -0.0046585283221609918 0.0033628557154252209 0 -0.0044338672404176842 0.0027444064339240447 0 -0.0037084028957831889 0.0027318271042373744 0 -0.0038372537279624001 0.0034289425524608019 0 -0.0054620035683416793 0.0025398972260655198 0 -0.0044338672404176842 0.0027444064339240447 0 -0.0045315223834343395 0.0017199271185048288 0 -0.0038981272053418919 0.0019277178215595099 0 -0.0039907231333460528 0.0025542864270463399 0 -0.0030863567993219122 0.0025270588832282869 0 -0.0044338672404176842 0.0027444064339240447 0 -0.0045315223834343395 0.0017199271185048288 0 -0.0037084028957831889 0.0027318271042373744 0 -0.0043052735437038459 0.0021543415465574331 0 -0.0031862520402707092 0.0024538930790374094 0 -0.0045315223834343395 0.0017199271185048288 0 -0.0030863567993219122 0.0025270588832282869 0 -0.0037084028957831889 0.0027318271042373744 0 -0.0029985295350639378 0.0033061879811698705 0 -0.0037084028957831889 0.0027318271042373744 0 -0.0038372537279624001 0.0034289425524608019 0 -0.0030863567993219122 0.0025270588832282869 0 -0.0029985295350639378 0.0033061879811698705 0 -0.0037084028957831889 0.0027318271042373744 0 -0.0030863567993219122 0.0025270588832282869 0 -0.0029985295350639378 0.0033061879811698705 0 -0.0022371406953127356 0.0032254786558075601 0 -0.0024721508803618973 0.002446525103837382 0 -0.0030863567993219122 0.0025270588832282869 0 -0.0022371406953127356 0.0032254786558075601 0 -0.0024721508803618973 0.002446525103837382 0 -0.0017617729883461384 0.0027129271708706002 0 -0.0022371406953127356 0.0032254786558075601 0 -0.0016510271267237829 0.0039976215537820617 0 -0.0022371406953127356 0.0032254786558075601 0 -0.0023954682615060256 0.0040257882385115228 0 -0.0016510271267237829 0.0039976215537820617 0 -0.0018609917888775349 0.0045806390904825998 0 -0.0023954682615060256 0.0040257882385115228 0 -0.0023954682615060256 0.0040257882385115228 0 -0.0031414632635004412 0.0042033363399611792 0 -0.0026077438719780454 0.0048833256127510305 0 -0.0018609917888775349 0.0045806390904825998 0 -0.0023954682615060256 0.0040257882385115228 0 -0.0026077438719780454 0.0048833256127510305 0 -0.0029985295350639378 0.0033061879811698705 0 -0.0022371406953127356 0.0032254786558075601 0 -0.0023954682615060256 0.0040257882385115228 0 -0.0029985295350639378 0.0033061879811698705 0 -0.0023954682615060256 0.0040257882385115228 0 -0.0031414632635004412 0.0042033363399611792 0 -0.0031414632635004412 0.0042033363399611792 0 -0.0041721028530686214 0.0042132802252215079 0 -0.0038372537279624001 0.0034289425524608019 0 -0.0029985295350639378 0.0033061879811698705 0 -0.0031414632635004412 0.0042033363399611792 0 -0.0038372537279624001 0.0034289425524608019 0 -0.0031414632635004412 0.0042033363399611792 0 -0.0041721028530686214 0.0042132802252215079 0 -0.0035192911543774357 0.0050797511345758778 0 -0.0031414632635004412 0.0042033363399611792 0 -0.0035192911543774357 0.0050797511345758778 0 -0.0026077438719780454 0.0048833256127510305 0 -0.0045638469531918847 0.0051236089840608458 0 -0.0041721028530686214 0.0042132802252215079 0 -0.0035192911543774357 0.0050797511345758778 0 -0.0041721028530686214 0.0042132802252215079 0 -0.0038372537279624001 0.0034289425524608019 0 -0.0046585283221609918 0.0033628557154252209 0 -0.0045466864017603857 0.0060440589718922686 0 -0.0038772343713591264 0.0058243197818120826 0 -0.0036737093725063797 0.006189834936157752 0 -0.0045638469531918847 0.0051236089840608458 0 -0.0038772343713591264 0.0058243197818120826 0 -0.0035192911543774357 0.0050797511345758778 0 -0.0035192911543774357 0.0050797511345758778 0 -0.0027739321610082161 0.0056507445646481217 0 -0.0026077438719780454 0.0048833256127510305 0 -0.0038772343713591264 0.0058243197818120826 0 -0.0035192911543774357 0.0050797511345758778 0 -0.0027739321610082161 0.0056507445646481217 0 -0.0038772343713591264 0.0058243197818120826 0 -0.0027739321610082161 0.0056507445646481217 0 -0.0031348305848042319 0.0060012320504815187 0 -0.0027739321610082161 0.0056507445646481217 0 -0.0020439918647859379 0.0055171077419939717 0 -0.0019520864578139036 0.0059506344631915509 0 -0.0027739321610082161 0.0056507445646481217 0 -0.0026077438719780454 0.0048833256127510305 0 -0.0020439918647859379 0.0055171077419939717 0 -0.0018609917888775349 0.0045806390904825998 0 -0.0026077438719780454 0.0048833256127510305 0 -0.0020439918647859379 0.0055171077419939717 0 -0.0018609917888775349 0.0045806390904825998 0 -0.0020439918647859379 0.0055171077419939717 0 -0.0013701342958622063 0.005368402660234417 0 -0.0020439918647859379 0.0055171077419939717 0 -0.0015096895808015607 0.0059566583863428996 0 -0.0013701342958622063 0.005368402660234417 0 -0.0020439918647859379 0.0055171077419939717 0 -0.0015096895808015607 0.0059566583863428996 0 -0.0019520864578139036 0.0059506344631915509 0 -0.0015096895808015607 0.0059566583863428996 0 -0.0017360301080568824 0.0062578501651065401 0 -0.0012535022449257662 0.0064621195081307238 0 -0.0015096895808015607 0.0059566583863428996 0 -0.0017360301080568824 0.0062578501651065401 0 -0.0019520864578139036 0.0059506344631915509 0 -0.0012535022449257662 0.0064621195081307238 0 -0.0014035126735464289 0.0064814184156927182 0 -0.0011437585824202849 0.006581141948265771 0 -0.0017360301080568824 0.0062578501651065401 0 -0.0012535022449257662 0.0064621195081307238 0 -0.0014035126735464289 0.0064814184156927182 0 -0.0017360301080568824 0.0062578501651065401 0 -0.0014035126735464289 0.0064814184156927182 0 -0.001890549325750719 0.0063625358052970425 0 -0.0014035126735464289 0.0064814184156927182 0 -0.001890549325750719 0.0063625358052970425 0 -0.0017897699191859026 0.0065073459001557601 0 -0.0014035126735464289 0.0064814184156927182 0 -0.0017897699191859026 0.0065073459001557601 0 -0.0012721320034737528 0.0065222438915806674 0 -0.0017897699191859026 0.0065073459001557601 0 -0.0023057234594768268 0.0063815559252229431 0 -0.0023138764586742001 0.0065486325505157367 0 -0.001890549325750719 0.0063625358052970425 0 -0.0017897699191859026 0.0065073459001557601 0 -0.0023057234594768268 0.0063815559252229431 0 -0.001890549325750719 0.0063625358052970425 0 -0.0023057234594768268 0.0063815559252229431 0 -0.0023621416543946781 0.0061215686562508679 0 -0.0027739321610082161 0.0056507445646481217 0 -0.0023621416543946781 0.0061215686562508679 0 -0.0019520864578139036 0.0059506344631915509 0 -0.0017360301080568824 0.0062578501651065401 0 -0.001890549325750719 0.0063625358052970425 0 -0.0023621416543946781 0.0061215686562508679 0 -0.0017360301080568824 0.0062578501651065401 0 -0.0023621416543946781 0.0061215686562508679 0 -0.0019520864578139036 0.0059506344631915509 0 -0.0027739321610082161 0.0056507445646481217 0 -0.0023621416543946781 0.0061215686562508679 0 -0.0031348305848042319 0.0060012320504815187 0 -0.0028228430671560626 0.006241960467812939 0 -0.0032715259210094661 0.0064139552095100315 0 -0.0036737093725063797 0.006189834936157752 0 -0.0031348305848042319 0.0060012320504815187 0 -0.0028228430671560626 0.006241960467812939 0 -0.0036737093725063797 0.006189834936157752 0 -0.0023057234594768268 0.0063815559252229431 0 -0.0023621416543946781 0.0061215686562508679 0 -0.0028228430671560626 0.006241960467812939 0 -0.0023621416543946781 0.0061215686562508679 0 -0.0031348305848042319 0.0060012320504815187 0 -0.0028228430671560626 0.006241960467812939 0 -0.0023057234594768268 0.0063815559252229431 0 -0.0028228430671560626 0.006241960467812939 0 -0.0027531269374517229 0.0065018923831668858 0 -0.0023138764586742001 0.0065486325505157367 0 -0.0027531269374517229 0.0065018923831668858 0 -0.0026688559039629812 0.0067228197084452457 0 -0.0023057234594768268 0.0063815559252229431 0 -0.0023138764586742001 0.0065486325505157367 0 -0.0027531269374517229 0.0065018923831668858 0 -0.0027531269374517229 0.0065018923831668858 0 -0.0032715259210094661 0.0064139552095100315 0 -0.0033241730789815029 0.006705471321326156 0 -0.0027531269374517229 0.0065018923831668858 0 -0.0033241730789815029 0.006705471321326156 0 -0.0026688559039629812 0.0067228197084452457 0 -0.0028228430671560626 0.006241960467812939 0 -0.0027531269374517229 0.0065018923831668858 0 -0.0032715259210094661 0.0064139552095100315 0 -0.0032715259210094661 0.0064139552095100315 0 -0.0033241730789815029 0.006705471321326156 0 -0.0037826275582838031 0.0064740281474314201 0 -0.0032715259210094661 0.0064139552095100315 0 -0.0037826275582838031 0.0064740281474314201 0 -0.0036737093725063797 0.006189834936157752 0 -0.0040833665958774738 0.0067939450013966953 0 -0.0033241730789815029 0.006705471321326156 0 -0.0037826275582838031 0.0064740281474314201 0 -0.0043422632662553154 0.0063774414993622401 0 -0.0037826275582838031 0.0064740281474314201 0 -0.0036737093725063797 0.006189834936157752 0 -0.0038772343713591264 0.0058243197818120826 0 -0.0031348305848042319 0.0060012320504815187 0 -0.0036737093725063797 0.006189834936157752 0 0.00045052957788505667 0.0051139673467545891 0 -0.00036048898256923947 0.0057488513942085609 0 0.00017014905880554957 0.0059425092263041476 0 0.0012184967989804919 0.0049812750155588635 0 0.0012108920886052729 0.0056406568798949147 0 0.0020203509635336025 0.0050649740699023416 0 0.0022358111033122787 0.0051412299241840251 0 0.0023956374567306446 0.0051263078336151397 0 0.0020203509635336025 0.0050649740699023416 0 0.0023956374567306446 0.0051263078336151397 0 0.0024571638152326293 0.0050329517452983091 0 0.0020203509635336025 0.0050649740699023416 0 0.0024571638152326293 0.0050329517452983091 0 0.0022925303664874542 0.0048721103401407695 0 0.00045052957788505667 0.0051139673467545891 0 -0.00060660240864438345 0.0051586385487264706 0 -0.00036048898256923947 0.0057488513942085609 0 1.0081435638451652e-05 0.0046164146171324581 0 0.00045052957788505667 0.0051139673467545891 0 -0.00060660240864438345 0.0051586385487264706 0 -0.0012609414268226319 0.0047442304467820934 0 -0.00060660240864438345 0.0051586385487264706 0 -0.0013701342958622063 0.005368402660234417 0 -0.0012609414268226319 0.0047442304467820934 0 -0.0018609917888775349 0.0045806390904825998 0 -0.0013701342958622063 0.005368402660234417 0 -0.00060660240864438345 0.0051586385487264706 0 -0.0013701342958622063 0.005368402660234417 0 -0.00093628014468949221 0.0059892443264919692 0 -0.0015096895808015607 0.0059566583863428996 0 -0.0013701342958622063 0.005368402660234417 0 -0.00093628014468949221 0.0059892443264919692 0 -0.00060660240864438345 0.0051586385487264706 0 -0.00036048898256923947 0.0057488513942085609 0 -0.00093628014468949221 0.0059892443264919692 0 -0.00036048898256923947 0.0057488513942085609 0 -0.00041595479850464534 0.0062637505946457409 0 -0.00093628014468949221 0.0059892443264919692 0 -0.00041595479850464534 0.0062637505946457409 0 -0.00093628014468949221 0.0059892443264919692 0 -0.00087676878507280407 0.006414731958790376 0 -0.0015096895808015607 0.0059566583863428996 0 -0.0012535022449257662 0.0064621195081307238 0 -0.00093628014468949221 0.0059892443264919692 0 -0.0012535022449257662 0.0064621195081307238 0 -0.00093628014468949221 0.0059892443264919692 0 -0.00087676878507280407 0.006414731958790376 0 -0.0012535022449257662 0.0064621195081307238 0 -0.00087676878507280407 0.006414731958790376 0 -0.0011588683190900961 0.0066908928214628955 0 -0.0012535022449257662 0.0064621195081307238 0 -0.0011588683190900961 0.0066908928214628955 0 -0.0011437585824202849 0.006581141948265771 0 -0.00041595479850464534 0.0062637505946457409 0 -0.00087676878507280407 0.006414731958790376 0 -0.0005553811156638242 0.0067590291347100493 0 -0.00087676878507280407 0.006414731958790376 0 -0.0005553811156638242 0.0067590291347100493 0 -0.0011588683190900961 0.0066908928214628955 0 -0.00041595479850464534 0.0062637505946457409 0 7.0630362739718423e-05 0.006683358859326507 0 -0.0005553811156638242 0.0067590291347100493 0 0.001111594715189058 0.0055537013808554785 0 -0.0014817880105376341 0.006605157615139353 0 -0.00036048898256923947 0.0057488513942085609 0 -0.00041595479850464534 0.0062637505946457409 0 0.00017014905880554957 0.0059425092263041476 0 -0.00041595479850464534 0.0062637505946457409 0 0.00017014905880554957 0.0059425092263041476 0 7.0630362739718423e-05 0.006683358859326507 0 0.002337530543147376 0.0052173141403691441 0 0.0022358111033122787 0.0051412299241840251 0 0.0022600302616740129 0.0053180914425163366 0 0.002337530543147376 0.0052173141403691441 0 0.0022358111033122787 0.0051412299241840251 0 0.0023956374567306446 0.0051263078336151397 0 0.0012108920886052729 0.0056406568798949147 0 0.001111594715189058 0.0055537013808554785 0 0.002337530543147376 0.0052173141403691441 0 0.0022600302616740129 0.0053180914425163366 0 0.0024698966080574942 0.0052419124929207602 0 0.0043971123948094194 0.0048455905710770002 0 0.0030918211006265429 0.0049281184406348641 0 0.0035309188114025507 0.0042298014963979254 0 0.001111594715189058 0.0055537013808554785 0 0.0032934863137555328 0.0049771321754559922 0 0.0032934863137555328 0.0049771321754559922 0 0.0024345696584344555 0.0050713876520540749 0 0.0026484117237115423 0.0050063594557736377 0 0.0026089216580304931 0.0046878847008422191 0 0.0027917855387345719 0.0045106353831391001 0 0.0030918211006265429 0.0049281184406348641 0 0.0026484117237115423 0.0050063594557736377 0 0.0027917855387345719 0.0045106353831391001 0 0.0024698966080574942 0.0052419124929207602 0 0.0025695001095044192 0.0051001922185954455 0 0.0026484117237115423 0.0050063594557736377 0 0.0025695001095044192 0.0051001922185954455 0 0.0026484117237115423 0.0050063594557736377 0 0.0027620595451680737 0.0049454700143813143 0 0.0024698966080574942 0.0052419124929207602 0 0.0025695001095044192 0.0051001922185954455 0 0.0023956374567306446 0.0051263078336151397 0 0.002337530543147376 0.0052173141403691441 0 0.0024698966080574942 0.0052419124929207602 0 0.0023956374567306446 0.0051263078336151397 0 0.0029170974052974293 0.0049494998415605222 0 0.002777646605797802 0.0049289354566487047 0 0.0028313291579194241 0.0049341202405984008 0 0.0029170974052974293 0.0049494998415605222 0 0.0028313291579194241 0.0049341202405984008 0 0.003045927105156459 0.0049160254197066992 0 0.0029170974052974293 0.0049494998415605222 0 0.002777646605797802 0.0049289354566487047 0 0.0029562659224924999 0.0050338161950549652 0 0.002777646605797802 0.0049289354566487047 0 0.002661560723772436 0.0048910298968790561 0 0.0026031378818432379 0.0048286189767444299 0 0.002777646605797802 0.0049289354566487047 0 0.002661560723772436 0.0048910298968790561 0 0.0028313291579194241 0.0049341202405984008 0 0.002661560723772436 0.0048910298968790561 0 0.0026484117237115423 0.0050063594557736377 0 0.0028313291579194241 0.0049341202405984008 0 0.002661560723772436 0.0048910298968790561 0 0.0026484117237115423 0.0050063594557736377 0 0.0026089216580304931 0.0046878847008422191 0 0.0026484117237115423 0.0050063594557736377 0 0.0027620595451680737 0.0049454700143813143 0 0.0028313291579194241 0.0049341202405984008 0 0.0025695001095044192 0.0051001922185954455 0 0.0027620595451680737 0.0049454700143813143 0 0.0027904032927659754 0.0047502821484975317 0 0.0027620595451680737 0.0049454700143813143 0 0.0028313291579194241 0.0049341202405984008 0 0.0029927749154762895 0.0048193972506828317 0 0.0028313291579194241 0.0049341202405984008 0 0.0029927749154762895 0.0048193972506828317 0 0.0031064565062322866 0.0048496658971068597 0 0.0028313291579194241 0.0049341202405984008 0 0.003045927105156459 0.0049160254197066992 0 0.0031064565062322866 0.0048496658971068597 0 0.0029927749154762895 0.0048193972506828317 0 0.0027904032927659754 0.0047502821484975317 0 0.0031745947364511069 0.0046144405653621287 0 0.0027620595451680737 0.0049454700143813143 0 0.0029927749154762895 0.0048193972506828317 0 0.0027904032927659754 0.0047502821484975317 0 0.002922856460487149 0.0050900597512898446 0 0.0033204266560741785 0.0048985634595656398 0 0.0030323202390543122 0.0048488943338387998 0 0.002922856460487149 0.0050900597512898446 0 0.0027318628826956239 0.0049848571561064824 0 0.0030323202390543122 0.0048488943338387998 0 0.0029927749154762895 0.0048193972506828317 0 0.0031745947364511069 0.0046144405653621287 0 0.0032467120402758986 0.0047557318738237616 0 0.0028644875263992126 0.0049198238266101226 0 0.0032467898563296295 0.0047685048992726856 0 0.0025695001095044192 0.0051001922185954455 0 0.0023956374567306446 0.0051263078336151397 0 0.0024571638152326293 0.0050329517452983091 0 0.0026037687746862884 0.0050823250672653222 0 0.0028644875263992126 0.0049198238266101226 0 0.0025695001095044192 0.0051001922185954455 0 0.002922856460487149 0.0050900597512898446 0 0.0027318628826956239 0.0049848571561064824 0 0.0025695001095044192 0.0051001922185954455 0 0.0027318628826956239 0.0049848571561064824 0 0.0024571638152326293 0.0050329517452983091 0 0.0027318628826956239 0.0049848571561064824 0 0.0026953758088406731 0.0047791728802749935 0 0.0030323202390543122 0.0048488943338387998 0 0.0027318628826956239 0.0049848571561064824 0 0.0024571638152326293 0.0050329517452983091 0 0.0026953758088406731 0.0047791728802749935 0 0.0024571638152326293 0.0050329517452983091 0 0.0022925303664874542 0.0048721103401407695 0 0.0026953758088406731 0.0047791728802749935 0 0.0022925303664874542 0.0048721103401407695 0 0.0023984876099308978 0.0045791560571215029 0 0.0026953758088406731 0.0047791728802749935 0 0.0023984876099308978 0.0045791560571215029 0 0.0026946675451357954 0.0044922942882727381 0 0.0026953758088406731 0.0047791728802749935 0 0.0021904847369301384 0.0043466831234255758 0 0.0026946675451357954 0.0044922942882727381 0 0.0023964724504389962 0.0042140210577075879 0 0.0021904847369301384 0.0043466831234255758 0 0.0023984876099308978 0.0045791560571215029 0 0.0026946675451357954 0.0044922942882727381 0 0.0026946675451357954 0.0044922942882727381 0 0.0026953758088406731 0.0047791728802749935 0 0.0032031830510234065 0.0046512185065231085 0 0.0026946675451357954 0.0044922942882727381 0 0.0032031830510234065 0.0046512185065231085 0 0.002923494600019397 0.0043590609335174661 0 0.0026953758088406731 0.0047791728802749935 0 0.0030323202390543122 0.0048488943338387998 0 0.0032031830510234065 0.0046512185065231085 0 0.0033204266560741785 0.0048985634595656398 0 0.0030323202390543122 0.0048488943338387998 0 0.0032031830510234065 0.0046512185065231085 0 0.0033204266560741785 0.0048985634595656398 0 0.0032031830510234065 0.0046512185065231085 0 0.0035927463501230273 0.0047052571793300057 0 0.0032031830510234065 0.0046512185065231085 0 0.0035257363813676616 0.0046532957431337455 0 0.0035927463501230273 0.0047052571793300057 0 0.0032516042747048816 0.0045895238922751807 0 0.0028575542147822185 0.0046263478455527834 0 0.0032031830510234065 0.0046512185065231085 0 0.0033172690738528473 0.0046038895361626628 0 0.002923494600019397 0.0043590609335174661 0 0.0032031830510234065 0.0046512185065231085 0 0.0035257363813676616 0.0046532957431337455 0 0.0033172690738528473 0.0046038895361626628 0 0.0035257363813676616 0.0046532957431337455 0 0.0037321230765583781 0.0045877614782160753 0 0.0033172690738528473 0.0046038895361626628 0 0.0030981369791108463 0.0043050682896636277 0 0.0037321230765583781 0.0045877614782160753 0 0.0033172690738528473 0.0046038895361626628 0 0.0030981369791108463 0.0043050682896636277 0 0.0033172690738528473 0.0046038895361626628 0 0.002844622830404704 0.0044941892287706179 0 0.002844622830404704 0.0044941892287706179 0 0.0024641184852132888 0.0046718387001612174 0 0.0028708819753115551 0.0048694841988455645 0 0.0033172690738528473 0.0046038895361626628 0 0.002844622830404704 0.0044941892287706179 0 0.0028708819753115551 0.0048694841988455645 0 0.0023974483714993646 0.0043086168310069181 0 0.0020864652133277435 0.0044868214839834282 0 0.0024641184852132888 0.0046718387001612174 0 0.0023974483714993646 0.0043086168310069181 0 0.002844622830404704 0.0044941892287706179 0 0.0024641184852132888 0.0046718387001612174 0 0.0021788948980024556 0.0048409221431110856 0 0.0024641184852132888 0.0046718387001612174 0 0.0024252920628725859 0.0050493237058337947 0 0.0024641184852132888 0.0046718387001612174 0 0.0024252920628725859 0.0050493237058337947 0 0.0028708819753115551 0.0048694841988455645 0 0.0025052098318558052 0.0046441179969877724 0 0.0028575542147822185 0.0046263478455527834 0 0.0026946675451357954 0.0044922942882727381 0 0.0023964724504389962 0.0042140210577075879 0 0.002923494600019397 0.0043590609335174661 0 0.004019934742581343 0.0046830482679796701 0 0.0039707913897471612 0.0046963067000579083 0 0.0038832075106748701 0.0047053241968240218 0 0.004019934742581343 0.0046830482679796701 0 0.0038832075106748701 0.0047053241968240218 0 0.0040542444405759336 0.0047195475815485742 0 0.0041226020342615532 0.0046540303176934843 0 0.004019934742581343 0.0046830482679796701 0 0.0040542444405759336 0.0047195475815485742 0 0.0041226020342615532 0.0046540303176934843 0 0.004019934742581343 0.0046830482679796701 0 0.0040822669239907929 0.0047463488742818024 0 0.0041226020342615532 0.0046540303176934843 0 0.0042176999084436893 0.0048423442174770816 0 0.0040822669239907929 0.0047463488742818024 0 0.0040274833520162522 0.0047592390894904907 0 0.0040822669239907929 0.0047463488742818024 0 0.0039707913897471612 0.0046963067000579083 0 0.004019934742581343 0.0046830482679796701 0 0.0040822669239907929 0.0047463488742818024 0 0.0039707913897471612 0.0046963067000579083 0 0.0038221846658943611 0.0046533517840146995 0 0.0035927463501230273 0.0047052571793300057 0 0.0038832075106748701 0.0047053241968240218 0 0.0040274833520162522 0.0047592390894904907 0 0.0039707913897471612 0.0046963067000579083 0 0.0038221846658943611 0.0046533517840146995 0 0.0035257363813676616 0.0046532957431337455 0 0.0038221846658943611 0.0046533517840146995 0 0.0035927463501230273 0.0047052571793300057 0 0.0035257363813676616 0.0046532957431337455 0 0.0037321230765583781 0.0045877614782160753 0 0.0038221846658943611 0.0046533517840146995 0 0.0040532298621870164 0.0047349106898231675 0 0.0037321230765583781 0.0045877614782160753 0 0.0038221846658943611 0.0046533517840146995 0 0.0039707913897471612 0.0046963067000579083 0 0.0038221846658943611 0.0046533517840146995 0 0.0038832075106748701 0.0047053241968240218 0 0.0035927463501230273 0.0047052571793300057 0 0.0035520109217987675 0.0046973455358220503 0 0.0038832075106748701 0.0047053241968240218 0 0.0031745947364511069 0.0046144405653621287 0 0.0035927463501230273 0.0047052571793300057 0 0.0034086010814594124 0.0046842895178743184 0 0.0032467898563296295 0.0047685048992726856 0 0.0035442040652618832 0.0046998128036096574 0 0.0035927463501230273 0.0047052571793300057 0 0.0035520109217987675 0.0046973455358220503 0 0.0034086010814594124 0.0046842895178743184 0 0.0035520109217987675 0.0046973455358220503 0 0.0036008172418418344 0.0046937732955833096 0 0.0038832075106748701 0.0047053241968240218 0 0.0038316094277347722 0.00470126664403832 0 0.0038736583850478802 0.0046652735752782783 0 0.0040865403684656985 0.00466387426639224 0 0.0038832075106748701 0.0047053241968240218 0 0.0040542444405759336 0.0047195475815485742 0 0.0040865403684656985 0.00466387426639224 0 0.0040542444405759336 0.0047195475815485742 0 0.0040655209409376789 0.0046750683582096825 0 0.0040108361963255819 0.0046938380076487554 0 0.0040655209409376789 0.0046750683582096825 0 0.0040976740000223969 0.0045941523142307835 0 0.0040865403684656985 0.00466387426639224 0 0.0040655209409376789 0.0046750683582096825 0 0.0040976740000223969 0.0045941523142307835 0 0.0039076869816697364 0.0044456395204152876 0 0.0040976740000223969 0.0045941523142307835 0 0.0040745896674970541 0.0041947580357100302 0 0.0041612692832063789 0.0045034521764246872 0 0.003957792611065155 0.0044848584550423402 0 0.0040865403684656985 0.00466387426639224 0 0.0040976740000223969 0.0045941523142307835 0 0.004121765926372185 0.0045393045749730389 0 0.0035520109217987675 0.0046973455358220503 0 0.0036008172418418344 0.0046937732955833096 0 0.0035212237607528713 0.0047277123151397262 0 0.0036008172418418344 0.0046937732955833096 0 0.0035212237607528713 0.0047277123151397262 0 0.0035535982233318576 0.0047647169045001618 0 0.0038316094277347722 0.00470126664403832 0 0.003957792611065155 0.0044848584550423402 0 0.0035212237607528713 0.0047277123151397262 0 0.003476337817113762 0.0047860612865884148 0 0.0035535982233318576 0.0047647169045001618 0 0.003476337817113762 0.0047860612865884148 0 0.0035535982233318576 0.0047647169045001618 0 0.0035365681010536055 0.0048072518822188867 0 0.003957792611065155 0.0044848584550423402 0 0.0038270956064196137 0.003632311706320346 0 0.0040976740000223969 0.0045941523142307835 0 0.0040745896674970541 0.0041947580357100302 0 0.0043394020511354761 0.0041874095996349923 0 0.0040745896674970541 0.0041947580357100302 0 0.0043394020511354761 0.0041874095996349923 0 0.0042688130398548813 0.003721237001269874 0 0.0031745947364511069 0.0046144405653621287 0 0.0034086010814594124 0.0046842895178743184 0 0.0032467120402758986 0.0047557318738237616 0 0.0034086010814594124 0.0046842895178743184 0 0.0034310460844964009 0.0047339837382098871 0 0.0032467120402758986 0.0047557318738237616 0 0.0035520109217987675 0.0046973455358220503 0 0.0034086010814594124 0.0046842895178743184 0 0.0034310460844964009 0.0047339837382098871 0 0.0035520109217987675 0.0046973455358220503 0 0.0035212237607528713 0.0047277123151397262 0 0.0034310460844964009 0.0047339837382098871 0 0.003476337817113762 0.0047860612865884148 0 0.0033200978055648012 0.004800922983532083 0 0.0033610820817257655 0.0048541959443724981 0 0.003476337817113762 0.0047860612865884148 0 0.0034310460844964009 0.0047339837382098871 0 0.0033200978055648012 0.004800922983532083 0 0.0035212237607528713 0.0047277123151397262 0 0.003476337817113762 0.0047860612865884148 0 0.0034310460844964009 0.0047339837382098871 0 0.0034310460844964009 0.0047339837382098871 0 0.0033200978055648012 0.004800922983532083 0 0.0032467120402758986 0.0047557318738237616 0 0.0029927749154762895 0.0048193972506828317 0 0.0032467120402758986 0.0047557318738237616 0 0.0031064565062322866 0.0048496658971068597 0 0.0033200978055648012 0.004800922983532083 0 0.0032467120402758986 0.0047557318738237616 0 0.0031064565062322866 0.0048496658971068597 0 0.003045927105156459 0.0049160254197066992 0 0.0031064565062322866 0.0048496658971068597 0 0.0032256356800354495 0.0048932347902852363 0 0.0033200978055648012 0.004800922983532083 0 0.0031064565062322866 0.0048496658971068597 0 0.0032256356800354495 0.0048932347902852363 0 0.0032256356800354495 0.0048932347902852363 0 0.0033610820817257655 0.0048541959443724981 0 0.003370686336372082 0.0049079009586600868 0 0.0033200978055648012 0.004800922983532083 0 0.0032256356800354495 0.0048932347902852363 0 0.0033610820817257655 0.0048541959443724981 0 0.003476337817113762 0.0047860612865884148 0 0.0033610820817257655 0.0048541959443724981 0 0.003446386448333361 0.0048609196170060365 0 0.0033610820817257655 0.0048541959443724981 0 0.003370686336372082 0.0049079009586600868 0 0.003446386448333361 0.0048609196170060365 0 0.003370686336372082 0.0049079009586600868 0 0.0032982301504718061 0.0049986324344017804 0 0.0035055581908787761 0.0049032731139600832 0 0.0029968361675393328 -0.003975638925757149 0 0.0032654389624727602 -0.003761386880685729 0 0.0025991505379711886 -0.0034509365639030921 0 0.0032100281703722777 0.00069359647514892909 0 0.0041606023373014448 -0.0022848013805910998 0 0.0029968361675393328 -0.003975638925757149 0 0.0031927080820494465 -0.0040821033209688428 0 0.0032654389624727602 -0.003761386880685729 0 0.0031927080820494465 -0.0040821033209688428 0 0.0032654389624727602 -0.003761386880685729 0 0.003419544859880008 -0.0041662448404252766 0 0.0032256356800354495 0.0048932347902852363 0 0.003370686336372082 0.0049079009586600868 0 0.0032982301504718061 0.0049986324344017804 0 0.0032982301504718061 0.0049986324344017804 0 0.0030899389446106115 0.0049904364457988883 0 0.0030075597609184159 0.0050777191903150862 0 0.0032654389624727602 -0.003761386880685729 0 0.0038835737769085726 -0.0040668662323251094 0 0.003419544859880008 -0.0041662448404252766 0 0.0032100281703722777 0.00069359647514892909 0 0.0022931179201048243 0.0021928046627828078 0 0.0032256356800354495 0.0048932347902852363 0 0.0032982301504718061 0.0049986324344017804 0 0.0030899389446106115 0.0049904364457988883 0 0.003045927105156459 0.0049160254197066992 0 0.0032256356800354495 0.0048932347902852363 0 0.0030899389446106115 0.0049904364457988883 0 0.0029170974052974293 0.0049494998415605222 0 0.0030899389446106115 0.0049904364457988883 0 0.0029562659224924999 0.0050338161950549652 0 0.0021428159196296968 0.0043715363094832286 0 0.0022931179201048243 0.0021928046627828078 0 0.0029170974052974293 0.0049494998415605222 0 0.003045927105156459 0.0049160254197066992 0 0.0030899389446106115 0.0049904364457988883 0 0.0036956171591240382 0.0038722537782719707 0 0.0030591215014299407 0.000745680769001703 0 0.0042548945275033582 0.0023959312434517119 0 0.0039221490278189743 0.0038866623101249569 0 0.0040745896674970541 0.0041947580357100302 0 0.0042688130398548813 0.003721237001269874 0 0.0043655786585690736 0.00040862666372818433 0 0.00586200060310464 -0.00024071784407329432 0 0.0047374834227875235 -0.0017986072911992932 0 0.003957792611065155 0.0044848584550423402 0 0.0046528321132965709 -0.00012679641246790449 0 0.0047165020477733868 0.0011757257303067149 0 0.0046528321132965709 -0.00012679641246790449 0 0.0038270956064196137 0.003632311706320346 0 0.0036987148171218659 0.0017693512135077039 0 0.0030591215014299407 0.000745680769001703 0 0.0042548945275033582 0.0023959312434517119 0 0.0049122472665407745 0.00064623544327708084 0 0.003476337817113762 0.0047860612865884148 0 0.0035365681010536055 0.0048072518822188867 0 0.0035130160979207565 0.0048661509782216786 0 0.003476337817113762 0.0047860612865884148 0 0.003446386448333361 0.0048609196170060365 0 0.0035130160979207565 0.0048661509782216786 0 0.003370686336372082 0.0049079009586600868 0 0.003446386448333361 0.0048609196170060365 0 0.0035055581908787761 0.0049032731139600832 0 0.003446386448333361 0.0048609196170060365 0 0.0035055581908787761 0.0049032731139600832 0 0.0035130160979207565 0.0048661509782216786 0 0.0046528321132965709 -0.00012679641246790449 0 0.0041606023373014448 -0.0022848013805910998 0 0.0030591215014299407 0.000745680769001703 0 0.0052280305044627509 -0.00019273159843491219 0 0.0049122472665407745 0.00064623544327708084 0 0.0041606023373014448 -0.0022848013805910998 0 0.0036987148171218659 0.0017693512135077039 0 0.0056389814494188541 -0.0053825891156746488 0 0.0056104431406295919 -0.0054147899841187177 0 0.005561119876852069 -0.0054346315882353802 0 0.0029968361675393328 -0.003975638925757149 0 0.0025991505379711886 -0.0034509365639030921 0 0.0029567705389736978 -0.0043593066835554486 0 0.0056030051375960486 -0.0053409766596885493 0 0.0056389814494188541 -0.0053825891156746488 0 0.0056283365481859535 -0.0054075689416702485 0 0.0041606023373014448 -0.0022848013805910998 0 0.0037408586558073521 -0.0048544995203146889 0 0.0041606023373014448 -0.0022848013805910998 0 0.0052427595971075124 -0.0057082495162750933 0 0.0056389814494188541 -0.0053825891156746488 0 0.0056104431406295919 -0.0054147899841187177 0 0.0056283365481859535 -0.0054075689416702485 0 0.0056283365481859535 -0.0054075689416702485 0 0.0056162956956227411 -0.0054200998554151062 0 0.0056443240289971918 -0.0054281543102321942 0 0.0056104431406295919 -0.0054147899841187177 0 0.0056283365481859535 -0.0054075689416702485 0 0.0056162956956227411 -0.0054200998554151062 0 0.0046528321132965709 -0.00012679641246790449 0 0.0054607528517791742 -0.0043741526462237525 0 0.00586200060310464 -0.00024071784407329432 0 0.0047374834227875235 -0.0017986072911992932 0 0.0054852892305783212 -0.0021224188275831405 0 0.0056283365481859535 -0.0054075689416702485 0 0.0056311680968563959 -0.0054183184529931466 0 0.0056443240289971918 -0.0054281543102321942 0 0.0056030051375960486 -0.0053409766596885493 0 0.0056283365481859535 -0.0054075689416702485 0 0.0056311680968563959 -0.0054183184529931466 0 0.0054130967141667093 -0.00096949391885199122 0 0.0057355158195208211 -0.0035359887501959738 0 0.0056311680968563959 -0.0054183184529931466 0 0.005736070092475197 -0.0054118829674706373 0 0.0056443240289971918 -0.0054281543102321942 0 0.0054607528517791742 -0.0043741526462237525 0 0.0057355158195208211 -0.0035359887501959738 0 0.0047374834227875235 -0.0017986072911992932 0 0.0054852892305783212 -0.0021224188275831405 0 0.0051215815161118929 -0.0039858095868405222 0 0.005736070092475197 -0.0054118829674706373 0 0.0056763467981019132 -0.0054163705329906909 0 0.0056443240289971918 -0.0054281543102321942 0 0.0056162956956227411 -0.0054200998554151062 0 0.0055957922426489093 -0.0054265923852369986 0 0.0056117561520445149 -0.0054347951622496886 0 0.0056162956956227411 -0.0054200998554151062 0 0.0056443240289971918 -0.0054281543102321942 0 0.0056117561520445149 -0.0054347951622496886 0 0.0043229371843409971 -0.0040861997698011694 0 0.0045718790451291886 -0.0048268698973252715 0 0.0045724374890303192 -0.0049039959051221634 0 0.0056104431406295919 -0.0054147899841187177 0 0.0055957922426489093 -0.0054265923852369986 0 0.005561119876852069 -0.0054346315882353802 0 0.0056104431406295919 -0.0054147899841187177 0 0.0056162956956227411 -0.0054200998554151062 0 0.0055957922426489093 -0.0054265923852369986 0 0.0055957922426489093 -0.0054265923852369986 0 0.0055714921266078856 -0.0054385910046608156 0 0.005561119876852069 -0.0054346315882353802 0 0.0055957922426489093 -0.0054265923852369986 0 0.0055714921266078856 -0.0054385910046608156 0 0.0056117561520445149 -0.0054347951622496886 0 0.0055714921266078856 -0.0054385910046608156 0 0.0056117561520445149 -0.0054347951622496886 0 0.0055612070280040915 -0.0054352995099975644 0 0.0055714921266078856 -0.0054385910046608156 0 0.0055129139224846966 -0.0054374684215991401 0 0.005561119876852069 -0.0054346315882353802 0 0.0055714921266078856 -0.0054385910046608156 0 0.0055129139224846966 -0.0054374684215991401 0 0.0055612070280040915 -0.0054352995099975644 0 0.0056117561520445149 -0.0054347951622496886 0 0.0056460073432083703 -0.0054078490850237582 0 0.0055612070280040915 -0.0054352995099975644 0 0.0056763467981019132 -0.0054163705329906909 0 0.0056443240289971918 -0.0054281543102321942 0 0.0056117561520445149 -0.0054347951622496886 0 0.0056763467981019132 -0.0054163705329906909 0 0.0056117561520445149 -0.0054347951622496886 0 0.0056460073432083703 -0.0054078490850237582 0 0.0056460073432083703 -0.0054078490850237582 0 0.0057453688747376684 -0.0053149083668376281 0 0.0057327709683095678 -0.0053734788242785015 0 0.0055129139224846966 -0.0054374684215991401 0 0.0055612070280040915 -0.0054352995099975644 0 0.0053269198051608246 -0.005426070879332473 0 0.0056460073432083703 -0.0054078490850237582 0 0.0055612070280040915 -0.0054352995099975644 0 0.0056106892687229227 -0.0053765307548836452 0 0.0055612070280040915 -0.0054352995099975644 0 0.0056106892687229227 -0.0053765307548836452 0 0.0053269198051608246 -0.005426070879332473 0 0.0056106892687229227 -0.0053765307548836452 0 0.0053269198051608246 -0.005426070879332473 0 0.005749993075335422 -0.0052304462745085224 0 0.0056460073432083703 -0.0054078490850237582 0 0.0056106892687229227 -0.0053765307548836452 0 0.0057453688747376684 -0.0053149083668376281 0 0.0056106892687229227 -0.0053765307548836452 0 0.0057453688747376684 -0.0053149083668376281 0 0.005749993075335422 -0.0052304462745085224 0 0.0057453688747376684 -0.0053149083668376281 0 0.0058423729305403784 -0.0052953818645362664 0 0.0057327709683095678 -0.0053734788242785015 0 0.0057355158195208211 -0.0035359887501959738 0 0.0062182646045019678 -0.0032701479916714916 0 0.0058448232473581356 -0.0054258795314693232 0 0.0058423729305403784 -0.0052953818645362664 0 0.0059549723755019648 -0.0051606249426074443 0 0.0057355158195208211 -0.0035359887501959738 0 0.0059281779037835642 -0.0058199473730508643 0 0.005736070092475197 -0.0054118829674706373 0 0.0058423729305403784 -0.0052953818645362664 0 0.0057327709683095678 -0.0053734788242785015 0 0.005736070092475197 -0.0054118829674706373 0 0.0056763467981019132 -0.0054163705329906909 0 0.0057327709683095678 -0.0053734788242785015 0 0.0056763467981019132 -0.0054163705329906909 0 0.0056460073432083703 -0.0054078490850237582 0 0.0057327709683095678 -0.0053734788242785015 0 0.0039666376193206003 -0.0045685739801391923 0 0.0037687593468321494 -0.0045253298729535166 0 0.0037655539412720482 -0.0047590290952290006 0 0.0037687593468321494 -0.0045253298729535166 0 0.0038189501495646812 -0.0043805963322172325 0 0.0036540977261356163 -0.0043564825089210312 0 0.0039666376193206003 -0.0045685739801391923 0 0.0037687593468321494 -0.0045253298729535166 0 0.0038189501495646812 -0.0043805963322172325 0 0.0038835737769085726 -0.0040668662323251094 0 0.0038189501495646812 -0.0043805963322172325 0 0.0036540977261356163 -0.0043564825089210312 0 0.0038835737769085726 -0.0040668662323251094 0 0.0039666376193206003 -0.0045685739801391923 0 0.0038189501495646812 -0.0043805963322172325 0 0.0038835737769085726 -0.0040668662323251094 0 0.0036540977261356163 -0.0043564825089210312 0 0.003419544859880008 -0.0041662448404252766 0 0.0036540977261356163 -0.0043564825089210312 0 0.0034282759757194633 -0.004429305227411375 0 0.003419544859880008 -0.0041662448404252766 0 0.0036540977261356163 -0.0043564825089210312 0 0.0035630210813017591 -0.0046024741524939806 0 0.0034282759757194633 -0.004429305227411375 0 0.0037687593468321494 -0.0045253298729535166 0 0.0036540977261356163 -0.0043564825089210312 0 0.0035630210813017591 -0.0046024741524939806 0 0.0037687593468321494 -0.0045253298729535166 0 0.0035630210813017591 -0.0046024741524939806 0 0.0037655539412720482 -0.0047590290952290006 0 0.0045718790451291886 -0.0048268698973252715 0 0.0045724374890303192 -0.0049039959051221634 0 0.0047446802306401834 -0.0054325776467173594 0 0.0034086828696749056 -0.0046589345632115651 0 0.0032553748856556726 -0.004509232771058665 0 0.0034282759757194633 -0.004429305227411375 0 0.0035630210813017591 -0.0046024741524939806 0 0.0034086828696749056 -0.0046589345632115651 0 0.0034282759757194633 -0.004429305227411375 0 0.0032553748856556726 -0.004509232771058665 0 0.0032014532129203957 -0.0046428408369896699 0 0.0032997192180797608 -0.0047537483994671351 0 0.0034086828696749056 -0.0046589345632115651 0 0.0032553748856556726 -0.004509232771058665 0 0.0032997192180797608 -0.0047537483994671351 0 0.0032553748856556726 -0.004509232771058665 0 0.0034282759757194633 -0.004429305227411375 0 0.0031922385346891042 -0.0043012130239972156 0 0.0034282759757194633 -0.004429305227411375 0 0.003419544859880008 -0.0041662448404252766 0 0.0031922385346891042 -0.0043012130239972156 0 0.0031927080820494465 -0.0040821033209688428 0 0.003419544859880008 -0.0041662448404252766 0 0.0031922385346891042 -0.0043012130239972156 0 0.0030851237038649693 -0.0043260761674470535 0 0.0029567705389736978 -0.0043593066835554486 0 0.0031241577934606763 -0.0044180301958235083 0 0.0029968361675393328 -0.003975638925757149 0 0.0030867530010507834 -0.0042017584073858194 0 0.0029567705389736978 -0.0043593066835554486 0 0.0030851237038649693 -0.0043260761674470535 0 0.0030867530010507834 -0.0042017584073858194 0 0.0029567705389736978 -0.0043593066835554486 0 0.0031922385346891042 -0.0043012130239972156 0 0.0030851237038649693 -0.0043260761674470535 0 0.0031241577934606763 -0.0044180301958235083 0 0.0031922385346891042 -0.0043012130239972156 0 0.0030851237038649693 -0.0043260761674470535 0 0.0030867530010507834 -0.0042017584073858194 0 0.0031927080820494465 -0.0040821033209688428 0 0.0031922385346891042 -0.0043012130239972156 0 0.0030867530010507834 -0.0042017584073858194 0 0.0029968361675393328 -0.003975638925757149 0 0.0031927080820494465 -0.0040821033209688428 0 0.0030867530010507834 -0.0042017584073858194 0 0.0029567705389736978 -0.0043593066835554486 0 0.0031241577934606763 -0.0044180301958235083 0 0.0032014532129203957 -0.0046428408369896699 0 0.0032553748856556726 -0.004509232771058665 0 0.0031241577934606763 -0.0044180301958235083 0 0.0032014532129203957 -0.0046428408369896699 0 0.0032553748856556726 -0.004509232771058665 0 0.0031922385346891042 -0.0043012130239972156 0 0.0031241577934606763 -0.0044180301958235083 0 0.0055129139224846966 -0.0054374684215991401 0 0.005561119876852069 -0.0054346315882353802 0 0.0053269198051608246 -0.005426070879332473 0 0.005561119876852069 -0.0054346315882353802 0 0.0053269198051608246 -0.005426070879332473 0 0.0051050442057709484 -0.0055038642448723548 0 0.0052427595971075124 -0.0057082495162750933 0 0.0048602335303786857 -0.0053955074644658589 0 0.0045724374890303192 -0.0049039959051221634 0 0.0047446802306401834 -0.0054325776467173594 0 0.0047399421967182316 -0.0055543271465031095 0 0.0037408586558073521 -0.0048544995203146889 0 0.0040479044494882779 -0.0052330573333569299 0 0.0029567705389736978 -0.0043593066835554486 0 0.0032014532129203957 -0.0046428408369896699 0 0.0033780550793156092 -0.005168433093566102 0 0.0033780550793156092 -0.005168433093566102 0 0.0033822746662821243 -0.0049249259561437832 0 0.0032997192180797608 -0.0047537483994671351 0 0.0033780550793156092 -0.005168433093566102 0 0.0035076731537919377 -0.0050029288122243436 0 0.0036238431951387878 -0.0051375924774430459 0 0.0033780550793156092 -0.005168433093566102 0 0.0035076731537919377 -0.0050029288122243436 0 0.0033822746662821243 -0.0049249259561437832 0 0.0035076731537919377 -0.0050029288122243436 0 0.0034121962648885817 -0.0048390480429610968 0 0.0035628170143914119 -0.0048164002862625972 0 0.0032014532129203957 -0.0046428408369896699 0 0.0033780550793156092 -0.005168433093566102 0 0.0032997192180797608 -0.0047537483994671351 0 0.0035076731537919377 -0.0050029288122243436 0 0.0034121962648885817 -0.0048390480429610968 0 0.0033822746662821243 -0.0049249259561437832 0 0.0034121962648885817 -0.0048390480429610968 0 0.0033822746662821243 -0.0049249259561437832 0 0.0032997192180797608 -0.0047537483994671351 0 0.0034086828696749056 -0.0046589345632115651 0 0.0034121962648885817 -0.0048390480429610968 0 0.0035628170143914119 -0.0048164002862625972 0 0.0034086828696749056 -0.0046589345632115651 0 0.0034121962648885817 -0.0048390480429610968 0 0.0032997192180797608 -0.0047537483994671351 0 0.0035630210813017591 -0.0046024741524939806 0 0.0034086828696749056 -0.0046589345632115651 0 0.0035628170143914119 -0.0048164002862625972 0 0.0035630210813017591 -0.0046024741524939806 0 0.0035628170143914119 -0.0048164002862625972 0 0.0037655539412720482 -0.0047590290952290006 0 0.0035628170143914119 -0.0048164002862625972 0 0.0037108182236592407 -0.0050001717525004798 0 0.0037655539412720482 -0.0047590290952290006 0 0.0035076731537919377 -0.0050029288122243436 0 0.0035628170143914119 -0.0048164002862625972 0 0.0037108182236592407 -0.0050001717525004798 0 0.0035076731537919377 -0.0050029288122243436 0 0.0036238431951387878 -0.0051375924774430459 0 0.0037108182236592407 -0.0050001717525004798 0 0.0036238431951387878 -0.0051375924774430459 0 0.0037108182236592407 -0.0050001717525004798 0 0.0038088618088308493 -0.0051898204122959165 0 0.0038088618088308493 -0.0051898204122959165 0 0.0039555690713551596 -0.0053278839273228143 0 0.0040091308988964638 -0.0050494752806679605 0 0.0037108182236592407 -0.0050001717525004798 0 0.0038088618088308493 -0.0051898204122959165 0 0.0040091308988964638 -0.0050494752806679605 0 0.0039666376193206003 -0.0045685739801391923 0 0.0037655539412720482 -0.0047590290952290006 0 0.0040091308988964638 -0.0050494752806679605 0 0.0037108182236592407 -0.0050001717525004798 0 0.0037655539412720482 -0.0047590290952290006 0 0.0040091308988964638 -0.0050494752806679605 0 0.0033780550793156092 -0.005168433093566102 0 0.0036904480823983384 -0.0053111952536150199 0 0.0038022745312870239 -0.0057349475502718678 0 0.0039083317532601731 -0.0055172872276459369 0 0.0036904480823983384 -0.0053111952536150199 0 0.0038022745312870239 -0.0057349475502718678 0 0.0040479044494882779 -0.0052330573333569299 0 0.004299607926069083 -0.00579702278131837 0 0.0039083317532601731 -0.0055172872276459369 0 0.0039555690713551596 -0.0053278839273228143 0 0.0040696320403050207 -0.0055541756023499127 0 0.0039083317532601731 -0.0055172872276459369 0 0.0040210276644862056 -0.0056764265709704116 0 0.0040696320403050207 -0.0055541756023499127 0 0.0039083317532601731 -0.0055172872276459369 0 0.0039555690713551596 -0.0053278839273228143 0 0.0036904480823983384 -0.0053111952536150199 0 0.0038088618088308493 -0.0051898204122959165 0 0.0039555690713551596 -0.0053278839273228143 0 0.0036904480823983384 -0.0053111952536150199 0 0.0033780550793156092 -0.005168433093566102 0 0.0036238431951387878 -0.0051375924774430459 0 0.0036904480823983384 -0.0053111952536150199 0 0.0036238431951387878 -0.0051375924774430459 0 0.0038088618088308493 -0.0051898204122959165 0 0.0036904480823983384 -0.0053111952536150199 0 0.0052937015149903078 -0.0054782127290885366 0 0.0052124932182428365 -0.0055206088701149911 0 0.0047446802306401834 -0.0054325776467173594 0 0.0047399421967182316 -0.0055543271465031095 0 0.0047930057292642665 -0.0058917445533785209 0 0.0053269198051608246 -0.005426070879332473 0 0.0051050442057709484 -0.0055038642448723548 0 0.004534677353042465 -0.0058501587157874842 0 0.0051050442057709484 -0.0055038642448723548 0 0.0047539000116683045 -0.0058780782894375279 0 0.004534677353042465 -0.0058501587157874842 0 0.0051050442057709484 -0.0055038642448723548 0 0.0047539000116683045 -0.0058780782894375279 0 0.0047433233266721492 -0.0060149274485026714 0 0.0047539000116683045 -0.0058780782894375279 0 0.004534677353042465 -0.0058501587157874842 0 0.0046279522647405319 -0.0061266254771387939 0 0.0047539000116683045 -0.0058780782894375279 0 0.0047433233266721492 -0.0060149274485026714 0 0.0046279522647405319 -0.0061266254771387939 0 0.0038022745312870239 -0.0057349475502718678 0 0.0041858884194355137 -0.0058431341365356802 0 0.0045576551889501124 -0.0061922849177760237 0 0.0047399421967182316 -0.0055543271465031095 0 0.0047930057292642665 -0.0058917445533785209 0 0.0047433233266721492 -0.0060149274485026714 0 0.0048602335303786857 -0.0053955074644658589 0 0.0048067121936212131 -0.0060126621243692582 0 0.0039083317532601731 -0.0055172872276459369 0 0.0038022745312870239 -0.0057349475502718678 0 0.0040210276644862056 -0.0056764265709704116 0 0.0038022745312870239 -0.0057349475502718678 0 0.0041858884194355137 -0.0058431341365356802 0 0.0040210276644862056 -0.0056764265709704116 0 0.0058682563114058096 -0.0051988111307295732 0 0.0059585492757645887 -0.005105133785002801 0 0.0059549723755019648 -0.0051606249426074443 0 0.0058682563114058096 -0.0051988111307295732 0 0.005749993075335422 -0.0052304462745085224 0 0.0059585492757645887 -0.005105133785002801 0 0.0058423729305403784 -0.0052953818645362664 0 0.0058682563114058096 -0.0051988111307295732 0 0.0059549723755019648 -0.0051606249426074443 0 0.0057453688747376684 -0.0053149083668376281 0 0.0058423729305403784 -0.0052953818645362664 0 0.0058682563114058096 -0.0051988111307295732 0 0.0057453688747376684 -0.0053149083668376281 0 0.0058682563114058096 -0.0051988111307295732 0 0.005749993075335422 -0.0052304462745085224 0 0.0053269198051608246 -0.005426070879332473 0 0.005749993075335422 -0.0052304462745085224 0 0.0058629659216809932 -0.0050967662176844156 0 0.005749993075335422 -0.0052304462745085224 0 0.0058629659216809932 -0.0050967662176844156 0 0.0059585492757645887 -0.005105133785002801 0 0.0059585492757645887 -0.005105133785002801 0 0.0059549723755019648 -0.0051606249426074443 0 0.005995384118584233 -0.0051315191834131919 0 0.0059585492757645887 -0.005105133785002801 0 0.0061138782065221558 -0.0052210124541189054 0 0.006306393303609866 -0.0052078385583120522 0 0.0059585492757645887 -0.005105133785002801 0 0.0061138782065221558 -0.0052210124541189054 0 0.005995384118584233 -0.0051315191834131919 0 0.0061138782065221558 -0.0052210124541189054 0 0.006306393303609866 -0.0052078385583120522 0 0.0062253698871211783 -0.0055599784410606612 0 0.0058629659216809932 -0.0050967662176844156 0 0.0059585492757645887 -0.005105133785002801 0 0.006306393303609866 -0.0052078385583120522 0 0.0052124932182428365 -0.0055206088701149911 0 0.0052951164065737494 -0.0058756053020351459 0 0.0042627250690191109 -0.0064897016903334662 0 0.0046279522647405319 -0.0061266254771387939 0 0.0045903964552002439 -0.0063990973724658111 0 0.004534677353042465 -0.0058501587157874842 0 0.0042627250690191109 -0.0064897016903334662 0 0.0046279522647405319 -0.0061266254771387939 0 0.0046279522647405319 -0.0061266254771387939 0 0.0046557918098831114 -0.0062202003529200373 0 0.0045903964552002439 -0.0063990973724658111 0 0.0047930057292642665 -0.0058917445533785209 0 0.0047433233266721492 -0.0060149274485026714 0 0.0045576551889501124 -0.0061922849177760237 0 0.004299607926069083 -0.00579702278131837 0 0.0045072839334236378 -0.0061244421212182723 0 0.0047433233266721492 -0.0060149274485026714 0 0.0046557918098831114 -0.0062202003529200373 0 0.0045576551889501124 -0.0061922849177760237 0 0.0047433233266721492 -0.0060149274485026714 0 0.0046279522647405319 -0.0061266254771387939 0 0.0046557918098831114 -0.0062202003529200373 0 0.0047019724325012054 -0.0065181072962693298 0 0.0045930302356839599 -0.0068961839223578708 0 0.0049918878837335026 -0.0067691444682950984 0 0.0045576551889501124 -0.0061922849177760237 0 0.0047019724325012054 -0.0065181072962693298 0 0.0049918878837335026 -0.0067691444682950984 0 0.0046557918098831114 -0.0062202003529200373 0 0.0047019724325012054 -0.0065181072962693298 0 0.0045903964552002439 -0.0063990973724658111 0 0.0046557918098831114 -0.0062202003529200373 0 0.0045576551889501124 -0.0061922849177760237 0 0.0047019724325012054 -0.0065181072962693298 0 0.0042627250690191109 -0.0064897016903334662 0 0.0045903964552002439 -0.0063990973724658111 0 0.0045930302356839599 -0.0068961839223578708 0 0.0047019724325012054 -0.0065181072962693298 0 0.0045903964552002439 -0.0063990973724658111 0 0.0045930302356839599 -0.0068961839223578708 0 0.0045930302356839599 -0.0068961839223578708 0 0.0048568470213975401 -0.0075785347822355216 0 0.0049918878837335026 -0.0067691444682950984 0 0.0045930302356839599 -0.0068961839223578708 0 0.0048568470213975401 -0.0075785347822355216 0 0.004694044486596818 -0.0075887388103573943 0 0.0045930302356839599 -0.0068961839223578708 0 0.0043360542068006892 -0.0072658955579932996 0 0.004694044486596818 -0.0075887388103573943 0 0.0067460091561620571 -0.0059280270236047559 0 0.0061728862970245628 -0.006318591670579435 0 0.0068108567005974877 -0.0074022060002207485 0 0.0067460091561620571 -0.0059280270236047559 0 0.0061728862970245628 -0.006318591670579435 0 0.0062253698871211783 -0.0055599784410606612 0 0.006306393303609866 -0.0052078385583120522 0 0.0067460091561620571 -0.0059280270236047559 0 0.0062253698871211783 -0.0055599784410606612 0 0.0052951164065737494 -0.0058756053020351459 0 0.005536915327923368 -0.0066103615525874597 0 0.0042627250690191109 -0.0064897016903334662 0 0.0045930302356839599 -0.0068961839223578708 0 0.0043360542068006892 -0.0072658955579932996 0 0.0039279529691630304 -0.0055823684041233701 0 0.0038336539819222699 -0.0056559215627682473 0 0.0035442777080091888 -0.0049391776222460059 0 0.0039279529691630304 -0.0055823684041233701 0 0.0036914216968382541 -0.0056977281704305828 0 0.0035442777080091888 -0.0049391776222460059 0 0.0039279529691630304 -0.0055823684041233701 0 0.0036914216968382541 -0.0056977281704305828 0 0.0040728777660152087 -0.0061105680900490379 0 0.0039718641830825442 -0.005840414614360607 0 0.0039187296772170491 -0.0062919485920089864 0 0.0040728777660152087 -0.0061105680900490379 0 0.0039279529691630304 -0.0055823684041233701 0 0.0039718641830825442 -0.005840414614360607 0 0.0040728777660152087 -0.0061105680900490379 0 0.0039718641830825442 -0.005840414614360607 0 0.0035980145583152136 -0.0061823846215890068 0 0.0039187296772170491 -0.0062919485920089864 0 0.0039718641830825442 -0.005840414614360607 0 0.0035980145583152136 -0.0061823846215890068 0 0.0039535016273701245 -0.0056856446465200399 0 0.0039718641830825442 -0.005840414614360607 0 0.0039535016273701245 -0.0056856446465200399 0 0.0040321694055023994 -0.0057121597940677799 0 0.0042404526805911195 -0.0068508908015870382 0 0.0044404403024484633 -0.0062721776962560644 0 0.0039279529691630304 -0.0055823684041233701 0 0.0039718641830825442 -0.005840414614360607 0 0.0040321694055023994 -0.0057121597940677799 0 0.0039279529691630304 -0.0055823684041233701 0 0.0040321694055023994 -0.0057121597940677799 0 0.0040709205465774062 -0.0057365503853952296 0 0.0040321694055023994 -0.0057121597940677799 0 0.0040709205465774062 -0.0057365503853952296 0 0.004112835469445417 -0.0057678806576864361 0 0.0039535016273701245 -0.0056856446465200399 0 0.0040321694055023994 -0.0057121597940677799 0 0.004112835469445417 -0.0057678806576864361 0 0.0045576551889501124 -0.0061922849177760237 0 0.0049918878837335026 -0.0067691444682950984 0 0.0043932227975003986 -0.0059716911818097369 0 0.0044404403024484633 -0.0062721776962560644 0 0.0044133777683332742 -0.0060363282125728427 0 0.0039535016273701245 -0.0056856446465200399 0 0.004112835469445417 -0.0057678806576864361 0 0.0043932227975003986 -0.0059716911818097369 0 0.0041858884194355137 -0.0058431341365356802 0 0.0045576551889501124 -0.0061922849177760237 0 0.0043932227975003986 -0.0059716911818097369 0 0.004112835469445417 -0.0057678806576864361 0 0.004177130586366689 -0.005838518205762709 0 0.0043932227975003986 -0.0059716911818097369 0 0.004177130586366689 -0.005838518205762709 0 0.0041856354168602955 -0.0058099837811486461 0 0.0042514764312668292 -0.0058626649880880056 0 0.004177130586366689 -0.005838518205762709 0 0.0043932227975003986 -0.0059716911818097369 0 0.0042514764312668292 -0.0058626649880880056 0 0.0041858884194355137 -0.0058431341365356802 0 0.0043932227975003986 -0.0059716911818097369 0 0.0042514764312668292 -0.0058626649880880056 0 0.0040709205465774062 -0.0057365503853952296 0 0.0041856354168602955 -0.0058099837811486461 0 0.0040960565041206921 -0.0058033457731463305 0 0.0040709205465774062 -0.0057365503853952296 0 0.004177130586366689 -0.005838518205762709 0 0.0041856354168602955 -0.0058099837811486461 0 0.0040709205465774062 -0.0057365503853952296 0 0.004112835469445417 -0.0057678806576864361 0 0.004177130586366689 -0.005838518205762709 0 0.0040709205465774062 -0.0057365503853952296 0 0.0038336539819222699 -0.0056559215627682473 0 0.0040960565041206921 -0.0058033457731463305 0 0.003011699291334765 -0.0041578235724152026 0 0.0025684086184328994 -0.0031562934710227539 0 0.0039279529691630304 -0.0055823684041233701 0 0.0040709205465774062 -0.0057365503853952296 0 0.0038336539819222699 -0.0056559215627682473 0 0.003011699291334765 -0.0041578235724152026 0 0.0035134576393571963 -0.0049094641521870014 0 0.0021261586788542011 -0.0026512169354016412 0 0.002718774605819119 -0.00020033299794671138 0 0.0010252423116032907 -0.00050089427645194466 0 0.0021261586788542011 -0.0026512169354016412 0 0.002718774605819119 -0.00020033299794671138 0 0.0034058263186721015 -0.0015645468404159944 0 0.002718774605819119 -0.00020033299794671138 0 0.0010252423116032907 -0.00050089427645194466 0 0.001712389825787248 0.0015910526393103804 0 0.0010252423116032907 -0.00050089427645194466 0 0.001712389825787248 0.0015910526393103804 0 -4.1847949208297643e-05 0.0015318986592508207 0 0.0025684086184328994 -0.0031562934710227539 0 0.0021459255040189433 -0.0019565241217774044 0 0.001712389825787248 0.0015910526393103804 0 -4.1847949208297643e-05 0.0015318986592508207 0 0.00094934204150737343 0.0036248017558516074 0 0.001712389825787248 0.0015910526393103804 0 0.0032896499698640965 0.0015169504208923286 0 0.0029294900493892872 0.003116893876087969 0 0.002718774605819119 -0.00020033299794671138 0 0.001712389825787248 0.0015910526393103804 0 0.0032896499698640965 0.0015169504208923286 0 0.0041858884194355137 -0.0058431341365356802 0 0.0040210276644862056 -0.0056764265709704116 0 0.0041744582442391929 -0.0057045752916828202 0 0.0040210276644862056 -0.0056764265709704116 0 0.0041744582442391929 -0.0057045752916828202 0 0.0040696320403050207 -0.0055541756023499127 0 0.0041858884194355137 -0.0058431341365356802 0 0.0041744582442391929 -0.0057045752916828202 0 0.0042514764312668292 -0.0058626649880880056 0 0.0041744582442391929 -0.0057045752916828202 0 0.0042514764312668292 -0.0058626649880880056 0 0.0042547255536863372 -0.0057433618696648338 0 0.0041744582442391929 -0.0057045752916828202 0 0.0042547255536863372 -0.0057433618696648338 0 0.004173142396326439 -0.0054503299337795158 0 0.0040960565041206921 -0.0058033457731463305 0 0.0042547255536863372 -0.0057433618696648338 0 0.0043601758515674893 -0.0055606726300348273 0 0.0041856354168602955 -0.0058099837811486461 0 0.0040960565041206921 -0.0058033457731463305 0 0.0042547255536863372 -0.0057433618696648338 0 0.0041856354168602955 -0.0058099837811486461 0 0.0042514764312668292 -0.0058626649880880056 0 0.0042547255536863372 -0.0057433618696648338 0 0.0042547255536863372 -0.0057433618696648338 0 0.0043601758515674893 -0.0055606726300348273 0 0.004173142396326439 -0.0054503299337795158 0 0.0043601758515674893 -0.0055606726300348273 0 0.004173142396326439 -0.0054503299337795158 0 0.0042713640409226278 -0.0048881924515594925 0 0.0039555690713551596 -0.0053278839273228143 0 0.004173142396326439 -0.0054503299337795158 0 0.0040091308988964638 -0.0050494752806679605 0 0.0041744582442391929 -0.0057045752916828202 0 0.004173142396326439 -0.0054503299337795158 0 0.0040696320403050207 -0.0055541756023499127 0 0.0039555690713551596 -0.0053278839273228143 0 0.004173142396326439 -0.0054503299337795158 0 0.0040696320403050207 -0.0055541756023499127 0 0.004173142396326439 -0.0054503299337795158 0 0.0040091308988964638 -0.0050494752806679605 0 0.0042713640409226278 -0.0048881924515594925 0 0.0039666376193206003 -0.0045685739801391923 0 0.0040091308988964638 -0.0050494752806679605 0 0.0042713640409226278 -0.0048881924515594925 0 0.0021459255040189433 -0.0019565241217774044 0 0.0016145473997425646 -0.0011412747546599622 0 -4.1847949208297643e-05 0.0015318986592508207 0 -0.00090482551881827388 0.0032465621702057208 0 -6.0926826979829924e-05 0.0032902159576386849 0 -4.1847949208297643e-05 0.0015318986592508207 0 -6.0926826979829924e-05 0.0032902159576386849 0 0.00094934204150737343 0.0036248017558516074 0 -0.00090482551881827388 0.0032465621702057208 0 -6.0926826979829924e-05 0.0032902159576386849 0 -0.000538173643832553 0.0039839656287973613 0 0.00065828792063902977 0.0046922383211946486 0 0.0019325416415032722 0.0038006428415796453 0 -6.0926826979829924e-05 0.0032902159576386849 0 -0.000538173643832553 0.0039839656287973613 0 0.00094934204150737343 0.0036248017558516074 0 0.0026089216580304931 0.0046878847008422191 0 0.0026031378818432379 0.0048286189767444299 0 0.0025526566554980776 0.0041796684697916362 0 0.002661560723772436 0.0048910298968790561 0 0.0026089216580304931 0.0046878847008422191 0 0.0026031378818432379 0.0048286189767444299 0 -0.0015728625264130741 0.004398534183203239 0 -0.00090482551881827388 0.0032465621702057208 0 -0.000538173643832553 0.0039839656287973613 0 0.0038835737769085726 -0.0040668662323251094 0 0.0039666376193206003 -0.0045685739801391923 0 0.0042713640409226278 -0.0048881924515594925 0 0.0022931179201048243 0.0021928046627828078 0 0.00065828792063902977 0.0046922383211946486 0 0.0022931179201048243 0.0021928046627828078 0 0.0016145473997425646 -0.0011412747546599622 0 0.002777646605797802 0.0049289354566487047 0 0.0029562659224924999 0.0050338161950549652 0 0.0026031378818432379 0.0048286189767444299 0 0.001712389825787248 0.0015910526393103804 0 0.0029294900493892872 0.003116893876087969 0 0.00094934204150737343 0.0036248017558516074 0 0.0028708033199436249 0.0032127537441533618 0 0.0019325416415032722 0.0038006428415796453 0 0.0029294900493892872 0.003116893876087969 0 0.0025526566554980776 0.0041796684697916362 0 0.0027917855387345719 0.0045106353831391001 0 0.0026089216580304931 0.0046878847008422191 0 0.0025526566554980776 0.0041796684697916362 0 0.0027917855387345719 0.0045106353831391001 0 0.0029294900493892872 0.003116893876087969 0 0.0027917855387345719 0.0045106353831391001 0 0.0035309188114025507 0.0042298014963979254 0 0.0030918211006265429 0.0049281184406348641 0 0.0027917855387345719 0.0045106353831391001 0 0.0035309188114025507 0.0042298014963979254 0 0.0043971123948094194 0.0048455905710770002 0 0.0035309188114025507 0.0042298014963979254 0 0.0046210984781915139 0.0033020525022933187 0 0.001111594715189058 0.0055537013808554785 0 0.00098459195283835677 0.0042299558243985378 0 0.0029294900493892872 0.003116893876087969 0 0.0035309188114025507 0.0042298014963979254 0 0.0046210984781915139 0.0033020525022933187 0 0.0032896499698640965 0.0015169504208923286 0 0.0029294900493892872 0.003116893876087969 0 0.0046210984781915139 0.0033020525022933187 0 -0.0025547043525977775 0.0052182997476782319 0 -0.0017228051061641528 0.0055185019274026983 0 -0.0017266050544903267 0.004400998639435977 0 -0.0024693073606885533 0.0064608592102731871 0 -0.0017228051061641528 0.0055185019274026983 0 -0.0014644048743418436 0.0062219584174839958 0 -0.0024693073606885533 0.0064608592102731871 0 -0.0025547043525977775 0.0052182997476782319 0 -0.0017228051061641528 0.0055185019274026983 0 -0.0014817880105376341 0.006605157615139353 0 -0.00077576812758152957 0.0063581887936592953 0 -0.0014644048743418436 0.0062219584174839958 0 -0.00063632019344469148 0.0060174461156924219 0 -0.0010009689540515911 0.0053122163307546075 0 -0.0017228051061641528 0.0055185019274026983 0 -0.0014644048743418436 0.0062219584174839958 0 -0.0010009689540515911 0.0053122163307546075 0 -0.00063632019344469148 0.0060174461156924219 0 -0.00056689161213288944 0.0056276670676382728 0 -0.00058145094123417335 0.0060898393834765783 0 -0.00056689161213288944 0.0056276670676382728 0 -0.0004714894868019017 0.0048182274990441407 0 -0.0010009689540515911 0.0053122163307546075 0 -0.00063632019344469148 0.0060174461156924219 0 -0.00056689161213288944 0.0056276670676382728 0 -0.0010009689540515911 0.0053122163307546075 0 -0.0017228051061641528 0.0055185019274026983 0 -0.0010009689540515911 0.0053122163307546075 0 -0.0017266050544903267 0.004400998639435977 0 -0.0010009689540515911 0.0053122163307546075 0 -0.00067693638330018743 0.0038188563707897876 0 -0.0017266050544903267 0.004400998639435977 0 -0.00067693638330018743 0.0038188563707897876 0 -0.0011753113885051107 0.0031058363082648154 0 -0.0017266050544903267 0.004400998639435977 0 -0.0004714894868019017 0.0048182274990441407 0 -0.00067693638330018743 0.0038188563707897876 0 3.6484211880396493e-05 0.0039612535454297141 0 -0.0004714894868019017 0.0048182274990441407 0 -0.0010009689540515911 0.0053122163307546075 0 -0.00067693638330018743 0.0038188563707897876 0 -0.00067693638330018743 0.0038188563707897876 0 6.2920284184837526e-07 0.002589734199543438 0 -0.00061933258955161944 0.0023867221409437241 0 -0.00067693638330018743 0.0038188563707897876 0 6.2920284184837526e-07 0.002589734199543438 0 3.6484211880396493e-05 0.0039612535454297141 0 -0.00067693638330018743 0.0038188563707897876 0 -0.0011753113885051107 0.0031058363082648154 0 -0.00061933258955161944 0.0023867221409437241 0 -0.0011753113885051107 0.0031058363082648154 0 -0.00061933258955161944 0.0023867221409437241 0 -0.0013035465950619522 0.0023238820381412222 0 -0.00061933258955161944 0.0023867221409437241 0 -0.0013035465950619522 0.0023238820381412222 0 -0.0012178596827514658 0.0015185784884715824 0 -0.0013035465950619522 0.0023238820381412222 0 -0.0016928964349559408 0.0030158576667973845 0 -0.0014867058823325697 0.0019560453746335061 0 -0.0013035465950619522 0.0023238820381412222 0 -0.0014867058823325697 0.0019560453746335061 0 -0.0012178596827514658 0.0015185784884715824 0 -0.0014867058823325697 0.0019560453746335061 0 -0.0028875144349812657 0.0036216100120961769 0 0.00023329198436930726 -8.9790809861644779e-05 0 0.0010919746036712552 0.0023422980710085454 0 0.0024219752080147593 -0.00066441307630471546 0 -0.0011753113885051107 0.0031058363082648154 0 -0.0013035465950619522 0.0023238820381412222 0 -0.0016928964349559408 0.0030158576667973845 0 -0.0016928964349559408 0.0030158576667973845 0 -0.0014867058823325697 0.0019560453746335061 0 -0.0028875144349812657 0.0036216100120961769 0 0.002718774605819119 -0.00020033299794671138 0 0.0032896499698640965 0.0015169504208923286 0 0.0037536497276729744 0.00055897747710398815 0 0.003839441091737777 -0.00036551039080334031 0 0.0047428516454343841 0.00099487388146762118 0 0.0046090010350325799 -0.0016154000716288538 0 0.002718774605819119 -0.00020033299794671138 0 0.003839441091737777 -0.00036551039080334031 0 0.0037536497276729744 0.00055897747710398815 0 0.003839441091737777 -0.00036551039080334031 0 0.0037536497276729744 0.00055897747710398815 0 0.0047428516454343841 0.00099487388146762118 0 0.00098459195283835677 0.0042299558243985378 0 0.0010919746036712552 0.0023422980710085454 0 0.0032896499698640965 0.0015169504208923286 0 0.0037536497276729744 0.00055897747710398815 0 0.0047428516454343841 0.00099487388146762118 0 0.0032896499698640965 0.0015169504208923286 0 0.0046210984781915139 0.0033020525022933187 0 0.0047428516454343841 0.00099487388146762118 0 -0.0025547043525977775 0.0052182997476782319 0 -0.0017266050544903267 0.004400998639435977 0 -0.0028875144349812657 0.0036216100120961769 0 -0.0011753113885051107 0.0031058363082648154 0 -0.0016928964349559408 0.0030158576667973845 0 -0.0017266050544903267 0.004400998639435977 0 -0.0016928964349559408 0.0030158576667973845 0 -0.0017266050544903267 0.004400998639435977 0 -0.0028875144349812657 0.0036216100120961769 0 -0.0037202487351974916 0.0081048742381222508 0 -0.0036303723152008825 0.0076193984857273874 0 -0.0040926102509917213 0.0079507099543402598 0 -0.0037202487351974916 0.0081048742381222508 0 -0.0032381533901734835 0.0079478736952518191 0 -0.0036303723152008825 0.0076193984857273874 0 -0.0037202487351974916 0.0081048742381222508 0 -0.0032381533901734835 0.0079478736952518191 0 -0.0033558077388794794 0.0084891563762704517 0 -0.0032381533901734835 0.0079478736952518191 0 -0.002663641503600355 0.0082096553471074345 0 -0.0033558077388794794 0.0084891563762704517 0 -0.0032381533901734835 0.0079478736952518191 0 -0.0032590237346009935 0.007535235850870509 0 -0.0028265165918146301 0.0073684910057570047 0 -0.0032381533901734835 0.0079478736952518191 0 -0.0032590237346009935 0.007535235850870509 0 -0.0036303723152008825 0.0076193984857273874 0 -0.0032590237346009935 0.007535235850870509 0 -0.0036303723152008825 0.0076193984857273874 0 -0.003291718976973234 0.0072650848452997874 0 -0.0036303723152008825 0.0076193984857273874 0 -0.0036644489902262775 0.0070889873584047284 0 -0.00408541417242514 0.0075647704422527407 0 -0.0036303723152008825 0.0076193984857273874 0 -0.0036644489902262775 0.0070889873584047284 0 -0.003291718976973234 0.0072650848452997874 0 -0.0040833665958774738 0.0067939450013966953 0 -0.0033241730789815029 0.006705471321326156 0 -0.0036644489902262775 0.0070889873584047284 0 -0.0033241730789815029 0.006705471321326156 0 -0.0036644489902262775 0.0070889873584047284 0 -0.0029663577855606467 0.0069859231657175593 0 -0.0032590237346009935 0.007535235850870509 0 -0.003291718976973234 0.0072650848452997874 0 -0.0028265165918146301 0.0073684910057570047 0 -0.0036644489902262775 0.0070889873584047284 0 -0.003291718976973234 0.0072650848452997874 0 -0.0029663577855606467 0.0069859231657175593 0 -0.0029663577855606467 0.0069859231657175593 0 -0.0025231490216666625 0.0069747585224043569 0 -0.0028265165918146301 0.0073684910057570047 0 -0.003291718976973234 0.0072650848452997874 0 -0.0029663577855606467 0.0069859231657175593 0 -0.0028265165918146301 0.0073684910057570047 0 -0.0029663577855606467 0.0069859231657175593 0 -0.0026688559039629812 0.0067228197084452457 0 -0.0025231490216666625 0.0069747585224043569 0 -0.0033241730789815029 0.006705471321326156 0 -0.0029663577855606467 0.0069859231657175593 0 -0.0026688559039629812 0.0067228197084452457 0 -0.0026688559039629812 0.0067228197084452457 0 -0.002157938909232898 0.0067068176802206492 0 -0.0025231490216666625 0.0069747585224043569 0 -0.0023138764586742001 0.0065486325505157367 0 -0.0026688559039629812 0.0067228197084452457 0 -0.002157938909232898 0.0067068176802206492 0 -0.0025231490216666625 0.0069747585224043569 0 -0.0022934703494387866 0.007462160443753761 0 -0.0020134417941198844 0.0069623262335933118 0 -0.002157938909232898 0.0067068176802206492 0 -0.0025231490216666625 0.0069747585224043569 0 -0.0020134417941198844 0.0069623262335933118 0 -0.0025231490216666625 0.0069747585224043569 0 -0.0022934703494387866 0.007462160443753761 0 -0.0028265165918146301 0.0073684910057570047 0 -0.0022934703494387866 0.007462160443753761 0 -0.0028265165918146301 0.0073684910057570047 0 -0.002663641503600355 0.0082096553471074345 0 -0.0032381533901734835 0.0079478736952518191 0 -0.0028265165918146301 0.0073684910057570047 0 -0.002663641503600355 0.0082096553471074345 0 -0.0022934703494387866 0.007462160443753761 0 -0.0018525342621324751 0.0079644732122852915 0 -0.002663641503600355 0.0082096553471074345 0 -0.0018525342621324751 0.0079644732122852915 0 -0.00055443569746131997 0.0065537768693708018 0 -0.0014669785598416998 0.0087377790957352628 0 -0.0003898698535649276 0.0062338525718364348 0 -0.00014496387616029253 0.007134921725898794 0 -0.00055443569746131997 0.0065537768693708018 0 -8.8178825236352894e-05 0.0052703613931208981 0 0.0012996466318438958 0.0043147347805954491 0 -0.0018525342621324751 0.0079644732122852915 0 -0.0015364285750266837 0.0070995626119565213 0 -0.00055443569746131997 0.0065537768693708018 0 -0.0022934703494387866 0.007462160443753761 0 -0.0015364285750266837 0.0070995626119565213 0 -0.0020134417941198844 0.0069623262335933118 0 -0.0022934703494387866 0.007462160443753761 0 -0.0018525342621324751 0.0079644732122852915 0 -0.0015364285750266837 0.0070995626119565213 0 -0.0015364285750266837 0.0070995626119565213 0 -0.0020134417941198844 0.0069623262335933118 0 -0.0015488027472583574 0.0066720305124783573 0 -0.002157938909232898 0.0067068176802206492 0 -0.0020134417941198844 0.0069623262335933118 0 -0.0015488027472583574 0.0066720305124783573 0 -0.0017897699191859026 0.0065073459001557601 0 -0.002157938909232898 0.0067068176802206492 0 -0.0015488027472583574 0.0066720305124783573 0 -0.0017897699191859026 0.0065073459001557601 0 -0.0023138764586742001 0.0065486325505157367 0 -0.002157938909232898 0.0067068176802206492 0 -0.0017897699191859026 0.0065073459001557601 0 -0.0015488027472583574 0.0066720305124783573 0 -0.0012721320034737528 0.0065222438915806674 0 -0.0012721320034737528 0.0065222438915806674 0 -0.0010788908770771486 0.0065669405037513352 0 -0.00082305500428450857 0.0064407789738569875 0 -0.0010788908770771486 0.0065669405037513352 0 -0.00055443569746131997 0.0065537768693708018 0 -0.00082305500428450857 0.0064407789738569875 0 -0.0015364285750266837 0.0070995626119565213 0 -0.0011854069417855701 0.0067054701319420214 0 -0.00055443569746131997 0.0065537768693708018 0 -0.0015364285750266837 0.0070995626119565213 0 -0.0015488027472583574 0.0066720305124783573 0 -0.0011854069417855701 0.0067054701319420214 0 -0.0015488027472583574 0.0066720305124783573 0 -0.0010788908770771486 0.0065669405037513352 0 -0.0011854069417855701 0.0067054701319420214 0 -0.0015488027472583574 0.0066720305124783573 0 -0.0012721320034737528 0.0065222438915806674 0 -0.0010788908770771486 0.0065669405037513352 0 -0.0010788908770771486 0.0065669405037513352 0 -0.0011854069417855701 0.0067054701319420214 0 -0.00055443569746131997 0.0065537768693708018 0 -0.00055443569746131997 0.0065537768693708018 0 -0.00082305500428450857 0.0064407789738569875 0 -0.00058145094123417335 0.0060898393834765783 0 -0.0011588683190900961 0.0066908928214628955 0 -0.00082305500428450857 0.0064407789738569875 0 -0.0011437585824202849 0.006581141948265771 0 -0.00077576812758152957 0.0063581887936592953 0 -0.0008316822431614732 0.0064129228765928883 0 -0.00063632019344469148 0.0060174461156924219 0 -0.00082305500428450857 0.0064407789738569875 0 -0.00058145094123417335 0.0060898393834765783 0 -0.00082305500428450857 0.0064407789738569875 0 -0.0011456221995049894 0.0065204130268048579 0 -0.0011437585824202849 0.006581141948265771 0 -0.0012721320034737528 0.0065222438915806674 0 -0.00082305500428450857 0.0064407789738569875 0 -0.0011456221995049894 0.0065204130268048579 0 -0.0014035126735464289 0.0064814184156927182 0 -0.0011456221995049894 0.0065204130268048579 0 -0.0011437585824202849 0.006581141948265771 0 -0.0014035126735464289 0.0064814184156927182 0 -0.0012721320034737528 0.0065222438915806674 0 -0.0011456221995049894 0.0065204130268048579 0 -0.00056689161213288944 0.0056276670676382728 0 -0.00058145094123417335 0.0060898393834765783 0 -8.8178825236352894e-05 0.0052703613931208981 0 -0.00055443569746131997 0.0065537768693708018 0 -0.00058145094123417335 0.0060898393834765783 0 -8.8178825236352894e-05 0.0052703613931208981 0 -0.00056689161213288944 0.0056276670676382728 0 -0.0004714894868019017 0.0048182274990441407 0 -8.8178825236352894e-05 0.0052703613931208981 0 -8.8178825236352894e-05 0.0052703613931208981 0 3.6484211880396493e-05 0.0039612535454297141 0 0.0012996466318438958 0.0043147347805954491 0 3.6484211880396493e-05 0.0039612535454297141 0 0.00082733534062130591 0.0031065663578489218 0 0.0012996466318438958 0.0043147347805954491 0 -0.0004714894868019017 0.0048182274990441407 0 -8.8178825236352894e-05 0.0052703613931208981 0 3.6484211880396493e-05 0.0039612535454297141 0 6.2920284184837526e-07 0.002589734199543438 0 3.6484211880396493e-05 0.0039612535454297141 0 0.00082733534062130591 0.0031065663578489218 0 6.2920284184837526e-07 0.002589734199543438 0 0.00082733534062130591 0.0031065663578489218 0 0.00090750008518720234 0.0020728513465210108 0 0.00082733534062130591 0.0031065663578489218 0 0.0018755505656418878 0.0026189423566233528 0 0.00090750008518720234 0.0020728513465210108 0 -0.00090366116632217797 0.0030775284632437653 0 -0.00014496387616029253 0.007134921725898794 0 0.00082733534062130591 0.0031065663578489218 0 0.0018755505656418878 0.0026189423566233528 0 0.0012996466318438958 0.0043147347805954491 0 -0.0020199760411285335 0.0099791198534076274 0 -0.0014669785598416998 0.0087377790957352628 0 -0.0021904424330504244 0.0090214713445552017 0 -0.0018525342621324751 0.0079644732122852915 0 -0.0014669785598416998 0.0087377790957352628 0 -0.0021904424330504244 0.0090214713445552017 0 -0.0018525342621324751 0.0079644732122852915 0 -0.002663641503600355 0.0082096553471074345 0 -0.0021904424330504244 0.0090214713445552017 0 -0.002663641503600355 0.0082096553471074345 0 -0.0029001312959466186 0.009099787300472055 0 -0.0033558077388794794 0.0084891563762704517 0 -0.002663641503600355 0.0082096553471074345 0 -0.0029001312959466186 0.009099787300472055 0 -0.0021904424330504244 0.0090214713445552017 0 -0.0029001312959466186 0.009099787300472055 0 -0.0021904424330504244 0.0090214713445552017 0 -0.0025024033941101489 0.0093655466515075152 0 -0.0020199760411285335 0.0099791198534076274 0 -0.0021904424330504244 0.0090214713445552017 0 -0.002397737026058971 0.0096274742649939907 0 -0.0021904424330504244 0.0090214713445552017 0 -0.0025024033941101489 0.0093655466515075152 0 -0.002397737026058971 0.0096274742649939907 0 -0.0025024033941101489 0.0093655466515075152 0 -0.002397737026058971 0.0096274742649939907 0 -0.0025283776076573208 0.0097201877880261217 0 -0.00090366116632217797 0.0030775284632437653 0 -0.0034087646210017803 0.0044626800696588465 0 -0.0037038968630683806 1.1328125383691398e-05 0 -0.0035492920662395281 0.00010224793499072614 0 -0.0035095156262947079 -0.0001361753180578524 0 -0.0020199760411285335 0.0099791198534076274 0 -0.002397737026058971 0.0096274742649939907 0 -0.0025119126925678566 0.0097014264463590634 0 -0.0036392287287256441 0.0049988515723094224 0 -0.0034087646210017803 0.0044626800696588465 0 -0.0034087646210017803 0.0044626800696588465 0 -0.0045585285059667052 0.0010484963672863382 0 -0.0029001312959466186 0.009099787300472055 0 -0.0025024033941101489 0.0093655466515075152 0 -0.0025283776076573208 0.0097201877880261217 0 -0.0060199615660885275 0.0017473428784724404 0 -0.0058462748787856652 0.0023105246007339582 0 -0.0062866820891339095 0.0020676046271323164 0 -0.0034087646210017803 0.0044626800696588465 0 -0.005030446507230512 0.0053073207965003899 0 -0.0054508926777159846 0.0020636041072630124 0 -0.0060199615660885275 0.0017473428784724404 0 -0.0058462748787856652 0.0023105246007339582 0 -0.0029001312959466186 0.009099787300472055 0 -0.0025283776076573208 0.0097201877880261217 0 -0.0036372668876357944 0.0090901898082626983 0 -0.0036372668876357944 0.0090901898082626983 0 -0.0033558077388794794 0.0084891563762704517 0 -0.0039135341816851398 0.0085234738958925981 0 -0.0029001312959466186 0.009099787300472055 0 -0.0036372668876357944 0.0090901898082626983 0 -0.0033558077388794794 0.0084891563762704517 0 -0.0037202487351974916 0.0081048742381222508 0 -0.0033558077388794794 0.0084891563762704517 0 -0.0039135341816851398 0.0085234738958925981 0 -0.0068702393490951636 -0.0044689201463026761 0 -0.0054794990826469983 -0.0040812523468404813 0 -0.0056992991596179557 -0.0052759980286155679 0 -0.0048395537433332672 -0.0030207079817837989 0 -0.0065975746813143046 -0.0025603621217810627 0 -0.0068702393490951636 -0.0044689201463026761 0 -0.0056992991596179557 -0.0052759980286155679 0 -0.0074156094453534894 -0.0065130263773254407 0 -0.0033406533927979837 -0.00040398861077474006 0 -0.0033460827839493115 -8.4804277759988875e-05 0 -0.0031625383118305344 -0.00025444032670240096 0 -0.0058462748787856652 0.0023105246007339582 0 -0.0062866820891339095 0.0020676046271323164 0 -0.0062365761551549225 0.0025483309143645508 0 -0.0033406533927979837 -0.00040398861077474006 0 -0.0033460827839493115 -8.4804277759988875e-05 0 -0.0035095156262947079 -0.0001361753180578524 0 -0.0045585285059667052 0.0010484963672863382 0 -0.0065975746813143046 -0.0025603621217810627 0 -0.0033406533927979837 -0.00040398861077474006 0 -0.0035095156262947079 -0.0001361753180578524 0 -0.0036205370082305083 -0.00028682810274622568 0 -0.0035492920662395281 0.00010224793499072614 0 -0.0033460827839493115 -8.4804277759988875e-05 0 -0.0035095156262947079 -0.0001361753180578524 0 -0.0037038968630683806 1.1328125383691398e-05 0 -0.0035095156262947079 -0.0001361753180578524 0 -0.0036205370082305083 -0.00028682810274622568 0 -0.00090366116632217797 0.0030775284632437653 0 -0.0012623224957176115 -0.00015815522212814944 0 -0.0012623224957176115 -0.00015815522212814944 0 -0.00041929755531624048 -0.0021665942387155868 0 -0.0033406533927979837 -0.00040398861077474006 0 -0.0036205370082305083 -0.00028682810274622568 0 -0.0035513603730980684 -0.00058461033690803072 0 -0.0054794990826469983 -0.0040812523468404813 0 -0.0037718060679609927 -0.0038763476192734156 0 -0.0040140641588052427 -0.0037969232349301502 0 -0.0054794990826469983 -0.0040812523468404813 0 -0.0056992991596179557 -0.0052759980286155679 0 -0.0037718060679609927 -0.0038763476192734156 0 -0.0048395537433332672 -0.0030207079817837989 0 -0.00041929755531624048 -0.0021665942387155868 0 -0.00041929755531624048 -0.0021665942387155868 0 -0.0018357247455709498 -0.0027751545712413231 0 0.00099293678026560932 0.0001237927208240241 0 0.00097874732109748354 0.00017254837558295123 0 0.0010778530893615073 0.00016487313845359874 0 0.00099293678026560932 0.0001237927208240241 0 0.0010778530893615073 0.00016487313845359874 0 0.0010921038977162963 0.00010045727829956729 0 -0.00041929755531624048 -0.0021665942387155868 0 0.0037701274544375231 -0.00073395192088288876 0 -0.00090366116632217797 0.0030775284632437653 0 0.0011261506963185749 0.0011107412710419972 0 0.0010086183767509898 7.713166308648259e-05 0 0.00099293678026560932 0.0001237927208240241 0 0.0010921038977162963 0.00010045727829956729 0 0.0011261506963185749 0.0011107412710419972 0 0.0015999011374045861 0.000316916446382129 0 6.2920284184837526e-07 0.002589734199543438 0 0.00090750008518720234 0.0020728513465210108 0 0.00025536848980236269 0.0015526002476015353 0 0.0010778530893615073 0.00016487313845359874 0 0.0010921038977162963 0.00010045727829956729 0 0.0011848475095254411 0.00014368639427018908 0 0.0037701274544375231 -0.00073395192088288876 0 0.0015999011374045861 0.000316916446382129 0 0.0048920159234515474 -0.0013996169227837752 0 0.0037698053789628292 -0.0027482212119148666 0 0.0028535141336619163 -0.00048495626158179066 0 0.0037698053789628292 -0.0027482212119148666 0 0.0032220329314629234 -0.0050657216934853104 0 0.0022211986197836998 -0.0037611621302749729 0 0.0047764963794821496 -0.0029305371444092419 0 0.002937512592025196 -0.0037534611512115637 0 0.0037698053789628292 -0.0027482212119148666 0 0.0032220329314629234 -0.0050657216934853104 0 0.0057402983188407008 -0.0032009886976378365 0 0.00098822374734412223 -0.0065996232990233128 0 0.00071813261660663469 -0.0067050688873057738 0 0.00085859320551235957 -0.0065628416086560967 0 0.002088947094664451 -0.0060296347235903264 0 0.002937512592025196 -0.0037534611512115637 0 0.00071813261660663469 -0.0067050688873057738 0 0.0008121130703609825 -0.0065142430996521731 0 0.00085859320551235957 -0.0065628416086560967 0 0.00098822374734412223 -0.0065996232990233128 0 0.00072401385161033945 -0.0068465743473798205 0 0.00071813261660663469 -0.0067050688873057738 0 0.00069287229138279732 -0.0067955477363586831 0 0.00067558641085046155 -0.00588104721095461 0 0.00044050919709756121 -0.0065299384385357467 0 0.00071813261660663469 -0.0067050688873057738 0 0.00031200788011609388 -0.0057288986468111555 0 0.0066354663147271788 -0.002072334851338762 0 0.0048920159234515474 -0.0013996169227837752 0 0.0054247574602569867 -0.0030232882111453714 0 0.0048920159234515474 -0.0013996169227837752 0 0.0037698053789628292 -0.0027482212119148666 0 0.0054247574602569867 -0.0030232882111453714 0 0.00044050919709756121 -0.0065299384385357467 0 0.00072401385161033945 -0.0068465743473798205 0 0.00071813261660663469 -0.0067050688873057738 0 -0.00041929755531624048 -0.0021665942387155868 0 0.002937512592025196 -0.0037534611512115637 0 0.002937512592025196 -0.0037534611512115637 0 -0.0015959833851397396 -0.0044095028316069509 0 0.0008008861177995454 -0.002762340192638778 0 -0.0026681391981591275 -0.0035552651674560804 0 -0.0026657886348973952 -0.0020091454743460663 0 -0.0023393885129110938 -0.0046262977923333974 0 -0.0026681391981591275 -0.0035552651674560804 0 -0.0061003208939243263 -0.0033184226484464833 0 -0.0019805652026839001 -0.0047788140428126624 0 0.0008008861177995454 -0.002762340192638778 0 -0.0026681391981591275 -0.0035552651674560804 0 0.00044050919709756121 -0.0065299384385357467 0 0.00072401385161033945 -0.0068465743473798205 0 -0.00027738953478351224 -0.0068568585278587146 0 -0.0019805652026839001 -0.0047788140428126624 0 -0.0023217776214237216 -0.0046646439055186744 0 -0.0026681391981591275 -0.0035552651674560804 0 -0.0018357247455709498 -0.0027751545712413231 0 -0.0019223915650599839 -0.0034579864484320737 0 -0.0026681391981591275 -0.0035552651674560804 0 -0.0026657886348973952 -0.0020091454743460663 0 -0.004078567463825419 -0.002777422504836318 0 0.00044050919709756121 -0.0065299384385357467 0 -0.00027738953478351224 -0.0068568585278587146 0 -0.00055014431514677491 -0.005770692283758351 0 0.00044050919709756121 -0.0065299384385357467 0 -0.00011772294504724831 -0.0062176424887523526 0 0.00031200788011609388 -0.0057288986468111555 0 0.00021156265966182025 -0.0063696941596745518 0 7.4242918055420691e-05 -0.0062502679203337462 0 -0.00027738953478351224 -0.0068568585278587146 0 -0.00055014431514677491 -0.005770692283758351 0 -0.0016014427873055474 -0.0065869591869278958 0 -0.0048763705632907722 -0.0031774987430834996 0 -0.0035723846234365438 -0.0044221270581978151 0 -0.00055014431514677491 -0.005770692283758351 0 -0.0016014427873055474 -0.0065869591869278958 0 -0.0017180837783391189 -0.0050439446697550646 0 -0.0073099752379590065 -0.0012967462755880139 0 -0.0075675791974222154 0.00079960254507107666 0 -0.008266799893652187 2.1534291060591418e-05 0 -0.0015959833851397396 -0.0044095028316069509 0 -0.0048763705632907722 -0.0031774987430834996 0 -0.0018357247455709498 -0.0027751545712413231 0 -0.0066648361919978373 -0.0031474144982988101 0 -0.0060116787864103677 -0.0013760433121512595 0 -0.0048527843693654494 -0.0021912688842879256 0 -0.0061003208939243263 -0.0033184226484464833 0 -0.0026681391981591275 -0.0035552651674560804 0 -0.004078567463825419 -0.002777422504836318 0 -0.0061003208939243263 -0.0033184226484464833 0 -0.0054794990826469983 -0.0040812523468404813 0 -0.0040140641588052427 -0.0037969232349301502 0 -0.0067878719836477648 -0.0029189880515231325 0 -0.0026657886348973952 -0.0020091454743460663 0 -0.0060116787864103677 -0.0013760433121512595 0 -0.0048527843693654494 -0.0021912688842879256 0 -0.004078567463825419 -0.002777422504836318 0 -0.0048527843693654494 -0.0021912688842879256 0 -0.0061003208939243263 -0.0033184226484464833 0 -0.0026657886348973952 -0.0020091454743460663 0 -0.004078567463825419 -0.002777422504836318 0 -0.0048527843693654494 -0.0021912688842879256 0 -0.0068702393490951636 -0.0044689201463026761 0 -0.0054794990826469983 -0.0040812523468404813 0 -0.0067878719836477648 -0.0029189880515231325 0 0.0024219752080147593 -0.00066441307630471546 0 0.0035475858461081057 -0.0034270567814808721 0 0.003068938654530218 -0.0025013396515209691 0 0.00023329198436930726 -8.9790809861644779e-05 0 0.0038308571760338052 -0.0038412232258972943 0 -0.0026555067078575527 -0.00023482085381443675 0 -0.0014589069726041427 -0.00066678003412257993 0 -0.0017005495627742063 0.00074123013778179645 0 -0.0014589069726041427 -0.00066678003412257993 0 -0.0017005495627742063 0.00074123013778179645 0 -0.00096483075080569742 0.00030416039964893367 0 -0.0026555067078575527 -0.00023482085381443675 0 -0.0014589069726041427 -0.00066678003412257993 0 -0.0013939273738960843 -0.0022288085749920918 0 0.0035502263469695725 -0.002816490425596552 0 0.0046090010350325799 -0.0016154000716288538 0 0.0038308571760338052 -0.0038412232258972943 0 0.0021261586788542011 -0.0026512169354016412 0 0.0035502263469695725 -0.002816490425596552 0 0.0035442777080091888 -0.0049391776222460059 0 0.0035502263469695725 -0.002816490425596552 0 0.0038308571760338052 -0.0038412232258972943 0 0.0035442777080091888 -0.0049391776222460059 0 0.0021261586788542011 -0.0026512169354016412 0 0.0035502263469695725 -0.002816490425596552 0 0.0034058263186721015 -0.0015645468404159944 0 0.0035502263469695725 -0.002816490425596552 0 0.0034058263186721015 -0.0015645468404159944 0 0.0046090010350325799 -0.0016154000716288538 0 0.002718774605819119 -0.00020033299794671138 0 0.003839441091737777 -0.00036551039080334031 0 0.0034058263186721015 -0.0015645468404159944 0 0.003839441091737777 -0.00036551039080334031 0 0.0034058263186721015 -0.0015645468404159944 0 0.0046090010350325799 -0.0016154000716288538 0 -0.0014867058823325697 0.0019560453746335061 0 -0.0017005495627742063 0.00074123013778179645 0 -0.0012178596827514658 0.0015185784884715824 0 -0.0014867058823325697 0.0019560453746335061 0 -0.0026555067078575527 -0.00023482085381443675 0 -0.0017005495627742063 0.00074123013778179645 0 -0.0014867058823325697 0.0019560453746335061 0 0.003068938654530218 -0.0025013396515209691 0 0.00023329198436930726 -8.9790809861644779e-05 0 -0.0011965340526183474 0.0015093759436938465 0 0.00015105960986554694 -0.0015144449820072201 0 -0.0017005495627742063 0.00074123013778179645 0 -0.0012178596827514658 0.0015185784884715824 0 -0.00096483075080569742 0.00030416039964893367 0 -0.00061933258955161944 0.0023867221409437241 0 -0.0012178596827514658 0.0015185784884715824 0 -0.00012156006816439396 0.001395754907646838 0 6.2920284184837526e-07 0.002589734199543438 0 -0.00061933258955161944 0.0023867221409437241 0 -0.00012156006816439396 0.001395754907646838 0 -0.0012178596827514658 0.0015185784884715824 0 -0.00012156006816439396 0.001395754907646838 0 -0.00096483075080569742 0.00030416039964893367 0 9.863920810163499e-06 0.0014515947423622999 0 0.0015999011374045861 0.000316916446382129 0 6.2920284184837526e-07 0.002589734199543438 0 -0.00012156006816439396 0.001395754907646838 0 0.00025536848980236269 0.0015526002476015353 0 0.0037698053789628292 -0.0027482212119148666 0 0.0028535141336619163 -0.00048495626158179066 0 0.0022747368089110907 -0.0023164474625424719 0 0.0028535141336619163 -0.00048495626158179066 0 0.00048413838590222023 -0.0013541116856966011 0 0.0022747368089110907 -0.0023164474625424719 0 -0.00012156006816439396 0.001395754907646838 0 0.0031318975259545406 0.00037163982495673329 0 0.00048413838590222023 -0.0013541116856966011 0 0.0015999011374045861 0.000316916446382129 0 0.0010476697300502414 -0.0012059073660533805 0 -0.00012156006816439396 0.001395754907646838 0 -0.00096483075080569742 0.00030416039964893367 0 0.00048413838590222023 -0.0013541116856966011 0 -0.0014589069726041427 -0.00066678003412257993 0 0.00048413838590222023 -0.0013541116856966011 0 -0.0013939273738960843 -0.0022288085749920918 0 -0.0014589069726041427 -0.00066678003412257993 0 -0.00096483075080569742 0.00030416039964893367 0 0.00048413838590222023 -0.0013541116856966011 0 0.00048413838590222023 -0.0013541116856966011 0 0.00089475009747341826 -0.0032992653295305838 0 -0.0013939273738960843 -0.0022288085749920918 0 7.2632854030978632e-05 -0.0034306362144912064 0 0.00065383517775862419 -0.005243072081045002 0 0.0037698053789628292 -0.0027482212119148666 0 0.0022747368089110907 -0.0023164474625424719 0 0.0022211986197836998 -0.0037611621302749729 0 0.00048413838590222023 -0.0013541116856966011 0 0.00089475009747341826 -0.0032992653295305838 0 0.0022747368089110907 -0.0023164474625424719 0 0.00089475009747341826 -0.0032992653295305838 0 0.0022747368089110907 -0.0023164474625424719 0 0.0022211986197836998 -0.0037611621302749729 0 0.0032220329314629234 -0.0050657216934853104 0 0.0010411917062942064 -0.0051270522793613257 0 0.0011135171248981984 -0.0064851354325871627 0 0.0032220329314629234 -0.0050657216934853104 0 0.0022211986197836998 -0.0037611621302749729 0 0.0010411917062942064 -0.0051270522793613257 0 0.00089475009747341826 -0.0032992653295305838 0 0.0022211986197836998 -0.0037611621302749729 0 0.0010411917062942064 -0.0051270522793613257 0 0.00089475009747341826 -0.0032992653295305838 0 0.0010411917062942064 -0.0051270522793613257 0 -0.00025249108339099624 -0.0047786279011969796 0 0.00065383517775862419 -0.005243072081045002 0 0.00038158192847994118 -0.0069077918117767031 0 0.0010411917062942064 -0.0051270522793613257 0 -0.00025249108339099624 -0.0047786279011969796 0 0.00052397494392012508 -0.0066303509986390856 0 -0.0026555067078575527 -0.00023482085381443675 0 -0.0027175535536973355 -0.00468236884740433 0 -0.0013939273738960843 -0.0022288085749920918 0 0.00089475009747341826 -0.0032992653295305838 0 -0.0027175535536973355 -0.00468236884740433 0 -0.0013939273738960843 -0.0022288085749920918 0 0.00015105960986554694 -0.0015144449820072201 0 0.00065383517775862419 -0.005243072081045002 0 0.003068938654530218 -0.0025013396515209691 0 0.0047379297043108962 -0.0056894375960882312 0 0.0038308571760338052 -0.0038412232258972943 0 0.0047379297043108962 -0.0056894375960882312 0 0.0038308571760338052 -0.0038412232258972943 0 0.0035442777080091888 -0.0049391776222460059 0 0.0015376796051572602 -0.0073616275088781331 0 0.00055143725606021936 -0.0076139506561873661 0 0.00052397494392012508 -0.0066303509986390856 0 0.0030212434833619688 -0.0066826683818491401 0 0.00065383517775862419 -0.005243072081045002 0 0.0036914216968382541 -0.0056977281704305828 0 0.0047379297043108962 -0.0056894375960882312 0 0.0035442777080091888 -0.0049391776222460059 0 0.0015376796051572602 -0.0073616275088781331 0 0.0012707290927607591 -0.0066865681297264262 0 0.00052397494392012508 -0.0066303509986390856 0 0.0012707290927607591 -0.0066865681297264262 0 0.00090016221808088531 -0.0066409758122775069 0 0.00052397494392012508 -0.0066303509986390856 0 0.0012707290927607591 -0.0066865681297264262 0 0.00090016221808088531 -0.0066409758122775069 0 0.0011641820804279964 -0.0065825162264628381 0 0.00090016221808088531 -0.0066409758122775069 0 0.00052397494392012508 -0.0066303509986390856 0 0.0011135171248981984 -0.0064851354325871627 0 0.0010411917062942064 -0.0051270522793613257 0 0.00052397494392012508 -0.0066303509986390856 0 0.0011135171248981984 -0.0064851354325871627 0 0.00098822374734412223 -0.0065996232990233128 0 0.0011135171248981984 -0.0064851354325871627 0 0.00096396212885786715 -0.0064885477294334536 0 0.002088947094664451 -0.0060296347235903264 0 0.0011922356086453787 -0.006393684909475718 0 0.0011135171248981984 -0.0064851354325871627 0 0.00096291661269190521 -0.0065524051721205217 0 0.00096396212885786715 -0.0064885477294334536 0 0.00090016221808088531 -0.0066409758122775069 0 0.0011135171248981984 -0.0064851354325871627 0 0.00096291661269190521 -0.0065524051721205217 0 0.00086931573045320146 -0.0067800296800902791 0 0.001140365168482989 -0.0066182570996502774 0 0.00085871725240665932 -0.0070261095568520584 0 0.00056463663792285092 -0.0067925208533158145 0 -5.205507816408623e-06 -0.0074725976688425517 0 0.00096291661269190521 -0.0065524051721205217 0 0.00096396212885786715 -0.0064885477294334536 0 0.00091997599925377387 -0.0064583114496173577 0 0.00086931573045320146 -0.0067800296800902791 0 0.00050329192404995125 -0.0069843578436085485 0 0.00085871725240665932 -0.0070261095568520584 0 0.00056463663792285092 -0.0067925208533158145 0 0.0011103916930739926 -0.0065279433361353639 0 0.00085871725240665932 -0.0070261095568520584 0 0.0011641820804279964 -0.0065825162264628381 0 0.0011103916930739926 -0.0065279433361353639 0 0.0011641820804279964 -0.0065825162264628381 0 0.0014548867356617529 -0.0064293602354896688 0 0.0011103916930739926 -0.0065279433361353639 0 0.0011641820804279964 -0.0065825162264628381 0 0.0014548867356617529 -0.0064293602354896688 0 0.0014766959454158327 -0.0064301011041423637 0 0.0012707290927607591 -0.0066865681297264262 0 0.0011641820804279964 -0.0065825162264628381 0 0.0014766959454158327 -0.0064301011041423637 0 0.00090016221808088531 -0.0066409758122775069 0 0.00096291661269190521 -0.0065524051721205217 0 0.0011641820804279964 -0.0065825162264628381 0 -0.00061732406608005889 -0.0054311139730290562 0 -0.00021266597486534097 -0.005555011746796565 0 -0.00059756539528842188 -0.0059281490893581066 0 -0.00061732406608005889 -0.0054311139730290562 0 -0.00021266597486534097 -0.005555011746796565 0 -0.0003020047768978557 -0.0051694817697653253 0 -0.0023854374707564497 -0.0070703482649711194 0 -0.0035723846234365438 -0.0044221270581978151 0 -0.00011772294504724831 -0.0062176424887523526 0 -0.00021266597486534097 -0.005555011746796565 0 -0.00059756539528842188 -0.0059281490893581066 0 7.4242918055420691e-05 -0.0062502679203337462 0 -0.0035723846234365438 -0.0044221270581978151 0 -0.00011772294504724831 -0.0062176424887523526 0 -0.00021266597486534097 -0.005555011746796565 0 0.00031200788011609388 -0.0057288986468111555 0 -0.00021266597486534097 -0.005555011746796565 0 0.00031200788011609388 -0.0057288986468111555 0 3.183362046858495e-05 -0.0049420186937374627 0 -0.00021266597486534097 -0.005555011746796565 0 3.183362046858495e-05 -0.0049420186937374627 0 -0.0003020047768978557 -0.0051694817697653253 0 0.00067558641085046155 -0.00588104721095461 0 -0.00050791501343602037 -0.0068757064251940151 0 0.00085880080973265945 -0.0064720875641156479 0 0.0008121130703609825 -0.0065142430996521731 0 0.00079832422867374942 -0.0064319910904830973 0 0.00085880080973265945 -0.0064720875641156479 0 0.00086971177127268169 -0.0065086393715746305 0 0.0008121130703609825 -0.0065142430996521731 0 0.00086971177127268169 -0.0065086393715746305 0 0.0008121130703609825 -0.0065142430996521731 0 0.00085859320551235957 -0.0065628416086560967 0 0.00086971177127268169 -0.0065086393715746305 0 0.00085859320551235957 -0.0065628416086560967 0 0.00096396212885786715 -0.0064885477294334536 0 0.00098822374734412223 -0.0065996232990233128 0 0.00085859320551235957 -0.0065628416086560967 0 0.00096396212885786715 -0.0064885477294334536 0 0.00085880080973265945 -0.0064720875641156479 0 0.00096396212885786715 -0.0064885477294334536 0 0.00091997599925377387 -0.0064583114496173577 0 0.00085880080973265945 -0.0064720875641156479 0 0.00086971177127268169 -0.0065086393715746305 0 0.00096396212885786715 -0.0064885477294334536 0 0.00056463663792285092 -0.0067925208533158145 0 -5.205507816408623e-06 -0.0074725976688425517 0 1.707949555834804e-05 -0.0066007536115803098 0 -5.205507816408623e-06 -0.0074725976688425517 0 -0.00066695830737513245 -0.0070837981985570724 0 1.707949555834804e-05 -0.0066007536115803098 0 0.00050329192404995125 -0.0069843578436085485 0 -0.00050791501343602037 -0.0068757064251940151 0 0.00085880080973265945 -0.0064720875641156479 0 0.00091997599925377387 -0.0064583114496173577 0 0.00079832422867374942 -0.0064319910904830973 0 -5.205507816408623e-06 -0.0074725976688425517 0 -0.00066695830737513245 -0.0070837981985570724 0 -0.0011967916039780685 -0.0076958182417433216 0 -0.00066695830737513245 -0.0070837981985570724 0 -0.0011967916039780685 -0.0076958182417433216 0 -0.0015504666443116007 -0.0069420739059155552 0 -0.00050791501343602037 -0.0068757064251940151 0 -0.0017689788549789442 -0.0073926555748979415 0 -0.0015372250190739476 -0.0088240222327723526 0 -0.0019076772045348008 -0.0074294723102474427 0 -0.0023735319786297032 -0.0082794653256669307 0 -0.0019076772045348008 -0.0074294723102474427 0 -0.0023735319786297032 -0.0082794653256669307 0 -0.0032462789733323188 -0.0078102882164922411 0 -0.0023735319786297032 -0.0082794653256669307 0 -0.0031539546063485096 -0.0088502979376759317 0 -0.0032462789733323188 -0.0078102882164922411 0 -0.00050791501343602037 -0.0068757064251940151 0 -0.0025359647925350622 -0.0071204931779157536 0 -0.0015372250190739476 -0.0088240222327723526 0 -0.0023735319786297032 -0.0082794653256669307 0 -0.0031539546063485096 -0.0088502979376759317 0 3.183362046858495e-05 -0.0049420186937374627 0 -0.00064992603052571347 -0.00495997577610802 0 -0.0003020047768978557 -0.0051694817697653253 0 -0.0023854374707564497 -0.0070703482649711194 0 -0.0025359647925350622 -0.0071204931779157536 0 -0.00061732406608005889 -0.0054311139730290562 0 -0.00064992603052571347 -0.00495997577610802 0 -0.0003020047768978557 -0.0051694817697653253 0 -0.0022126410609720586 -0.0060445989631983648 0 -0.003354495863097592 -0.0067404157430172229 0 -0.0035705510719239476 -0.00604688912576008 0 -0.0022126410609720586 -0.0060445989631983648 0 -0.0035705510719239476 -0.00604688912576008 0 -0.0032651729171482998 -0.0053313903802003982 0 -0.0022126410609720586 -0.0060445989631983648 0 -0.0022560569742208834 -0.005252471878770649 0 -0.0032651729171482998 -0.0053313903802003982 0 -0.0019076772045348008 -0.0074294723102474427 0 -0.0032462789733323188 -0.0078102882164922411 0 -0.003354495863097592 -0.0067404157430172229 0 -0.0017689788549789442 -0.0073926555748979415 0 -0.0021652822413796642 -0.006013109632914731 0 -0.0019076772045348008 -0.0074294723102474427 0 -0.0022126410609720586 -0.0060445989631983648 0 -0.003354495863097592 -0.0067404157430172229 0 -0.00066695830737513245 -0.0070837981985570724 0 -0.0015504666443116007 -0.0069420739059155552 0 -0.00067814685139737244 -0.0065403192619827299 0 -0.0015504666443116007 -0.0069420739059155552 0 -0.0022126410609720586 -0.0060445989631983648 0 -0.0013682108390420987 -0.0063607076009320491 0 -0.0015504666443116007 -0.0069420739059155552 0 -0.0013682108390420987 -0.0063607076009320491 0 -0.00067814685139737244 -0.0065403192619827299 0 -0.0022126410609720586 -0.0060445989631983648 0 -0.0013682108390420987 -0.0063607076009320491 0 -0.00087576110191265135 -0.0059032184182225018 0 -0.0022126410609720586 -0.0060445989631983648 0 -0.00087576110191265135 -0.0059032184182225018 0 -0.0013232227786653011 -0.0052452777326511104 0 -0.0022126410609720586 -0.0060445989631983648 0 -0.0013232227786653011 -0.0052452777326511104 0 -0.0022560569742208834 -0.005252471878770649 0 -0.00087576110191265135 -0.0059032184182225018 0 -0.00044395694179488228 -0.0054858122603498351 0 -0.0013232227786653011 -0.0052452777326511104 0 -0.0002082344811685425 -0.0060845925881759921 0 0.00029841688187229987 -0.0057140625710187711 0 -0.00044395694179488228 -0.0054858122603498351 0 -0.0002082344811685425 -0.0060845925881759921 0 -0.00087576110191265135 -0.0059032184182225018 0 -0.00044395694179488228 -0.0054858122603498351 0 -0.0002082344811685425 -0.0060845925881759921 0 -0.00087576110191265135 -0.0059032184182225018 0 -0.00067814685139737244 -0.0065403192619827299 0 -0.0013682108390420987 -0.0063607076009320491 0 -0.00087576110191265135 -0.0059032184182225018 0 -0.00067814685139737244 -0.0065403192619827299 0 -0.00066695830737513245 -0.0070837981985570724 0 -0.00067814685139737244 -0.0065403192619827299 0 1.707949555834804e-05 -0.0066007536115803098 0 -0.0002082344811685425 -0.0060845925881759921 0 -0.00067814685139737244 -0.0065403192619827299 0 1.707949555834804e-05 -0.0066007536115803098 0 0.00056463663792285092 -0.0067925208533158145 0 1.707949555834804e-05 -0.0066007536115803098 0 0.00047657658561530206 -0.0063835297689946923 0 -0.0002082344811685425 -0.0060845925881759921 0 1.707949555834804e-05 -0.0066007536115803098 0 0.00026405452897883616 -0.0061648592734767612 0 1.707949555834804e-05 -0.0066007536115803098 0 0.00026405452897883616 -0.0061648592734767612 0 0.00047657658561530206 -0.0063835297689946923 0 0.00026405452897883616 -0.0061648592734767612 0 0.00047657658561530206 -0.0063835297689946923 0 0.00062246837910364978 -0.0060518359039039519 0 -0.0002082344811685425 -0.0060845925881759921 0 0.00026405452897883616 -0.0061648592734767612 0 0.00029841688187229987 -0.0057140625710187711 0 0.00026405452897883616 -0.0061648592734767612 0 0.00029841688187229987 -0.0057140625710187711 0 0.00062246837910364978 -0.0060518359039039519 0 0.00029841688187229987 -0.0057140625710187711 0 0.00062657724307651401 -0.0058551496040395541 0 0.00062246837910364978 -0.0060518359039039519 0 0.00035744552300655041 -0.0057689617304267846 0 0.0005094745896844999 -0.0054204111783231175 0 0.00029841688187229987 -0.0057140625710187711 0 0.00015389919713238744 -0.0047328826869316547 0 -0.00019676143479261272 -0.0050062663963898434 0 0.00029841688187229987 -0.0057140625710187711 0 0.00062657724307651401 -0.0058551496040395541 0 0.00090543762300954048 -0.0060981478040569043 0 0.00062657724307651401 -0.0058551496040395541 0 0.00090543762300954048 -0.0060981478040569043 0 0.00089664427601057793 -0.0063321479116991318 0 0.00015389919713238744 -0.0047328826869316547 0 -0.00045696390146183921 -0.004503164251578695 0 0.00020842911713863619 -0.0040092810476201994 0 0.0005094745896844999 -0.0054204111783231175 0 0.00044521892916685104 -0.0055052801645696595 0 0.00090543762300954048 -0.0060981478040569043 0 0.00089664427601057793 -0.0063321479116991318 0 0.0010384684835174399 -0.0064993522352079633 0 -0.00037840000033849701 -0.0044268263912943433 0 0.00044521892916685104 -0.0055052801645696595 0 0.00015389919713238744 -0.0047328826869316547 0 -0.00045696390146183921 -0.004503164251578695 0 -0.00019676143479261272 -0.0050062663963898434 0 -0.00061958243172410843 -0.0047344428474775258 0 -0.00093137359088208273 -0.0040341064653080117 0 -0.00045696390146183921 -0.004503164251578695 0 -0.00061674215503014257 -0.0047997267291797971 0 -0.00051916659412963638 -0.0044861185110201878 0 -0.00045696390146183921 -0.004503164251578695 0 -0.00051916659412963638 -0.0044861185110201878 0 -0.00055292730822590458 -0.0045640653223820672 0 -0.00045696390146183921 -0.004503164251578695 0 -0.00061674215503014257 -0.0047997267291797971 0 -0.00019676143479261272 -0.0050062663963898434 0 0.00029841688187229987 -0.0057140625710187711 0 -0.00019676143479261272 -0.0050062663963898434 0 -0.00044395694179488228 -0.0054858122603498351 0 -0.00061674215503014257 -0.0047997267291797971 0 -0.00019676143479261272 -0.0050062663963898434 0 -0.00044395694179488228 -0.0054858122603498351 0 -0.00061674215503014257 -0.0047997267291797971 0 -0.00044395694179488228 -0.0054858122603498351 0 -0.0013232227786653011 -0.0052452777326511104 0 -0.0013232227786653011 -0.0052452777326511104 0 -0.0019932289734452772 -0.0046177622657531227 0 -0.0022560569742208834 -0.005252471878770649 0 -0.00061674215503014257 -0.0047997267291797971 0 -0.0013232227786653011 -0.0052452777326511104 0 -0.0013194918041020116 -0.0045554539281940105 0 -0.0013232227786653011 -0.0052452777326511104 0 -0.0019932289734452772 -0.0046177622657531227 0 -0.0013194918041020116 -0.0045554539281940105 0 -0.0019932289734452772 -0.0046177622657531227 0 -0.0013410588397868824 -0.0035053898047770864 0 -0.0022925829429669585 -0.0037184745091381529 0 -0.00061674215503014257 -0.0047997267291797971 0 -0.0013194918041020116 -0.0045554539281940105 0 -0.0013410588397868824 -0.0035053898047770864 0 -0.0019932289734452772 -0.0046177622657531227 0 -0.0013194918041020116 -0.0045554539281940105 0 -0.0013410588397868824 -0.0035053898047770864 0 -0.0022925829429669585 -0.0037184745091381529 0 -0.0033843060787249312 -0.0042502568873291555 0 -0.0030147117069983321 -0.0031619773911770346 0 -0.0022925829429669585 -0.0037184745091381529 0 -0.0027398135263823386 -0.0048255234551431133 0 -0.0033843060787249312 -0.0042502568873291555 0 -0.0019932289734452772 -0.0046177622657531227 0 -0.0022925829429669585 -0.0037184745091381529 0 -0.0027398135263823386 -0.0048255234551431133 0 -0.0027398135263823386 -0.0048255234551431133 0 -0.0032651729171482998 -0.0053313903802003982 0 -0.0033843060787249312 -0.0042502568873291555 0 -0.0019932289734452772 -0.0046177622657531227 0 -0.0027398135263823386 -0.0048255234551431133 0 -0.0022560569742208834 -0.005252471878770649 0 -0.0027398135263823386 -0.0048255234551431133 0 -0.0022560569742208834 -0.005252471878770649 0 -0.0032651729171482998 -0.0053313903802003982 0 0.0012407136203039001 -0.0062116875687053697 0 0.0010274233164211143 -0.0061230944445074308 0 0.0012163666951126354 -0.005936357370483431 0 0.0012407136203039001 -0.0062116875687053697 0 0.0012163666951126354 -0.005936357370483431 0 0.0013849007329090899 -0.0058862343937535451 0 0.0014548867356617529 -0.0064293602354896688 0 0.0013849007329090899 -0.0058862343937535451 0 0.0019053182633531737 -0.0060234014775407147 0 0.0012407136203039001 -0.0062116875687053697 0 0.0014548867356617529 -0.0064293602354896688 0 0.0013849007329090899 -0.0058862343937535451 0 0.0012407136203039001 -0.0062116875687053697 0 0.0014548867356617529 -0.0064293602354896688 0 0.0011103916930739926 -0.0065279433361353639 0 0.0012407136203039001 -0.0062116875687053697 0 0.0011103916930739926 -0.0065279433361353639 0 0.0010274233164211143 -0.0061230944445074308 0 0.00056463663792285092 -0.0067925208533158145 0 0.0011103916930739926 -0.0065279433361353639 0 0.00079145512957229521 -0.0063645261855234409 0 0.0011103916930739926 -0.0065279433361353639 0 0.00079145512957229521 -0.0063645261855234409 0 0.0010274233164211143 -0.0061230944445074308 0 0.00056463663792285092 -0.0067925208533158145 0 0.00079145512957229521 -0.0063645261855234409 0 0.00047657658561530206 -0.0063835297689946923 0 0.00079145512957229521 -0.0063645261855234409 0 0.00047657658561530206 -0.0063835297689946923 0 0.00062246837910364978 -0.0060518359039039519 0 0.00079145512957229521 -0.0063645261855234409 0 0.00062246837910364978 -0.0060518359039039519 0 0.0010274233164211143 -0.0061230944445074308 0 0.00062246837910364978 -0.0060518359039039519 0 0.0010274233164211143 -0.0061230944445074308 0 0.0010044873272001052 -0.0058687898791044395 0 0.0010274233164211143 -0.0061230944445074308 0 0.0010044873272001052 -0.0058687898791044395 0 0.0012163666951126354 -0.005936357370483431 0 0.00062657724307651401 -0.0058551496040395541 0 0.00062246837910364978 -0.0060518359039039519 0 0.0010044873272001052 -0.0058687898791044395 0 0.00071104863592216685 -0.0058897355763888534 0 0.0010101652710727139 -0.0060670033952069987 0 0.00062657724307651401 -0.0058551496040395541 0 0.0010044873272001052 -0.0058687898791044395 0 0.0011032686218971856 -0.0056592507484625161 0 0.00089664427601057793 -0.0063321479116991318 0 0.00091190140617318472 -0.0064933921656763812 0 0.0009981787124142623 -0.00655777466004162 0 0.00062657724307651401 -0.0058551496040395541 0 0.00089664427601057793 -0.0063321479116991318 0 0.00091190140617318472 -0.0064933921656763812 0 0.00089664427601057793 -0.0063321479116991318 0 0.0009981787124142623 -0.00655777466004162 0 0.0010384684835174399 -0.0064993522352079633 0 0.0010044873272001052 -0.0058687898791044395 0 0.0011032686218971856 -0.0056592507484625161 0 0.0013215813515240571 -0.0056706373409590805 0 0.0011032686218971856 -0.0056592507484625161 0 0.0013215813515240571 -0.0056706373409590805 0 0.0015443640146898439 -0.005909890781258525 0 0.0010044873272001052 -0.0058687898791044395 0 0.0013215813515240571 -0.0056706373409590805 0 0.0012163666951126354 -0.005936357370483431 0 0.0013215813515240571 -0.0056706373409590805 0 0.0012163666951126354 -0.005936357370483431 0 0.0013849007329090899 -0.0058862343937535451 0 0.0013215813515240571 -0.0056706373409590805 0 0.0013849007329090899 -0.0058862343937535451 0 0.0013487139374899189 -0.0053862215576428113 0 0.0013849007329090899 -0.0058862343937535451 0 0.0013487139374899189 -0.0053862215576428113 0 0.0019053182633531737 -0.0060234014775407147 0 0.0013215813515240571 -0.0056706373409590805 0 0.0013487139374899189 -0.0053862215576428113 0 0.0013919311664267382 -0.0057622455962431963 0 0.001269387511334191 -0.0053432029295496413 0 0.00123096345129719 -0.005142089808822658 0 0.0013487139374899189 -0.0053862215576428113 0 -2.2492083145261215e-05 -0.0055331626253392633 0 0.0010888481663286094 -0.0060934971844642666 0 0.0013487139374899189 -0.0053862215576428113 0 0.0023287528983569434 -0.0055343175170160961 0 0.0023576625438624138 -0.0047304220277920896 0 0.0031760015398904591 -0.0053276428305497701 0 0.0033218692800032167 -0.0042564381937186717 0 0.0023576625438624138 -0.0047304220277920896 0 0.0023287528983569434 -0.0055343175170160961 0 0.0031760015398904591 -0.0053276428305497701 0 0.0023576625438624138 -0.0047304220277920896 0 0.0023287528983569434 -0.0055343175170160961 0 0.0028949303262542688 -0.0060383459572247496 0 0.0031760015398904591 -0.0053276428305497701 0 0.0023287528983569434 -0.0055343175170160961 0 0.0019053182633531737 -0.0060234014775407147 0 0.0028949303262542688 -0.0060383459572247496 0 0.0013487139374899189 -0.0053862215576428113 0 0.0023287528983569434 -0.0055343175170160961 0 0.0019053182633531737 -0.0060234014775407147 0 0.0014548867356617529 -0.0064293602354896688 0 0.0019053182633531737 -0.0060234014775407147 0 0.0022689720690129271 -0.0064764174160464837 0 0.0019053182633531737 -0.0060234014775407147 0 0.0028949303262542688 -0.0060383459572247496 0 0.0022689720690129271 -0.0064764174160464837 0 0.0028949303262542688 -0.0060383459572247496 0 0.0029969043864875641 -0.0067556229479424712 0 0.0022689720690129271 -0.0064764174160464837 0 0.0029969043864875641 -0.0067556229479424712 0 0.0022689720690129271 -0.0064764174160464837 0 0.002251363413462386 -0.0071407681551076772 0 0.0015289763674649034 -0.0064552370646011768 0 0.0020448862571010354 -0.0066387142524838511 0 0.0014548867356617529 -0.0064293602354896688 0 0.0022689720690129271 -0.0064764174160464837 0 0.002251363413462386 -0.0071407681551076772 0 0.0037279694101918425 -0.00693188025679475 0 0.0042240136948943378 -0.0064452494438709748 0 0.0044772297080923115 -0.0068981499437565036 0 0.0037279694101918425 -0.00693188025679475 0 0.0044772297080923115 -0.0068981499437565036 0 0.0043309660018727644 -0.0073208327084352074 0 0.0037279694101918425 -0.00693188025679475 0 0.0035509608672801571 -0.0064187114219899514 0 0.0042240136948943378 -0.0064452494438709748 0 0.0029969043864875641 -0.0067556229479424712 0 0.0037279694101918425 -0.00693188025679475 0 0.0035509608672801571 -0.0064187114219899514 0 0.0028949303262542688 -0.0060383459572247496 0 0.0035509608672801571 -0.0064187114219899514 0 0.0038404769148620253 -0.00589480585991819 0 0.0028949303262542688 -0.0060383459572247496 0 0.0029969043864875641 -0.0067556229479424712 0 0.0035509608672801571 -0.0064187114219899514 0 0.0035509608672801571 -0.0064187114219899514 0 0.0042240136948943378 -0.0064452494438709748 0 0.0038404769148620253 -0.00589480585991819 0 0.0042240136948943378 -0.0064452494438709748 0 0.0038404769148620253 -0.00589480585991819 0 0.004453051001419797 -0.0059127682619544882 0 0.0038404769148620253 -0.00589480585991819 0 0.0031760015398904591 -0.0053276428305497701 0 0.0043195507391216026 -0.0052414951483646327 0 0.0038404769148620253 -0.00589480585991819 0 0.0043195507391216026 -0.0052414951483646327 0 0.004453051001419797 -0.0059127682619544882 0 0.0028949303262542688 -0.0060383459572247496 0 0.0038404769148620253 -0.00589480585991819 0 0.0031760015398904591 -0.0053276428305497701 0 0.0031760015398904591 -0.0053276428305497701 0 0.0043195507391216026 -0.0052414951483646327 0 0.0033218692800032167 -0.0042564381937186717 0 0.0051138695303333164 -0.0054123336224518202 0 0.0046612595749761284 -0.0054834303195632006 0 0.0045362991419331143 -0.005360485379675887 0 0.0043195507391216026 -0.0052414951483646327 0 0.0046612595749761284 -0.0054834303195632006 0 0.0045362991419331143 -0.005360485379675887 0 0.003769324294092389 -0.0044593991065524901 0 0.0050679653385713739 -0.0056486192044238465 0 0.0051138695303333164 -0.0054123336224518202 0 0.0055018842933582217 -0.005032926420610615 0 0.0045362991419331143 -0.005360485379675887 0 0.0051138695303333164 -0.0054123336224518202 0 0.004935879442739515 -0.0058582340097168431 0 0.0046612595749761284 -0.0054834303195632006 0 0.0051138695303333164 -0.0054123336224518202 0 0.004935879442739515 -0.0058582340097168431 0 0.0055527754941324418 -0.0058703726302507487 0 0.004935879442739515 -0.0058582340097168431 0 0.004453051001419797 -0.0059127682619544882 0 0.0046612595749761284 -0.0054834303195632006 0 0.0043195507391216026 -0.0052414951483646327 0 0.004453051001419797 -0.0059127682619544882 0 0.0046612595749761284 -0.0054834303195632006 0 0.003769324294092389 -0.0044593991065524901 0 0.0093796964410572427 -0.010384209838763892 0 0.0040309801881801425 -0.0055470612742853816 0 0.0040741290083919374 -0.0056799238491249873 0 0.0039350837089101387 -0.0056971420997165168 0 0.013804512826169898 -0.016001944522156711 0 0.013814971459653021 -0.018435830700643637 0 0.013551003028015438 -0.016900339681055275 0 0.0093796964410572427 -0.010384209838763892 0 0.0087947131332875052 -0.012101393679751746 0 0.0051138695303333164 -0.0054123336224518202 0 0.0055018842933582217 -0.005032926420610615 0 0.0058514389189691226 -0.0054176386721167119 0 0.0055018842933582217 -0.005032926420610615 0 0.0058514389189691226 -0.0054176386721167119 0 0.0069112749411967709 -0.0051280181487122932 0 0.0051138695303333164 -0.0054123336224518202 0 0.0055527754941324418 -0.0058703726302507487 0 0.0058514389189691226 -0.0054176386721167119 0 0.0055527754941324418 -0.0058703726302507487 0 0.0058514389189691226 -0.0054176386721167119 0 0.0063199873105929932 -0.0056308512937673048 0 0.0058514389189691226 -0.0054176386721167119 0 0.0063199873105929932 -0.0056308512937673048 0 0.0069112749411967709 -0.0051280181487122932 0 0.0063199873105929932 -0.0056308512937673048 0 0.0069282889657432106 -0.0056037579884029003 0 0.0069112749411967709 -0.0051280181487122932 0 0.0063199873105929932 -0.0056308512937673048 0 0.0069282889657432106 -0.0056037579884029003 0 0.0066828051685612526 -0.006020034879168309 0 0.0066828051685612526 -0.006020034879168309 0 0.0071710701000910915 -0.005978256454604672 0 0.0071391365614604024 -0.0063948917993460344 0 0.0066828051685612526 -0.006020034879168309 0 0.0063327132160375813 -0.0066363109966869512 0 0.0071391365614604024 -0.0063948917993460344 0 0.0069282889657432106 -0.0056037579884029003 0 0.0066828051685612526 -0.006020034879168309 0 0.0071710701000910915 -0.005978256454604672 0 0.0063199873105929932 -0.0056308512937673048 0 0.0066828051685612526 -0.006020034879168309 0 0.0060972168671781244 -0.0061345259053026081 0 0.0066828051685612526 -0.006020034879168309 0 0.0060972168671781244 -0.0061345259053026081 0 0.0063327132160375813 -0.0066363109966869512 0 0.0055527754941324418 -0.0058703726302507487 0 0.0056551344192627513 -0.0065633633490195685 0 0.0051480008599941174 -0.0063685908072877353 0 0.0055527754941324418 -0.0058703726302507487 0 0.0060972168671781244 -0.0061345259053026081 0 0.0056551344192627513 -0.0065633633490195685 0 0.0060972168671781244 -0.0061345259053026081 0 0.0056551344192627513 -0.0065633633490195685 0 0.0063327132160375813 -0.0066363109966869512 0 0.0055527754941324418 -0.0058703726302507487 0 0.0063199873105929932 -0.0056308512937673048 0 0.0060972168671781244 -0.0061345259053026081 0 0.0056551344192627513 -0.0065633633490195685 0 0.0051480008599941174 -0.0063685908072877353 0 0.0052775920565183779 -0.0071038531025023263 0 0.0056551344192627513 -0.0065633633490195685 0 0.0058407036074436744 -0.0070257162270705017 0 0.0052775920565183779 -0.0071038531025023263 0 0.0058407036074436744 -0.0070257162270705017 0 0.0052775920565183779 -0.0071038531025023263 0 0.0057814715849012488 -0.0075119394214612474 0 0.0058407036074436744 -0.0070257162270705017 0 0.006271478940813183 -0.0073055634428018743 0 0.0057814715849012488 -0.0075119394214612474 0 0.0056551344192627513 -0.0065633633490195685 0 0.0058407036074436744 -0.0070257162270705017 0 0.0063327132160375813 -0.0066363109966869512 0 0.0058407036074436744 -0.0070257162270705017 0 0.0063327132160375813 -0.0066363109966869512 0 0.006271478940813183 -0.0073055634428018743 0 0.0063327132160375813 -0.0066363109966869512 0 0.006271478940813183 -0.0073055634428018743 0 0.0069888204925602901 -0.0070865996636978587 0 0.006271478940813183 -0.0073055634428018743 0 0.0069888204925602901 -0.0070865996636978587 0 0.0069393505092284124 -0.00765342157923515 0 0.0063327132160375813 -0.0066363109966869512 0 0.0069888204925602901 -0.0070865996636978587 0 0.0071391365614604024 -0.0063948917993460344 0 0.0042240136948943378 -0.0064452494438709748 0 0.004453051001419797 -0.0059127682619544882 0 0.0046796222965029711 -0.0063823704094060759 0 0.004935879442739515 -0.0058582340097168431 0 0.004453051001419797 -0.0059127682619544882 0 0.0046796222965029711 -0.0063823704094060759 0 0.004935879442739515 -0.0058582340097168431 0 0.0046796222965029711 -0.0063823704094060759 0 0.0051480008599941174 -0.0063685908072877353 0 0.004935879442739515 -0.0058582340097168431 0 0.0055527754941324418 -0.0058703726302507487 0 0.0051480008599941174 -0.0063685908072877353 0 0.0046796222965029711 -0.0063823704094060759 0 0.0051480008599941174 -0.0063685908072877353 0 0.0048811394153707877 -0.0068246899008038309 0 0.0051480008599941174 -0.0063685908072877353 0 0.0048811394153707877 -0.0068246899008038309 0 0.0052775920565183779 -0.0071038531025023263 0 0.0048811394153707877 -0.0068246899008038309 0 0.0052775920565183779 -0.0071038531025023263 0 0.0047439943082494048 -0.0072656745008389768 0 0.0048811394153707877 -0.0068246899008038309 0 0.0044772297080923115 -0.0068981499437565036 0 0.0047439943082494048 -0.0072656745008389768 0 0.0046796222965029711 -0.0063823704094060759 0 0.0048811394153707877 -0.0068246899008038309 0 0.0044772297080923115 -0.0068981499437565036 0 0.0042240136948943378 -0.0064452494438709748 0 0.0046796222965029711 -0.0063823704094060759 0 0.0044772297080923115 -0.0068981499437565036 0 0.0043309660018727644 -0.0073208327084352074 0 0.0043412496485811308 -0.0076143575583549599 0 0.0046817811546932559 -0.0076639044063628965 0 0.0043309660018727644 -0.0073208327084352074 0 0.0047439943082494048 -0.0072656745008389768 0 0.0046817811546932559 -0.0076639044063628965 0 0.0044772297080923115 -0.0068981499437565036 0 0.0043309660018727644 -0.0073208327084352074 0 0.0047439943082494048 -0.0072656745008389768 0 0.0052775920565183779 -0.0071038531025023263 0 0.0050390660537656786 -0.0075773491484434205 0 0.0053760701875703804 -0.0076141849117556532 0 0.0052775920565183779 -0.0071038531025023263 0 0.0047439943082494048 -0.0072656745008389768 0 0.0050390660537656786 -0.0075773491484434205 0 0.0050390660537656786 -0.0075773491484434205 0 0.0050118795869026397 -0.0078499545953000203 0 0.005382362476568924 -0.0080034905351547333 0 0.0047439943082494048 -0.0072656745008389768 0 0.0050390660537656786 -0.0075773491484434205 0 0.0046817811546932559 -0.0076639044063628965 0 0.0050390660537656786 -0.0075773491484434205 0 0.0050118795869026397 -0.0078499545953000203 0 0.0046817811546932559 -0.0076639044063628965 0 0.0050118795869026397 -0.0078499545953000203 0 0.0048824621576677024 -0.0078203605006758603 0 0.0046817811546932559 -0.0076639044063628965 0 0.0048824621576677024 -0.0078203605006758603 0 0.0046817811546932559 -0.0076639044063628965 0 0.0046847804782030236 -0.0076095318427335367 0 0.0050118795869026397 -0.0078499545953000203 0 0.0048824621576677024 -0.0078203605006758603 0 0.0051334840367159608 -0.0080407664106087132 0 0.0043412496485811308 -0.0076143575583549599 0 0.0046847804782030236 -0.0076095318427335367 0 0.0040966033769772045 -0.0078232081195808295 0 0.0045788596559238059 -0.0075366886804542899 0 0.0038779628064075683 -0.0071706241178904834 0 0.0043412496485811308 -0.0076143575583549599 0 0.0046817811546932559 -0.0076639044063628965 0 0.0046847804782030236 -0.0076095318427335367 0 0.006597670741424211 -0.0084826901824069569 0 0.0062176966529732128 -0.0079341192128035906 0 0.0074925462142863023 -0.0083654900369934237 0 0.0069393505092284124 -0.00765342157923515 0 0.0062176966529732128 -0.0079341192128035906 0 0.0074925462142863023 -0.0083654900369934237 0 0.006271478940813183 -0.0073055634428018743 0 0.0062176966529732128 -0.0079341192128035906 0 0.0057814715849012488 -0.0075119394214612474 0 0.006271478940813183 -0.0073055634428018743 0 0.0069393505092284124 -0.00765342157923515 0 0.0062176966529732128 -0.0079341192128035906 0 0.006597670741424211 -0.0084826901824069569 0 0.0062176966529732128 -0.0079341192128035906 0 0.006106295401212096 -0.0086602062758294358 0 0.0062176966529732128 -0.0079341192128035906 0 0.0057668133493405877 -0.0080635570113553566 0 0.006106295401212096 -0.0086602062758294358 0 0.0062176966529732128 -0.0079341192128035906 0 0.0057668133493405877 -0.0080635570113553566 0 0.0057814715849012488 -0.0075119394214612474 0 0.0057668133493405877 -0.0080635570113553566 0 0.0053760701875703804 -0.0076141849117556532 0 0.005382362476568924 -0.0080034905351547333 0 0.0057668133493405877 -0.0080635570113553566 0 0.0057814715849012488 -0.0075119394214612474 0 0.0053760701875703804 -0.0076141849117556532 0 0.0052775920565183779 -0.0071038531025023263 0 0.0057814715849012488 -0.0075119394214612474 0 0.0053760701875703804 -0.0076141849117556532 0 0.0050390660537656786 -0.0075773491484434205 0 0.0053760701875703804 -0.0076141849117556532 0 0.005382362476568924 -0.0080034905351547333 0 0.005382362476568924 -0.0080034905351547333 0 0.0051334840367159608 -0.0080407664106087132 0 0.0054920201486166114 -0.0082730707257924578 0 0.0050118795869026397 -0.0078499545953000203 0 0.005382362476568924 -0.0080034905351547333 0 0.0051334840367159608 -0.0080407664106087132 0 0.0051334840367159608 -0.0080407664106087132 0 0.0054920201486166114 -0.0082730707257924578 0 0.0051658118815723179 -0.0081210791215609434 0 0.0054920201486166114 -0.0082730707257924578 0 0.006106295401212096 -0.0086602062758294358 0 0.0051658118815723179 -0.0081210791215609434 0 0.0057668133493405877 -0.0080635570113553566 0 0.005382362476568924 -0.0080034905351547333 0 0.0056590368826136619 -0.0082524119905595401 0 0.0054920201486166114 -0.0082730707257924578 0 0.0056590368826136619 -0.0082524119905595401 0 0.006106295401212096 -0.0086602062758294358 0 0.005382362476568924 -0.0080034905351547333 0 0.0054920201486166114 -0.0082730707257924578 0 0.0056590368826136619 -0.0082524119905595401 0 0.006597670741424211 -0.0084826901824069569 0 0.0062529316680660823 -0.0087959889820825483 0 0.0083234227290764073 -0.0097030829815495535 0 0.006106295401212096 -0.0086602062758294358 0 0.0062529316680660823 -0.0087959889820825483 0 0.0068108567005974877 -0.0074022060002207485 0 0.0057668133493405877 -0.0080635570113553566 0 0.0056590368826136619 -0.0082524119905595401 0 0.006106295401212096 -0.0086602062758294358 0 0.006597670741424211 -0.0084826901824069569 0 0.006106295401212096 -0.0086602062758294358 0 0.0062529316680660823 -0.0087959889820825483 0 0.0060522746077621608 -0.0085032562449791887 0 0.0058059275576043271 -0.0075972164578530024 0 0.0061688609063952626 -0.0078548482160925737 0 0.0068108567005974877 -0.0074022060002207485 0 0.0060218616612912682 -0.0071277581586328322 0 0.0062529316680660823 -0.0087959889820825483 0 0.0061688609063952626 -0.0078548482160925737 0 0.0068108567005974877 -0.0074022060002207485 0 0.006106295401212096 -0.0086602062758294358 0 0.0051658118815723179 -0.0081210791215609434 0 0.0047539842261554444 -0.0078621824201507949 0 0.0051658118815723179 -0.0081210791215609434 0 0.0047539842261554444 -0.0078621824201507949 0 0.0049188928319696869 -0.0078665883178983074 0 0.0051334840367159608 -0.0080407664106087132 0 0.0051658118815723179 -0.0081210791215609434 0 0.0049188928319696869 -0.0078665883178983074 0 0.0047539842261554444 -0.0078621824201507949 0 0.0049188928319696869 -0.0078665883178983074 0 0.004694044486596818 -0.0075887388103573943 0 0.0043360542068006892 -0.0072658955579932996 0 0.0047539842261554444 -0.0078621824201507949 0 0.004694044486596818 -0.0075887388103573943 0 0.005536915327923368 -0.0066103615525874597 0 0.0058059275576043271 -0.0075972164578530024 0 0.0061728862970245628 -0.006318591670579435 0 0.0068108567005974877 -0.0074022060002207485 0 0.0060218616612912682 -0.0071277581586328322 0 0.0041068755092481283 -0.0073292933846056865 0 0.0046847804782030236 -0.0076095318427335367 0 0.0037269347999513624 -0.0064925766394570011 0 0.0041068755092481283 -0.0073292933846056865 0 0.0046847804782030236 -0.0076095318427335367 0 0.0046984546346261489 -0.0076624980104682272 0 0.0048824621576677024 -0.0078203605006758603 0 0.0046847804782030236 -0.0076095318427335367 0 0.0049188928319696869 -0.0078665883178983074 0 0.0048824621576677024 -0.0078203605006758603 0 0.0051334840367159608 -0.0080407664106087132 0 0.0049188928319696869 -0.0078665883178983074 0 0.0046847804782030236 -0.0076095318427335367 0 0.0049188928319696869 -0.0078665883178983074 0 0.0046984546346261489 -0.0076624980104682272 0 0.0049188928319696869 -0.0078665883178983074 0 0.004694044486596818 -0.0075887388103573943 0 0.0046984546346261489 -0.0076624980104682272 0 0.0048568470213975401 -0.0075785347822355216 0 0.004694044486596818 -0.0075887388103573943 0 0.0046984546346261489 -0.0076624980104682272 0 0.0042404526805911195 -0.0068508908015870382 0 0.0041251856631524687 -0.0072342278767960405 0 0.0048568470213975401 -0.0075785347822355216 0 0.0041068755092481283 -0.0073292933846056865 0 0.0046984546346261489 -0.0076624980104682272 0 0.0035980145583152136 -0.0061823846215890068 0 0.0041068755092481283 -0.0073292933846056865 0 0.0038273323609998339 -0.0071337030523608552 0 0.0035980145583152136 -0.0061823846215890068 0 0.0038273323609998339 -0.0071337030523608552 0 0.0039187296772170491 -0.0062919485920089864 0 0.0041068755092481283 -0.0073292933846056865 0 0.0038273323609998339 -0.0071337030523608552 0 0.0037269347999513624 -0.0064925766394570011 0 0.0038273323609998339 -0.0071337030523608552 0 0.0028902705353381348 -0.006714696491624244 0 0.0037269347999513624 -0.0064925766394570011 0 0.0038273323609998339 -0.0071337030523608552 0 0.0028902705353381348 -0.006714696491624244 0 0.0023886078769662211 -0.0073926140999385805 0 0.0038273323609998339 -0.0071337030523608552 0 0.0039187296772170491 -0.0062919485920089864 0 0.0040728777660152087 -0.0061105680900490379 0 0.0037737267304240258 -0.0070497451520000103 0 0.0031464422531134548 -0.0067746624391826485 0 0.0012707290927607591 -0.0066865681297264262 0 0.0023886078769662211 -0.0073926140999385805 0 0.0019943234103696034 -0.0065446991802939718 0 0.0015376796051572602 -0.0073616275088781331 0 0.0012707290927607591 -0.0066865681297264262 0 0.0023886078769662211 -0.0073926140999385805 0 0.0030212434833619688 -0.0066826683818491401 0 0.0031464422531134548 -0.0067746624391826485 0 0.0028902705353381348 -0.006714696491624244 0 0.0023886078769662211 -0.0073926140999385805 0 0.0019943234103696034 -0.0065446991802939718 0 0.0028902705353381348 -0.006714696491624244 0 0.0019943234103696034 -0.0065446991802939718 0 0.0026133103806366548 -0.0060912242396110837 0 0.0012707290927607591 -0.0066865681297264262 0 0.0019943234103696034 -0.0065446991802939718 0 0.0014766959454158327 -0.0064301011041423637 0 0.0014548867356617529 -0.0064293602354896688 0 0.0014766959454158327 -0.0064301011041423637 0 0.0017656631030770838 -0.0061377158152707764 0 0.0019943234103696034 -0.0065446991802939718 0 0.0014766959454158327 -0.0064301011041423637 0 0.0017656631030770838 -0.0061377158152707764 0 0.0020448862571010354 -0.0066387142524838511 0 0.0029101799311569681 -0.0068530432350650036 0 0.0019943234103696034 -0.0065446991802939718 0 0.0017656631030770838 -0.0061377158152707764 0 0.0026133103806366548 -0.0060912242396110837 0 0.0029969043864875641 -0.0067556229479424712 0 0.002251363413462386 -0.0071407681551076772 0 0.0031803517247503852 -0.007592303908683571 0 0.0029969043864875641 -0.0067556229479424712 0 0.0037279694101918425 -0.00693188025679475 0 0.0031803517247503852 -0.007592303908683571 0 0.0037279694101918425 -0.00693188025679475 0 0.0031803517247503852 -0.007592303908683571 0 0.0039285960617462803 -0.0074189922455277033 0 0.0037279694101918425 -0.00693188025679475 0 0.0043309660018727644 -0.0073208327084352074 0 0.0039285960617462803 -0.0074189922455277033 0 0.0031803517247503852 -0.007592303908683571 0 0.0039285960617462803 -0.0074189922455277033 0 0.0040966033769772045 -0.0078232081195808295 0 0.0043309660018727644 -0.0073208327084352074 0 0.0043412496485811308 -0.0076143575583549599 0 0.0039285960617462803 -0.0074189922455277033 0 0.0043412496485811308 -0.0076143575583549599 0 0.0039285960617462803 -0.0074189922455277033 0 0.0040966033769772045 -0.0078232081195808295 0 0.0028902705353381348 -0.006714696491624244 0 0.0026133103806366548 -0.0060912242396110837 0 0.0037269347999513624 -0.0064925766394570011 0 0.0029101799311569681 -0.0068530432350650036 0 0.0038779628064075683 -0.0071706241178904834 0 -0.025626465592912602 -0.00471930434158928 0 -0.025599330254268651 -0.005817506403502007 0 -0.026061147121813327 -0.0053602299585056232 0 -0.025626465592912602 -0.00471930434158928 0 -0.026061147121813327 -0.0053602299585056232 0 -0.026263111519655043 -0.0046387871121834189 0 -0.025626465592912602 -0.00471930434158928 0 -0.024999767352226553 -0.0050704000453691937 0 -0.025599330254268651 -0.005817506403502007 0 -0.024999767352226553 -0.0050704000453691937 0 -0.025599330254268651 -0.005817506403502007 0 -0.024999841414799873 -0.0065212529171227007 0 -0.025599330254268651 -0.005817506403502007 0 -0.026061147121813327 -0.0053602299585056232 0 -0.026180427056773894 -0.0061791065864693099 0 -0.026719276880398168 -0.0055060819656420406 0 -0.026061147121813327 -0.0053602299585056232 0 -0.026180427056773894 -0.0061791065864693099 0 -0.026719276880398168 -0.0055060819656420406 0 -0.026715298853933211 -0.0063224751488921375 0 -0.026180427056773894 -0.0061791065864693099 0 -0.026719276880398168 -0.0055060819656420406 0 -0.027122619372155828 -0.0061208917776221792 0 -0.026715298853933211 -0.0063224751488921375 0 -0.026719276880398168 -0.0055060819656420406 0 -0.026790414138692785 -0.0044281471864270529 0 -0.027130212805119944 -0.0049663611878787185 0 -0.026719276880398168 -0.0055060819656420406 0 -0.026263111519655043 -0.0046387871121834189 0 -0.026790414138692785 -0.0044281471864270529 0 -0.026719276880398168 -0.0055060819656420406 0 -0.026061147121813327 -0.0053602299585056232 0 -0.026263111519655043 -0.0046387871121834189 0 -0.026263111519655043 -0.0046387871121834189 0 -0.026412233426201158 -0.003838191920453763 0 -0.025835900385072198 -0.0038016254111649453 0 -0.026790414138692785 -0.0044281471864270529 0 -0.027097670038149703 -0.0039470364091392261 0 -0.027130212805119944 -0.0049663611878787185 0 -0.026263111519655043 -0.0046387871121834189 0 -0.026790414138692785 -0.0044281471864270529 0 -0.026412233426201158 -0.003838191920453763 0 -0.026790414138692785 -0.0044281471864270529 0 -0.026412233426201158 -0.003838191920453763 0 -0.027097670038149703 -0.0039470364091392261 0 -0.026412233426201158 -0.003838191920453763 0 -0.026513994318478427 -0.0030403590340546817 0 -0.027097670038149703 -0.0039470364091392261 0 -0.026513994318478427 -0.0030403590340546817 0 -0.027157593346736099 -0.0030433804591946481 0 -0.027097670038149703 -0.0039470364091392261 0 -0.026412233426201158 -0.003838191920453763 0 -0.026058727092868949 -0.0031762748447649275 0 -0.025835900385072198 -0.0038016254111649453 0 -0.026412233426201158 -0.003838191920453763 0 -0.026058727092868949 -0.0031762748447649275 0 -0.026513994318478427 -0.0030403590340546817 0 -0.025835900385072198 -0.0038016254111649453 0 -0.024999727737511412 -0.0036195421196006899 0 -0.025647182138046277 -0.0028257529526355316 0 -0.026058727092868949 -0.0031762748447649275 0 -0.025835900385072198 -0.0038016254111649453 0 -0.025647182138046277 -0.0028257529526355316 0 -0.025626465592912602 -0.00471930434158928 0 -0.026263111519655043 -0.0046387871121834189 0 -0.025835900385072198 -0.0038016254111649453 0 -0.025626465592912602 -0.00471930434158928 0 -0.025835900385072198 -0.0038016254111649453 0 -0.024999727737511412 -0.0036195421196006899 0 -0.025626465592912602 -0.00471930434158928 0 -0.024999767352226553 -0.0050704000453691937 0 -0.024999727737511412 -0.0036195421196006899 0 -0.024999727737511412 -0.0036195421196006899 0 -0.025324867620550501 -0.0025145182475577533 0 -0.025647182138046277 -0.0028257529526355316 0 -0.025324867620550501 -0.0025145182475577533 0 -0.025647182138046277 -0.0028257529526355316 0 -0.025459895736565062 -0.002033738976311312 0 -0.024999727737511412 -0.0036195421196006899 0 -0.025324867620550501 -0.0025145182475577533 0 -0.024999735298951973 -0.0021685074298411549 0 -0.025459895736565062 -0.002033738976311312 0 -0.025423350048777858 -0.0013943451222173451 0 -0.026087521465593365 -0.0019232575894886079 0 -0.025647182138046277 -0.0028257529526355316 0 -0.025459895736565062 -0.002033738976311312 0 -0.026087521465593365 -0.0019232575894886079 0 -0.025324867620550501 -0.0025145182475577533 0 -0.024999735298951973 -0.0021685074298411549 0 -0.025459895736565062 -0.002033738976311312 0 -0.024999735298951973 -0.0021685074298411549 0 -0.025459895736565062 -0.002033738976311312 0 -0.02498703288662734 -0.0014481604664426163 0 -0.02508750772951324 -0.0014214242837721396 0 -0.025388022451970672 -0.0012529827427539757 0 -0.025571831252553325 -0.0011698860228115306 0 -0.026073605759920505 -0.00092090002147953375 0 -0.025095788479623866 -0.00087431271181977763 0 -0.025459895736565062 -0.002033738976311312 0 -0.02498703288662734 -0.0014481604664426163 0 -0.025423350048777858 -0.0013943451222173451 0 -0.025388022451970672 -0.0012529827427539757 0 -0.025089502956143671 -0.00082783604957764503 0 -0.024986883614182952 -0.0014475263478220305 0 -0.025634388547055676 -0.0011237322175760237 0 -0.024973846346832564 -0.00071895907130097437 0 -0.025074976620079792 -0.0012644181056694274 0 -0.025950734488207537 -0.0013246540882247456 0 -0.026087521465593365 -0.0019232575894886079 0 -0.025388022451970672 -0.0012529827427539757 0 -0.026003522984647007 -0.0019065322446167993 0 -0.025074976620079792 -0.0012644181056694274 0 -0.025625758094980137 -0.0010075337344299595 0 -0.025950734488207537 -0.0013246540882247456 0 -0.025388022451970672 -0.0012529827427539757 0 -0.026231881390310626 -0.00093437692782486685 0 -0.026595549632702886 6.1304590703850601e-05 0 -0.025692854814678843 7.2537410990508025e-05 0 -0.026307231026331663 -0.00074300062941917299 0 -0.025692854814678843 7.2537410990508025e-05 0 -0.026307231026331663 -0.00074300062941917299 0 -0.024973856642642581 -0.00071888595947036085 0 -0.026231881390310626 -0.00093437692782486685 0 -0.025089502956143671 -0.00082783604957764503 0 -0.02684171378814483 -0.0010802682231221519 0 -0.026947795877797488 -0.0010262682799647769 0 -0.026745530522036251 -0.00096550597058332201 0 -0.026749168871763245 -0.0012482363656982241 0 -0.02684171378814483 -0.0010802682231221519 0 -0.02695937669369779 -0.0011153740627618306 0 -0.02684171378814483 -0.0010802682231221519 0 -0.02695937669369779 -0.0011153740627618306 0 -0.026947795877797488 -0.0010262682799647769 0 -0.026231881390310626 -0.00093437692782486685 0 -0.027334505803323517 -0.00074625467884976613 0 -0.027087547751438932 -0.0010356534167810351 0 -0.02695937669369779 -0.0011153740627618306 0 -0.026947795877797488 -0.0010262682799647769 0 -0.026595549632702886 6.1304590703850601e-05 0 -0.026307231026331663 -0.00074300062941917299 0 -0.027315820229227784 -0.00020544170673535589 0 -0.026231881390310626 -0.00093437692782486685 0 -0.026701783257225151 -0.0010438575336622203 0 -0.025625758094980137 -0.0010075337344299595 0 -0.025950734488207537 -0.0013246540882247456 0 -0.026417897808761404 -0.00107429051369863 0 -0.025950734488207537 -0.0013246540882247456 0 -0.026343842411842608 -0.0014321170016840341 0 -0.026417897808761404 -0.00107429051369863 0 -0.025950734488207537 -0.0013246540882247456 0 -0.026343842411842608 -0.0014321170016840341 0 -0.026087521465593365 -0.0019232575894886079 0 -0.026701783257225151 -0.0010438575336622203 0 -0.026738788281166822 -0.0009867915217441662 0 -0.026343842411842608 -0.0014321170016840341 0 -0.026621916173049601 -0.001214462554339546 0 -0.026515721128532947 -0.0016824123669845325 0 -0.026343842411842608 -0.0014321170016840341 0 -0.026417897808761404 -0.00107429051369863 0 -0.026621916173049601 -0.001214462554339546 0 -0.026417897808761404 -0.00107429051369863 0 -0.026621916173049601 -0.001214462554339546 0 -0.026745530522036251 -0.00096550597058332201 0 -0.026515721128532947 -0.0016824123669845325 0 -0.026087521465593365 -0.0019232575894886079 0 -0.026678677502330557 -0.0023202073823038898 0 -0.026621916173049601 -0.001214462554339546 0 -0.026515721128532947 -0.0016824123669845325 0 -0.026859252194644415 -0.0015289839125007597 0 -0.026515721128532947 -0.0016824123669845325 0 -0.026678677502330557 -0.0023202073823038898 0 -0.026859252194644415 -0.0015289839125007597 0 -0.026343842411842608 -0.0014321170016840341 0 -0.026515721128532947 -0.0016824123669845325 0 -0.026087521465593365 -0.0019232575894886079 0 -0.026058727092868949 -0.0031762748447649275 0 -0.025647182138046277 -0.0028257529526355316 0 -0.026087521465593365 -0.0019232575894886079 0 -0.026058727092868949 -0.0031762748447649275 0 -0.026087521465593365 -0.0019232575894886079 0 -0.026513994318478427 -0.0030403590340546817 0 -0.026087521465593365 -0.0019232575894886079 0 -0.026678677502330557 -0.0023202073823038898 0 -0.026513994318478427 -0.0030403590340546817 0 -0.026678677502330557 -0.0023202073823038898 0 -0.026513994318478427 -0.0030403590340546817 0 -0.027157593346736099 -0.0030433804591946481 0 -0.027157593346736099 -0.0030433804591946481 0 -0.027792348553453663 -0.0030604187568105566 0 -0.027229292058451662 -0.0021336714747691712 0 -0.026678677502330557 -0.0023202073823038898 0 -0.027157593346736099 -0.0030433804591946481 0 -0.027229292058451662 -0.0021336714747691712 0 -0.027792348553453663 -0.0030604187568105566 0 -0.027229292058451662 -0.0021336714747691712 0 -0.028529993896704221 -0.0028321182062502636 0 -0.02738315983232531 -0.0021821471555341764 0 -0.027829452816415471 -0.0022938774394320651 0 -0.027792348553453663 -0.0030604187568105566 0 -0.028529993896704221 -0.0028321182062502636 0 -0.028325793440897581 -0.0035286229236958654 0 -0.027204152645355573 -0.001368234449342055 0 -0.026795502371894618 -0.0014832441315590092 0 -0.027751734977520273 -0.0018687238632339054 0 -0.027229292058451662 -0.0021336714747691712 0 -0.027845659897743548 -0.0019600961878250079 0 -0.026609833158930854 -0.00081768860436194971 0 -0.026859252194644415 -0.0015289839125007597 0 -0.026647267336229678 -0.00094513010078445974 0 -0.027751734977520273 -0.0018687238632339054 0 -0.027229292058451662 -0.0021336714747691712 0 -0.026859252194644415 -0.0015289839125007597 0 -0.026678677502330557 -0.0023202073823038898 0 -0.027229292058451662 -0.0021336714747691712 0 -0.026859252194644415 -0.0015289839125007597 0 -0.026859252194644415 -0.0015289839125007597 0 -0.026740284788621754 -0.0011330830020847551 0 -0.026647267336229678 -0.00094513010078445974 0 -0.026621916173049601 -0.001214462554339546 0 -0.026740284788621754 -0.0011330830020847551 0 -0.026745530522036251 -0.00096550597058332201 0 -0.026621916173049601 -0.001214462554339546 0 -0.026859252194644415 -0.0015289839125007597 0 -0.026740284788621754 -0.0011330830020847551 0 -0.026740284788621754 -0.0011330830020847551 0 -0.026745530522036251 -0.00096550597058332201 0 -0.026647267336229678 -0.00094513010078445974 0 -0.026745530522036251 -0.00096550597058332201 0 -0.026647267336229678 -0.00094513010078445974 0 -0.026342254146815094 -0.00050552654694413165 0 -0.026609833158930854 -0.00081768860436194971 0 -0.026647267336229678 -0.00094513010078445974 0 -0.026342254146815094 -0.00050552654694413165 0 -0.026609833158930854 -0.00081768860436194971 0 -0.026342254146815094 -0.00050552654694413165 0 -0.027247811651939534 -0.00021181679359912159 0 -0.026342254146815094 -0.00050552654694413165 0 -0.026054723671570208 0.0010190666366686888 0 -0.026720706385506304 0.0004224939885402634 0 -0.026745530522036251 -0.00096550597058332201 0 -0.026342254146815094 -0.00050552654694413165 0 -0.026607206097181701 -0.001120954293412655 0 -0.026251830430344528 -0.00044355145384595434 0 -0.025901221538687205 0.0001400684905827633 0 -0.026342254146815094 -0.00050552654694413165 0 -0.026054723671570208 0.0010190666366686888 0 -0.025077380993081065 0.0012886006404151556 0 -0.026054723671570208 0.0010190666366686888 0 -0.026405531181268631 0.0014938621716653392 0 -0.026720706385506304 0.0004224939885402634 0 -0.025628456358417817 0.0022486423730683101 0 -0.026054723671570208 0.0010190666366686888 0 -0.026405531181268631 0.0014938621716653392 0 -0.025628456358417817 0.0022486423730683101 0 -0.026054723671570208 0.0010190666366686888 0 -0.025077380993081065 0.0012886006404151556 0 -0.026749168871763245 -0.0012482363656982241 0 -0.02674559276030599 -0.0010943010658945138 0 -0.026607206097181701 -0.001120954293412655 0 -0.024685971405682641 0.0028216295238705099 0 -0.025628456358417817 0.0022486423730683101 0 -0.025077380993081065 0.0012886006404151556 0 -0.026549006394515066 0.00089247152581227484 0 -0.025901221538687205 0.0001400684905827633 0 -0.026749168871763245 -0.0012482363656982241 0 -0.02684171378814483 -0.0010802682231221519 0 -0.02674559276030599 -0.0010943010658945138 0 -0.02684171378814483 -0.0010802682231221519 0 -0.026745530522036251 -0.00096550597058332201 0 -0.02674559276030599 -0.0010943010658945138 0 -0.026745530522036251 -0.00096550597058332201 0 -0.02674559276030599 -0.0010943010658945138 0 -0.026607206097181701 -0.001120954293412655 0 -0.027537662605207014 0.0020782615152063846 0 -0.027976875426071624 0.00075796540622784117 0 -0.027247869813412828 0.00087651147391166941 0 -0.027537662605207014 0.0020782615152063846 0 -0.027976875426071624 0.00075796540622784117 0 -0.02862786085645919 0.0017934790259617442 0 -0.027976875426071624 0.00075796540622784117 0 -0.02862786085645919 0.0017934790259617442 0 -0.028911169314181778 0.00080782301531612363 0 -0.027537662605207014 0.0020782615152063846 0 -0.026897632818628427 0.0018547041373663746 0 -0.027247869813412828 0.00087651147391166941 0 -0.026473830665953667 0.0027676492138535747 0 -0.026405531181268631 0.0014938621716653392 0 -0.026897632818628427 0.0018547041373663746 0 -0.026405531181268631 0.0014938621716653392 0 -0.026897632818628427 0.0018547041373663746 0 -0.027247869813412828 0.00087651147391166941 0 -0.026405531181268631 0.0014938621716653392 0 -0.027247869813412828 0.00087651147391166941 0 -0.026720706385506304 0.0004224939885402634 0 -0.026342254146815094 -0.00050552654694413165 0 -0.026720706385506304 0.0004224939885402634 0 -0.027247811651939534 -0.00021181679359912159 0 -0.027976875426071624 0.00075796540622784117 0 -0.027247869813412828 0.00087651147391166941 0 -0.027247811651939534 -0.00021181679359912159 0 -0.027247869813412828 0.00087651147391166941 0 -0.026720706385506304 0.0004224939885402634 0 -0.027247811651939534 -0.00021181679359912159 0 -0.027247811651939534 -0.00021181679359912159 0 -0.028264720186128717 -0.0001276035089823271 0 -0.027931104546601235 -0.00060221287981090791 0 -0.027976875426071624 0.00075796540622784117 0 -0.027247811651939534 -0.00021181679359912159 0 -0.028264720186128717 -0.0001276035089823271 0 -0.027976875426071624 0.00075796540622784117 0 -0.028264720186128717 -0.0001276035089823271 0 -0.028911169314181778 0.00080782301531612363 0 -0.027751734977520273 -0.0018687238632339054 0 -0.027676586362492598 -0.0020771773081750128 0 -0.027845659897743548 -0.0019600961878250079 0 -0.027204152645355573 -0.001368234449342055 0 -0.02753576266686332 -0.0013074906807415472 0 -0.026609833158930854 -0.00081768860436194971 0 -0.027247811651939534 -0.00021181679359912159 0 -0.027931104546601235 -0.00060221287981090791 0 -0.028529993896704221 -0.0028321182062502636 0 -0.028938520910308945 -0.0034692906301947665 0 -0.028325793440897581 -0.0035286229236958654 0 -0.027676586362492598 -0.0020771773081750128 0 -0.027845659897743548 -0.0019600961878250079 0 -0.027369524677636071 -0.001651647173754207 0 -0.027829452816415471 -0.0022938774394320651 0 -0.029682573134436598 -0.0028597800454340612 0 -0.028529993896704221 -0.0028321182062502636 0 -0.028938520910308945 -0.0034692906301947665 0 -0.029485198923950025 -0.0032497711377951185 0 -0.028938520910308945 -0.0034692906301947665 0 -0.028762477781975347 -0.0039732606425884514 0 -0.029477935878408589 -0.0039782329964813653 0 -0.028938520910308945 -0.0034692906301947665 0 -0.029477935878408589 -0.0039782329964813653 0 -0.029485198923950025 -0.0032497711377951185 0 -0.028943986660852333 -0.0045627248949181203 0 -0.028762477781975347 -0.0039732606425884514 0 -0.029477935878408589 -0.0039782329964813653 0 -0.028943986660852333 -0.0045627248949181203 0 -0.028242737345537321 -0.0043310276883775679 0 -0.028762477781975347 -0.0039732606425884514 0 -0.028938520910308945 -0.0034692906301947665 0 -0.028762477781975347 -0.0039732606425884514 0 -0.028325793440897581 -0.0035286229236958654 0 -0.028242737345537321 -0.0043310276883775679 0 -0.028762477781975347 -0.0039732606425884514 0 -0.028325793440897581 -0.0035286229236958654 0 -0.028242737345537321 -0.0043310276883775679 0 -0.028325793440897581 -0.0035286229236958654 0 -0.027700334448462753 -0.0037720642269685281 0 -0.027792348553453663 -0.0030604187568105566 0 -0.028325793440897581 -0.0035286229236958654 0 -0.027700334448462753 -0.0037720642269685281 0 -0.027157593346736099 -0.0030433804591946481 0 -0.027700334448462753 -0.0037720642269685281 0 -0.027097670038149703 -0.0039470364091392261 0 -0.027157593346736099 -0.0030433804591946481 0 -0.027792348553453663 -0.0030604187568105566 0 -0.027700334448462753 -0.0037720642269685281 0 -0.027700334448462753 -0.0037720642269685281 0 -0.027097670038149703 -0.0039470364091392261 0 -0.027627774424064968 -0.0048007254587650264 0 -0.027097670038149703 -0.0039470364091392261 0 -0.027627774424064968 -0.0048007254587650264 0 -0.027130212805119944 -0.0049663611878787185 0 -0.028242737345537321 -0.0043310276883775679 0 -0.027700334448462753 -0.0037720642269685281 0 -0.027627774424064968 -0.0048007254587650264 0 -0.028242737345537321 -0.0043310276883775679 0 -0.027627774424064968 -0.0048007254587650264 0 -0.028228063049387429 -0.0052445432899136243 0 -0.027627774424064968 -0.0048007254587650264 0 -0.02775293681788522 -0.0057717080328446163 0 -0.028228063049387429 -0.0052445432899136243 0 -0.027627774424064968 -0.0048007254587650264 0 -0.027364122247066792 -0.0057088091367228514 0 -0.02775293681788522 -0.0057717080328446163 0 -0.027627774424064968 -0.0048007254587650264 0 -0.027130212805119944 -0.0049663611878787185 0 -0.027364122247066792 -0.0057088091367228514 0 -0.026719276880398168 -0.0055060819656420406 0 -0.027130212805119944 -0.0049663611878787185 0 -0.027364122247066792 -0.0057088091367228514 0 -0.026719276880398168 -0.0055060819656420406 0 -0.027364122247066792 -0.0057088091367228514 0 -0.027122619372155828 -0.0061208917776221792 0 -0.027364122247066792 -0.0057088091367228514 0 -0.027122619372155828 -0.0061208917776221792 0 -0.027449400434354634 -0.0064307748732685506 0 -0.02775293681788522 -0.0057717080328446163 0 -0.02800246111041859 -0.0065296038056832321 0 -0.028228063049387429 -0.0052445432899136243 0 -0.027364122247066792 -0.0057088091367228514 0 -0.02775293681788522 -0.0057717080328446163 0 -0.027790637257605458 -0.006257592485426385 0 -0.02775293681788522 -0.0057717080328446163 0 -0.02800246111041859 -0.0065296038056832321 0 -0.027790637257605458 -0.006257592485426385 0 -0.02800246111041859 -0.0065296038056832321 0 -0.029722710167853616 -0.0055426611828360665 0 -0.028228063049387429 -0.0052445432899136243 0 -0.02800246111041859 -0.0065296038056832321 0 -0.025918715209291555 -0.0084610757961192818 0 -0.027259707898180767 -0.0063909758453284983 0 -0.028103667214328481 -0.0070419218074780259 0 -0.02688542765674853 -0.0049117252647138789 0 -0.025918715209291555 -0.0084610757961192818 0 -0.026177270965213929 -0.0064019561780626535 0 -0.027259707898180767 -0.0063909758453284983 0 -0.025918715209291555 -0.0084610757961192818 0 -0.025008050215524109 -0.0072852763138516411 0 -0.026177270965213929 -0.0064019561780626535 0 -0.028943986660852333 -0.0045627248949181203 0 -0.029074288175672435 -0.0052206660983914214 0 -0.029657374977098003 -0.0047138592792289585 0 -0.028943986660852333 -0.0045627248949181203 0 -0.029074288175672435 -0.0052206660983914214 0 -0.028228063049387429 -0.0052445432899136243 0 -0.028943986660852333 -0.0045627248949181203 0 -0.028242737345537321 -0.0043310276883775679 0 -0.028228063049387429 -0.0052445432899136243 0 -0.02688542765674853 -0.0049117252647138789 0 -0.029262335049349653 -0.00541669254985343 0 -0.020277390399766247 -0.0020214033179419659 0 -0.021921159734320336 -0.0028630215707078108 0 -0.019744864252545909 -0.0041396742760880494 0 -0.019975999379551055 -0.0031464719899196966 0 -0.021024228690881799 -0.0013798217829388414 0 -0.020277390399766247 -0.0020214033179419659 0 -0.018075897445262588 -0.0025661977693453267 0 -0.019697948908102159 -0.0038578049856832115 0 -0.020277390399766247 -0.0020214033179419659 0 -0.021921159734320336 -0.0028630215707078108 0 -0.020859326195026 -0.00096445101009093813 0 -0.02688542765674853 -0.0049117252647138789 0 -0.026233889775222462 -0.0036662849130567341 0 -0.024159622072142908 -0.0015686267655764929 0 -0.021921159734320336 -0.0028630215707078108 0 -0.020859326195026 -0.00096445101009093813 0 -0.025008050215524109 -0.0072852763138516411 0 -0.023103741574140624 -0.0081074848452800698 0 -0.024004758710906512 -0.0066057218761068834 0 -0.025918715209291555 -0.0084610757961192818 0 -0.025008050215524109 -0.0072852763138516411 0 -0.023103741574140624 -0.0081074848452800698 0 -0.02688542765674853 -0.0049117252647138789 0 -0.02159252998271111 -0.004504517461605774 0 -0.020277390399766247 -0.0020214033179419659 0 -0.020859326195026 -0.00096445101009093813 0 -0.017887618258981875 -0.00050334261511095831 0 -0.02159252998271111 -0.004504517461605774 0 -0.019318311929537344 -0.0040340116444206138 0 -0.023103741574140624 -0.0081074848452800698 0 -0.020533107734956355 -0.0075506730545194739 0 -0.021251047085086149 -0.0064227934280444007 0 -0.017887618258981875 -0.00050334261511095831 0 -0.015955264742190885 -0.0015001943628265854 0 -0.015090379200079732 6.1293778053937975e-06 0 -0.019318311929537344 -0.0040340116444206138 0 -0.01669754065927187 -0.0034790600412710304 0 -0.017887618258981875 -0.00050334261511095831 0 -0.015955264742190885 -0.0015001943628265854 0 -0.018075897445262588 -0.0025661977693453267 0 -0.015955264742190885 -0.0015001943628265854 0 -0.016215232882565402 -0.0029841002693801648 0 -0.018075897445262588 -0.0025661977693453267 0 -0.020277390399766247 -0.0020214033179419659 0 -0.017887618258981875 -0.00050334261511095831 0 -0.018075897445262588 -0.0025661977693453267 0 -0.018075897445262588 -0.0025661977693453267 0 -0.017220991640250007 -0.0052147701994805454 0 -0.019697948908102159 -0.0038578049856832115 0 -0.015661057897890143 -0.0010031385862733883 0 -0.021024228690881799 -0.0013798217829388414 0 -0.016215232882565402 -0.0029841002693801648 0 -0.017220991640250007 -0.0052147701994805454 0 -0.014144005865740644 -0.0041347372121880764 0 -0.016215232882565402 -0.0029841002693801648 0 -0.018075897445262588 -0.0025661977693453267 0 -0.017220991640250007 -0.0052147701994805454 0 -0.015089218783146671 0.0030306020641717802 0 -0.014862355241446249 0.0026572972117357074 0 -0.013831726101370843 0.0023823175647529476 0 -0.015661057897890143 -0.0010031385862733883 0 -0.014796769012141614 -0.0024688386044632265 0 -0.014862355241446249 0.0026572972117357074 0 -0.015793440318508385 0.0024674879401897117 0 -0.01495768474740417 0.0022271208185016085 0 -0.012418249792888605 0.0032279790388356961 0 -0.022980686028513594 -0.00027621876025037107 0 -0.015089218783146671 0.0030306020641717802 0 -0.016204837541578958 0.0022447890523218375 0 -0.016690631510938844 0.0038820478383942039 0 -0.015089218783146671 0.0030306020641717802 0 -0.014862355241446249 0.0026572972117357074 0 -0.016204837541578958 0.0022447890523218375 0 -0.03032222399934368 -0.0034815156806619089 0 -0.029865985460753565 -0.0037478819891393093 0 -0.029485198923950025 -0.0032497711377951185 0 -0.022980686028513594 -0.00027621876025037107 0 -0.021024228690881799 -0.0013798217829388414 0 -0.03032222399934368 -0.0034815156806619089 0 -0.029865985460753565 -0.0037478819891393093 0 -0.030167326445981222 -0.0042791880186534327 0 -0.026233889775222462 -0.0036662849130567341 0 -0.021024228690881799 -0.0013798217829388414 0 -0.029657374977098003 -0.0047138592792289585 0 -0.030167326445981222 -0.0042791880186534327 0 -0.029477935878408589 -0.0039782329964813653 0 -0.029865985460753565 -0.0037478819891393093 0 -0.030167326445981222 -0.0042791880186534327 0 -0.029477935878408589 -0.0039782329964813653 0 -0.028943986660852333 -0.0045627248949181203 0 -0.029657374977098003 -0.0047138592792289585 0 -0.029477935878408589 -0.0039782329964813653 0 -0.029865985460753565 -0.0037478819891393093 0 -0.029477935878408589 -0.0039782329964813653 0 -0.029485198923950025 -0.0032497711377951185 0 -0.022980686028513594 -0.00027621876025037107 0 -0.029682573134436598 -0.0028597800454340612 0 -0.026471311466419241 -0.0013934986051829853 0 -0.027059640248802579 -0.0021489016737634174 0 -0.026255927305748356 -0.0021301855938651699 0 -0.026471311466419241 -0.0013934986051829853 0 -0.027369524677636071 -0.001651647173754207 0 -0.027059640248802579 -0.0021489016737634174 0 -0.028677906268141314 -0.0012708787181109217 0 -0.02226717822982836 -0.00031171106618220468 0 -0.028293573798655675 -0.00018515677389205974 0 -0.027929823619688397 -0.00024323622391924025 0 -0.027847567279185637 -4.6029256815589034e-05 0 -0.02753576266686332 -0.0013074906807415472 0 -0.028677906268141314 -0.0012708787181109217 0 -0.027676586362492598 -0.0020771773081750128 0 -0.027369524677636071 -0.001651647173754207 0 -0.027059640248802579 -0.0021489016737634174 0 -0.028264720186128717 -0.0001276035089823271 0 -0.027931104546601235 -0.00060221287981090791 0 -0.028293573798655675 -0.00018515677389205974 0 -0.027978303077231943 -0.00016531353410404422 0 -0.029981041351630995 -3.5745000123108728e-06 0 -0.028264720186128717 -0.0001276035089823271 0 -0.028293573798655675 -0.00018515677389205974 0 -0.028194482740480021 -0.00030694861844513568 0 -0.028264720186128717 -0.0001276035089823271 0 -0.030012524466539316 0.00046179482468789519 0 -0.028911169314181778 0.00080782301531612363 0 -0.028293573798655675 -0.00018515677389205974 0 -0.028194482740480021 -0.00030694861844513568 0 -0.027929823619688397 -0.00024323622391924025 0 -0.029981041351630995 -3.5745000123108728e-06 0 -0.02471508051076577 0.0030707985953989888 0 -0.027720946728911545 0.0045175045313345895 0 -0.02471508051076577 0.0030707985953989888 0 -0.030079568011030969 0.0020951917203121356 0 -0.030012524466539316 0.00046179482468789519 0 -0.031475376897220783 0.00096294751924060409 0 -0.030079568011030969 0.0020951917203121356 0 -0.030012524466539316 0.00046179482468789519 0 -0.028911169314181778 0.00080782301531612363 0 -0.030079568011030969 0.0020951917203121356 0 -0.02862786085645919 0.0017934790259617442 0 -0.028911169314181778 0.00080782301531612363 0 -0.0071230914262918272 0.0071188486524977786 0 -0.0080073994697572193 0.0072825453099051359 0 -0.0080740369033452854 0.0075149498090371714 0 -0.0074786561870182032 0.0064599108263037512 0 -0.0074446017231862612 0.0070569480662263659 0 -0.0078540126589434385 0.0076266867834670184 0 -0.015098723583119226 0.0078251382423366409 0 -0.015412762027660487 0.0055877312608902507 0 -0.0061443968205377305 0.0068069485725186108 0 -0.015412762027660487 0.0055877312608902507 0 -0.006992062324125037 0.0069715894437503752 0 -0.007013804628815578 0.0073930678750469807 0 -0.0074446017231862612 0.0070569480662263659 0 -0.007013804628815578 0.0073930678750469807 0 -0.0074446017231862612 0.0070569480662263659 0 -0.0078540126589434385 0.0076266867834670184 0 -0.02260143988719001 0.0063678760632668065 0 -0.023332326130628783 0.0070622588310435934 0 -0.022881368052041343 0.0076497546613442918 0 -0.024530573016188256 0.0067889619844695732 0 -0.023332326130628783 0.0070622588310435934 0 -0.023203695480204484 0.0077394424788206394 0 -0.023332326130628783 0.0070622588310435934 0 -0.023203695480204484 0.0077394424788206394 0 -0.022881368052041343 0.0076497546613442918 0 -0.02471508051076577 0.0030707985953989888 0 -0.016827614885347498 0.0035123225595270037 0 -0.02471508051076577 0.0030707985953989888 0 -0.015412762027660487 0.0055877312608902507 0 -0.015412762027660487 0.0055877312608902507 0 -0.016827614885347498 0.0035123225595270037 0 -0.018810749688849125 0.003968795673855917 0 -0.018394414877157542 0.0038583419118577234 0 -0.018488126643115027 0.004197569435835098 0 -0.027726624313639182 -0.00037513526887906644 0 -0.027929823619688397 -0.00024323622391924025 0 -0.027847567279185637 -4.6029256815589034e-05 0 -0.016827614885347498 0.0035123225595270037 0 -0.02226717822982836 -0.00031171106618220468 0 -0.028194482740480021 -0.00030694861844513568 0 -0.027799958403381488 -0.00042447800935042944 0 -0.027929823619688397 -0.00024323622391924025 0 -0.027799958403381488 -0.00042447800935042944 0 -0.027726624313639182 -0.00037513526887906644 0 -0.027929823619688397 -0.00024323622391924025 0 -0.0071230914262918272 0.0071188486524977786 0 -0.0080740369033452854 0.0075149498090371714 0 -0.0067978958796408558 0.0083459324507480347 0 -0.016827614885347498 0.0035123225595270037 0 -0.0091316349019087157 0.0055731966621462084 0 -0.015015720950297745 0.00021878386623427562 0 -0.014885758010470079 0.0012855326008161438 0 -0.013880409466660294 0.00094764298430237328 0 -0.014885758010470079 0.0012855326008161438 0 -0.014289715593303675 0.0014675079079520547 0 -0.013880409466660294 0.00094764298430237328 0 -0.014885758010470079 0.0012855326008161438 0 -0.014289715593303675 0.0014675079079520547 0 -0.014540665032660867 0.0019529833824014297 0 -0.015015720950297745 0.00021878386623427562 0 -0.014885758010470079 0.0012855326008161438 0 -0.015355001119785499 0.0012745829427125979 0 -0.014502071099486013 0.00070661295103506745 0 -0.02226717822982836 -0.00031171106618220468 0 -0.014885758010470079 0.0012855326008161438 0 -0.015442218177232148 0.0012518391602844849 0 -0.015126321965024924 0.0018407578074825001 0 -0.015793440318508385 0.0024674879401897117 0 -0.015126321965024924 0.0018407578074825001 0 -0.01495768474740417 0.0022271208185016085 0 -0.022980686028513594 -0.00027621876025037107 0 -0.02226717822982836 -0.00031171106618220468 0 -0.015793440318508385 0.0024674879401897117 0 -0.015442218177232148 0.0012518391602844849 0 -0.015126321965024924 0.0018407578074825001 0 -0.014862355241446249 0.0026572972117357074 0 -0.014540665032660867 0.0019529833824014297 0 -0.013831726101370843 0.0023823175647529476 0 -0.014289715593303675 0.0014675079079520547 0 -0.014540665032660867 0.0019529833824014297 0 -0.01385018774006379 0.0016950035152139419 0 -0.014885758010470079 0.0012855326008161438 0 -0.015126321965024924 0.0018407578074825001 0 -0.014540665032660867 0.0019529833824014297 0 -0.014862355241446249 0.0026572972117357074 0 -0.014540665032660867 0.0019529833824014297 0 -0.01495768474740417 0.0022271208185016085 0 -0.015126321965024924 0.0018407578074825001 0 -0.014540665032660867 0.0019529833824014297 0 -0.01495768474740417 0.0022271208185016085 0 -0.013831726101370843 0.0023823175647529476 0 -0.01385018774006379 0.0016950035152139419 0 -0.01266135508522374 0.0017568228462404489 0 -0.014540665032660867 0.0019529833824014297 0 -0.013831726101370843 0.0023823175647529476 0 -0.01385018774006379 0.0016950035152139419 0 -0.014796769012141614 -0.0024688386044632265 0 -0.0094642074619914751 0.0013648865376376259 0 -0.014859309582523307 -0.006494707622363669 0 -0.012581357836886631 -0.0077576814420401291 0 -0.012790050727013553 -0.0056546189558200682 0 -0.0094642074619914751 0.0013648865376376259 0 -0.0091316349019087157 0.0055731966621462084 0 -0.0057113275260695659 0.0090415565560111218 0 -0.0067978958796408558 0.0083459324507480347 0 -0.0058951339153738734 0.0081435605873733108 0 -0.0057113275260695659 0.0090415565560111218 0 -0.0058951339153738734 0.0081435605873733108 0 -0.0054216307152721611 0.0081077312746436134 0 -0.01385018774006379 0.0016950035152139419 0 -0.01266135508522374 0.0017568228462404489 0 -0.013880409466660294 0.00094764298430237328 0 -0.014289715593303675 0.0014675079079520547 0 -0.01385018774006379 0.0016950035152139419 0 -0.013880409466660294 0.00094764298430237328 0 -0.0071230914262918272 0.0071188486524977786 0 -0.0067978958796408558 0.0083459324507480347 0 -0.0061441122584881495 0.0075978802428382586 0 -0.0067978958796408558 0.0083459324507480347 0 -0.0058951339153738734 0.0081435605873733108 0 -0.0061441122584881495 0.0075978802428382586 0 -0.0058951339153738734 0.0081435605873733108 0 -0.0054452447269085925 0.0075932908017121168 0 -0.0054216307152721611 0.0081077312746436134 0 -0.0058951339153738734 0.0081435605873733108 0 -0.0061441122584881495 0.0075978802428382586 0 -0.0054452447269085925 0.0075932908017121168 0 -0.0061441122584881495 0.0075978802428382586 0 -0.005691899331072176 0.0070653933094333519 0 -0.0062872872559915048 0.0070621873804527138 0 -0.0061441122584881495 0.0075978802428382586 0 -0.005691899331072176 0.0070653933094333519 0 -0.0054452447269085925 0.0075932908017121168 0 -0.0071230914262918272 0.0071188486524977786 0 -0.0061441122584881495 0.0075978802428382586 0 -0.0062872872559915048 0.0070621873804527138 0 -0.006992062324125037 0.0069715894437503752 0 -0.007013804628815578 0.0073930678750469807 0 -0.0062872872559915048 0.0070621873804527138 0 -0.0061443968205377305 0.0068069485725186108 0 -0.0067159356125528098 0.0071578733500773468 0 -0.0044314906408791724 0.0074467056752852076 0 -0.0045409113930463827 0.007099400344971348 0 -0.0048094860321541604 0.0074878470430099564 0 -0.0044314906408791724 0.0074467056752852076 0 -0.0041639657906676411 0.0072050350112115935 0 -0.0045409113930463827 0.007099400344971348 0 -0.0044314906408791724 0.0074467056752852076 0 -0.0041639657906676411 0.0072050350112115935 0 -0.00408541417242514 0.0075647704422527407 0 -0.0036644489902262775 0.0070889873584047284 0 -0.0041639657906676411 0.0072050350112115935 0 -0.00408541417242514 0.0075647704422527407 0 -0.0040833665958774738 0.0067939450013966953 0 -0.0041639657906676411 0.0072050350112115935 0 -0.0045409113930463827 0.007099400344971348 0 -0.0040833665958774738 0.0067939450013966953 0 -0.0036644489902262775 0.0070889873584047284 0 -0.0041639657906676411 0.0072050350112115935 0 -0.0047101489687192116 0.006654993327382272 0 -0.0045409113930463827 0.007099400344971348 0 -0.0050730765594581353 0.0070679969911526088 0 -0.005691899331072176 0.0070653933094333519 0 -0.0050730765594581353 0.0070679969911526088 0 -0.0054452447269085925 0.0075932908017121168 0 -0.0050730765594581353 0.0070679969911526088 0 -0.0048094860321541604 0.0074878470430099564 0 -0.0054452447269085925 0.0075932908017121168 0 -0.0045409113930463827 0.007099400344971348 0 -0.0050730765594581353 0.0070679969911526088 0 -0.0048094860321541604 0.0074878470430099564 0 -0.0048094860321541604 0.0074878470430099564 0 -0.0050429515205768632 0.0078647181868456793 0 -0.004552473680293114 0.0079077256543641228 0 -0.0050429515205768632 0.0078647181868456793 0 -0.0054452447269085925 0.0075932908017121168 0 -0.0054216307152721611 0.0081077312746436134 0 -0.0048094860321541604 0.0074878470430099564 0 -0.0050429515205768632 0.0078647181868456793 0 -0.0054452447269085925 0.0075932908017121168 0 -0.0050429515205768632 0.0078647181868456793 0 -0.0054216307152721611 0.0081077312746436134 0 -0.0049962775565783844 0.0082416525091725291 0 -0.0050429515205768632 0.0078647181868456793 0 -0.0049962775565783844 0.0082416525091725291 0 -0.004552473680293114 0.0079077256543641228 0 -0.0049962775565783844 0.0082416525091725291 0 -0.004552473680293114 0.0079077256543641228 0 -0.0045907820253399375 0.0084743851191121673 0 -0.004552473680293114 0.0079077256543641228 0 -0.0042795571508908942 0.0082896288513740167 0 -0.0045907820253399375 0.0084743851191121673 0 -0.0044314906408791724 0.0074467056752852076 0 -0.004552473680293114 0.0079077256543641228 0 -0.00408541417242514 0.0075647704422527407 0 -0.0044314906408791724 0.0074467056752852076 0 -0.0048094860321541604 0.0074878470430099564 0 -0.004552473680293114 0.0079077256543641228 0 -0.004552473680293114 0.0079077256543641228 0 -0.00408541417242514 0.0075647704422527407 0 -0.0040926102509917213 0.0079507099543402598 0 -0.0036303723152008825 0.0076193984857273874 0 -0.00408541417242514 0.0075647704422527407 0 -0.0040926102509917213 0.0079507099543402598 0 -0.0037202487351974916 0.0081048742381222508 0 -0.0040926102509917213 0.0079507099543402598 0 -0.0042795571508908942 0.0082896288513740167 0 -0.004552473680293114 0.0079077256543641228 0 -0.0040926102509917213 0.0079507099543402598 0 -0.0042795571508908942 0.0082896288513740167 0 -0.0060199615660885275 0.0017473428784724404 0 -0.0065799218091529173 0.0014443540015883442 0 -0.0062866820891339095 0.0020676046271323164 0 -0.0037202487351974916 0.0081048742381222508 0 -0.0039135341816851398 0.0085234738958925981 0 -0.0042795571508908942 0.0082896288513740167 0 -0.0036372668876357944 0.0090901898082626983 0 -0.0039135341816851398 0.0085234738958925981 0 -0.0046320003513296718 0.008487364090240597 0 -0.0039135341816851398 0.0085234738958925981 0 -0.0042795571508908942 0.0082896288513740167 0 -0.0046320003513296718 0.008487364090240597 0 -0.005030446507230512 0.0053073207965003899 0 -0.0050772400959785873 0.0069286298324922734 0 -0.004867796202358006 0.0075383016026741015 0 -0.0050772400959785873 0.0069286298324922734 0 -0.0057113275260695659 0.0090415565560111218 0 -0.0054216307152721611 0.0081077312746436134 0 -0.0049962775565783844 0.0082416525091725291 0 -0.0057113275260695659 0.0090415565560111218 0 -0.0049962775565783844 0.0082416525091725291 0 -0.0046328840902308795 0.0084411381204868852 0 -0.0094642074619914751 0.0013648865376376259 0 -0.0050772400959785873 0.0069286298324922734 0 -0.0045858512428591817 0.0079037836364759199 0 -0.0050772400959785873 0.0069286298324922734 0 -0.0094642074619914751 0.0013648865376376259 0 -0.0091921671068768106 -0.002559949081165584 0 -0.012581357836886631 -0.0077576814420401291 0 -0.010800465438055476 -0.0064691912136064416 0 -0.012790050727013553 -0.0056546189558200682 0 -0.0072878980976330025 0.0018288445750814807 0 -0.0065799218091529173 0.0014443540015883442 0 -0.0067630363223983355 0.0021895050327888125 0 -0.0065799218091529173 0.0014443540015883442 0 -0.0067630363223983355 0.0021895050327888125 0 -0.0062866820891339095 0.0020676046271323164 0 -0.0067630363223983355 0.0021895050327888125 0 -0.0062866820891339095 0.0020676046271323164 0 -0.0062365761551549225 0.0025483309143645508 0 -0.010800465438055476 -0.0064691912136064416 0 -0.009005479167003087 -0.0051561958565103606 0 -0.011587261187748219 -0.0034012131008997037 0 -0.0091921671068768106 -0.002559949081165584 0 -0.0065975746813143046 -0.0025603621217810627 0 -0.0074156094453534894 -0.0065130263773254407 0 -0.010809573262715304 -0.0041658052010457277 0 -0.0086417522123215552 -0.0038370695490206135 0 -0.0065975746813143046 -0.0025603621217810627 0 -0.01141198134313993 -0.0042714996529799997 0 -0.0068702393490951636 -0.0044689201463026761 0 -0.0074156094453534894 -0.0065130263773254407 0 -0.0086417522123215552 -0.0038370695490206135 0 -0.010800465438055476 -0.0064691912136064416 0 -0.011587261187748219 -0.0034012131008997037 0 -0.012790050727013553 -0.0056546189558200682 0 -0.017220991640250007 -0.0052147701994805454 0 -0.014859309582523307 -0.006494707622363669 0 -0.014144005865740644 -0.0041347372121880764 0 -0.014859309582523307 -0.006494707622363669 0 -0.012790050727013553 -0.0056546189558200682 0 -0.014144005865740644 -0.0041347372121880764 0 -0.011587261187748219 -0.0034012131008997037 0 -0.012790050727013553 -0.0056546189558200682 0 -0.014144005865740644 -0.0041347372121880764 0 -0.01141198134313993 -0.0042714996529799997 0 -0.013954251169991739 -0.0015887180821612327 0 -0.011587261187748219 -0.0034012131008997037 0 -0.014144005865740644 -0.0041347372121880764 0 -0.014124619886188095 -0.0016382658479222681 0 -0.010809573262715304 -0.0041658052010457277 0 -0.011739963895146996 -0.0019458281422750445 0 -0.014124619886188095 -0.0016382658479222681 0 -0.016215232882565402 -0.0029841002693801648 0 -0.014144005865740644 -0.0041347372121880764 0 -0.014124619886188095 -0.0016382658479222681 0 -0.015955264742190885 -0.0015001943628265854 0 -0.016215232882565402 -0.0029841002693801648 0 -0.014124619886188095 -0.0016382658479222681 0 -0.014124619886188095 -0.0016382658479222681 0 -0.015090379200079732 6.1293778053937975e-06 0 -0.012841114763673674 -0.0006665848759911015 0 -0.015955264742190885 -0.0015001943628265854 0 -0.014124619886188095 -0.0016382658479222681 0 -0.015090379200079732 6.1293778053937975e-06 0 -0.015090379200079732 6.1293778053937975e-06 0 -0.012841114763673674 -0.0006665848759911015 0 -0.011878725937716958 0.00063343463429602314 0 -0.011739963895146996 -0.0019458281422750445 0 -0.014124619886188095 -0.0016382658479222681 0 -0.012841114763673674 -0.0006665848759911015 0 -0.01669754065927187 -0.0034790600412710304 0 -0.01420475921510884 -0.0029934312441476292 0 -0.011739963895146996 -0.0019458281422750445 0 -0.012841114763673674 -0.0006665848759911015 0 -0.011224310574236264 -0.00055173607986298292 0 -0.012841114763673674 -0.0006665848759911015 0 -0.011224310574236264 -0.00055173607986298292 0 -0.011878725937716958 0.00063343463429602314 0 -0.011224310574236264 -0.00055173607986298292 0 -0.0099939716478272458 0.00011539711703399494 0 -0.011878725937716958 0.00063343463429602314 0 -0.011739963895146996 -0.0019458281422750445 0 -0.011224310574236264 -0.00055173607986298292 0 -0.010590069475772809 -0.0016316657333122885 0 -0.011224310574236264 -0.00055173607986298292 0 -0.010590069475772809 -0.0016316657333122885 0 -0.0099783681587699378 -0.00070857994208794279 0 -0.010590069475772809 -0.0016316657333122885 0 -0.0099783681587699378 -0.00070857994208794279 0 -0.0094907918677403207 -0.0021031387195153991 0 -0.011224310574236264 -0.00055173607986298292 0 -0.0099783681587699378 -0.00070857994208794279 0 -0.0099939716478272458 0.00011539711703399494 0 -0.0073099752379590065 -0.0012967462755880139 0 -0.0099783681587699378 -0.00070857994208794279 0 -0.008266799893652187 2.1534291060591418e-05 0 -0.0060116787864103677 -0.0013760433121512595 0 -0.0099783681587699378 -0.00070857994208794279 0 -0.0094907918677403207 -0.0021031387195153991 0 -0.0099783681587699378 -0.00070857994208794279 0 -0.0099939716478272458 0.00011539711703399494 0 -0.008266799893652187 2.1534291060591418e-05 0 -0.0048763705632907722 -0.0031774987430834996 0 -0.010541907911519146 -0.00029769783621370259 0 -0.0067878719836477648 -0.0029189880515231325 0 -0.0086417522123215552 -0.0038370695490206135 0 -0.0094907918677403207 -0.0021031387195153991 0 -0.0060116787864103677 -0.0013760433121512595 0 -0.0061003208939243263 -0.0033184226484464833 0 -0.0094907918677403207 -0.0021031387195153991 0 -0.0066648361919978373 -0.0031474144982988101 0 -0.0091548869459372444 -0.0022034789505082364 0 -0.0068702393490951636 -0.0044689201463026761 0 -0.0067878719836477648 -0.0029189880515231325 0 -0.0086417522123215552 -0.0038370695490206135 0 -0.010809573262715304 -0.0041658052010457277 0 -0.011739963895146996 -0.0019458281422750445 0 -0.010347241867143005 -0.0028776843735706875 0 -0.010809573262715304 -0.0041658052010457277 0 -0.0086417522123215552 -0.0038370695490206135 0 -0.010347241867143005 -0.0028776843735706875 0 -0.0086417522123215552 -0.0038370695490206135 0 -0.010347241867143005 -0.0028776843735706875 0 -0.0094907918677403207 -0.0021031387195153991 0 -0.011739963895146996 -0.0019458281422750445 0 -0.010590069475772809 -0.0016316657333122885 0 -0.010347241867143005 -0.0028776843735706875 0 -0.010590069475772809 -0.0016316657333122885 0 -0.010347241867143005 -0.0028776843735706875 0 -0.0094907918677403207 -0.0021031387195153991 0 -0.010816682626503262 -0.0047598500836569264 0 -0.010000359036481988 -0.0062775014962049161 0 -0.014709684413088399 -0.0053808596460103242 0 -0.016469360287657737 -0.0053744337840555788 0 -0.016914571431383467 -0.0042016606558032115 0 -0.004223489794150939 -0.0080493359370346716 0 -0.004235881758946596 -0.0080922423638564063 0 -0.0045100542744233646 -0.0080206181864379226 0 -0.015067252558632496 -0.0053296717883248986 0 -0.016914571431383467 -0.0042016606558032115 0 -0.01592206516743817 -0.0036602174155277532 0 -0.010816682626503262 -0.0047598500836569264 0 -0.018388570277071151 -0.0041538629727356649 0 -0.0041818572536615143 -0.0080564922349186559 0 -0.004223489794150939 -0.0080493359370346716 0 -0.0041809843912661709 -0.0080209088009128935 0 -0.0041818572536615143 -0.0080564922349186559 0 -0.004223489794150939 -0.0080493359370346716 0 -0.004235881758946596 -0.0080922423638564063 0 -0.010816682626503262 -0.0047598500836569264 0 -0.011292933814237691 -0.0023323722932066561 0 -0.0041818572536615143 -0.0080564922349186559 0 -0.0042025837487816922 -0.0080500740678199866 0 -0.004235881758946596 -0.0080922423638564063 0 -0.0075675791974222154 0.00079960254507107666 0 -0.0089468508619471587 0.0014809526389910753 0 -0.0085597389084963414 0.00074109293080402484 0 -0.0035723846234365438 -0.0044221270581978151 0 -0.010816682626503262 -0.0047598500836569264 0 -0.0099714920478036258 -0.00035225263774657007 0 -0.011292933814237691 -0.0023323722932066561 0 -0.0075675791974222154 0.00079960254507107666 0 -0.008266799893652187 2.1534291060591418e-05 0 -0.0085597389084963414 0.00074109293080402484 0 -0.0099939716478272458 0.00011539711703399494 0 -0.008266799893652187 2.1534291060591418e-05 0 -0.0087082628420340168 0.0010970795948763651 0 -0.011292933814237691 -0.0023323722932066561 0 -0.01420475921510884 -0.0029934312441476292 0 -0.014709684413088399 -0.0053808596460103242 0 -0.014333390283681946 -0.0061522442407795667 0 -0.016410981284296928 -0.0065456049755173865 0 -0.0099939716478272458 0.00011539711703399494 0 -0.0087082628420340168 0.0010970795948763651 0 -0.011878725937716958 0.00063343463429602314 0 -0.014709684413088399 -0.0053808596460103242 0 -0.016410981284296928 -0.0065456049755173865 0 -0.016469360287657737 -0.0053744337840555788 0 -0.016410981284296928 -0.0065456049755173865 0 -0.017759991068862419 -0.0053661568879066011 0 -0.016469360287657737 -0.0053744337840555788 0 -0.018366653287497033 -0.006971591177885956 0 -0.016410981284296928 -0.0065456049755173865 0 -0.017759991068862419 -0.0053661568879066011 0 -0.018366653287497033 -0.006971591177885956 0 -0.017759991068862419 -0.0053661568879066011 0 -0.019531998457917619 -0.0059028064743419026 0 -0.017759991068862419 -0.0053661568879066011 0 -0.018051488833039728 -0.0042728132932285589 0 -0.019191242810100921 -0.0045474968423690927 0 -0.017759991068862419 -0.0053661568879066011 0 -0.018051488833039728 -0.0042728132932285589 0 -0.016914571431383467 -0.0042016606558032115 0 -0.017759991068862419 -0.0053661568879066011 0 -0.016469360287657737 -0.0053744337840555788 0 -0.016914571431383467 -0.0042016606558032115 0 -0.016914571431383467 -0.0042016606558032115 0 -0.018094655803192219 -0.0032588057811688701 0 -0.016980130864276421 -0.0031423744272949367 0 -0.016914571431383467 -0.0042016606558032115 0 -0.016980130864276421 -0.0031423744272949367 0 -0.01592206516743817 -0.0036602174155277532 0 -0.018051488833039728 -0.0042728132932285589 0 -0.016914571431383467 -0.0042016606558032115 0 -0.018094655803192219 -0.0032588057811688701 0 -0.018051488833039728 -0.0042728132932285589 0 -0.018094655803192219 -0.0032588057811688701 0 -0.018987396421769717 -0.0034531483563204611 0 -0.018094655803192219 -0.0032588057811688701 0 -0.016980130864276421 -0.0031423744272949367 0 -0.018131251440046924 -0.0020394956791510085 0 -0.018094655803192219 -0.0032588057811688701 0 -0.018131251440046924 -0.0020394956791510085 0 -0.018982920125324217 -0.0023148321546143328 0 -0.016980130864276421 -0.0031423744272949367 0 -0.01692007081860358 -0.0022308406381341692 0 -0.018131251440046924 -0.0020394956791510085 0 -0.016980130864276421 -0.0031423744272949367 0 -0.01592206516743817 -0.0036602174155277532 0 -0.01692007081860358 -0.0022308406381341692 0 -0.010000359036481988 -0.0062775014962049161 0 -0.011139594149587236 -0.0045435924049779391 0 -0.0043395743046677308 -0.0073935350418029957 0 -0.0045100542744233646 -0.0080206181864379226 0 -0.0052516679599586679 -0.0070962068469942394 0 -0.0043395743046677308 -0.0073935350418029957 0 -0.0045100542744233646 -0.0080206181864379226 0 -0.0041530050912178557 -0.0079852857749682631 0 -0.0041818572536615143 -0.0080564922349186559 0 -0.0041590990357683946 -0.0079996105488955842 0 -0.0041809843912661709 -0.0080209088009128935 0 -0.0041590990357683946 -0.0079996105488955842 0 -0.0041809843912661709 -0.0080209088009128935 0 -0.0041530050912178557 -0.0079852857749682631 0 -0.004223489794150939 -0.0080493359370346716 0 -0.0041809843912661709 -0.0080209088009128935 0 -0.0041530050912178557 -0.0079852857749682631 0 -0.004223489794150939 -0.0080493359370346716 0 -0.0045100542744233646 -0.0080206181864379226 0 -0.0041530050912178557 -0.0079852857749682631 0 -0.0025359647925350622 -0.0071204931779157536 0 -0.0043109382515095895 -0.007735722036306329 0 -0.0035823082050931905 -0.0080110888434973479 0 -0.0041530050912178557 -0.0079852857749682631 0 -0.0035342919433375632 -0.0073870424380277373 0 -0.0043395743046677308 -0.0073935350418029957 0 -0.0035342919433375632 -0.0073870424380277373 0 -0.003354495863097592 -0.0067404157430172229 0 -0.0025359647925350622 -0.0071204931779157536 0 -0.0033311061651246114 -0.0077512132708533318 0 -0.0043395743046677308 -0.0073935350418029957 0 -0.0041530050912178557 -0.0079852857749682631 0 -0.0035342919433375632 -0.0073870424380277373 0 -0.0043395743046677308 -0.0073935350418029957 0 -0.003354495863097592 -0.0067404157430172229 0 -0.0043852055212294334 -0.0065495052568222602 0 -0.0033311061651246114 -0.0077512132708533318 0 -0.003382952232613329 -0.0067868629290474452 0 -0.003354495863097592 -0.0067404157430172229 0 -0.0043852055212294334 -0.0065495052568222602 0 -0.0035705510719239476 -0.00604688912576008 0 -0.0043395743046677308 -0.0073935350418029957 0 -0.0043852055212294334 -0.0065495052568222602 0 -0.0052516679599586679 -0.0070962068469942394 0 -0.0043852055212294334 -0.0065495052568222602 0 -0.0044226108271990224 -0.0055247446161948649 0 -0.0060410231109330166 -0.0057868741445968423 0 -0.0043852055212294334 -0.0065495052568222602 0 -0.0044226108271990224 -0.0055247446161948649 0 -0.0035705510719239476 -0.00604688912576008 0 -0.0044226108271990224 -0.0055247446161948649 0 -0.0035705510719239476 -0.00604688912576008 0 -0.0032651729171482998 -0.0053313903802003982 0 -0.0044226108271990224 -0.0055247446161948649 0 -0.0040469144891201432 -0.0048043950264965041 0 -0.0032651729171482998 -0.0053313903802003982 0 -0.0040469144891201432 -0.0048043950264965041 0 -0.0032651729171482998 -0.0053313903802003982 0 -0.0033843060787249312 -0.0042502568873291555 0 -0.0044226108271990224 -0.0055247446161948649 0 -0.0040469144891201432 -0.0048043950264965041 0 -0.0050993264872897957 -0.0047830583661143443 0 -0.0040469144891201432 -0.0048043950264965041 0 -0.0050993264872897957 -0.0047830583661143443 0 -0.0045299651171524435 -0.0040736834720463489 0 -0.0045299651171524435 -0.0040736834720463489 0 -0.003932491980996513 -0.0032437729088781782 0 -0.0052262413036666313 -0.0033155355530930419 0 -0.0050993264872897957 -0.0047830583661143443 0 -0.0045299651171524435 -0.0040736834720463489 0 -0.0055263081914469049 -0.0038548592237522081 0 -0.0045299651171524435 -0.0040736834720463489 0 -0.0055263081914469049 -0.0038548592237522081 0 -0.0052262413036666313 -0.0033155355530930419 0 -0.0033843060787249312 -0.0042502568873291555 0 -0.003932491980996513 -0.0032437729088781782 0 -0.0030147117069983321 -0.0031619773911770346 0 -0.0045299651171524435 -0.0040736834720463489 0 -0.0033843060787249312 -0.0042502568873291555 0 -0.003932491980996513 -0.0032437729088781782 0 -0.0040469144891201432 -0.0048043950264965041 0 -0.0045299651171524435 -0.0040736834720463489 0 -0.0033843060787249312 -0.0042502568873291555 0 -0.0068877504903128656 -0.0043169293895733091 0 -0.0077865408313609391 -0.0026250451656473391 0 -0.0066032076848867322 -0.0032064341491635914 0 -0.0068877504903128656 -0.0043169293895733091 0 -0.0055263081914469049 -0.0038548592237522081 0 -0.0066032076848867322 -0.0032064341491635914 0 -0.012757493177566874 -0.0018287470006411496 0 -0.012677515925337723 -0.0045930633089270772 0 -0.0058131449831011874 -0.003668466155078827 0 -0.0055472288193946142 -0.0037850375623881089 0 -0.0068877504903128656 -0.0043169293895733091 0 -0.0055263081914469049 -0.0038548592237522081 0 -0.0059101639731861857 -0.0046780080884497952 0 -0.0050993264872897957 -0.0047830583661143443 0 -0.0059101639731861857 -0.0046780080884497952 0 -0.0060410231109330166 -0.0057868741445968423 0 -0.0050993264872897957 -0.0047830583661143443 0 -0.0055263081914469049 -0.0038548592237522081 0 -0.0059101639731861857 -0.0046780080884497952 0 -0.0068877504903128656 -0.0043169293895733091 0 -0.0059101639731861857 -0.0046780080884497952 0 -0.0060410231109330166 -0.0057868741445968423 0 -0.012757493177566874 -0.0018287470006411496 0 -0.011824475043580026 -0.0037173705013716367 0 -0.018245913329075554 -0.00069885862177559131 0 -0.017756905703472964 -0.0013077847358537664 0 -0.018537360719622375 -0.0012532107561002619 0 -0.017756905703472964 -0.0013077847358537664 0 -0.018131251440046924 -0.0020394956791510085 0 -0.018537360719622375 -0.0012532107561002619 0 -0.0044226108271990224 -0.0055247446161948649 0 -0.0050993264872897957 -0.0047830583661143443 0 -0.0060410231109330166 -0.0057868741445968423 0 -0.0043852055212294334 -0.0065495052568222602 0 -0.0060410231109330166 -0.0057868741445968423 0 -0.0052516679599586679 -0.0070962068469942394 0 -0.011824475043580026 -0.0037173705013716367 0 -0.011139594149587236 -0.0045435924049779391 0 -0.017756905703472964 -0.0013077847358537664 0 -0.01692007081860358 -0.0022308406381341692 0 -0.018131251440046924 -0.0020394956791510085 0 -0.018131251440046924 -0.0020394956791510085 0 -0.018997787551738806 -0.0017590620921701103 0 -0.018537360719622375 -0.0012532107561002619 0 -0.018131251440046924 -0.0020394956791510085 0 -0.018997787551738806 -0.0017590620921701103 0 -0.018982920125324217 -0.0023148321546143328 0 -0.018997787551738806 -0.0017590620921701103 0 -0.019539887719741186 -0.0020407479212807365 0 -0.018982920125324217 -0.0023148321546143328 0 -0.019782507805547307 -0.0048463858210640708 0 -0.019736698932401781 -0.0042422713071558074 0 -0.020159299211774846 -0.0071562580335660089 0 -0.02038056844664294 -0.0080107578599207339 0 -0.020002336048051683 -0.0077218120935177914 0 -0.018997787551738806 -0.0017590620921701103 0 -0.019539887719741186 -0.0020407479212807365 0 -0.019304378051631339 -0.0012406611217224087 0 -0.018997787551738806 -0.0017590620921701103 0 -0.019304378051631339 -0.0012406611217224087 0 -0.018537360719622375 -0.0012532107561002619 0 -0.018245913329075554 -0.00069885862177559131 0 -0.018537360719622375 -0.0012532107561002619 0 -0.018717795931147641 -0.00085446843158601784 0 -0.019304378051631339 -0.0012406611217224087 0 -0.018537360719622375 -0.0012532107561002619 0 -0.018717795931147641 -0.00085446843158601784 0 -0.02038056844664294 -0.0080107578599207339 0 -0.020132143677259535 -0.0085888211066558785 0 -0.020515720086882953 -0.0089634413578333211 0 -0.019304378051631339 -0.0012406611217224087 0 -0.018717795931147641 -0.00085446843158601784 0 -0.019056412869537225 -0.00055181482960637923 0 -0.019736698932401781 -0.0042422713071558074 0 -0.020516779242648352 -0.006403932567346832 0 -0.02038056844664294 -0.0080107578599207339 0 -0.020132143677259535 -0.0085888211066558785 0 -0.019912969155490741 -0.0082173255375460382 0 -0.020695870639482538 -0.0088181304788953335 0 -0.020516779242648352 -0.006403932567346832 0 -0.020132143677259535 -0.0085888211066558785 0 -0.020466578129239452 -0.0090016495400176161 0 -0.020090625680492521 -0.0091532449242170341 0 -0.020466578129239452 -0.0090016495400176161 0 -0.020090625680492521 -0.0091532449242170341 0 -0.020310621499604543 -0.0092684315207525406 0 -0.020516779242648352 -0.006403932567346832 0 -0.020663190483081045 -0.0078400355750230192 0 -0.020466578129239452 -0.0090016495400176161 0 -0.020310621499604543 -0.0092684315207525406 0 -0.020479661549882278 -0.0091787811918398465 0 -0.020310621499604543 -0.0092684315207525406 0 -0.020479661549882278 -0.0091787811918398465 0 -0.020390948674288034 -0.0094315436984691737 0 -0.020516779242648352 -0.006403932567346832 0 -0.012677515925337723 -0.0045930633089270772 0 -0.020464088925720533 -0.0090506527315092587 0 -0.020479661549882278 -0.0091787811918398465 0 -0.020847276507934817 -0.0095178095304922772 0 -0.019056412869537225 -0.00055181482960637923 0 -0.018622847652121969 -0.00056010828470171015 0 -0.01853989383358897 -0.00014180794288623714 0 -0.018245913329075554 -0.00069885862177559131 0 -0.018622847652121969 -0.00056010828470171015 0 -0.01853989383358897 -0.00014180794288623714 0 -0.018245913329075554 -0.00069885862177559131 0 -0.018717795931147641 -0.00085446843158601784 0 -0.018622847652121969 -0.00056010828470171015 0 -0.018717795931147641 -0.00085446843158601784 0 -0.019056412869537225 -0.00055181482960637923 0 -0.018622847652121969 -0.00056010828470171015 0 -0.019318271438011583 -0.0091668083817286975 0 -0.018990946594942913 -0.0086571961049311183 0 -0.018827925770883793 -0.0094477950700947774 0 -0.019318271438011583 -0.0091668083817286975 0 -0.019558285513462576 -0.0086498161318239852 0 -0.018990946594942913 -0.0086571961049311183 0 -0.019318271438011583 -0.0091668083817286975 0 -0.019773476591804284 -0.0089731580681777674 0 -0.019711444696085212 -0.0093993742785236419 0 -0.020090625680492521 -0.0091532449242170341 0 -0.019773476591804284 -0.0089731580681777674 0 -0.019711444696085212 -0.0093993742785236419 0 -0.020132143677259535 -0.0085888211066558785 0 -0.019773476591804284 -0.0089731580681777674 0 -0.019558285513462576 -0.0086498161318239852 0 -0.020132143677259535 -0.0085888211066558785 0 -0.020090625680492521 -0.0091532449242170341 0 -0.019773476591804284 -0.0089731580681777674 0 -0.019318271438011583 -0.0091668083817286975 0 -0.019773476591804284 -0.0089731580681777674 0 -0.019558285513462576 -0.0086498161318239852 0 -0.020132143677259535 -0.0085888211066558785 0 -0.019558285513462576 -0.0086498161318239852 0 -0.019912969155490741 -0.0082173255375460382 0 -0.019558285513462576 -0.0086498161318239852 0 -0.019912969155490741 -0.0082173255375460382 0 -0.019488889696349317 -0.0081188908921998836 0 -0.018990946594942913 -0.0086571961049311183 0 -0.019004885557067943 -0.007893834085276023 0 -0.019488889696349317 -0.0081188908921998836 0 -0.019558285513462576 -0.0086498161318239852 0 -0.018990946594942913 -0.0086571961049311183 0 -0.019488889696349317 -0.0081188908921998836 0 -0.019004885557067943 -0.007893834085276023 0 -0.019488889696349317 -0.0081188908921998836 0 -0.019510957643299173 -0.0075943079712652573 0 -0.02038056844664294 -0.0080107578599207339 0 -0.019912969155490741 -0.0082173255375460382 0 -0.020002336048051683 -0.0077218120935177914 0 -0.019912969155490741 -0.0082173255375460382 0 -0.019488889696349317 -0.0081188908921998836 0 -0.020002336048051683 -0.0077218120935177914 0 -0.019488889696349317 -0.0081188908921998836 0 -0.019510957643299173 -0.0075943079712652573 0 -0.020002336048051683 -0.0077218120935177914 0 -0.019510957643299173 -0.0075943079712652573 0 -0.020002336048051683 -0.0077218120935177914 0 -0.0200038008895949 -0.0072249474129026338 0 -0.020159299211774846 -0.0071562580335660089 0 -0.020002336048051683 -0.0077218120935177914 0 -0.0200038008895949 -0.0072249474129026338 0 -0.020159299211774846 -0.0071562580335660089 0 -0.0200038008895949 -0.0072249474129026338 0 -0.020080646866850023 -0.0071457597023196259 0 -0.019004885557067943 -0.007893834085276023 0 -0.019510957643299173 -0.0075943079712652573 0 -0.019024442080722084 -0.0070888147327460953 0 -0.020374279013584674 -0.0072864650959025678 0 -0.018678318123393448 -0.0069111148618408247 0 -0.0200038008895949 -0.0072249474129026338 0 -0.02016282270599434 -0.0070893101280008232 0 -0.020080646866850023 -0.0071457597023196259 0 -0.019510957643299173 -0.0075943079712652573 0 -0.0200038008895949 -0.0072249474129026338 0 -0.019024442080722084 -0.0070888147327460953 0 -0.02016282270599434 -0.0070893101280008232 0 -0.020177376114720914 -0.0071802713011503315 0 -0.020080646866850023 -0.0071457597023196259 0 -0.020177376114720914 -0.0071802713011503315 0 -0.020134321376702003 -0.007206358521012441 0 -0.020080646866850023 -0.0071457597023196259 0 -0.020177376114720914 -0.0071802713011503315 0 -0.020134321376702003 -0.007206358521012441 0 -0.020240651760288112 -0.0072637238766543573 0 -0.023414407494774456 -0.0035785898508988953 0 -0.02249420897624731 -0.0038463277200956668 0 -0.021606860538532245 -0.0027579496442480568 0 -0.020134321376702003 -0.007206358521012441 0 -0.020093318758293517 -0.0071371628578699945 0 -0.020080646866850023 -0.0071457597023196259 0 -0.021589230740014034 -0.0053171211488487651 0 -0.020819428440572958 -0.0041405671372068365 0 -0.021739003198219795 -0.0035332119482605518 0 -0.02249420897624731 -0.0038463277200956668 0 -0.021606860538532245 -0.0027579496442480568 0 -0.021739003198219795 -0.0035332119482605518 0 -0.021522002557840175 -0.0030084631836826041 0 -0.021079154317492639 -0.0036325898654929758 0 -0.021120507494254877 -0.0034966409121881259 0 -0.020819428440572958 -0.0041405671372068365 0 -0.020159299211774846 -0.0071562580335660089 0 -0.020093318758293517 -0.0071371628578699945 0 -0.020080646866850023 -0.0071457597023196259 0 -0.019782507805547307 -0.0048463858210640708 0 -0.020819428440572958 -0.0041405671372068365 0 -0.019539887719741186 -0.0020407479212807365 0 -0.019678645967243589 -0.002743490774666393 0 -0.018982920125324217 -0.0023148321546143328 0 -0.020819428440572958 -0.0041405671372068365 0 -0.018929676176739949 -0.0019089060490456297 0 -0.018094655803192219 -0.0032588057811688701 0 -0.018982920125324217 -0.0023148321546143328 0 -0.018987396421769717 -0.0034531483563204611 0 -0.018982920125324217 -0.0023148321546143328 0 -0.018987396421769717 -0.0034531483563204611 0 -0.020221566113942633 -0.0036274615084542858 0 -0.018987396421769717 -0.0034531483563204611 0 -0.020221566113942633 -0.0036274615084542858 0 -0.019191242810100921 -0.0045474968423690927 0 -0.018051488833039728 -0.0042728132932285589 0 -0.018987396421769717 -0.0034531483563204611 0 -0.019191242810100921 -0.0045474968423690927 0 -0.021522002557840175 -0.0030084631836826041 0 -0.018982920125324217 -0.0023148321546143328 0 -0.020221566113942633 -0.0036274615084542858 0 -0.020221566113942633 -0.0036274615084542858 0 -0.021079154317492639 -0.0036325898654929758 0 -0.021273572508040791 -0.0042757747847280148 0 -0.021522002557840175 -0.0030084631836826041 0 -0.020221566113942633 -0.0036274615084542858 0 -0.021079154317492639 -0.0036325898654929758 0 -0.021739003198219795 -0.0035332119482605518 0 -0.021079154317492639 -0.0036325898654929758 0 -0.021273572508040791 -0.0042757747847280148 0 -0.021273572508040791 -0.0042757747847280148 0 -0.020675770423956678 -0.0048888096665610694 0 -0.022171162888502519 -0.0045787048726144463 0 -0.020221566113942633 -0.0036274615084542858 0 -0.021273572508040791 -0.0042757747847280148 0 -0.020675770423956678 -0.0048888096665610694 0 -0.020675770423956678 -0.0048888096665610694 0 -0.019191242810100921 -0.0045474968423690927 0 -0.019531998457917619 -0.0059028064743419026 0 -0.017759991068862419 -0.0053661568879066011 0 -0.019191242810100921 -0.0045474968423690927 0 -0.019531998457917619 -0.0059028064743419026 0 -0.020221566113942633 -0.0036274615084542858 0 -0.020675770423956678 -0.0048888096665610694 0 -0.019191242810100921 -0.0045474968423690927 0 -0.020533107734956355 -0.0075506730545194739 0 -0.018366653287497033 -0.006971591177885956 0 -0.019531998457917619 -0.0059028064743419026 0 -0.020533107734956355 -0.0075506730545194739 0 -0.019531998457917619 -0.0059028064743419026 0 -0.021251047085086149 -0.0064227934280444007 0 -0.020675770423956678 -0.0048888096665610694 0 -0.019531998457917619 -0.0059028064743419026 0 -0.021251047085086149 -0.0064227934280444007 0 -0.020675770423956678 -0.0048888096665610694 0 -0.021251047085086149 -0.0064227934280444007 0 -0.022615560142857392 -0.0058141859242744421 0 -0.023103741574140624 -0.0081074848452800698 0 -0.022615560142857392 -0.0058141859242744421 0 -0.024004758710906512 -0.0066057218761068834 0 -0.023103741574140624 -0.0081074848452800698 0 -0.021251047085086149 -0.0064227934280444007 0 -0.022615560142857392 -0.0058141859242744421 0 -0.024004758710906512 -0.0066057218761068834 0 -0.024031896927008838 -0.0056299917047311675 0 -0.025136001460979194 -0.006022697883681951 0 -0.025008050215524109 -0.0072852763138516411 0 -0.024004758710906512 -0.0066057218761068834 0 -0.025136001460979194 -0.006022697883681951 0 -0.024031896927008838 -0.0056299917047311675 0 -0.024890529095336639 -0.0050216245632430379 0 -0.025136001460979194 -0.006022697883681951 0 -0.022615560142857392 -0.0058141859242744421 0 -0.024031896927008838 -0.0056299917047311675 0 -0.023550875607686483 -0.0047007434273873307 0 -0.022615560142857392 -0.0058141859242744421 0 -0.024004758710906512 -0.0066057218761068834 0 -0.024031896927008838 -0.0056299917047311675 0 -0.021589230740014034 -0.0053171211488487651 0 -0.024445277835387441 -0.0062070577612575763 0 -0.023414407494774456 -0.0035785898508988953 0 -0.023550875607686483 -0.0047007434273873307 0 -0.025222671361289428 -0.0044089389494502288 0 -0.024031896927008838 -0.0056299917047311675 0 -0.023550875607686483 -0.0047007434273873307 0 -0.024890529095336639 -0.0050216245632430379 0 -0.023550875607686483 -0.0047007434273873307 0 -0.024890529095336639 -0.0050216245632430379 0 -0.025222671361289428 -0.0044089389494502288 0 -0.020675770423956678 -0.0048888096665610694 0 -0.022615560142857392 -0.0058141859242744421 0 -0.022171162888502519 -0.0045787048726144463 0 -0.023414407494774456 -0.0035785898508988953 0 -0.02249420897624731 -0.0038463277200956668 0 -0.023550875607686483 -0.0047007434273873307 0 -0.02249420897624731 -0.0038463277200956668 0 -0.023550875607686483 -0.0047007434273873307 0 -0.022171162888502519 -0.0045787048726144463 0 -0.021739003198219795 -0.0035332119482605518 0 -0.02249420897624731 -0.0038463277200956668 0 -0.022171162888502519 -0.0045787048726144463 0 -0.021739003198219795 -0.0035332119482605518 0 -0.021273572508040791 -0.0042757747847280148 0 -0.022171162888502519 -0.0045787048726144463 0 -0.022615560142857392 -0.0058141859242744421 0 -0.023550875607686483 -0.0047007434273873307 0 -0.022171162888502519 -0.0045787048726144463 0 -0.02812638577074783 -0.0067554546693752897 0 -0.0288188341829624 -0.0067233464479662438 0 -0.027891693013335963 -0.0060928787499487892 0 -0.02812638577074783 -0.0067554546693752897 0 -0.027891693013335963 -0.0060928787499487892 0 -0.027692562200844796 -0.0065517570059923274 0 -0.02812638577074783 -0.0067554546693752897 0 -0.027692562200844796 -0.0065517570059923274 0 -0.027803768405684416 -0.0070248213418815184 0 -0.02812638577074783 -0.0067554546693752897 0 -0.0288188341829624 -0.0067233464479662438 0 -0.028404376768086041 -0.0073750526325345993 0 -0.024445277835387441 -0.0062070577612575763 0 -0.028805394526126467 -0.0060576720630748388 0 -0.024890529095336639 -0.0050216245632430379 0 -0.025312792443495057 -0.0043856847165768082 0 -0.025136001460979194 -0.006022697883681951 0 -0.025015347461289889 -0.0050528046977563303 0 -0.024445277835387441 -0.0062070577612575763 0 -0.025312792443495057 -0.0043856847165768082 0 -0.026177270965213929 -0.0064019561780626535 0 -0.027891693013335963 -0.0060928787499487892 0 -0.025312792443495057 -0.0043856847165768082 0 -0.025136001460979194 -0.006022697883681951 0 -0.026177270965213929 -0.0064019561780626535 0 -0.025008050215524109 -0.0072852763138516411 0 -0.025136001460979194 -0.006022697883681951 0 -0.026177270965213929 -0.0064019561780626535 0 -0.026177270965213929 -0.0064019561780626535 0 -0.027259707898180767 -0.0063909758453284983 0 -0.027891693013335963 -0.0060928787499487892 0 -0.02800246111041859 -0.0065296038056832321 0 -0.027259707898180767 -0.0063909758453284983 0 -0.027891693013335963 -0.0060928787499487892 0 -0.02800246111041859 -0.0065296038056832321 0 -0.027891693013335963 -0.0060928787499487892 0 -0.027790637257605458 -0.006257592485426385 0 -0.027891693013335963 -0.0060928787499487892 0 -0.027790637257605458 -0.006257592485426385 0 -0.027692562200844796 -0.0065517570059923274 0 -0.027364122247066792 -0.0057088091367228514 0 -0.027790637257605458 -0.006257592485426385 0 -0.027449400434354634 -0.0064307748732685506 0 -0.027790637257605458 -0.006257592485426385 0 -0.027449400434354634 -0.0064307748732685506 0 -0.027692562200844796 -0.0065517570059923274 0 -0.027122619372155828 -0.0061208917776221792 0 -0.027449400434354634 -0.0064307748732685506 0 -0.026956407767154092 -0.0067835846116717892 0 -0.027449400434354634 -0.0064307748732685506 0 -0.027356880466993319 -0.0070677282200004065 0 -0.026956407767154092 -0.0067835846116717892 0 -0.027356880466993319 -0.0070677282200004065 0 -0.026928077093157334 -0.0073955098751616738 0 -0.026956407767154092 -0.0067835846116717892 0 -0.027449400434354634 -0.0064307748732685506 0 -0.027356880466993319 -0.0070677282200004065 0 -0.027692562200844796 -0.0065517570059923274 0 -0.027356880466993319 -0.0070677282200004065 0 -0.027692562200844796 -0.0065517570059923274 0 -0.027803768405684416 -0.0070248213418815184 0 -0.027356880466993319 -0.0070677282200004065 0 -0.027394988468620877 -0.007814851659427623 0 -0.027786482758506013 -0.0075258484639205711 0 -0.027356880466993319 -0.0070677282200004065 0 -0.027803768405684416 -0.0070248213418815184 0 -0.027786482758506013 -0.0075258484639205711 0 -0.027356880466993319 -0.0070677282200004065 0 -0.027394988468620877 -0.007814851659427623 0 -0.026928077093157334 -0.0073955098751616738 0 -0.027394988468620877 -0.007814851659427623 0 -0.026748614009037882 -0.0077975832861127258 0 -0.026928077093157334 -0.0073955098751616738 0 -0.026912274771777923 -0.0092100430362855989 0 -0.027012554803862644 -0.0091540354191317636 0 -0.027140610673155856 -0.0091165525987923733 0 -0.028024991760018429 -0.0086709646632384292 0 -0.026722519673003146 -0.0084177748477711201 0 -0.027394988468620877 -0.007814851659427623 0 -0.027786482758506013 -0.0075258484639205711 0 -0.028063306033842141 -0.0079281155751365229 0 -0.028024991760018429 -0.0086709646632384292 0 -0.023384655567600207 -0.0078720719306189478 0 -0.023384655567600207 -0.0078720719306189478 0 -0.02440930514201449 -0.0072967492102601443 0 -0.027786482758506013 -0.0075258484639205711 0 -0.028063306033842141 -0.0079281155751365229 0 -0.028404376768086041 -0.0073750526325345993 0 -0.027803768405684416 -0.0070248213418815184 0 -0.027786482758506013 -0.0075258484639205711 0 -0.028404376768086041 -0.0073750526325345993 0 -0.02812638577074783 -0.0067554546693752897 0 -0.027803768405684416 -0.0070248213418815184 0 -0.028404376768086041 -0.0073750526325345993 0 -0.024445277835387441 -0.0062070577612575763 0 -0.02440930514201449 -0.0072967492102601443 0 -0.020177376114720914 -0.0071802713011503315 0 -0.020240651760288112 -0.0072637238766543573 0 -0.020283066930339395 -0.0071937846453123859 0 -0.02016282270599434 -0.0070893101280008232 0 -0.020360500331910576 -0.0070968548808745223 0 -0.020283066930339395 -0.0071937846453123859 0 -0.02016282270599434 -0.0070893101280008232 0 -0.020177376114720914 -0.0071802713011503315 0 -0.020283066930339395 -0.0071937846453123859 0 -0.018678318123393448 -0.0069111148618408247 0 -0.023384655567600207 -0.0078720719306189478 0 -0.019004885557067943 -0.007893834085276023 0 -0.019024442080722084 -0.0070888147327460953 0 -0.018494670983040782 -0.0075610025948266461 0 -0.019024442080722084 -0.0070888147327460953 0 -0.01816990764602237 -0.0069449776038947517 0 -0.018494670983040782 -0.0075610025948266461 0 -0.01816990764602237 -0.0069449776038947517 0 -0.018494670983040782 -0.0075610025948266461 0 -0.017747826261497866 -0.0076606556758479624 0 -0.023384655567600207 -0.0078720719306189478 0 -0.022200089886377759 -0.008468561410043254 0 -0.018494670983040782 -0.0075610025948266461 0 -0.018519282229833647 -0.0083501033081754585 0 -0.017747826261497866 -0.0076606556758479624 0 -0.019004885557067943 -0.007893834085276023 0 -0.018494670983040782 -0.0075610025948266461 0 -0.018519282229833647 -0.0083501033081754585 0 -0.018990946594942913 -0.0086571961049311183 0 -0.019004885557067943 -0.007893834085276023 0 -0.018519282229833647 -0.0083501033081754585 0 -0.018990946594942913 -0.0086571961049311183 0 -0.018519282229833647 -0.0083501033081754585 0 -0.018227627463813702 -0.0090870170260627416 0 -0.018519282229833647 -0.0083501033081754585 0 -0.017865010366920991 -0.0085085958119977372 0 -0.018227627463813702 -0.0090870170260627416 0 -0.018519282229833647 -0.0083501033081754585 0 -0.017865010366920991 -0.0085085958119977372 0 -0.017747826261497866 -0.0076606556758479624 0 -0.017865010366920991 -0.0085085958119977372 0 -0.018227627463813702 -0.0090870170260627416 0 -0.017498983114781898 -0.0090370837741788976 0 -0.018990946594942913 -0.0086571961049311183 0 -0.018227627463813702 -0.0090870170260627416 0 -0.018827925770883793 -0.0094477950700947774 0 -0.026877279354916957 -0.0091958929102300014 0 -0.02686463514973297 -0.0092755450515712799 0 -0.026855405718962454 -0.0091462028530037102 0 -0.02686463514973297 -0.0092755450515712799 0 -0.026855405718962454 -0.0091462028530037102 0 -0.026812400525969116 -0.0093431816643003603 0 -0.016952844638169574 -0.0091348987229473728 0 -0.017498983114781898 -0.0090370837741788976 0 -0.016950582680863024 -0.0094364664036085694 0 -0.016952844638169574 -0.0091348987229473728 0 -0.017498983114781898 -0.0090370837741788976 0 -0.017334689378370235 -0.0084044382273449521 0 -0.025359489068562339 -0.009194086784599537 0 -0.023589818882934203 -0.0097084780740430195 0 -0.023589818882934203 -0.0097084780740430195 0 -0.02005899280601333 -0.010213982760729793 0 -0.023589818882934203 -0.0097084780740430195 0 -0.025353669252075526 -0.011877731954194028 0 -0.023730377193234425 -0.010193098029213435 0 -0.023728052623305608 -0.011658464236103812 0 -0.022843106760504127 -0.011777309592018708 0 -0.02686463514973297 -0.0092755450515712799 0 -0.026812400525969116 -0.0093431816643003603 0 -0.026813863481209815 -0.009359043368377222 0 -0.017498983114781898 -0.0090370837741788976 0 -0.017617636953878531 -0.0095844569059555171 0 -0.016950582680863024 -0.0094364664036085694 0 -0.018227627463813702 -0.0090870170260627416 0 -0.017498983114781898 -0.0090370837741788976 0 -0.017617636953878531 -0.0095844569059555171 0 -0.017865010366920991 -0.0085085958119977372 0 -0.017334689378370235 -0.0084044382273449521 0 -0.017747826261497866 -0.0076606556758479624 0 -0.017865010366920991 -0.0085085958119977372 0 -0.017498983114781898 -0.0090370837741788976 0 -0.017334689378370235 -0.0084044382273449521 0 -0.026877279354916957 -0.0091958929102300014 0 -0.026873681554984253 -0.0092405229218417533 0 -0.02688720767715444 -0.0091327084179491386 0 -0.023589818882934203 -0.0097084780740430195 0 -0.021979283112015413 -0.0087557402515400003 0 -0.02688720767715444 -0.0091327084179491386 0 -0.026887403118748345 -0.0091407994155911047 0 -0.026911597327823486 -0.0091207611397398775 0 -0.026877279354916957 -0.0091958929102300014 0 -0.02688720767715444 -0.0091327084179491386 0 -0.026887403118748345 -0.0091407994155911047 0 -0.026877279354916957 -0.0091958929102300014 0 -0.026887403118748345 -0.0091407994155911047 0 -0.026855405718962454 -0.0091462028530037102 0 -0.026887403118748345 -0.0091407994155911047 0 -0.026911597327823486 -0.0091207611397398775 0 -0.026855405718962454 -0.0091462028530037102 0 -0.026911597327823486 -0.0091207611397398775 0 -0.026838375810732486 -0.0091100702489425242 0 -0.02691843481661254 -0.0091315169232784963 0 -0.026911597327823486 -0.0091207611397398775 0 -0.02691843481661254 -0.0091315169232784963 0 -0.026974020341646244 -0.0091208891679381426 0 -0.021979283112015413 -0.0087557402515400003 0 -0.022200089886377759 -0.008468561410043254 0 -0.02688720767715444 -0.0091327084179491386 0 -0.026911597327823486 -0.0091207611397398775 0 -0.026838375810732486 -0.0091100702489425242 0 -0.026912274771777923 -0.0092100430362855989 0 -0.026838375810732486 -0.0091100702489425242 0 -0.02691843481661254 -0.0091315169232784963 0 -0.026912274771777923 -0.0092100430362855989 0 -0.026753323502767299 -0.0091922309616034922 0 -0.026838375810732486 -0.0091100702489425242 0 -0.026912274771777923 -0.0092100430362855989 0 -0.02691843481661254 -0.0091315169232784963 0 -0.027012554803862644 -0.0091540354191317636 0 -0.02691843481661254 -0.0091315169232784963 0 -0.027012554803862644 -0.0091540354191317636 0 -0.026974020341646244 -0.0091208891679381426 0 -0.027012554803862644 -0.0091540354191317636 0 -0.026974020341646244 -0.0091208891679381426 0 -0.027095569041745874 -0.0091739653235901782 0 -0.026868828047034027 -0.0097784893887206334 0 -0.027456540990111706 -0.010183438332835984 0 -0.027095569041745874 -0.0091739653235901782 0 -0.027203548651894758 -0.0096935146151484897 0 -0.027111449699949015 -0.009206452773425397 0 -0.026868828047034027 -0.0097784893887206334 0 -0.026341999382814538 -0.0099063315596130529 0 -0.026627941125770712 -0.0092241350071463699 0 -0.026868828047034027 -0.0097784893887206334 0 -0.026784840870938662 -0.010498542720604756 0 -0.027456540990111706 -0.010183438332835984 0 -0.026868828047034027 -0.0097784893887206334 0 -0.026784840870938662 -0.010498542720604756 0 -0.026341999382814538 -0.0099063315596130529 0 -0.026784840870938662 -0.010498542720604756 0 -0.026180942239504835 -0.011068446327685213 0 -0.026341999382814538 -0.0099063315596130529 0 -0.027203548651894758 -0.0096935146151484897 0 -0.027352974876667411 -0.010071064457317196 0 -0.026784840870938662 -0.010498542720604756 0 -0.027456540990111706 -0.010183438332835984 0 -0.027689789545482332 -0.011302903363185252 0 -0.026911597327823486 -0.0091207611397398775 0 -0.026974020341646244 -0.0091208891679381426 0 -0.026855405718962454 -0.0091462028530037102 0 -0.026784840870938662 -0.010498542720604756 0 -0.027689789545482332 -0.011302903363185252 0 -0.026912883119744671 -0.011342607625709249 0 -0.027689789545482332 -0.011302903363185252 0 -0.026912883119744671 -0.011342607625709249 0 -0.027281147489946641 -0.011786774245525548 0 -0.026784840870938662 -0.010498542720604756 0 -0.026912883119744671 -0.011342607625709249 0 -0.026180942239504835 -0.011068446327685213 0 -0.026912883119744671 -0.011342607625709249 0 -0.026637012903594944 -0.012190886483013245 0 -0.026180942239504835 -0.011068446327685213 0 -0.026912883119744671 -0.011342607625709249 0 -0.026637012903594944 -0.012190886483013245 0 -0.027281147489946641 -0.011786774245525548 0 -0.026776749750520964 -0.012455249966547692 0 -0.026372698247223773 -0.011729129845218013 0 -0.027352974876667411 -0.010071064457317196 0 -0.026372698247223773 -0.011729129845218013 0 -0.027689789545482332 -0.011302903363185252 0 -0.027281147489946641 -0.011786774245525548 0 -0.027877577898063319 -0.012373653047405852 0 -0.026637012903594944 -0.012190886483013245 0 -0.027281147489946641 -0.011786774245525548 0 -0.027877577898063319 -0.012373653047405852 0 -0.025356687663256074 -0.012079592501467696 0 -0.024999876806316365 -0.012325330143680707 0 -0.024999939902123458 -0.010874052196250832 0 -0.025356687663256074 -0.012079592501467696 0 -0.024999876806316365 -0.012325330143680707 0 -0.025610596284611927 -0.013022782347632766 0 -0.026637012903594944 -0.012190886483013245 0 -0.025356687663256074 -0.012079592501467696 0 -0.026180942239504835 -0.011068446327685213 0 -0.026355011129106268 -0.012474871311031034 0 -0.025356687663256074 -0.012079592501467696 0 -0.025610596284611927 -0.013022782347632766 0 -0.026776749750520964 -0.012455249966547692 0 -0.025263009344119656 -0.012052959040775716 0 -0.025356687663256074 -0.012079592501467696 0 -0.025535174975395532 -0.011193937028023671 0 -0.024999939902123458 -0.010874052196250832 0 -0.025356687663256074 -0.012079592501467696 0 -0.026180942239504835 -0.011068446327685213 0 -0.025535174975395532 -0.011193937028023671 0 -0.025623258689514754 -0.010242355361679528 0 -0.024999939902123458 -0.010874052196250832 0 -0.024999973845659332 -0.0094234083527392105 0 -0.025535174975395532 -0.011193937028023671 0 -0.025623258689514754 -0.010242355361679528 0 -0.024999939902123458 -0.010874052196250832 0 -0.026180942239504835 -0.011068446327685213 0 -0.025535174975395532 -0.011193937028023671 0 -0.025623258689514754 -0.010242355361679528 0 -0.026180942239504835 -0.011068446327685213 0 -0.025623258689514754 -0.010242355361679528 0 -0.026341999382814538 -0.0099063315596130529 0 -0.025623258689514754 -0.010242355361679528 0 -0.026341999382814538 -0.0099063315596130529 0 -0.025700247521053494 -0.0090891393765764709 0 -0.025623258689514754 -0.010242355361679528 0 -0.024999973845659332 -0.0094234083527392105 0 -0.025700247521053494 -0.0090891393765764709 0 -0.024999973845659332 -0.0094234083527392105 0 -0.025700247521053494 -0.0090891393765764709 0 -0.025152039950872205 -0.0083128069336401746 0 -0.025700247521053494 -0.0090891393765764709 0 -0.025152039950872205 -0.0083128069336401746 0 -0.026291600705055811 -0.008729720202591211 0 -0.025166306360567131 -0.0082786651466188795 0 -0.026159535119715024 -0.0083547799012215138 0 -0.025152039950872205 -0.0083128069336401746 0 -0.026041347600096926 -0.0079491609908044214 0 -0.025574921672429383 -0.0075589798952156754 0 -0.024999973845659332 -0.0094234083527392105 0 -0.025152039950872205 -0.0083128069336401746 0 -0.024999899517369473 -0.0079718091935575726 0 -0.025152039950872205 -0.0083128069336401746 0 -0.024999899517369473 -0.0079718091935575726 0 -0.025574921672429383 -0.0075589798952156754 0 -0.026041347600096926 -0.0079491609908044214 0 -0.026178014811658861 -0.0074332623853765323 0 -0.025574921672429383 -0.0075589798952156754 0 -0.026341999382814538 -0.0099063315596130529 0 -0.025700247521053494 -0.0090891393765764709 0 -0.026627941125770712 -0.0092241350071463699 0 -0.025700247521053494 -0.0090891393765764709 0 -0.026291600705055811 -0.008729720202591211 0 -0.026627941125770712 -0.0092241350071463699 0 -0.026159535119715024 -0.0083547799012215138 0 -0.026722519673003146 -0.0084177748477711201 0 -0.026291600705055811 -0.008729720202591211 0 -0.026627941125770712 -0.0092241350071463699 0 -0.027140610673155856 -0.0091165525987923733 0 -0.026627941125770712 -0.0092241350071463699 0 -0.027095569041745874 -0.0091739653235901782 0 -0.027140610673155856 -0.0091165525987923733 0 -0.026868828047034027 -0.0097784893887206334 0 -0.026627941125770712 -0.0092241350071463699 0 -0.027095569041745874 -0.0091739653235901782 0 -0.027012554803862644 -0.0091540354191317636 0 -0.027095569041745874 -0.0091739653235901782 0 -0.027140610673155856 -0.0091165525987923733 0 -0.026748614009037882 -0.0077975832861127258 0 -0.026928077093157334 -0.0073955098751616738 0 -0.02650995940618953 -0.0075770638425936504 0 -0.026928077093157334 -0.0073955098751616738 0 -0.02650995940618953 -0.0075770638425936504 0 -0.026579199477006526 -0.0072435520130756182 0 -0.026041347600096926 -0.0079491609908044214 0 -0.02650995940618953 -0.0075770638425936504 0 -0.026178014811658861 -0.0074332623853765323 0 -0.026041347600096926 -0.0079491609908044214 0 -0.026748614009037882 -0.0077975832861127258 0 -0.02650995940618953 -0.0075770638425936504 0 -0.02650995940618953 -0.0075770638425936504 0 -0.026178014811658861 -0.0074332623853765323 0 -0.026579199477006526 -0.0072435520130756182 0 -0.026178014811658861 -0.0074332623853765323 0 -0.026409241146324456 -0.0068162212703945036 0 -0.0258077133269097 -0.006829653146225508 0 -0.026178014811658861 -0.0074332623853765323 0 -0.026579199477006526 -0.0072435520130756182 0 -0.026409241146324456 -0.0068162212703945036 0 -0.026928077093157334 -0.0073955098751616738 0 -0.026579199477006526 -0.0072435520130756182 0 -0.026956407767154092 -0.0067835846116717892 0 -0.026579199477006526 -0.0072435520130756182 0 -0.026409241146324456 -0.0068162212703945036 0 -0.026956407767154092 -0.0067835846116717892 0 -0.027122619372155828 -0.0061208917776221792 0 -0.026956407767154092 -0.0067835846116717892 0 -0.026715298853933211 -0.0063224751488921375 0 -0.026409241146324456 -0.0068162212703945036 0 -0.026956407767154092 -0.0067835846116717892 0 -0.026715298853933211 -0.0063224751488921375 0 -0.026409241146324456 -0.0068162212703945036 0 -0.026180427056773894 -0.0061791065864693099 0 -0.0258077133269097 -0.006829653146225508 0 -0.026409241146324456 -0.0068162212703945036 0 -0.026715298853933211 -0.0063224751488921375 0 -0.026180427056773894 -0.0061791065864693099 0 -0.025599330254268651 -0.005817506403502007 0 -0.026180427056773894 -0.0061791065864693099 0 -0.0258077133269097 -0.006829653146225508 0 -0.025599330254268651 -0.005817506403502007 0 -0.0258077133269097 -0.006829653146225508 0 -0.024999841414799873 -0.0065212529171227007 0 -0.0258077133269097 -0.006829653146225508 0 -0.024999841414799873 -0.0065212529171227007 0 -0.025574921672429383 -0.0075589798952156754 0 -0.024999899517369473 -0.0079718091935575726 0 -0.024999841414799873 -0.0065212529171227007 0 -0.025574921672429383 -0.0075589798952156754 0 -0.026178014811658861 -0.0074332623853765323 0 -0.0258077133269097 -0.006829653146225508 0 -0.025574921672429383 -0.0075589798952156754 0 -0.025940270865393314 -0.017190686649797289 0 -0.026535035035577609 -0.017927735605063652 0 -0.02589375973606662 -0.017159786169072985 0 -0.024999934376889868 -0.01815128799387317 0 -0.025000001856219315 -0.016692806730862254 0 -0.02589375973606662 -0.017159786169072985 0 -0.024999934376889868 -0.01815128799387317 0 -0.025867906974196685 -0.018615605796677894 0 -0.02589375973606662 -0.017159786169072985 0 -0.025867906974196685 -0.018615605796677894 0 -0.026693439780898495 -0.018184634343979742 0 -0.025867906974196685 -0.018615605796677894 0 -0.026693439780898495 -0.018184634343979742 0 -0.026612163954950259 -0.019046406461117403 0 -0.026535035035577609 -0.017927735605063652 0 -0.027375640465518374 -0.01830251079139459 0 -0.026171195685735425 -0.016158597574618596 0 -0.026422547669780874 -0.015999023328851912 0 -0.026484562841652438 -0.017651930369135621 0 -0.026889066186953293 -0.017577779940778845 0 -0.026820089244819885 -0.017969266277952662 0 -0.025468584129379027 -0.014617984764260092 0 -0.025543237905564595 -0.014633177017997599 0 -0.02543849551051991 -0.014592281322959142 0 -0.025468584129379027 -0.014617984764260092 0 -0.025644564015816974 -0.014629282038642959 0 -0.025543237905564595 -0.014633177017997599 0 -0.026171195685735425 -0.016158597574618596 0 -0.026152648387342409 -0.015780265822727263 0 -0.026484562841652438 -0.017651930369135621 0 -0.026889066186953293 -0.017577779940778845 0 -0.026675857928405967 -0.016960245298499023 0 -0.02589375973606662 -0.017159786169072985 0 -0.026484562841652438 -0.017651930369135621 0 -0.026675857928405967 -0.016960245298499023 0 -0.026152648387342409 -0.015780265822727263 0 -0.026005397646960172 -0.01535442286244236 0 -0.025644564015816974 -0.014629282038642959 0 -0.025608683233722847 -0.01467979904390748 0 -0.025695607899838623 -0.014703154598926089 0 -0.025543237905564595 -0.014633177017997599 0 -0.025608683233722847 -0.01467979904390748 0 -0.025555219105628978 -0.014689052663613721 0 -0.025644564015816974 -0.014629282038642959 0 -0.025543237905564595 -0.014633177017997599 0 -0.025608683233722847 -0.01467979904390748 0 -0.025608683233722847 -0.01467979904390748 0 -0.02560460609687432 -0.014698124710317622 0 -0.025555219105628978 -0.014689052663613721 0 -0.025608683233722847 -0.01467979904390748 0 -0.025626895219212673 -0.014699630521196685 0 -0.02560460609687432 -0.014698124710317622 0 -0.025608683233722847 -0.01467979904390748 0 -0.025655386909253387 -0.014701583071046855 0 -0.025626895219212673 -0.014699630521196685 0 -0.025655386909253387 -0.014701583071046855 0 -0.025645428736833953 -0.014705390737926215 0 -0.025626895219212673 -0.014699630521196685 0 -0.025645428736833953 -0.014705390737926215 0 -0.025626895219212673 -0.014699630521196685 0 -0.025626685473004899 -0.014705365890781972 0 -0.025626895219212673 -0.014699630521196685 0 -0.025626685473004899 -0.014705365890781972 0 -0.02560460609687432 -0.014698124710317622 0 -0.025626685473004899 -0.014705365890781972 0 -0.02560460609687432 -0.014698124710317622 0 -0.025617230702727214 -0.01470371389692258 0 -0.025644564015816974 -0.014629282038642959 0 -0.025695607899838623 -0.014703154598926089 0 -0.025781922570769923 -0.014753805670372067 0 -0.025608683233722847 -0.01467979904390748 0 -0.025655386909253387 -0.014701583071046855 0 -0.025695607899838623 -0.014703154598926089 0 -0.025655386909253387 -0.014701583071046855 0 -0.025645428736833953 -0.014705390737926215 0 -0.025696672257246745 -0.014703824930727581 0 -0.025655386909253387 -0.014701583071046855 0 -0.025695607899838623 -0.014703154598926089 0 -0.025696672257246745 -0.014703824930727581 0 -0.025695607899838623 -0.014703154598926089 0 -0.025818945959590889 -0.014697438107492302 0 -0.025696672257246745 -0.014703824930727581 0 -0.025695607899838623 -0.014703154598926089 0 -0.025781922570769923 -0.014753805670372067 0 -0.025818945959590889 -0.014697438107492302 0 -0.02589375973606662 -0.017159786169072985 0 -0.026253566007570645 -0.015973028669291688 0 -0.02551349964086445 -0.015992973612992446 0 -0.02589375973606662 -0.017159786169072985 0 -0.026675857928405967 -0.016960245298499023 0 -0.026253566007570645 -0.015973028669291688 0 -0.02589375973606662 -0.017159786169072985 0 -0.025000001856219315 -0.016692806730862254 0 -0.02551349964086445 -0.015992973612992446 0 -0.025000001856219315 -0.016692806730862254 0 -0.02551349964086445 -0.015992973612992446 0 -0.024999957352658784 -0.015234518572003553 0 -0.02551349964086445 -0.015992973612992446 0 -0.024999957352658784 -0.015234518572003553 0 -0.025662183732643035 -0.014858832883204012 0 -0.025818945959590889 -0.014697438107492302 0 -0.025896228127416224 -0.014222651630392649 0 -0.025521852257239755 -0.014362688634598149 0 -0.026005397646960172 -0.01535442286244236 0 -0.025579223857441515 -0.014606517719589228 0 -0.026253566007570645 -0.015973028669291688 0 -0.02551349964086445 -0.015992973612992446 0 -0.025662183732643035 -0.014858832883204012 0 -0.025781922570769923 -0.014753805670372067 0 -0.025818945959590889 -0.014697438107492302 0 -0.025521852257239755 -0.014362688634598149 0 -0.025896228127416224 -0.014222651630392649 0 -0.025521852257239755 -0.014362688634598149 0 -0.02564187470201907 -0.013819499713338073 0 -0.025896228127416224 -0.014222651630392649 0 -0.02564187470201907 -0.013819499713338073 0 -0.026165578058267892 -0.01352367778058685 0 -0.025579223857441515 -0.014606517719589228 0 -0.025000117046746949 -0.013776147037624418 0 -0.024999957352658784 -0.015234518572003553 0 -0.025662183732643035 -0.014858832883204012 0 -0.025000012986830942 -0.013775989650066902 0 -0.025521852257239755 -0.014362688634598149 0 -0.024999967123006672 -0.013775394554831146 0 -0.02564187470201907 -0.013819499713338073 0 -0.024999967123006672 -0.013775394554831146 0 -0.02564187470201907 -0.013819499713338073 0 -0.025610596284611927 -0.013022782347632766 0 -0.02564187470201907 -0.013819499713338073 0 -0.025610596284611927 -0.013022782347632766 0 -0.026165578058267892 -0.01352367778058685 0 -0.026355011129106268 -0.012474871311031034 0 -0.025610596284611927 -0.013022782347632766 0 -0.026165578058267892 -0.01352367778058685 0 -0.024999876806316365 -0.012325330143680707 0 -0.024999967123006672 -0.013775394554831146 0 -0.025610596284611927 -0.013022782347632766 0 -0.026355011129106268 -0.012474871311031034 0 -0.026791199111425447 -0.012916222937978504 0 -0.02731723506319746 -0.012680002461259686 0 -0.026302431850627247 -0.014212163505434845 0 -0.025353669252075526 -0.011877731954194028 0 -0.026791199111425447 -0.012916222937978504 0 -0.026912716202072414 -0.013474960964662176 0 -0.027328264694797367 -0.012735287533933218 0 -0.026791199111425447 -0.012916222937978504 0 -0.02731723506319746 -0.012680002461259686 0 -0.027328264694797367 -0.012735287533933218 0 -0.026355011129106268 -0.012474871311031034 0 -0.026791199111425447 -0.012916222937978504 0 -0.026165578058267892 -0.01352367778058685 0 -0.026165578058267892 -0.01352367778058685 0 -0.026912716202072414 -0.013474960964662176 0 -0.026403878552053898 -0.014199465616188282 0 -0.026791199111425447 -0.012916222937978504 0 -0.026165578058267892 -0.01352367778058685 0 -0.026912716202072414 -0.013474960964662176 0 -0.025602874993921474 -0.014508732842050107 0 -0.025727901736485627 -0.014558673800159223 0 -0.025699021500643928 -0.014266854163001675 0 -0.025602874993921474 -0.014508732842050107 0 -0.025664454317051992 -0.014650162014799895 0 -0.025727901736485627 -0.014558673800159223 0 -0.026302431850627247 -0.014212163505434845 0 -0.026021529854244434 -0.014387884316512289 0 -0.025664454317051992 -0.014650162014799895 0 -0.025613744368208121 -0.014697193086345539 0 -0.025643836186365156 -0.014698600237950447 0 -0.025602874993921474 -0.014508732842050107 0 -0.025664454317051992 -0.014650162014799895 0 -0.025613744368208121 -0.014697193086345539 0 -0.025896228127416224 -0.014222651630392649 0 -0.026165578058267892 -0.01352367778058685 0 -0.026403878552053898 -0.014199465616188282 0 -0.025845453290418721 -0.014676194422598016 0 -0.026021529854244434 -0.014387884316512289 0 -0.025818945959590889 -0.014697438107492302 0 -0.025896228127416224 -0.014222651630392649 0 -0.026403878552053898 -0.014199465616188282 0 -0.025613744368208121 -0.014697193086345539 0 -0.025696672257246745 -0.014703824930727581 0 -0.025649647018631063 -0.014708009832737829 0 -0.025818945959590889 -0.014697438107492302 0 -0.025613744368208121 -0.014697193086345539 0 -0.025696672257246745 -0.014703824930727581 0 -0.025645428736833953 -0.014705390737926215 0 -0.025696672257246745 -0.014703824930727581 0 -0.025649647018631063 -0.014708009832737829 0 -0.025664454317051992 -0.014650162014799895 0 -0.02564898453094324 -0.014698592738060519 0 -0.025643836186365156 -0.014698600237950447 0 -0.02564898453094324 -0.014698592738060519 0 -0.025643836186365156 -0.014698600237950447 0 -0.025635493926447664 -0.014707700995707352 0 -0.025613744368208121 -0.014697193086345539 0 -0.025649647018631063 -0.014708009832737829 0 -0.025643836186365156 -0.014698600237950447 0 -0.025649647018631063 -0.014708009832737829 0 -0.025643836186365156 -0.014698600237950447 0 -0.025639253705849741 -0.014707588981306835 0 -0.025645428736833953 -0.014705390737926215 0 -0.025649647018631063 -0.014708009832737829 0 -0.025639253705849741 -0.014707588981306835 0 -0.025645428736833953 -0.014705390737926215 0 -0.025626685473004899 -0.014705365890781972 0 -0.025639253705849741 -0.014707588981306835 0 -0.025643836186365156 -0.014698600237950447 0 -0.025639253705849741 -0.014707588981306835 0 -0.025635493926447664 -0.014707700995707352 0 -0.025626685473004899 -0.014705365890781972 0 -0.025639253705849741 -0.014707588981306835 0 -0.025635493926447664 -0.014707700995707352 0 -0.02564898453094324 -0.014698592738060519 0 -0.025635493926447664 -0.014707700995707352 0 -0.025642177338170494 -0.014706729863294339 0 -0.025626685473004899 -0.014705365890781972 0 -0.025635493926447664 -0.014707700995707352 0 -0.025617230702727214 -0.01470371389692258 0 -0.025635493926447664 -0.014707700995707352 0 -0.025642177338170494 -0.014706729863294339 0 -0.025617230702727214 -0.01470371389692258 0 -0.025642177338170494 -0.014706729863294339 0 -0.025663692026594069 -0.014708860985926157 0 -0.025617230702727214 -0.01470371389692258 0 -0.02528612375204586 -0.013598913723280894 0 -0.02512997432464879 -0.013540499468097196 0 -0.025249867193640585 -0.014199851450453903 0 -0.025664454317051992 -0.014650162014799895 0 -0.02564898453094324 -0.014698592738060519 0 -0.025663692026594069 -0.014708860985926157 0 -0.02564898453094324 -0.014698592738060519 0 -0.025642177338170494 -0.014706729863294339 0 -0.025663692026594069 -0.014708860985926157 0 -0.017089397463808369 -0.011386363588288611 0 -0.017919713592322695 -0.011289869357128316 0 -0.017945982844803816 -0.012057274048109046 0 -0.017089397463808369 -0.011386363588288611 0 -0.017703886295356928 -0.01052724484429792 0 -0.017919713592322695 -0.011289869357128316 0 -0.02528612375204586 -0.013598913723280894 0 -0.02512997432464879 -0.013540499468097196 0 -0.025035001922883396 -0.012769509038516749 0 -0.02099306335241469 -0.01226097763408123 0 -0.022481287783885581 -0.012613013592278986 0 -0.025655806536445318 -0.014330710540130692 0 -0.022481287783885581 -0.012613013592278986 0 -0.025664454317051992 -0.014650162014799895 0 -0.025663692026594069 -0.014708860985926157 0 -0.025727901736485627 -0.014558673800159223 0 -0.017089397463808369 -0.011386363588288611 0 -0.016933060804241208 -0.0104734856630243 0 -0.017703886295356928 -0.01052724484429792 0 -0.016933060804241208 -0.0104734856630243 0 -0.017703886295356928 -0.01052724484429792 0 -0.017617636953878531 -0.0095844569059555171 0 -0.01641090802340002 -0.0093564369346128013 0 -0.02005899280601333 -0.010213982760729793 0 -0.022481287783885581 -0.012613013592278986 0 -0.02005899280601333 -0.010213982760729793 0 -0.022548224689914659 -0.012688151810833046 0 -0.022555304088473942 -0.010636620873427264 0 -0.022177377632223185 -0.010687794055134788 0 -0.016933060804241208 -0.0104734856630243 0 -0.017617636953878531 -0.0095844569059555171 0 -0.016949934696491739 -0.0094887113466077793 0 -0.022481287783885581 -0.012613013592278986 0 -0.025353669252075526 -0.011877731954194028 0 -0.02005899280601333 -0.010213982760729793 0 -0.025353669252075526 -0.011877731954194028 0 -0.026372698247223773 -0.011729129845218013 0 -0.025353669252075526 -0.011877731954194028 0 -0.018827925770883793 -0.0094477950700947774 0 -0.018298099584129958 -0.009844999241958809 0 -0.018747903820155301 -0.010159971076690734 0 -0.018227627463813702 -0.0090870170260627416 0 -0.018827925770883793 -0.0094477950700947774 0 -0.018298099584129958 -0.009844999241958809 0 -0.018227627463813702 -0.0090870170260627416 0 -0.017617636953878531 -0.0095844569059555171 0 -0.018298099584129958 -0.009844999241958809 0 -0.017703886295356928 -0.01052724484429792 0 -0.017617636953878531 -0.0095844569059555171 0 -0.018298099584129958 -0.009844999241958809 0 -0.017703886295356928 -0.01052724484429792 0 -0.018298099584129958 -0.009844999241958809 0 -0.018375993748446746 -0.010537084513133451 0 -0.018298099584129958 -0.009844999241958809 0 -0.018375993748446746 -0.010537084513133451 0 -0.018747903820155301 -0.010159971076690734 0 -0.018375993748446746 -0.010537084513133451 0 -0.018747903820155301 -0.010159971076690734 0 -0.018949085738103787 -0.01088726753084685 0 -0.018375993748446746 -0.010537084513133451 0 -0.018445292916816118 -0.011110819464774921 0 -0.018949085738103787 -0.01088726753084685 0 -0.017703886295356928 -0.01052724484429792 0 -0.018375993748446746 -0.010537084513133451 0 -0.017919713592322695 -0.011289869357128316 0 -0.018375993748446746 -0.010537084513133451 0 -0.018445292916816118 -0.011110819464774921 0 -0.017919713592322695 -0.011289869357128316 0 -0.017919713592322695 -0.011289869357128316 0 -0.018667350910061591 -0.011615612866838699 0 -0.017945982844803816 -0.012057274048109046 0 -0.018445292916816118 -0.011110819464774921 0 -0.018667350910061591 -0.011615612866838699 0 -0.018949085738103787 -0.01088726753084685 0 -0.018445292916816118 -0.011110819464774921 0 -0.017919713592322695 -0.011289869357128316 0 -0.018667350910061591 -0.011615612866838699 0 -0.018667350910061591 -0.011615612866838699 0 -0.018713043869854524 -0.012313747579940909 0 -0.017945982844803816 -0.012057274048109046 0 -0.01828789415099881 -0.012757143136423146 0 -0.018713043869854524 -0.012313747579940909 0 -0.018759435052158876 -0.012993414001567645 0 -0.01828789415099881 -0.012757143136423146 0 -0.018713043869854524 -0.012313747579940909 0 -0.017945982844803816 -0.012057274048109046 0 -0.01828789415099881 -0.012757143136423146 0 -0.01773868015635047 -0.012698726130475317 0 -0.017945982844803816 -0.012057274048109046 0 -0.017089397463808369 -0.011386363588288611 0 -0.017945982844803816 -0.012057274048109046 0 -0.017230438012959527 -0.012282888316731496 0 -0.025663692026594069 -0.014708860985926157 0 -0.025617230702727214 -0.01470371389692258 0 -0.025555219105628978 -0.014689052663613721 0 -0.02528612375204586 -0.013598913723280894 0 -0.025249867193640585 -0.014199851450453903 0 -0.025473705342636013 -0.01429049319547592 0 -0.025655806536445318 -0.014330710540130692 0 -0.025383138356361985 -0.014378476651602252 0 -0.02099306335241469 -0.01226097763408123 0 -0.021372854805037419 -0.013307839917337664 0 -0.02560460609687432 -0.014698124710317622 0 -0.025617230702727214 -0.01470371389692258 0 -0.025555219105628978 -0.014689052663613721 0 -0.025543237905564595 -0.014633177017997599 0 -0.025555219105628978 -0.014689052663613721 0 -0.02543849551051991 -0.014592281322959142 0 -0.025383138356361985 -0.014378476651602252 0 -0.025434217632220476 -0.01458654773065649 0 -0.025249867193640585 -0.014199851450453903 0 -0.025473705342636013 -0.01429049319547592 0 -0.02543849551051991 -0.014592281322959142 0 -0.01773868015635047 -0.012698726130475317 0 -0.017230438012959527 -0.012282888316731496 0 -0.017359118763341105 -0.013198558781050538 0 -0.021372854805037419 -0.013307839917337664 0 -0.021443627903784457 -0.014056929377774733 0 -0.01773868015635047 -0.012698726130475317 0 -0.017945982844803816 -0.012057274048109046 0 -0.017230438012959527 -0.012282888316731496 0 -0.025473705342636013 -0.01429049319547592 0 -0.02553289962027944 -0.014621465051135832 0 -0.02543849551051991 -0.014592281322959142 0 -0.025468584129379027 -0.014617984764260092 0 -0.02543849551051991 -0.014592281322959142 0 -0.025458374334924806 -0.014676419134347194 0 -0.02553289962027944 -0.014621465051135832 0 -0.02543849551051991 -0.014592281322959142 0 -0.025458374334924806 -0.014676419134347194 0 -0.025468584129379027 -0.014617984764260092 0 -0.025458374334924806 -0.014676419134347194 0 -0.025410443693436847 -0.014795866815652294 0 -0.017359118763341105 -0.013198558781050538 0 -0.018156865916377933 -0.013477391679666157 0 -0.017499893863555709 -0.014143390845093263 0 -0.02553289962027944 -0.014621465051135832 0 -0.025458374334924806 -0.014676419134347194 0 -0.025531852162492628 -0.014783608168024339 0 -0.021443627903784457 -0.014056929377774733 0 -0.02161918469009886 -0.013719670056975544 0 -0.018156865916377933 -0.013477391679666157 0 -0.01892503747805746 -0.013587737897127864 0 -0.018574635655964913 -0.014010619174375141 0 -0.018156865916377933 -0.013477391679666157 0 -0.018759435052158876 -0.012993414001567645 0 -0.01892503747805746 -0.013587737897127864 0 -0.01828789415099881 -0.012757143136423146 0 -0.018156865916377933 -0.013477391679666157 0 -0.018759435052158876 -0.012993414001567645 0 -0.01828789415099881 -0.012757143136423146 0 -0.01773868015635047 -0.012698726130475317 0 -0.018156865916377933 -0.013477391679666157 0 -0.01773868015635047 -0.012698726130475317 0 -0.017359118763341105 -0.013198558781050538 0 -0.018156865916377933 -0.013477391679666157 0 -0.019791576544933256 -0.013297516968925342 0 -0.019712344401875997 -0.012756521214852658 0 -0.019986672412359557 -0.013011345915420318 0 -0.019791576544933256 -0.013297516968925342 0 -0.019712344401875997 -0.012756521214852658 0 -0.019290751048702495 -0.013082771162700135 0 -0.019712344401875997 -0.012756521214852658 0 -0.019290751048702495 -0.013082771162700135 0 -0.019266173333187409 -0.012516405231927352 0 -0.018759435052158876 -0.012993414001567645 0 -0.019290751048702495 -0.013082771162700135 0 -0.01892503747805746 -0.013587737897127864 0 -0.018759435052158876 -0.012993414001567645 0 -0.019290751048702495 -0.013082771162700135 0 -0.019266173333187409 -0.012516405231927352 0 -0.019290751048702495 -0.013082771162700135 0 -0.01892503747805746 -0.013587737897127864 0 -0.019496212093528139 -0.013841863056985934 0 -0.019791576544933256 -0.013297516968925342 0 -0.019290751048702495 -0.013082771162700135 0 -0.019496212093528139 -0.013841863056985934 0 -0.019791576544933256 -0.013297516968925342 0 -0.019496212093528139 -0.013841863056985934 0 -0.020040122141837129 -0.013792486527993128 0 -0.020040122141837129 -0.013792486527993128 0 -0.020556464397151052 -0.013671575477356647 0 -0.020329690560156172 -0.014231153420739882 0 -0.020040122141837129 -0.013792486527993128 0 -0.020556464397151052 -0.013671575477356647 0 -0.020157524674195033 -0.01330107493226145 0 -0.019791576544933256 -0.013297516968925342 0 -0.020040122141837129 -0.013792486527993128 0 -0.020157524674195033 -0.01330107493226145 0 -0.019996371804501388 -0.013200453473293128 0 -0.019555094875806419 -0.013222455491528019 0 -0.019576010690386249 -0.013645388253994195 0 -0.019996371804501388 -0.013200453473293128 0 -0.019555094875806419 -0.013222455491528019 0 -0.01986999588314102 -0.01296183146454492 0 -0.019996371804501388 -0.013200453473293128 0 -0.01986999588314102 -0.01296183146454492 0 -0.020035562310700545 -0.012804402560667588 0 -0.019555094875806419 -0.013222455491528019 0 -0.019870131599380943 -0.012675623305996237 0 -0.019725441501035203 -0.012408810426538996 0 -0.019555094875806419 -0.013222455491528019 0 -0.01986999588314102 -0.01296183146454492 0 -0.019870131599380943 -0.012675623305996237 0 -0.01986999588314102 -0.01296183146454492 0 -0.019870131599380943 -0.012675623305996237 0 -0.020035562310700545 -0.012804402560667588 0 -0.019975875464729148 -0.012012159245778193 0 -0.01763426710741876 -0.011677657332873738 0 -0.019870131599380943 -0.012675623305996237 0 -0.020013437020406536 -0.012637374438349523 0 -0.020035562310700545 -0.012804402560667588 0 -0.020157524674195033 -0.01330107493226145 0 -0.019986672412359557 -0.013011345915420318 0 -0.020286910863423574 -0.012688308449317674 0 -0.020556464397151052 -0.013671575477356647 0 -0.020157524674195033 -0.01330107493226145 0 -0.020286910863423574 -0.012688308449317674 0 -0.020053007083871106 -0.013681148879680808 0 -0.019997397774820385 -0.012513898063258743 0 -0.019791576544933256 -0.013297516968925342 0 -0.020157524674195033 -0.01330107493226145 0 -0.019986672412359557 -0.013011345915420318 0 -0.019712344401875997 -0.012756521214852658 0 -0.019986672412359557 -0.013011345915420318 0 -0.020286910863423574 -0.012688308449317674 0 -0.019712344401875997 -0.012756521214852658 0 -0.020286910863423574 -0.012688308449317674 0 -0.019715384535913105 -0.01228870627057993 0 -0.019997397774820385 -0.012513898063258743 0 -0.019890042983448975 -0.011825228914989572 0 -0.019725441501035203 -0.012408810426538996 0 -0.019983877625906699 -0.01220901573082666 0 -0.019880611483289245 -0.011734352065780133 0 -0.020286910863423574 -0.012688308449317674 0 -0.019880611483289245 -0.011734352065780133 0 -0.019715384535913105 -0.01228870627057993 0 -0.020256568819476777 -0.012510743405610572 0 -0.019983877625906699 -0.01220901573082666 0 -0.020275060904974277 -0.011832262447684783 0 -0.01763426710741876 -0.011677657332873738 0 -0.016232170841400054 -0.010720983198501505 0 -0.019870131599380943 -0.012675623305996237 0 -0.020256568819476777 -0.012510743405610572 0 -0.019983877625906699 -0.01220901573082666 0 -0.019870131599380943 -0.012675623305996237 0 -0.019725441501035203 -0.012408810426538996 0 -0.019983877625906699 -0.01220901573082666 0 -0.019983877625906699 -0.01220901573082666 0 -0.020275060904974277 -0.011832262447684783 0 -0.019880611483289245 -0.011734352065780133 0 -0.019880611483289245 -0.011734352065780133 0 -0.01933825400443465 -0.011947413698491291 0 -0.019715384535913105 -0.01228870627057993 0 -0.019880611483289245 -0.011734352065780133 0 -0.01933825400443465 -0.011947413698491291 0 -0.019335106515541354 -0.011409984449131853 0 -0.01933825400443465 -0.011947413698491291 0 -0.019715384535913105 -0.01228870627057993 0 -0.019266173333187409 -0.012516405231927352 0 -0.019712344401875997 -0.012756521214852658 0 -0.019715384535913105 -0.01228870627057993 0 -0.019266173333187409 -0.012516405231927352 0 -0.018713043869854524 -0.012313747579940909 0 -0.018759435052158876 -0.012993414001567645 0 -0.019266173333187409 -0.012516405231927352 0 -0.018713043869854524 -0.012313747579940909 0 -0.01933825400443465 -0.011947413698491291 0 -0.019266173333187409 -0.012516405231927352 0 -0.018667350910061591 -0.011615612866838699 0 -0.018713043869854524 -0.012313747579940909 0 -0.01933825400443465 -0.011947413698491291 0 -0.018667350910061591 -0.011615612866838699 0 -0.01933825400443465 -0.011947413698491291 0 -0.019335106515541354 -0.011409984449131853 0 -0.018667350910061591 -0.011615612866838699 0 -0.019335106515541354 -0.011409984449131853 0 -0.018949085738103787 -0.01088726753084685 0 -0.019880611483289245 -0.011734352065780133 0 -0.019335106515541354 -0.011409984449131853 0 -0.019624715289813129 -0.01105708952369789 0 -0.019624715289813129 -0.01105708952369789 0 -0.018949085738103787 -0.01088726753084685 0 -0.019521985904659707 -0.010593284211981724 0 -0.019624715289813129 -0.01105708952369789 0 -0.019521985904659707 -0.010593284211981724 0 -0.01997623256548911 -0.010900934940387181 0 -0.018949085738103787 -0.01088726753084685 0 -0.019106179550602134 -0.010447369559408467 0 -0.019521985904659707 -0.010593284211981724 0 -0.019335106515541354 -0.011409984449131853 0 -0.019624715289813129 -0.01105708952369789 0 -0.018949085738103787 -0.01088726753084685 0 -0.018747903820155301 -0.010159971076690734 0 -0.018949085738103787 -0.01088726753084685 0 -0.019106179550602134 -0.010447369559408467 0 -0.019106179550602134 -0.010447369559408467 0 -0.019521985904659707 -0.010593284211981724 0 -0.019243439753806133 -0.009915727977732677 0 -0.018747903820155301 -0.010159971076690734 0 -0.019106179550602134 -0.010447369559408467 0 -0.019243439753806133 -0.009915727977732677 0 -0.019521985904659707 -0.010593284211981724 0 -0.019754371080552217 -0.0099191968870934611 0 -0.019243439753806133 -0.009915727977732677 0 -0.019542348342942197 -0.010582615788803332 0 -0.020095576805821181 -0.010253223534367608 0 -0.019521985904659707 -0.010593284211981724 0 -0.019754371080552217 -0.0099191968870934611 0 -0.020185381429707695 -0.010180951701578586 0 -0.019754371080552217 -0.0099191968870934611 0 -0.019711444696085212 -0.0093993742785236419 0 -0.019243439753806133 -0.009915727977732677 0 -0.019754371080552217 -0.0099191968870934611 0 -0.020117151354569367 -0.0095730154498100579 0 -0.020185381429707695 -0.010180951701578586 0 -0.019754371080552217 -0.0099191968870934611 0 -0.019711444696085212 -0.0093993742785236419 0 -0.020117151354569367 -0.0095730154498100579 0 -0.020090625680492521 -0.0091532449242170341 0 -0.019711444696085212 -0.0093993742785236419 0 -0.020117151354569367 -0.0095730154498100579 0 -0.019318271438011583 -0.0091668083817286975 0 -0.018827925770883793 -0.0094477950700947774 0 -0.019243439753806133 -0.009915727977732677 0 -0.018827925770883793 -0.0094477950700947774 0 -0.018747903820155301 -0.010159971076690734 0 -0.019243439753806133 -0.009915727977732677 0 -0.019318271438011583 -0.0091668083817286975 0 -0.019711444696085212 -0.0093993742785236419 0 -0.019243439753806133 -0.009915727977732677 0 -0.020479661549882278 -0.0091787811918398465 0 -0.020847276507934817 -0.0095178095304922772 0 -0.020616707382179026 -0.0094260859907809354 0 -0.018993632071175479 -0.0088778124025967395 0 -0.012677515925337723 -0.0045930633089270772 0 -0.020638304358479593 -0.0096390415192027998 0 -0.020847276507934817 -0.0095178095304922772 0 -0.020616707382179026 -0.0094260859907809354 0 -0.018993632071175479 -0.0088778124025967395 0 -0.019963255708954377 -0.0096795237541976564 0 -0.014165508266246079 -0.0069096995348292981 0 -0.015019653535245793 -0.0063601669039732708 0 -0.014597519042410349 -0.0073176498301912966 0 -0.012677515925337723 -0.0045930633089270772 0 -0.011907408290652679 -0.0063878662961749325 0 -0.020479661549882278 -0.0091787811918398465 0 -0.020616707382179026 -0.0094260859907809354 0 -0.020390948674288034 -0.0094315436984691737 0 -0.020616707382179026 -0.0094260859907809354 0 -0.020390948674288034 -0.0094315436984691737 0 -0.020409024323409145 -0.009678194643365428 0 -0.020090625680492521 -0.0091532449242170341 0 -0.020310621499604543 -0.0092684315207525406 0 -0.020117151354569367 -0.0095730154498100579 0 -0.020310621499604543 -0.0092684315207525406 0 -0.020390948674288034 -0.0094315436984691737 0 -0.020117151354569367 -0.0095730154498100579 0 -0.020390948674288034 -0.0094315436984691737 0 -0.020117151354569367 -0.0095730154498100579 0 -0.020409024323409145 -0.009678194643365428 0 -0.020117151354569367 -0.0095730154498100579 0 -0.020409024323409145 -0.009678194643365428 0 -0.020185381429707695 -0.010180951701578586 0 -0.020715784464614764 -0.0098025362228944223 0 -0.020409024323409145 -0.009678194643365428 0 -0.020185381429707695 -0.010180951701578586 0 -0.020715784464614764 -0.0098025362228944223 0 -0.020616707382179026 -0.0094260859907809354 0 -0.020409024323409145 -0.009678194643365428 0 -0.019841144156530655 -0.010460058425814161 0 -0.020072115857390518 -0.010597953176194124 0 -0.020239863332736054 -0.010505055511985901 0 -0.020196489880985592 -0.01024851814350658 0 -0.019841144156530655 -0.010460058425814161 0 -0.020239863332736054 -0.010505055511985901 0 -0.019841144156530655 -0.010460058425814161 0 -0.020072115857390518 -0.010597953176194124 0 -0.01997623256548911 -0.010900934940387181 0 -0.018993632071175479 -0.0088778124025967395 0 -0.020095576805821181 -0.010253223534367608 0 -0.019521985904659707 -0.010593284211981724 0 -0.019841144156530655 -0.010460058425814161 0 -0.01997623256548911 -0.010900934940387181 0 -0.020072115857390518 -0.010597953176194124 0 -0.020239863332736054 -0.010505055511985901 0 -0.01997623256548911 -0.010900934940387181 0 -0.012339676736647575 -0.0091367099954446467 0 -0.012374960032820114 -0.0090479261804777347 0 -0.012465932885706434 -0.0092911117010002365 0 -0.0073032348413649036 -0.0048567798172918925 0 -0.007590844461959438 -0.0041903471852710698 0 -0.0062962860469215612 -0.0038971057749618318 0 -0.018993632071175479 -0.0088778124025967395 0 -0.015441635318905743 -0.0090506591448227484 0 -0.014165508266246079 -0.0069096995348292981 0 -0.014324839590267762 -0.007923922419095784 0 -0.014597519042410349 -0.0073176498301912966 0 -0.015441635318905743 -0.0090506591448227484 0 -0.011907408290652679 -0.0063878662961749325 0 -0.020239863332736054 -0.010505055511985901 0 -0.01997623256548911 -0.010900934940387181 0 -0.020315203033816311 -0.01118566935258862 0 -0.015441635318905743 -0.0090506591448227484 0 -0.016464491305203562 -0.010521691510567298 0 -0.012339676736647575 -0.0091367099954446467 0 -0.012465932885706434 -0.0092911117010002365 0 -0.012399572423657549 -0.0094768216201325979 0 -0.019880611483289245 -0.011734352065780133 0 -0.019624715289813129 -0.01105708952369789 0 -0.01997623256548911 -0.010900934940387181 0 -0.019880611483289245 -0.011734352065780133 0 -0.01997623256548911 -0.010900934940387181 0 -0.020315203033816311 -0.01118566935258862 0 -0.016232170841400054 -0.010720983198501505 0 -0.016464491305203562 -0.010521691510567298 0 -0.020275060904974277 -0.011832262447684783 0 -0.019880611483289245 -0.011734352065780133 0 -0.020315203033816311 -0.01118566935258862 0 -0.012466605231755285 -0.0098495833630480988 0 -0.012399572423657549 -0.0094768216201325979 0 -0.012668004447085364 -0.0096115370718838477 0 -0.012668004447085364 -0.0096115370718838477 0 -0.01283535393791441 -0.0094972976427451922 0 -0.012766026310135233 -0.0096858333704918729 0 -0.0090310066892517783 -0.0062745127664155876 0 -0.0092386308306852283 -0.005897637425780344 0 -0.012668004447085364 -0.0096115370718838477 0 -0.012636134203586114 -0.0092798420577542545 0 -0.01283535393791441 -0.0094972976427451922 0 -0.00567580267727541 -0.0031808136449031537 0 -0.0060807225394166435 -0.0032551073266445809 0 -0.0053831576883311286 -0.00297490883474662 0 -0.00567580267727541 -0.0031808136449031537 0 -0.005432183499956931 -0.0031130264644485942 0 -0.0053831576883311286 -0.00297490883474662 0 -0.012465932885706434 -0.0092911117010002365 0 -0.012668004447085364 -0.0096115370718838477 0 -0.012636134203586114 -0.0092798420577542545 0 -0.012465932885706434 -0.0092911117010002365 0 -0.012399572423657549 -0.0094768216201325979 0 -0.012668004447085364 -0.0096115370718838477 0 -0.011907408290652679 -0.0063878662961749325 0 -0.0090310066892517783 -0.0062745127664155876 0 -0.007590844461959438 -0.0041903471852710698 0 -0.0060807225394166435 -0.0032551073266445809 0 -0.0062962860469215612 -0.0038971057749618318 0 -0.012374960032820114 -0.0090479261804777347 0 -0.012465932885706434 -0.0092911117010002365 0 -0.012636134203586114 -0.0092798420577542545 0 -0.00567580267727541 -0.0031808136449031537 0 -0.0060807225394166435 -0.0032551073266445809 0 -0.0062962860469215612 -0.0038971057749618318 0 -0.00567580267727541 -0.0031808136449031537 0 -0.00577310849471012 -0.0031820664858594025 0 -0.0055448591797938127 -0.0032235941021653853 0 -0.0059494122433591508 -0.0034412191960822231 0 -0.0053066043715797023 -0.0030199400519779177 0 -0.00567580267727541 -0.0031808136449031537 0 -0.0055448591797938127 -0.0032235941021653853 0 -0.0053828506608903579 -0.003193069038293507 0 -0.00577310849471012 -0.0031820664858594025 0 -0.0055448591797938127 -0.0032235941021653853 0 -0.0056276371264949816 -0.0033523053071911678 0 -0.0055263081914469049 -0.0038548592237522081 0 -0.0056276371264949816 -0.0033523053071911678 0 -0.0052262413036666313 -0.0033155355530930419 0 -0.0055263081914469049 -0.0038548592237522081 0 -0.0056276371264949816 -0.0033523053071911678 0 -0.0058203070183115132 -0.0035845076972271157 0 -0.0055448591797938127 -0.0032235941021653853 0 -0.0056276371264949816 -0.0033523053071911678 0 -0.0052262413036666313 -0.0033155355530930419 0 -0.0056276371264949816 -0.0033523053071911678 0 -0.0058203070183115132 -0.0035845076972271157 0 -0.0058434012763263375 -0.0033695453903579572 0 -0.0061303954353692748 -0.003411682175898747 0 -0.0058203070183115132 -0.0035845076972271157 0 -0.0058434012763263375 -0.0033695453903579572 0 -0.012677515925337723 -0.0045930633089270772 0 -0.0055472288193946142 -0.0037850375623881089 0 -0.0061303954353692748 -0.003411682175898747 0 -0.00577310849471012 -0.0031820664858594025 0 -0.0058434012763263375 -0.0033695453903579572 0 -0.012677515925337723 -0.0045930633089270772 0 -0.0053066043715797023 -0.0030199400519779177 0 -0.00577310849471012 -0.0031820664858594025 0 -0.0056276371264949816 -0.0033523053071911678 0 -0.0058434012763263375 -0.0033695453903579572 0 -0.003932491980996513 -0.0032437729088781782 0 -0.0039003020546997348 -0.0021283946003086496 0 -0.0031316338545376498 -0.0023606740390308624 0 -0.003932491980996513 -0.0032437729088781782 0 -0.0031316338545376498 -0.0023606740390308624 0 -0.0030147117069983321 -0.0031619773911770346 0 -0.003932491980996513 -0.0032437729088781782 0 -0.0052262413036666313 -0.0033155355530930419 0 -0.0039003020546997348 -0.0021283946003086496 0 -0.0052030126668204816 -0.0033132464846917383 0 -0.0046387659589732328 -0.0025057983152384201 0 -0.0052262413036666313 -0.0033155355530930419 0 -0.0053828506608903579 -0.003193069038293507 0 -0.0052900737739598079 -0.0032262202047848567 0 -0.0055448591797938127 -0.0032235941021653853 0 -0.0052262413036666313 -0.0033155355530930419 0 -0.0053828506608903579 -0.003193069038293507 0 -0.0052900737739598079 -0.0032262202047848567 0 -0.0052838973207378183 -0.0031259185463413199 0 -0.0051933134055313565 -0.0031342370424926463 0 -0.0053828506608903579 -0.003193069038293507 0 -0.0052900737739598079 -0.0032262202047848567 0 -0.0052838973207378183 -0.0031259185463413199 0 -0.0046387659589732328 -0.0025057983152384201 0 -0.0031022387173900456 -0.0037992090028107937 0 -0.0039003020546997348 -0.0021283946003086496 0 -0.0029001648568499809 -0.0016403534768409682 0 -0.0031316338545376498 -0.0023606740390308624 0 -0.0052838973207378183 -0.0031259185463413199 0 -0.0052621962136096155 -0.0030684940286183991 0 -0.0051933134055313565 -0.0031342370424926463 0 -0.0052838973207378183 -0.0031259185463413199 0 -0.0053498967146894862 -0.0030946888153960319 0 -0.0053155128475722898 -0.003056114565608828 0 -0.0052838973207378183 -0.0031259185463413199 0 -0.0053155128475722898 -0.003056114565608828 0 -0.0052621962136096155 -0.0030684940286183991 0 -0.0053828506608903579 -0.003193069038293507 0 -0.0052838973207378183 -0.0031259185463413199 0 -0.0053498967146894862 -0.0030946888153960319 0 -0.0053498967146894862 -0.0030946888153960319 0 -0.0053831576883311286 -0.00297490883474662 0 -0.0053155128475722898 -0.003056114565608828 0 -0.00567580267727541 -0.0031808136449031537 0 -0.0053828506608903579 -0.003193069038293507 0 -0.005432183499956931 -0.0031130264644485942 0 -0.0053828506608903579 -0.003193069038293507 0 -0.005432183499956931 -0.0031130264644485942 0 -0.0053498967146894862 -0.0030946888153960319 0 -0.005432183499956931 -0.0031130264644485942 0 -0.0053498967146894862 -0.0030946888153960319 0 -0.0053831576883311286 -0.00297490883474662 0 -0.0092386308306852283 -0.005897637425780344 0 -0.0081450080584847401 -0.0090700682291853067 0 -0.0053831576883311286 -0.00297490883474662 0 -0.0053155128475722898 -0.003056114565608828 0 -0.0053134347348961228 -0.0030748733197462422 0 -0.01283535393791441 -0.0094972976427451922 0 -0.012866943819157962 -0.0096910192521583709 0 -0.012766026310135233 -0.0096858333704918729 0 -0.01283535393791441 -0.0094972976427451922 0 -0.012978168821203709 -0.0096617401497876097 0 -0.012866943819157962 -0.0096910192521583709 0 -0.0053155128475722898 -0.003056114565608828 0 -0.0053134347348961228 -0.0030748733197462422 0 -0.0052621962136096155 -0.0030684940286183991 0 -0.0081450080584847401 -0.0090700682291853067 0 -0.005070509953446883 -0.0052314251466864586 0 -0.0045380716411231661 -0.0097691069884511018 0 -0.0032430669722849068 -0.010307176659033223 0 -0.0046023886768205863 -0.0076680057803415217 0 -0.012978168821203709 -0.0096617401497876097 0 -0.012954984634006269 -0.0097376328461388079 0 -0.012866943819157962 -0.0096910192521583709 0 -0.0099009034820510856 -0.012797533510045457 0 -0.0092448898081919709 -0.012326366406481945 0 -0.010449594865221521 -0.011798056898058506 0 -0.010924774357286634 -0.016796786740795315 0 -0.011068706924025579 -0.016434740358153642 0 -0.010822490039675465 -0.016109725045463635 0 -0.0045380716411231661 -0.0097691069884511018 0 -0.0032430669722849068 -0.010307176659033223 0 -0.0042647057440415278 -0.01105508080566576 0 -0.0081450080584847401 -0.0090700682291853067 0 -0.0078904301054798804 -0.01228392897765967 0 -0.0081450080584847401 -0.0090700682291853067 0 -0.012737565553750326 -0.013732491658659089 0 -0.0078904301054798804 -0.01228392897765967 0 -0.012737565553750326 -0.013732491658659089 0 -0.010924774357286634 -0.016796786740795315 0 -0.011343394477948337 -0.016621416201402246 0 -0.011068706924025579 -0.016434740358153642 0 -0.011343394477948337 -0.016621416201402246 0 -0.011068706924025579 -0.016434740358153642 0 -0.011752025993735669 -0.015931231496206871 0 -0.011068706924025579 -0.016434740358153642 0 -0.011752025993735669 -0.015931231496206871 0 -0.010822490039675465 -0.016109725045463635 0 -0.011752025993735669 -0.015931231496206871 0 -0.011001254706590805 -0.015415695771220161 0 -0.010822490039675465 -0.016109725045463635 0 -0.016467828937618799 -0.017163174548670123 0 -0.0169930762914106 -0.016309233642464074 0 -0.017655704066631504 -0.016689802490523185 0 -0.012737565553750326 -0.013732491658659089 0 -0.01426148416519916 -0.016612327218622647 0 -0.0169930762914106 -0.016309233642464074 0 -0.017655704066631504 -0.016689802490523185 0 -0.017541886910331605 -0.01612761644163932 0 -0.012737565553750326 -0.013732491658659089 0 -0.015560295676411545 -0.013224393727050797 0 -0.012954984634006269 -0.0097376328461388079 0 -0.012866943819157962 -0.0096910192521583709 0 -0.012813006969885139 -0.0098383623498720391 0 -0.012866943819157962 -0.0096910192521583709 0 -0.012766026310135233 -0.0096858333704918729 0 -0.012813006969885139 -0.0098383623498720391 0 -0.012766026310135233 -0.0096858333704918729 0 -0.01264940855206086 -0.009776510572858204 0 -0.012813006969885139 -0.0098383623498720391 0 -0.012466605231755285 -0.0098495833630480988 0 -0.012668004447085364 -0.0096115370718838477 0 -0.012690219882776358 -0.0099322175225770495 0 -0.012668004447085364 -0.0096115370718838477 0 -0.012766026310135233 -0.0096858333704918729 0 -0.01264940855206086 -0.009776510572858204 0 -0.012656669643291251 -0.0097507901482252 0 -0.012686853919520513 -0.0095396763159957491 0 -0.01264940855206086 -0.009776510572858204 0 -0.012643295637822469 -0.0099527523480135091 0 -0.012813006969885139 -0.0098383623498720391 0 -0.012686853919520513 -0.0095396763159957491 0 -0.015915442241142129 -0.012557194995590314 0 -0.012466605231755285 -0.0098495833630480988 0 -0.012690219882776358 -0.0099322175225770495 0 -0.012671746245784354 -0.010300311518429937 0 -0.012582422086957907 -0.010347899787143877 0 -0.012466605231755285 -0.0098495833630480988 0 -0.012671746245784354 -0.010300311518429937 0 -0.018773439438660999 -0.016197880833518127 0 -0.017655704066631504 -0.016689802490523185 0 -0.018005645152056392 -0.016040876357492576 0 -0.015915442241142129 -0.012557194995590314 0 -0.015560295676411545 -0.013224393727050797 0 -0.017655704066631504 -0.016689802490523185 0 -0.017541886910331605 -0.01612761644163932 0 -0.018005645152056392 -0.016040876357492576 0 -0.018005645152056392 -0.016040876357492576 0 -0.018354549254031124 -0.015440634610850901 0 -0.017513751889996407 -0.015481536576133241 0 -0.017541886910331605 -0.01612761644163932 0 -0.018005645152056392 -0.016040876357492576 0 -0.017513751889996407 -0.015481536576133241 0 -0.019843067785687403 -0.014444926638154941 0 -0.015915442241142129 -0.012557194995590314 0 -0.019996371804501388 -0.013200453473293128 0 -0.020124942783880547 -0.012462884887415962 0 -0.020035562310700545 -0.012804402560667588 0 -0.01906309292905646 -0.015117856358617085 0 -0.018773439438660999 -0.016197880833518127 0 -0.018354549254031124 -0.015440634610850901 0 -0.018773439438660999 -0.016197880833518127 0 -0.018005645152056392 -0.016040876357492576 0 -0.018354549254031124 -0.015440634610850901 0 -0.01763426710741876 -0.011677657332873738 0 -0.019000461851157145 -0.012926702821007755 0 -0.019975776379553972 -0.012528347732970046 0 -0.020124942783880547 -0.012462884887415962 0 -0.020035562310700545 -0.012804402560667588 0 -0.01763426710741876 -0.011677657332873738 0 -0.015915442241142129 -0.012557194995590314 0 -0.018354549254031124 -0.015440634610850901 0 -0.01858239745477052 -0.014871151763368217 0 -0.018018132341261581 -0.014669114428047332 0 -0.01906309292905646 -0.015117856358617085 0 -0.018354549254031124 -0.015440634610850901 0 -0.01858239745477052 -0.014871151763368217 0 -0.014992405369149944 -0.015048849102462859 0 -0.014818591534236945 -0.015747529375153623 0 -0.018354549254031124 -0.015440634610850901 0 -0.017513751889996407 -0.015481536576133241 0 -0.018018132341261581 -0.014669114428047332 0 -0.010969377148659028 -0.017018015320695076 0 -0.014818591534236945 -0.015747529375153623 0 -0.011224058417498815 -0.018565885485030371 0 -0.011219506302138671 -0.018444725024830844 0 -0.011371457877078198 -0.018480810645615582 0 -0.011787457890136157 -0.014942475987986962 0 -0.012183169719297216 -0.015213869272959188 0 -0.012630833864499159 -0.014459898644527826 0 -0.011224058417498815 -0.018565885485030371 0 -0.011035299546739067 -0.018458706468877827 0 -0.011219506302138671 -0.018444725024830844 0 -0.011035299546739067 -0.018458706468877827 0 -0.010648054481206539 -0.018945497785275107 0 -0.010415697310893701 -0.018526708985618007 0 -0.011224058417498815 -0.018565885485030371 0 -0.011035299546739067 -0.018458706468877827 0 -0.010648054481206539 -0.018945497785275107 0 -0.011035299546739067 -0.018458706468877827 0 -0.010415697310893701 -0.018526708985618007 0 -0.010120026199134539 -0.017874308431672415 0 -0.010969377148659028 -0.017018015320695076 0 -0.010974072646652523 -0.017042547306100143 0 -0.011787457890136157 -0.014942475987986962 0 -0.011001254706590805 -0.015415695771220161 0 -0.011708451767086557 -0.015440796903729195 0 -0.011752025993735669 -0.015931231496206871 0 -0.011001254706590805 -0.015415695771220161 0 -0.011708451767086557 -0.015440796903729195 0 -0.011752025993735669 -0.015931231496206871 0 -0.012183169719297216 -0.015213869272959188 0 -0.011708451767086557 -0.015440796903729195 0 -0.0169930762914106 -0.016309233642464074 0 -0.017541886910331605 -0.01612761644163932 0 -0.017513751889996407 -0.015481536576133241 0 -0.01426148416519916 -0.016612327218622647 0 -0.014992405369149944 -0.015048849102462859 0 -0.011787457890136157 -0.014942475987986962 0 -0.012183169719297216 -0.015213869272959188 0 -0.011708451767086557 -0.015440796903729195 0 -0.011182486023234487 -0.018371118429814745 0 -0.011090385218699912 -0.018439016674216678 0 -0.011219506302138671 -0.018444725024830844 0 -0.011182486023234487 -0.018371118429814745 0 -0.011219506302138671 -0.018444725024830844 0 -0.01131573909150496 -0.018387187357140285 0 -0.011182486023234487 -0.018371118429814745 0 -0.011090385218699912 -0.018439016674216678 0 -0.011025193321804815 -0.018398100767168215 0 -0.011035299546739067 -0.018458706468877827 0 -0.011090385218699912 -0.018439016674216678 0 -0.011023254481777099 -0.01847543103371542 0 -0.011035299546739067 -0.018458706468877827 0 -0.011090385218699912 -0.018439016674216678 0 -0.011219506302138671 -0.018444725024830844 0 -0.01099958677723762 -0.018434407574775623 0 -0.010587948146766628 -0.018189399847810536 0 -0.011371457877078198 -0.018480810645615582 0 -0.01148428719988219 -0.018378018381026043 0 -0.01131573909150496 -0.018387187357140285 0 -0.014818591534236945 -0.015747529375153623 0 -0.015040709491254186 -0.015724239146919932 0 -0.011219506302138671 -0.018444725024830844 0 -0.011371457877078198 -0.018480810645615582 0 -0.01131573909150496 -0.018387187357140285 0 -0.01906309292905646 -0.015117856358617085 0 -0.018879345285089055 -0.014256403039114327 0 -0.019409812695386604 -0.014053876487492834 0 -0.014818591534236945 -0.015747529375153623 0 -0.019855905546147291 -0.013686842476913838 0 -0.018251356453812897 -0.014627558094754314 0 -0.018879345285089055 -0.014256403039114327 0 -0.018750475435421261 -0.013909415480751914 0 -0.01906309292905646 -0.015117856358617085 0 -0.01858239745477052 -0.014871151763368217 0 -0.018879345285089055 -0.014256403039114327 0 -0.01858239745477052 -0.014871151763368217 0 -0.018018132341261581 -0.014669114428047332 0 -0.018879345285089055 -0.014256403039114327 0 -0.018879345285089055 -0.014256403039114327 0 -0.019034602634319383 -0.013964148180237291 0 -0.018750475435421261 -0.013909415480751914 0 -0.018879345285089055 -0.014256403039114327 0 -0.019034602634319383 -0.013964148180237291 0 -0.019409812695386604 -0.014053876487492834 0 -0.019034602634319383 -0.013964148180237291 0 -0.018750475435421261 -0.013909415480751914 0 -0.019051568948494253 -0.013733248305535479 0 -0.019034602634319383 -0.013964148180237291 0 -0.019051568948494253 -0.013733248305535479 0 -0.019183929441629898 -0.013864029837835159 0 -0.01148428719988219 -0.018378018381026043 0 -0.01131573909150496 -0.018387187357140285 0 -0.011337477373668484 -0.018242911564656614 0 -0.015040709491254186 -0.015724239146919932 0 -0.017147730650305299 -0.019465961939600516 0 -0.018750475435421261 -0.013909415480751914 0 -0.019051568948494253 -0.013733248305535479 0 -0.019113850783075481 -0.013380061329669407 0 -0.01148428719988219 -0.018378018381026043 0 -0.011337477373668484 -0.018242911564656614 0 -0.011626330290810172 -0.018240695434709985 0 -0.01204190574275707 -0.023881592063775325 0 -0.017147730650305299 -0.019465961939600516 0 -0.015033433554049886 -0.02807988621305792 0 -0.014239970554359955 -0.028534406168964511 0 -0.015598955546890024 -0.028661126761189672 0 -0.015559820662355109 -0.028300326407298675 0 -0.015033433554049886 -0.02807988621305792 0 -0.015598955546890024 -0.028661126761189672 0 -0.015559820662355109 -0.028300326407298675 0 -0.015033433554049886 -0.02807988621305792 0 -0.015378633239686693 -0.027858065826020788 0 -0.015033433554049886 -0.02807988621305792 0 -0.014239970554359955 -0.028534406168964511 0 -0.014238784689003314 -0.027738003893405555 0 -0.014239970554359955 -0.028534406168964511 0 -0.012855801825924662 -0.028372193221399649 0 -0.014238784689003314 -0.027738003893405555 0 -0.01204190574275707 -0.023881592063775325 0 -0.012161522633607752 -0.02327133870746876 0 -0.011182486023234487 -0.018371118429814745 0 -0.01131573909150496 -0.018387187357140285 0 -0.011337477373668484 -0.018242911564656614 0 -0.011182486023234487 -0.018371118429814745 0 -0.011337477373668484 -0.018242911564656614 0 -0.011122927907837596 -0.018285467362576253 0 -0.011182486023234487 -0.018371118429814745 0 -0.011122927907837596 -0.018285467362576253 0 -0.011025193321804815 -0.018398100767168215 0 -0.012855801825924662 -0.028372193221399649 0 -0.013185356010383368 -0.027102828741281396 0 -0.012206702224003245 -0.027365376970597141 0 -0.013185356010383368 -0.027102828741281396 0 -0.014267617219796584 -0.026811726417674348 0 -0.014238784689003314 -0.027738003893405555 0 -0.012855801825924662 -0.028372193221399649 0 -0.013185356010383368 -0.027102828741281396 0 -0.014238784689003314 -0.027738003893405555 0 -0.013185356010383368 -0.027102828741281396 0 -0.013307588574032119 -0.026171457862730445 0 -0.014267617219796584 -0.026811726417674348 0 -0.013185356010383368 -0.027102828741281396 0 -0.012206702224003245 -0.027365376970597141 0 -0.01223930617184312 -0.026026473537079212 0 -0.013185356010383368 -0.027102828741281396 0 -0.013307588574032119 -0.026171457862730445 0 -0.01223930617184312 -0.026026473537079212 0 -0.013307588574032119 -0.026171457862730445 0 -0.013083818317436834 -0.024999900951321614 0 -0.01223930617184312 -0.026026473537079212 0 -0.013307588574032119 -0.026171457862730445 0 -0.014334725338990814 -0.025910269237534728 0 -0.014267617219796584 -0.026811726417674348 0 -0.013307588574032119 -0.026171457862730445 0 -0.013762436240538871 -0.025525183761399898 0 -0.014334725338990814 -0.025910269237534728 0 -0.013307588574032119 -0.026171457862730445 0 -0.013762436240538871 -0.025525183761399898 0 -0.013083818317436834 -0.024999900951321614 0 -0.013762436240538871 -0.025525183761399898 0 -0.013083818317436834 -0.024999900951321614 0 -0.014470313287558864 -0.024999976409388561 0 -0.013083482880453945 -0.025000147782151837 0 -0.012179989059470982 -0.026075129971358715 0 -0.015166427505219607 -0.025671248498786613 0 -0.014470757925484939 -0.024999966910499643 0 -0.015888783649077955 -0.024999989777773592 0 -0.014470530463163543 -0.025000211941748583 0 -0.014389768502989732 -0.025916494193695981 0 -0.013762436240538871 -0.025525183761399898 0 -0.014470313287558864 -0.024999976409388561 0 -0.014334725338990814 -0.025910269237534728 0 -0.015166427505219607 -0.025671248498786613 0 -0.014470757925484939 -0.024999966910499643 0 -0.01444038683265364 -0.025941215244968119 0 -0.014389768502989732 -0.025916494193695981 0 -0.014314464405327331 -0.026847099102024562 0 -0.01444038683265364 -0.025941215244968119 0 -0.015010820151052868 -0.026432191900794228 0 -0.014366873311196956 -0.02684048505146899 0 -0.015166427505219607 -0.025671248498786613 0 -0.01444038683265364 -0.025941215244968119 0 -0.015010820151052868 -0.026432191900794228 0 -0.015166427505219607 -0.025671248498786613 0 -0.015010820151052868 -0.026432191900794228 0 -0.015876742311354386 -0.026323440874506172 0 -0.015010820151052868 -0.026432191900794228 0 -0.015211720455610015 -0.027364905069957916 0 -0.015876742311354386 -0.026323440874506172 0 -0.015010820151052868 -0.026432191900794228 0 -0.014366873311196956 -0.02684048505146899 0 -0.015211720455610015 -0.027364905069957916 0 -0.014366873311196956 -0.02684048505146899 0 -0.014238784689003314 -0.027738003893405555 0 -0.015211720455610015 -0.027364905069957916 0 -0.015033433554049886 -0.02807988621305792 0 -0.014238784689003314 -0.027738003893405555 0 -0.015211720455610015 -0.027364905069957916 0 -0.014314464405327331 -0.026847099102024562 0 -0.014246928883763188 -0.027661826360193889 0 -0.015033433554049886 -0.02807988621305792 0 -0.015378633239686693 -0.027858065826020788 0 -0.015211720455610015 -0.027364905069957916 0 -0.015378633239686693 -0.027858065826020788 0 -0.015211720455610015 -0.027364905069957916 0 -0.016262879678098308 -0.02750896969232481 0 -0.018524664148459921 -0.025170371609195955 0 -0.018375963014538029 -0.02521378425258175 0 -0.018425736492422077 -0.025043649060152023 0 -0.018524664148459921 -0.025170371609195955 0 -0.018264548593531854 -0.025353043893690277 0 -0.018375963014538029 -0.02521378425258175 0 -0.017447945069632632 -0.026804654828414733 0 -0.017628423659060234 -0.025751072817480142 0 -0.016262879678098308 -0.02750896969232481 0 -0.015876742311354386 -0.026323440874506172 0 -0.016960913195974928 -0.026420186259360323 0 -0.015211720455610015 -0.027364905069957916 0 -0.016262879678098308 -0.02750896969232481 0 -0.015876742311354386 -0.026323440874506172 0 -0.015876742311354386 -0.026323440874506172 0 -0.016960913195974928 -0.026420186259360323 0 -0.016738266537234685 -0.025585750728940121 0 -0.016960913195974928 -0.026420186259360323 0 -0.016738266537234685 -0.025585750728940121 0 -0.017830185128799577 -0.025170289987037641 0 -0.016738266537234685 -0.025585750728940121 0 -0.015888783649077955 -0.024999989777773592 0 -0.017308060084665722 -0.024999875116391412 0 -0.015166427505219607 -0.025671248498786613 0 -0.015876742311354386 -0.026323440874506172 0 -0.015888783649077955 -0.024999989777773592 0 -0.015876742311354386 -0.026323440874506172 0 -0.016738266537234685 -0.025585750728940121 0 -0.015888783649077955 -0.024999989777773592 0 -0.018726506056583318 -0.024999411120617956 0 -0.017830185128799577 -0.025170289987037641 0 -0.018547659729381629 -0.025322946753779864 0 -0.016738266537234685 -0.025585750728940121 0 -0.017308060084665722 -0.024999875116391412 0 -0.017830185128799577 -0.025170289987037641 0 -0.018726506056583318 -0.024999411120617956 0 -0.017308060084665722 -0.024999875116391412 0 -0.017830185128799577 -0.025170289987037641 0 -0.017628423659060234 -0.025751072817480142 0 -0.017839890669352609 -0.025228346353089359 0 -0.018264548593531854 -0.025353043893690277 0 -0.017830185128799577 -0.025170289987037641 0 -0.018547659729381629 -0.025322946753779864 0 -0.018264548593531854 -0.025353043893690277 0 -0.018547659729381629 -0.025322946753779864 0 -0.018381488697775016 -0.025283423680190421 0 -0.018547659729381629 -0.025322946753779864 0 -0.018381488697775016 -0.025283423680190421 0 -0.018323466301608707 -0.025288546868677386 0 -0.018630103093470598 -0.025194731644067138 0 -0.019166841264185074 -0.025255060685794011 0 -0.018381488697775016 -0.025283423680190421 0 -0.018296888674409609 -0.025188657220696548 0 -0.018323466301608707 -0.025288546868677386 0 -0.018264548593531854 -0.025353043893690277 0 -0.018381488697775016 -0.025283423680190421 0 -0.018375963014538029 -0.02521378425258175 0 -0.018381488697775016 -0.025283423680190421 0 -0.018375963014538029 -0.02521378425258175 0 -0.018348268941775266 -0.025129191315490164 0 -0.018375963014538029 -0.02521378425258175 0 -0.018348268941775266 -0.025129191315490164 0 -0.018425736492422077 -0.025043649060152023 0 -0.018381488697775016 -0.025283423680190421 0 -0.018348268941775266 -0.025129191315490164 0 -0.018296888674409609 -0.025188657220696548 0 -0.018348268941775266 -0.025129191315490164 0 -0.018240897610968251 -0.02500739574108727 0 -0.018296888674409609 -0.025188657220696548 0 -0.018348268941775266 -0.025129191315490164 0 -0.01835736680234485 -0.024865361324130204 0 -0.018240897610968251 -0.02500739574108727 0 -0.018791523612783773 -0.020088804936706801 0 -0.017912665173556327 -0.020086755167687612 0 -0.01835736680234485 -0.024865361324130204 0 -0.018425736492422077 -0.025043649060152023 0 -0.018474624246402511 -0.024902686413302438 0 -0.018791523612783773 -0.020088804936706801 0 -0.019886241720186739 -0.020335993585990291 0 -0.019293466266211257 -0.01535818558304443 0 -0.020128797167176287 -0.015510512775014475 0 -0.019682149342293516 -0.014942468646486327 0 -0.018348268941775266 -0.025129191315490164 0 -0.01835736680234485 -0.024865361324130204 0 -0.018425736492422077 -0.025043649060152023 0 -0.018425736492422077 -0.025043649060152023 0 -0.018531268862318394 -0.02499105463724606 0 -0.018474624246402511 -0.024902686413302438 0 -0.018524664148459921 -0.025170371609195955 0 -0.018425736492422077 -0.025043649060152023 0 -0.018531268862318394 -0.02499105463724606 0 -0.018524664148459921 -0.025170371609195955 0 -0.018531268862318394 -0.02499105463724606 0 -0.018628169974369464 -0.02492821196607261 0 -0.015559820662355109 -0.028300326407298675 0 -0.016262879678098308 -0.02750896969232481 0 -0.015621778800066549 -0.028574658188868434 0 -0.017447945069632632 -0.026804654828414733 0 -0.016157247725686382 -0.024318189936487718 0 -0.015559820662355109 -0.028300326407298675 0 -0.015378633239686693 -0.027858065826020788 0 -0.016262879678098308 -0.02750896969232481 0 -0.01637805079334459 -0.027500361839854756 0 -0.016157247725686382 -0.024318189936487718 0 -0.021024488841405453 -0.015675995120287771 0 -0.020631243865666612 -0.015220382560369866 0 -0.020128797167176287 -0.015510512775014475 0 -0.018531268862318394 -0.02499105463724606 0 -0.018632991933115888 -0.024912277804397608 0 -0.018474624246402511 -0.024902686413302438 0 -0.021024488841405453 -0.015675995120287771 0 -0.020631243865666612 -0.015220382560369866 0 -0.020782571002924306 -0.014656604006121095 0 -0.019051568948494253 -0.013733248305535479 0 -0.019113850783075481 -0.013380061329669407 0 -0.019183929441629898 -0.013864029837835159 0 -0.017147730650305299 -0.019465961939600516 0 -0.019886241720186739 -0.020335993585990291 0 -0.015559820662355109 -0.028300326407298675 0 -0.015598955546890024 -0.028661126761189672 0 -0.015637732846621365 -0.028588176563434198 0 -0.018531268862318394 -0.02499105463724606 0 -0.018632991933115888 -0.024912277804397608 0 -0.018628169974369464 -0.02492821196607261 0 -0.017147730650305299 -0.019465961939600516 0 -0.016157247725686382 -0.024318189936487718 0 -0.020631243865666612 -0.015220382560369866 0 -0.020128797167176287 -0.015510512775014475 0 -0.020209065756132061 -0.014929457036779425 0 -0.020128797167176287 -0.015510512775014475 0 -0.020209065756132061 -0.014929457036779425 0 -0.019682149342293516 -0.014942468646486327 0 -0.020631243865666612 -0.015220382560369866 0 -0.020209065756132061 -0.014929457036779425 0 -0.020504024086186099 -0.014853788212616677 0 -0.020209065756132061 -0.014929457036779425 0 -0.020397680579301771 -0.014607613380582002 0 -0.020504024086186099 -0.014853788212616677 0 -0.020209065756132061 -0.014929457036779425 0 -0.019859449242741644 -0.014399229475727594 0 -0.019682149342293516 -0.014942468646486327 0 -0.020209065756132061 -0.014929457036779425 0 -0.020397680579301771 -0.014607613380582002 0 -0.019859449242741644 -0.014399229475727594 0 -0.019113850783075481 -0.013380061329669407 0 -0.019183929441629898 -0.013864029837835159 0 -0.019375913490622808 -0.014074504082636538 0 -0.017147730650305299 -0.019465961939600516 0 -0.020326519724198456 -0.013362904430250174 0 -0.020631243865666612 -0.015220382560369866 0 -0.020504024086186099 -0.014853788212616677 0 -0.020782571002924306 -0.014656604006121095 0 -0.020397680579301771 -0.014607613380582002 0 -0.020504024086186099 -0.014853788212616677 0 -0.020782571002924306 -0.014656604006121095 0 -0.019183929441629898 -0.013864029837835159 0 -0.019375913490622808 -0.014074504082636538 0 -0.019409812695386604 -0.014053876487492834 0 -0.019034602634319383 -0.013964148180237291 0 -0.019183929441629898 -0.013864029837835159 0 -0.019409812695386604 -0.014053876487492834 0 -0.019996371804501388 -0.013200453473293128 0 -0.019409812695386604 -0.014053876487492834 0 -0.019576010690386249 -0.013645388253994195 0 -0.019843067785687403 -0.014444926638154941 0 -0.019391163486622186 -0.013926098937680393 0 -0.020556464397151052 -0.013671575477356647 0 -0.020782571002924306 -0.014656604006121095 0 -0.020329690560156172 -0.014231153420739882 0 -0.020053007083871106 -0.013681148879680808 0 -0.020326519724198456 -0.013362904430250174 0 -0.019555094875806419 -0.013222455491528019 0 -0.019375913490622808 -0.014074504082636538 0 -0.019576010690386249 -0.013645388253994195 0 -0.019375913490622808 -0.014074504082636538 0 -0.019409812695386604 -0.014053876487492834 0 -0.019576010690386249 -0.013645388253994195 0 -0.020397680579301771 -0.014607613380582002 0 -0.020782571002924306 -0.014656604006121095 0 -0.020329690560156172 -0.014231153420739882 0 -0.020040122141837129 -0.013792486527993128 0 -0.020329690560156172 -0.014231153420739882 0 -0.019859449242741644 -0.014399229475727594 0 -0.020397680579301771 -0.014607613380582002 0 -0.020329690560156172 -0.014231153420739882 0 -0.019859449242741644 -0.014399229475727594 0 -0.019496212093528139 -0.013841863056985934 0 -0.020040122141837129 -0.013792486527993128 0 -0.019859449242741644 -0.014399229475727594 0 -0.019496212093528139 -0.013841863056985934 0 -0.019859449242741644 -0.014399229475727594 0 -0.019052008372581489 -0.014485080322104976 0 -0.01892503747805746 -0.013587737897127864 0 -0.019496212093528139 -0.013841863056985934 0 -0.019052008372581489 -0.014485080322104976 0 -0.01892503747805746 -0.013587737897127864 0 -0.019052008372581489 -0.014485080322104976 0 -0.018574635655964913 -0.014010619174375141 0 -0.019293466266211257 -0.01535818558304443 0 -0.019052008372581489 -0.014485080322104976 0 -0.018479257692251418 -0.015221326964272527 0 -0.019859449242741644 -0.014399229475727594 0 -0.019052008372581489 -0.014485080322104976 0 -0.019682149342293516 -0.014942468646486327 0 -0.019293466266211257 -0.01535818558304443 0 -0.019052008372581489 -0.014485080322104976 0 -0.019682149342293516 -0.014942468646486327 0 -0.018169320828719686 -0.014496692793855204 0 -0.017499893863555709 -0.014143390845093263 0 -0.017667591888035242 -0.01510503221682166 0 -0.018169320828719686 -0.014496692793855204 0 -0.017667591888035242 -0.01510503221682166 0 -0.018479257692251418 -0.015221326964272527 0 -0.019052008372581489 -0.014485080322104976 0 -0.018169320828719686 -0.014496692793855204 0 -0.018479257692251418 -0.015221326964272527 0 -0.018156865916377933 -0.013477391679666157 0 -0.018574635655964913 -0.014010619174375141 0 -0.018169320828719686 -0.014496692793855204 0 -0.019052008372581489 -0.014485080322104976 0 -0.018574635655964913 -0.014010619174375141 0 -0.018169320828719686 -0.014496692793855204 0 -0.018156865916377933 -0.013477391679666157 0 -0.018169320828719686 -0.014496692793855204 0 -0.017499893863555709 -0.014143390845093263 0 -0.025531852162492628 -0.014783608168024339 0 -0.025410443693436847 -0.014795866815652294 0 -0.025449290315182872 -0.015026960894666163 0 -0.02701033550753678 -0.017959137701370632 0 -0.026996136213008923 -0.018207825698945659 0 -0.026820089244819885 -0.017969266277952662 0 -0.025458374334924806 -0.014676419134347194 0 -0.025531852162492628 -0.014783608168024339 0 -0.025410443693436847 -0.014795866815652294 0 -0.02701033550753678 -0.017959137701370632 0 -0.026996136213008923 -0.018207825698945659 0 -0.027104774771032916 -0.018230886893269904 0 -0.026422547669780874 -0.015999023328851912 0 -0.023852839624719773 -0.019293257896989553 0 -0.025049233001394011 -0.021215108401946417 0 -0.023852839624719773 -0.019293257896989553 0 -0.02161918469009886 -0.013719670056975544 0 -0.020129743055539599 -0.018663857578799729 0 -0.025531852162492628 -0.014783608168024339 0 -0.025449290315182872 -0.015026960894666163 0 -0.02553211074856445 -0.015052910231369081 0 -0.023852839624719773 -0.019293257896989553 0 -0.020129743055539599 -0.018663857578799729 0 -0.021757592345298699 -0.023439978471077337 0 -0.021749608314898815 -0.023915948389073984 0 -0.02217686087866283 -0.024413854930853046 0 -0.020530879414586641 -0.019976313238668376 0 -0.021961890970961209 -0.020185394852612504 0 -0.022497557059678125 -0.023176492860548827 0 -0.023852839624719773 -0.019293257896989553 0 -0.020953455994208725 -0.024836917595384398 0 -0.023198159383963062 -0.023686453361237984 0 -0.023120737364706257 -0.023673631828394277 0 -0.023499830279155715 -0.023348201426923253 0 -0.023198159383963062 -0.023686453361237984 0 -0.02277946139348171 -0.023950689067845476 0 -0.023120737364706257 -0.023673631828394277 0 -0.025049233001394011 -0.021215108401946417 0 -0.022107126168907344 -0.024002888308214562 0 -0.021379676579711987 -0.023366569101582014 0 -0.021757592345298699 -0.023439978471077337 0 -0.021749608314898815 -0.023915948389073984 0 -0.02277946139348171 -0.023950689067845476 0 -0.023120737364706257 -0.023673631828394277 0 -0.022881017834070115 -0.023888270923618223 0 -0.023120737364706257 -0.023673631828394277 0 -0.022881017834070115 -0.023888270923618223 0 -0.023326842215531572 -0.023513646059297288 0 -0.022881017834070115 -0.023888270923618223 0 -0.023012712921153724 -0.02385488313483132 0 -0.023326842215531572 -0.023513646059297288 0 -0.022881017834070115 -0.023888270923618223 0 -0.022622728432228446 -0.024123417754215858 0 -0.022542270690711831 -0.024159385993478225 0 -0.022881017834070115 -0.023888270923618223 0 -0.022622728432228446 -0.024123417754215858 0 -0.023012712921153724 -0.02385488313483132 0 -0.021749608314898815 -0.023915948389073984 0 -0.022109298660711579 -0.024472435626623091 0 -0.02217686087866283 -0.024413854930853046 0 -0.022107126168907344 -0.024002888308214562 0 -0.02217014690245004 -0.024319918746054204 0 -0.02277946139348171 -0.023950689067845476 0 -0.022542270690711831 -0.024159385993478225 0 -0.022109298660711579 -0.024472435626623091 0 -0.02277946139348171 -0.023950689067845476 0 -0.022881017834070115 -0.023888270923618223 0 -0.022542270690711831 -0.024159385993478225 0 -0.022622728432228446 -0.024123417754215858 0 -0.022299537396971859 -0.024346350950788152 0 -0.022305542957106624 -0.024376650552488912 0 -0.022622728432228446 -0.024123417754215858 0 -0.022542270690711831 -0.024159385993478225 0 -0.022299537396971859 -0.024346350950788152 0 -0.022299537396971859 -0.024346350950788152 0 -0.022031726244855145 -0.024534489522268357 0 -0.022109298660711579 -0.024472435626623091 0 -0.022299537396971859 -0.024346350950788152 0 -0.022031726244855145 -0.024534489522268357 0 -0.022003130078912546 -0.024555788949260544 0 -0.022542270690711831 -0.024159385993478225 0 -0.022299537396971859 -0.024346350950788152 0 -0.022109298660711579 -0.024472435626623091 0 -0.021999763283006898 -0.024574591765029827 0 -0.022146712046704174 -0.024499186713906385 0 -0.02128444072077116 -0.024954082952042864 0 -0.018062397852958691 -0.024977932439831135 0 -0.018240897610968251 -0.02500739574108727 0 -0.018171995880100111 -0.025159922403438943 0 -0.022031726244855145 -0.024534489522268357 0 -0.021999763283006898 -0.024574591765029827 0 -0.021791902898179723 -0.024679417876987384 0 -0.022031726244855145 -0.024534489522268357 0 -0.021999763283006898 -0.024574591765029827 0 -0.022109298660711579 -0.024472435626623091 0 -0.021136027552394344 -0.024747870698325042 0 -0.020953455994208725 -0.024836917595384398 0 -0.021999763283006898 -0.024574591765029827 0 -0.022109298660711579 -0.024472435626623091 0 -0.02217686087866283 -0.024413854930853046 0 -0.018020002687107402 -0.024706301599673922 0 -0.018062397852958691 -0.024977932439831135 0 -0.018215775959358884 -0.024789390968589828 0 -0.020129743055539599 -0.018663857578799729 0 -0.017912665173556327 -0.020086755167687612 0 -0.020129743055539599 -0.018663857578799729 0 -0.020953455994208725 -0.024836917595384398 0 -0.01835736680234485 -0.024865361324130204 0 -0.018215775959358884 -0.024789390968589828 0 -0.018240897610968251 -0.02500739574108727 0 -0.018062397852958691 -0.024977932439831135 0 -0.018215775959358884 -0.024789390968589828 0 -0.018240897610968251 -0.02500739574108727 0 -0.018240897610968251 -0.02500739574108727 0 -0.018296888674409609 -0.025188657220696548 0 -0.018171995880100111 -0.025159922403438943 0 -0.020953455994208725 -0.024836917595384398 0 -0.019582926862722505 -0.024930005695210037 0 -0.021791902898179723 -0.024679417876987384 0 -0.02162571614196028 -0.024767507485412441 0 -0.022003130078912546 -0.024555788949260544 0 -0.022031726244855145 -0.024534489522268357 0 -0.021791902898179723 -0.024679417876987384 0 -0.022003130078912546 -0.024555788949260544 0 -0.021999763283006898 -0.024574591765029827 0 -0.021791902898179723 -0.024679417876987384 0 -0.02128444072077116 -0.024954082952042864 0 -0.021791902898179723 -0.024679417876987384 0 -0.02128444072077116 -0.024954082952042864 0 -0.02162571614196028 -0.024767507485412441 0 -0.02128444072077116 -0.024954082952042864 0 -0.02162571614196028 -0.024767507485412441 0 -0.021013914518514164 -0.02500979295549249 0 -0.02162571614196028 -0.024767507485412441 0 -0.021013914518514164 -0.02500979295549249 0 -0.021723879222655475 -0.024728946590363485 0 -0.018296888674409609 -0.025188657220696548 0 -0.018171995880100111 -0.025159922403438943 0 -0.018323466301608707 -0.025288546868677386 0 -0.019582926862722505 -0.024930005695210037 0 -0.019166841264185074 -0.025255060685794011 0 -0.02128444072077116 -0.024954082952042864 0 -0.021013914518514164 -0.02500979295549249 0 -0.020094893412952539 -0.025340227476868489 0 -0.021013914518514164 -0.02500979295549249 0 -0.020094893412952539 -0.025340227476868489 0 -0.019984175831967568 -0.025102298687031975 0 -0.018547659729381629 -0.025322946753779864 0 -0.020094893412952539 -0.025340227476868489 0 -0.019984175831967568 -0.025102298687031975 0 -0.021013914518514164 -0.02500979295549249 0 -0.019984175831967568 -0.025102298687031975 0 -0.021317685539420136 -0.024889479923162865 0 -0.019984175831967568 -0.025102298687031975 0 -0.020145502343935737 -0.024999350187498881 0 -0.021317685539420136 -0.024889479923162865 0 -0.018726506056583318 -0.024999411120617956 0 -0.018547659729381629 -0.025322946753779864 0 -0.019984175831967568 -0.025102298687031975 0 -0.018726506056583318 -0.024999411120617956 0 -0.019984175831967568 -0.025102298687031975 0 -0.020145502343935737 -0.024999350187498881 0 -0.021563459731058981 -0.024999138018147533 0 -0.021317685539420136 -0.024889479923162865 0 -0.022318594891747801 -0.024666652094980882 0 -0.020145502343935737 -0.024999350187498881 0 -0.021563459731058981 -0.024999138018147533 0 -0.021317685539420136 -0.024889479923162865 0 -0.021317685539420136 -0.024889479923162865 0 -0.022318594891747801 -0.024666652094980882 0 -0.022258409864218429 -0.024539515860604506 0 -0.022258409864218429 -0.024539515860604506 0 -0.022679055514729596 -0.024187355303048531 0 -0.023014343739052961 -0.024191591012179495 0 -0.022258409864218429 -0.024539515860604506 0 -0.02219569441898769 -0.024485637797155992 0 -0.022679055514729596 -0.024187355303048531 0 -0.022318594891747801 -0.024666652094980882 0 -0.022258409864218429 -0.024539515860604506 0 -0.023014343739052961 -0.024191591012179495 0 -0.021317685539420136 -0.024889479923162865 0 -0.022258409864218429 -0.024539515860604506 0 -0.021723879222655475 -0.024728946590363485 0 -0.021013914518514164 -0.02500979295549249 0 -0.021317685539420136 -0.024889479923162865 0 -0.021723879222655475 -0.024728946590363485 0 -0.021723879222655475 -0.024728946590363485 0 -0.021986716317046625 -0.024577486923835854 0 -0.02219569441898769 -0.024485637797155992 0 -0.022258409864218429 -0.024539515860604506 0 -0.021723879222655475 -0.024728946590363485 0 -0.02219569441898769 -0.024485637797155992 0 -0.02162571614196028 -0.024767507485412441 0 -0.021986716317046625 -0.024577486923835854 0 -0.022003130078912546 -0.024555788949260544 0 -0.02162571614196028 -0.024767507485412441 0 -0.021723879222655475 -0.024728946590363485 0 -0.021986716317046625 -0.024577486923835854 0 -0.021986716317046625 -0.024577486923835854 0 -0.02219569441898769 -0.024485637797155992 0 -0.022305542957106624 -0.024376650552488912 0 -0.022299537396971859 -0.024346350950788152 0 -0.022305542957106624 -0.024376650552488912 0 -0.022003130078912546 -0.024555788949260544 0 -0.021986716317046625 -0.024577486923835854 0 -0.022305542957106624 -0.024376650552488912 0 -0.022003130078912546 -0.024555788949260544 0 -0.02219569441898769 -0.024485637797155992 0 -0.022305542957106624 -0.024376650552488912 0 -0.022679055514729596 -0.024187355303048531 0 -0.022622728432228446 -0.024123417754215858 0 -0.022305542957106624 -0.024376650552488912 0 -0.022679055514729596 -0.024187355303048531 0 -0.022622728432228446 -0.024123417754215858 0 -0.023012712921153724 -0.02385488313483132 0 -0.022679055514729596 -0.024187355303048531 0 -0.023012712921153724 -0.02385488313483132 0 -0.022679055514729596 -0.024187355303048531 0 -0.023163164955545854 -0.023907601168731724 0 -0.023012712921153724 -0.02385488313483132 0 -0.023163164955545854 -0.023907601168731724 0 -0.02345964548406116 -0.023540883609752979 0 -0.023163164955545854 -0.023907601168731724 0 -0.023727966174026529 -0.023600748264826842 0 -0.02345964548406116 -0.023540883609752979 0 -0.023163164955545854 -0.023907601168731724 0 -0.023727966174026529 -0.023600748264826842 0 -0.023014343739052961 -0.024191591012179495 0 -0.022679055514729596 -0.024187355303048531 0 -0.023163164955545854 -0.023907601168731724 0 -0.023014343739052961 -0.024191591012179495 0 -0.023727966174026529 -0.023600748264826842 0 -0.02442004851769658 -0.022705042772141325 0 -0.02345964548406116 -0.023540883609752979 0 -0.023727966174026529 -0.023600748264826842 0 -0.023769408565182268 -0.023910844000573528 0 -0.02436135817347387 -0.023273517506363327 0 -0.023727966174026529 -0.023600748264826842 0 -0.023769408565182268 -0.023910844000573528 0 -0.023014343739052961 -0.024191591012179495 0 -0.023769408565182268 -0.023910844000573528 0 -0.023014343739052961 -0.024191591012179495 0 -0.023208511553564383 -0.024433853138477696 0 -0.022318594891747801 -0.024666652094980882 0 -0.023014343739052961 -0.024191591012179495 0 -0.023208511553564383 -0.024433853138477696 0 -0.023769408565182268 -0.023910844000573528 0 -0.023208511553564383 -0.024433853138477696 0 -0.023895800910964642 -0.024405426792797152 0 -0.023208511553564383 -0.024433853138477696 0 -0.022982440200790117 -0.02499897440561679 0 -0.023895800910964642 -0.024405426792797152 0 -0.021563459731058981 -0.024999138018147533 0 -0.022318594891747801 -0.024666652094980882 0 -0.022982440200790117 -0.02499897440561679 0 -0.022318594891747801 -0.024666652094980882 0 -0.023208511553564383 -0.024433853138477696 0 -0.022982440200790117 -0.02499897440561679 0 -0.02515194400898052 -0.024365605628158312 0 -0.024998968306489323 -0.024999888710320686 0 -0.025000238589001196 -0.023508886653807397 0 -0.024249331037840032 -0.024171132710408983 0 -0.024398008985214534 -0.024998577310700962 0 -0.023895800910964642 -0.024405426792797152 0 -0.02515194400898052 -0.024365605628158312 0 -0.024998968306489323 -0.024999888710320686 0 -0.02440160692943736 -0.024999640489106186 0 -0.024701370031837696 -0.024266042048581207 0 -0.024399969175082595 -0.024999530902409809 0 -0.022982440200790117 -0.02499897440561679 0 -0.024398008985214534 -0.024998577310700962 0 -0.023895800910964642 -0.024405426792797152 0 -0.023769408565182268 -0.023910844000573528 0 -0.023895800910964642 -0.024405426792797152 0 -0.024294330823715779 -0.02376635556498425 0 -0.024249331037840032 -0.024171132710408983 0 -0.023895800910964642 -0.024405426792797152 0 -0.024294330823715779 -0.02376635556498425 0 -0.024249331037840032 -0.024171132710408983 0 -0.024294330823715779 -0.02376635556498425 0 -0.02499732571566252 -0.023508522698961181 0 -0.024701370031837696 -0.024266042048581207 0 -0.024999816076263941 -0.023508785932046913 0 -0.024294330823715779 -0.02376635556498425 0 -0.02499732571566252 -0.023508522698961181 0 -0.024684102335669821 -0.02322589870607869 0 -0.02499732571566252 -0.023508522698961181 0 -0.024684102335669821 -0.02322589870607869 0 -0.024999446079402996 -0.0222097544264469 0 -0.024294330823715779 -0.02376635556498425 0 -0.024684102335669821 -0.02322589870607869 0 -0.02436135817347387 -0.023273517506363327 0 -0.023769408565182268 -0.023910844000573528 0 -0.024294330823715779 -0.02376635556498425 0 -0.02436135817347387 -0.023273517506363327 0 -0.023727966174026529 -0.023600748264826842 0 -0.02436135817347387 -0.023273517506363327 0 -0.02442004851769658 -0.022705042772141325 0 -0.024684102335669821 -0.02322589870607869 0 -0.02436135817347387 -0.023273517506363327 0 -0.024999446079402996 -0.0222097544264469 0 -0.02436135817347387 -0.023273517506363327 0 -0.024999446079402996 -0.0222097544264469 0 -0.02442004851769658 -0.022705042772141325 0 -0.024999446079402996 -0.0222097544264469 0 -0.024999080584379364 -0.020910249117872141 0 -0.02442004851769658 -0.022705042772141325 0 -0.024999080584379364 -0.020910249117872141 0 -0.024693282799360373 -0.021767977713994694 0 -0.02442004851769658 -0.022705042772141325 0 -0.024999080584379364 -0.020910249117872141 0 -0.024693282799360373 -0.021767977713994694 0 -0.024999713081658759 -0.019612983396045641 0 -0.024693282799360373 -0.021767977713994694 0 -0.02407825989725217 -0.022757314549460662 0 -0.024660774369125241 -0.021660331385768044 0 -0.024693282799360373 -0.021767977713994694 0 -0.02442004851769658 -0.022705042772141325 0 -0.02407825989725217 -0.022757314549460662 0 -0.02442004851769658 -0.022705042772141325 0 -0.02345964548406116 -0.023540883609752979 0 -0.02407825989725217 -0.022757314549460662 0 -0.02345964548406116 -0.023540883609752979 0 -0.023326842215531572 -0.023513646059297288 0 -0.02407825989725217 -0.022757314549460662 0 -0.023012712921153724 -0.02385488313483132 0 -0.02345964548406116 -0.023540883609752979 0 -0.023326842215531572 -0.023513646059297288 0 -0.023499830279155715 -0.023348201426923253 0 -0.02407825989725217 -0.022757314549460662 0 -0.023913542645771273 -0.023018865596678154 0 -0.023326842215531572 -0.023513646059297288 0 -0.023499830279155715 -0.023348201426923253 0 -0.02407825989725217 -0.022757314549460662 0 -0.023120737364706257 -0.023673631828394277 0 -0.023326842215531572 -0.023513646059297288 0 -0.023499830279155715 -0.023348201426923253 0 -0.027110729481669454 -0.019807915113289269 0 -0.026612163954950259 -0.019046406461117403 0 -0.026092368441576277 -0.019707633989637673 0 -0.025583522821838272 -0.021437478995387945 0 -0.025222759884215521 -0.020627811388551031 0 -0.02407825989725217 -0.022757314549460662 0 -0.023913542645771273 -0.023018865596678154 0 -0.024660774369125241 -0.021660331385768044 0 -0.025049233001394011 -0.021215108401946417 0 -0.027375640465518374 -0.01830251079139459 0 -0.028021475908268038 -0.019941315672635247 0 -0.027110729481669454 -0.019807915113289269 0 -0.027383524161077137 -0.01911989377618821 0 -0.023198159383963062 -0.023686453361237984 0 -0.023499830279155715 -0.023348201426923253 0 -0.023913542645771273 -0.023018865596678154 0 -0.025049233001394011 -0.021215108401946417 0 -0.025583522821838272 -0.021437478995387945 0 -0.026889066186953293 -0.017577779940778845 0 -0.02701033550753678 -0.017959137701370632 0 -0.026820089244819885 -0.017969266277952662 0 -0.027110729481669454 -0.019807915113289269 0 -0.027383524161077137 -0.01911989377618821 0 -0.026612163954950259 -0.019046406461117403 0 -0.026693439780898495 -0.018184634343979742 0 -0.027383524161077137 -0.01911989377618821 0 -0.026612163954950259 -0.019046406461117403 0 -0.025867906974196685 -0.018615605796677894 0 -0.026612163954950259 -0.019046406461117403 0 -0.026092368441576277 -0.019707633989637673 0 -0.025867906974196685 -0.018615605796677894 0 -0.025000009545772028 -0.019609579167747193 0 -0.026092368441576277 -0.019707633989637673 0 -0.024999934376889868 -0.01815128799387317 0 -0.025867906974196685 -0.018615605796677894 0 -0.025000009545772028 -0.019609579167747193 0 -0.024693282799360373 -0.021767977713994694 0 -0.024999713081658759 -0.019612983396045641 0 -0.024660774369125241 -0.021660331385768044 0 -0.024999733443181918 -0.019610114231753933 0 -0.025222759884215521 -0.020627811388551031 0 -0.0012423391732675772 -0.013600735070361896 0 -0.0023284958008718865 -0.013453072445872225 0 -0.0013933836911778738 -0.012698253534368256 0 -0.0012423391732675772 -0.013600735070361896 0 -0.0013933836911778738 -0.012698253534368256 0 -0.00031532232846858869 -0.013195035605755735 0 -0.0012423391732675772 -0.013600735070361896 0 -0.00054174992569964336 -0.014273414938376177 0 -0.00031532232846858869 -0.013195035605755735 0 -0.0012423391732675772 -0.013600735070361896 0 -0.00054174992569964336 -0.014273414938376177 0 -0.0016611784448170913 -0.01437349163398771 0 -0.00054174992569964336 -0.014273414938376177 0 -0.0016611784448170913 -0.01437349163398771 0 -0.0011112167492438026 -0.014888154542951925 0 -0.0012423391732675772 -0.013600735070361896 0 -0.0016611784448170913 -0.01437349163398771 0 -0.0023284958008718865 -0.013453072445872225 0 -0.0016611784448170913 -0.01437349163398771 0 -0.0029578909051219968 -0.014463535150566522 0 -0.0023284958008718865 -0.013453072445872225 0 -0.0007484019377771129 -0.021050690236933085 0 -0.00087840379190458145 -0.021623121387319637 0 -0.0012882533457392426 -0.020525183172769152 0 0.0024516336298598886 -0.016739852151915049 0 0.0032655824421029887 -0.017968962586866311 0 0.0032791329439869617 -0.017448671580044657 0 9.4292152817741247e-06 -0.017594009937233337 0 0.0044357725772662003 -0.014807022163140855 0 9.4292152817741247e-06 -0.017594009937233337 0 0.0057385711681989995 -0.018885057749346085 0 -0.0036421640956442814 -0.013398949813294399 0 -0.0023284958008718865 -0.013453072445872225 0 -0.0025738495115673471 -0.012416669699733771 0 -0.0029578909051219968 -0.014463535150566522 0 -0.0036421640956442814 -0.013398949813294399 0 -0.0023284958008718865 -0.013453072445872225 0 0.0044357725772662003 -0.014807022163140855 0 0.0057385711681989995 -0.018885057749346085 0 -0.0023284958008718865 -0.013453072445872225 0 -0.0025738495115673471 -0.012416669699733771 0 -0.0013933836911778738 -0.012698253534368256 0 0.0044357725772662003 -0.014807022163140855 0 0.00086738894073333029 -0.0092465427569693136 0 -0.0036421640956442814 -0.013398949813294399 0 -0.0025738495115673471 -0.012416669699733771 0 -0.0036169106564056799 -0.011083355577679515 0 -0.0025738495115673471 -0.012416669699733771 0 -0.0018789602375411036 -0.011384914730408275 0 -0.0036169106564056799 -0.011083355577679515 0 -0.0018789602375411036 -0.011384914730408275 0 -0.0013933836911778738 -0.012698253534368256 0 0.00063964601923954237 -0.011830132931706917 0 -0.0013933836911778738 -0.012698253534368256 0 0.00063964601923954237 -0.011830132931706917 0 -0.00031532232846858869 -0.013195035605755735 0 -0.0025738495115673471 -0.012416669699733771 0 -0.0018789602375411036 -0.011384914730408275 0 -0.0013933836911778738 -0.012698253534368256 0 0.00063964601923954237 -0.011830132931706917 0 -0.00031532232846858869 -0.013195035605755735 0 0.00075828134621452523 -0.013519073305834043 0 0.00085174504289486995 -0.010281267353641954 0 0.0011034305693101193 -0.012401099143640128 0 0.0021431749474379799 -0.010510493107514268 0 -0.00067617118450355083 -0.010433017090930989 0 0.00085174504289486995 -0.010281267353641954 0 0.0011034305693101193 -0.012401099143640128 0 -0.00067617118450355083 -0.010433017090930989 0 0.00085174504289486995 -0.010281267353641954 0 0.00032986446426782137 -0.0093565546072113433 0 0.00063964601923954237 -0.011830132931706917 0 0.0022996628111844808 -0.013382207322958688 0 0.00075828134621452523 -0.013519073305834043 0 -6.829332325700959e-06 -0.011153999320581883 0 0.001761150802586428 -0.012895746159800775 0 0.0022996628111844808 -0.013382207322958688 0 0.00075828134621452523 -0.013519073305834043 0 0.0013180698704950641 -0.01474219317884925 0 0.0022996628111844808 -0.013382207322958688 0 0.0025413610224809409 -0.014906379389544795 0 0.0013180698704950641 -0.01474219317884925 0 -0.00054174992569964336 -0.014273414938376177 0 -0.00031532232846858869 -0.013195035605755735 0 0.00075828134621452523 -0.013519073305834043 0 0.00075828134621452523 -0.013519073305834043 0 0.0002772689864745629 -0.01503186259581913 0 0.0013180698704950641 -0.01474219317884925 0 -0.00054174992569964336 -0.014273414938376177 0 0.00075828134621452523 -0.013519073305834043 0 0.0002772689864745629 -0.01503186259581913 0 -0.00054174992569964336 -0.014273414938376177 0 0.0002772689864745629 -0.01503186259581913 0 -0.00063696906631952011 -0.015232515856186634 0 0.0002772689864745629 -0.01503186259581913 0 0.00082961958178469114 -0.015725796932398332 0 0.0013180698704950641 -0.01474219317884925 0 0.00082961958178469114 -0.015725796932398332 0 -2.3793193773252683e-05 -0.01608036721277508 0 0.00040116139309711788 -0.016631048516672294 0 0.0002772689864745629 -0.01503186259581913 0 0.00082961958178469114 -0.015725796932398332 0 -2.3793193773252683e-05 -0.01608036721277508 0 0.0002772689864745629 -0.01503186259581913 0 -2.3793193773252683e-05 -0.01608036721277508 0 -0.00063696906631952011 -0.015232515856186634 0 0.0025413610224809409 -0.014906379389544795 0 0.0013180698704950641 -0.01474219317884925 0 0.0018320245157138122 -0.015402926436292284 0 0.00082961958178469114 -0.015725796932398332 0 0.0013180698704950641 -0.01474219317884925 0 0.0018320245157138122 -0.015402926436292284 0 0.0018320245157138122 -0.015402926436292284 0 0.0020026323021619 -0.016358789998193141 0 0.0011269503044145609 -0.016503164880735815 0 0.00082961958178469114 -0.015725796932398332 0 0.0018320245157138122 -0.015402926436292284 0 0.0011269503044145609 -0.016503164880735815 0 0.0025413610224809409 -0.014906379389544795 0 0.0018320245157138122 -0.015402926436292284 0 0.0020026323021619 -0.016358789998193141 0 0.0025413610224809409 -0.014906379389544795 0 0.0020026323021619 -0.016358789998193141 0 0.0028988395369077169 -0.016284696073708665 0 0.0020026323021619 -0.016358789998193141 0 0.0021467216743075194 -0.017441770752081732 0 0.0028988395369077169 -0.016284696073708665 0 0.0020026323021619 -0.016358789998193141 0 0.0011269503044145609 -0.016503164880735815 0 0.0011707235713640169 -0.017671750875748668 0 0.0020026323021619 -0.016358789998193141 0 0.0021467216743075194 -0.017441770752081732 0 0.0011707235713640169 -0.017671750875748668 0 -0.00034179213711222635 -0.016922452955851462 0 0.00040116139309711788 -0.016631048516672294 0 0.00017666294912484641 -0.017392482072719821 0 0.00056027785239545281 -0.016730408724735246 0 0.00031373986394121837 -0.019276702542784345 0 -2.3793193773252683e-05 -0.01608036721277508 0 -0.00034179213711222635 -0.016922452955851462 0 0.00040116139309711788 -0.016631048516672294 0 0.00082961958178469114 -0.015725796932398332 0 0.00040116139309711788 -0.016631048516672294 0 0.0011269503044145609 -0.016503164880735815 0 0.00040116139309711788 -0.016631048516672294 0 0.00072151035654166606 -0.017049334372180345 0 0.00017666294912484641 -0.017392482072719821 0 0.00040116139309711788 -0.016631048516672294 0 0.0011269503044145609 -0.016503164880735815 0 0.00072151035654166606 -0.017049334372180345 0 0.00072151035654166606 -0.017049334372180345 0 0.0011707235713640169 -0.017671750875748668 0 0.00017666294912484641 -0.017392482072719821 0 0.0011269503044145609 -0.016503164880735815 0 0.00072151035654166606 -0.017049334372180345 0 0.0011707235713640169 -0.017671750875748668 0 0.00031373986394121837 -0.019276702542784345 0 -0.00030488803523510342 -0.018193014851889986 0 0.001449097665851478 -0.023217645667980274 0 0.0003238438504885666 -0.024007323791294045 0 0.00055346997638065136 -0.023068877200032221 0 -0.00029891794936944102 -0.016968739527271577 0 0.00017666294912484641 -0.017392482072719821 0 -0.00096613860146268745 -0.01935893249880799 0 0.0003238438504885666 -0.024007323791294045 0 0.00055346997638065136 -0.023068877200032221 0 -0.00043850898261733597 -0.02307860065590189 0 0.00031373986394121837 -0.019276702542784345 0 -0.00071016846064527307 -0.018830244334950515 0 0.001449097665851478 -0.023217645667980274 0 0.00055346997638065136 -0.023068877200032221 0 0.00035275584480834362 -0.022130685691332173 0 -2.3793193773252683e-05 -0.01608036721277508 0 -0.0016020766490182155 -0.015667129047562067 0 -0.00063696906631952011 -0.015232515856186634 0 -2.3793193773252683e-05 -0.01608036721277508 0 -0.00030282782603298928 -0.016858390561413861 0 -0.0016020766490182155 -0.015667129047562067 0 0.00055346997638065136 -0.023068877200032221 0 0.00035275584480834362 -0.022130685691332173 0 -0.00036580301941076135 -0.022316304880102594 0 -0.0016611784448170913 -0.01437349163398771 0 -0.0016020766490182155 -0.015667129047562067 0 -0.0011112167492438026 -0.014888154542951925 0 -0.0016020766490182155 -0.015667129047562067 0 -0.00063696906631952011 -0.015232515856186634 0 -0.0011112167492438026 -0.014888154542951925 0 -0.00054174992569964336 -0.014273414938376177 0 -0.00063696906631952011 -0.015232515856186634 0 -0.0011112167492438026 -0.014888154542951925 0 -0.00087840379190458145 -0.021623121387319637 0 -0.001399013659900875 -0.02213865777877488 0 -0.0012882533457392426 -0.020525183172769152 0 -0.0007484019377771129 -0.021050690236933085 0 -0.00087840379190458145 -0.021623121387319637 0 -0.00032405196783739682 -0.021806511226442976 0 9.4292152817741247e-06 -0.017594009937233337 0 0.00053560951220799698 -0.021222550671701711 0 9.4292152817741247e-06 -0.017594009937233337 0 -0.00071016846064527307 -0.018830244334950515 0 -0.0016611784448170913 -0.01437349163398771 0 -0.0029578909051219968 -0.014463535150566522 0 -0.0016020766490182155 -0.015667129047562067 0 -0.00076915717512664888 -0.021006936618194201 0 0.00035275584480834362 -0.022130685691332173 0 -0.00032405196783739682 -0.021806511226442976 0 0.00035275584480834362 -0.022130685691332173 0 -0.00032405196783739682 -0.021806511226442976 0 -0.00036580301941076135 -0.022316304880102594 0 -0.00087840379190458145 -0.021623121387319637 0 -0.00032405196783739682 -0.021806511226442976 0 -0.00036580301941076135 -0.022316304880102594 0 -0.00087840379190458145 -0.021623121387319637 0 -0.00036580301941076135 -0.022316304880102594 0 -0.001399013659900875 -0.02213865777877488 0 -0.00036580301941076135 -0.022316304880102594 0 -0.00043850898261733597 -0.02307860065590189 0 -0.001399013659900875 -0.02213865777877488 0 -0.00043850898261733597 -0.02307860065590189 0 -0.0014665940440659277 -0.023727948910900309 0 -0.001399013659900875 -0.02213865777877488 0 -0.0013236550893871997 -0.024024162304519623 0 0.0028908139520076258 -0.022698050499305171 0 0.0003238438504885666 -0.024007323791294045 0 -0.00043850898261733597 -0.02307860065590189 0 -0.0014665940440659277 -0.023727948910900309 0 0.00055346997638065136 -0.023068877200032221 0 -0.00036580301941076135 -0.022316304880102594 0 -0.00043850898261733597 -0.02307860065590189 0 -0.00048680953174568377 -0.027748072713013001 0 0.0005635499294055111 -0.027903630063413554 0 -0.00015844776423600332 -0.027438878897863749 0 0.0028908139520076258 -0.022698050499305171 0 0.0067806507875363339 -0.022695072045013847 0 0.010864075071689218 -0.017773408346988248 0 0.011280877938359671 -0.018032912745026886 0 0.010990506025135169 -0.018217656347259133 0 0.0028908139520076258 -0.022698050499305171 0 0.0048121052493203522 -0.019955029391830029 0 0.010864075071689218 -0.017773408346988248 0 0.011280877938359671 -0.018032912745026886 0 0.011608215485290948 -0.017837121298651996 0 0.011608215485290948 -0.017837121298651996 0 0.011568847776570636 -0.018134522329269778 0 0.011827414468527846 -0.018181109127853333 0 0.011280877938359671 -0.018032912745026886 0 0.011608215485290948 -0.017837121298651996 0 0.011568847776570636 -0.018134522329269778 0 0.011280877938359671 -0.018032912745026886 0 0.011568847776570636 -0.018134522329269778 0 0.011402939894291225 -0.018254263236795527 0 0.011568847776570636 -0.018134522329269778 0 0.011728577290596143 -0.018357923445372733 0 0.011402939894291225 -0.018254263236795527 0 0.011568847776570636 -0.018134522329269778 0 0.011728577290596143 -0.018357923445372733 0 0.011827414468527846 -0.018181109127853333 0 0.011728577290596143 -0.018357923445372733 0 0.011827414468527846 -0.018181109127853333 0 0.01196829365394139 -0.0183588095617786 0 0.011728577290596143 -0.018357923445372733 0 0.011976007062562544 -0.01849277012258066 0 0.011878493845236994 -0.018552750953117012 0 0.011728577290596143 -0.018357923445372733 0 0.01196829365394139 -0.0183588095617786 0 0.011976007062562544 -0.01849277012258066 0 0.011728577290596143 -0.018357923445372733 0 0.01171188941278942 -0.018547163023847475 0 0.011878493845236994 -0.018552750953117012 0 0.011728577290596143 -0.018357923445372733 0 0.011542577335417794 -0.018426840574350758 0 0.01171188941278942 -0.018547163023847475 0 0.011728577290596143 -0.018357923445372733 0 0.011542577335417794 -0.018426840574350758 0 0.011402939894291225 -0.018254263236795527 0 0.011320620812690816 -0.018408912863028325 0 0.010990506025135169 -0.018217656347259133 0 0.011402939894291225 -0.018254263236795527 0 0.010990506025135169 -0.018217656347259133 0 0.011054805981063003 -0.018700606596468196 0 0.011242829938202227 -0.01853641876594023 0 0.011542577335417794 -0.018426840574350758 0 0.011320620812690816 -0.018408912863028325 0 0.01149670685341868 -0.018567459454001352 0 0.0048121052493203522 -0.019955029391830029 0 0.0057385711681989995 -0.018885057749346085 0 0.011542577335417794 -0.018426840574350758 0 0.011320620812690816 -0.018408912863028325 0 0.011402939894291225 -0.018254263236795527 0 0.011320620812690816 -0.018408912863028325 0 0.010990506025135169 -0.018217656347259133 0 0.011242829938202227 -0.01853641876594023 0 0.011280877938359671 -0.018032912745026886 0 0.010990506025135169 -0.018217656347259133 0 0.011402939894291225 -0.018254263236795527 0 0.0071510836070477826 -0.024592841302005598 0 0.0060247661104978357 -0.024414750107940239 0 0.0011461034900144833 -0.027204675051380297 0 0.0010877693343988113 -0.027145863353584453 0 0.0011673897073053397 -0.027185183775881371 0 0.0011461034900144833 -0.027204675051380297 0 0.0011147010428997118 -0.027230872143065847 0 0.0010877693343988113 -0.027145863353584453 0 0.0011830952660821258 -0.027243823251817987 0 0.0011461034900144833 -0.027204675051380297 0 0.0011673897073053397 -0.027185183775881371 0 0.0011830952660821258 -0.027243823251817987 0 0.0011461034900144833 -0.027204675051380297 0 0.0011147010428997118 -0.027230872143065847 0 0.012355652117194372 -0.017914390044865378 0 0.012384343925592614 -0.018112035625076815 0 0.012434493174185879 -0.018160154620661621 0 0.012355652117194372 -0.017914390044865378 0 0.012308420246584547 -0.018054769616654934 0 0.012158366988802098 -0.018045030485670618 0 0.012355652117194372 -0.017914390044865378 0 0.012434493174185879 -0.018160154620661621 0 0.012567965470741436 -0.018326342786248138 0 0.012355652117194372 -0.017914390044865378 0 0.012384343925592614 -0.018112035625076815 0 0.012308420246584547 -0.018054769616654934 0 0.012158366988802098 -0.018045030485670618 0 0.012269245054277908 -0.018195991244974941 0 0.012305837381057573 -0.018132505863229613 0 0.012308420246584547 -0.018054769616654934 0 0.012158366988802098 -0.018045030485670618 0 0.012305837381057573 -0.018132505863229613 0 0.012384343925592614 -0.018112035625076815 0 0.012308420246584547 -0.018054769616654934 0 0.012305837381057573 -0.018132505863229613 0 0.011608215485290948 -0.017837121298651996 0 0.012355652117194372 -0.017914390044865378 0 0.012158366988802098 -0.018045030485670618 0 0.0005635499294055111 -0.027903630063413554 0 0.0019700550373215925 -0.027985635731059735 0 0.0012116446251580646 -0.027807981698058818 0 0.0067806507875363339 -0.022695072045013847 0 0.0060247661104978357 -0.024414750107940239 0 0.011608215485290948 -0.017837121298651996 0 0.012158366988802098 -0.018045030485670618 0 0.012039376770268499 -0.018141695865922094 0 0.0060247661104978357 -0.024414750107940239 0 0.00084736437503404654 -0.026804264513845572 0 0.0005635499294055111 -0.027903630063413554 0 0.0012116446251580646 -0.027807981698058818 0 0.00065795557720543948 -0.027401623747259525 0 0.011608215485290948 -0.017837121298651996 0 0.011827414468527846 -0.018181109127853333 0 0.012039376770268499 -0.018141695865922094 0 0.011827414468527846 -0.018181109127853333 0 0.012063018477793931 -0.018287478261385368 0 0.012039376770268499 -0.018141695865922094 0 0.011827414468527846 -0.018181109127853333 0 0.012063018477793931 -0.018287478261385368 0 0.01196829365394139 -0.0183588095617786 0 0.01196829365394139 -0.0183588095617786 0 0.012209942674924569 -0.01841224307738757 0 0.01215390907517965 -0.018553990329400808 0 0.012063018477793931 -0.018287478261385368 0 0.01196829365394139 -0.0183588095617786 0 0.012209942674924569 -0.01841224307738757 0 0.01196829365394139 -0.0183588095617786 0 0.011976007062562544 -0.01849277012258066 0 0.01215390907517965 -0.018553990329400808 0 0.012209942674924569 -0.01841224307738757 0 0.012396441020321534 -0.01862038238801781 0 0.01215390907517965 -0.018553990329400808 0 0.012209942674924569 -0.01841224307738757 0 0.012378950548440971 -0.018462728164614146 0 0.012396441020321534 -0.01862038238801781 0 0.012209942674924569 -0.01841224307738757 0 0.012321371880875375 -0.018338713975844429 0 0.012378950548440971 -0.018462728164614146 0 0.012209942674924569 -0.01841224307738757 0 0.012180626739095807 -0.018275999338864434 0 0.012321371880875375 -0.018338713975844429 0 0.012180626739095807 -0.018275999338864434 0 0.012039376770268499 -0.018141695865922094 0 0.012269245054277908 -0.018195991244974941 0 0.012180626739095807 -0.018275999338864434 0 0.012269245054277908 -0.018195991244974941 0 0.012321371880875375 -0.018338713975844429 0 0.012158366988802098 -0.018045030485670618 0 0.012039376770268499 -0.018141695865922094 0 0.012269245054277908 -0.018195991244974941 0 0.012063018477793931 -0.018287478261385368 0 0.012209942674924569 -0.01841224307738757 0 0.012180626739095807 -0.018275999338864434 0 0.012063018477793931 -0.018287478261385368 0 0.012180626739095807 -0.018275999338864434 0 0.012039376770268499 -0.018141695865922094 0 0.013017163656569224 -0.022328469269934599 0 0.012654971403308271 -0.022270374599256487 0 0.013589394154923639 -0.023173204832319438 0 0.0060247661104978357 -0.024414750107940239 0 0.014168432603050745 -0.020172187838884484 0 0.012355652117194372 -0.017914390044865378 0 0.012567965470741436 -0.018326342786248138 0 0.01291449349266682 -0.018671074456830614 0 0.012269245054277908 -0.018195991244974941 0 0.012305837381057573 -0.018132505863229613 0 0.012406149098143412 -0.018253584470469542 0 0.012384343925592614 -0.018112035625076815 0 0.012434493174185879 -0.018160154620661621 0 0.012406149098143412 -0.018253584470469542 0 0.012384343925592614 -0.018112035625076815 0 0.012305837381057573 -0.018132505863229613 0 0.012406149098143412 -0.018253584470469542 0 0.012406149098143412 -0.018253584470469542 0 0.012456780601960817 -0.018396981546184618 0 0.012567965470741436 -0.018326342786248138 0 0.012434493174185879 -0.018160154620661621 0 0.012406149098143412 -0.018253584470469542 0 0.012567965470741436 -0.018326342786248138 0 0.012269245054277908 -0.018195991244974941 0 0.012406149098143412 -0.018253584470469542 0 0.012321371880875375 -0.018338713975844429 0 0.012406149098143412 -0.018253584470469542 0 0.012321371880875375 -0.018338713975844429 0 0.012456780601960817 -0.018396981546184618 0 0.012321371880875375 -0.018338713975844429 0 0.012378950548440971 -0.018462728164614146 0 0.012456780601960817 -0.018396981546184618 0 0.012378950548440971 -0.018462728164614146 0 0.012509705499308498 -0.018507664326720734 0 0.012396441020321534 -0.01862038238801781 0 0.012378950548440971 -0.018462728164614146 0 0.012509705499308498 -0.018507664326720734 0 0.012456780601960817 -0.018396981546184618 0 0.012509705499308498 -0.018507664326720734 0 0.012456780601960817 -0.018396981546184618 0 0.012552176519359194 -0.018427356670269436 0 0.012552176519359194 -0.018427356670269436 0 0.012658252407147484 -0.018490971337054865 0 0.012567965470741436 -0.018326342786248138 0 0.012456780601960817 -0.018396981546184618 0 0.012552176519359194 -0.018427356670269436 0 0.012567965470741436 -0.018326342786248138 0 0.012658252407147484 -0.018490971337054865 0 0.012567965470741436 -0.018326342786248138 0 0.01291449349266682 -0.018671074456830614 0 0.012509705499308498 -0.018507664326720734 0 0.012658252407147484 -0.018490971337054865 0 0.012615716113226098 -0.018668988055190815 0 0.012509705499308498 -0.018507664326720734 0 0.012552176519359194 -0.018427356670269436 0 0.012658252407147484 -0.018490971337054865 0 0.012772170332460558 -0.018860330220063348 0 0.012608541183950259 -0.018904003091575788 0 0.012865505682340466 -0.019069693932477191 0 0.012772170332460558 -0.018860330220063348 0 0.012615716113226098 -0.018668988055190815 0 0.012608541183950259 -0.018904003091575788 0 0.012772170332460558 -0.018860330220063348 0 0.012746019934877693 -0.018653827384101648 0 0.012615716113226098 -0.018668988055190815 0 0.012658252407147484 -0.018490971337054865 0 0.012746019934877693 -0.018653827384101648 0 0.01291449349266682 -0.018671074456830614 0 0.012658252407147484 -0.018490971337054865 0 0.012746019934877693 -0.018653827384101648 0 0.012615716113226098 -0.018668988055190815 0 0.012509705499308498 -0.018507664326720734 0 0.012615716113226098 -0.018668988055190815 0 0.012396441020321534 -0.01862038238801781 0 0.012615716113226098 -0.018668988055190815 0 0.012396441020321534 -0.01862038238801781 0 0.012608541183950259 -0.018904003091575788 0 0.012396441020321534 -0.01862038238801781 0 0.012608541183950259 -0.018904003091575788 0 0.01231104013100295 -0.018784996870820393 0 0.012396441020321534 -0.01862038238801781 0 0.01231104013100295 -0.018784996870820393 0 0.01215390907517965 -0.018553990329400808 0 0.01231104013100295 -0.018784996870820393 0 0.01215390907517965 -0.018553990329400808 0 0.012052330972806126 -0.018662597435051002 0 0.011976007062562544 -0.01849277012258066 0 0.01215390907517965 -0.018553990329400808 0 0.012052330972806126 -0.018662597435051002 0 0.01231104013100295 -0.018784996870820393 0 0.012052330972806126 -0.018662597435051002 0 0.012127245694866538 -0.018845009525738948 0 0.01231104013100295 -0.018784996870820393 0 0.012127245694866538 -0.018845009525738948 0 0.012486662101651986 -0.019036240361972885 0 0.012127245694866538 -0.018845009525738948 0 0.012272081377889705 -0.019040204129040995 0 0.012486662101651986 -0.019036240361972885 0 0.012272081377889705 -0.019040204129040995 0 0.012486662101651986 -0.019036240361972885 0 0.012714411935674855 -0.019266960906848599 0 0.012608541183950259 -0.018904003091575788 0 0.01231104013100295 -0.018784996870820393 0 0.012486662101651986 -0.019036240361972885 0 0.012608541183950259 -0.018904003091575788 0 0.012486662101651986 -0.019036240361972885 0 0.012739467402778624 -0.019188794571031263 0 0.012486662101651986 -0.019036240361972885 0 0.012739467402778624 -0.019188794571031263 0 0.012714411935674855 -0.019266960906848599 0 0.012608541183950259 -0.018904003091575788 0 0.012739467402778624 -0.019188794571031263 0 0.012865505682340466 -0.019069693932477191 0 0.011034879444868775 -0.018379408360057966 0 0.011034161831500701 -0.018199784100247064 0 0.011967135848592826 -0.018978597978146418 0 0.011412952880924273 -0.018684658452917204 0 0.011645141599560602 -0.018787984957899247 0 0.011054805981063003 -0.018700606596468196 0 0.011412952880924273 -0.018684658452917204 0 0.011645141599560602 -0.018787984957899247 0 0.011613062823940104 -0.018694935951487697 0 0.011412952880924273 -0.018684658452917204 0 0.011054805981063003 -0.018700606596468196 0 0.011242829938202227 -0.01853641876594023 0 0.011320620812690816 -0.018408912863028325 0 0.011242829938202227 -0.01853641876594023 0 0.01149670685341868 -0.018567459454001352 0 0.011412952880924273 -0.018684658452917204 0 0.011242829938202227 -0.01853641876594023 0 0.01149670685341868 -0.018567459454001352 0 0.011412952880924273 -0.018684658452917204 0 0.01149670685341868 -0.018567459454001352 0 0.011613062823940104 -0.018694935951487697 0 0.011542577335417794 -0.018426840574350758 0 0.01149670685341868 -0.018567459454001352 0 0.01171188941278942 -0.018547163023847475 0 0.01171188941278942 -0.018547163023847475 0 0.011703614512858394 -0.018660902425576918 0 0.011912361957275167 -0.0187068770975207 0 0.01149670685341868 -0.018567459454001352 0 0.011703614512858394 -0.018660902425576918 0 0.011613062823940104 -0.018694935951487697 0 0.01149670685341868 -0.018567459454001352 0 0.01171188941278942 -0.018547163023847475 0 0.011703614512858394 -0.018660902425576918 0 0.011976007062562544 -0.01849277012258066 0 0.012052330972806126 -0.018662597435051002 0 0.011878493845236994 -0.018552750953117012 0 0.01171188941278942 -0.018547163023847475 0 0.011878493845236994 -0.018552750953117012 0 0.011912361957275167 -0.0187068770975207 0 0.012052330972806126 -0.018662597435051002 0 0.011878493845236994 -0.018552750953117012 0 0.011912361957275167 -0.0187068770975207 0 0.011912361957275167 -0.0187068770975207 0 0.011798084396378968 -0.0187643901245318 0 0.011963626838822301 -0.018866780992593101 0 0.012052330972806126 -0.018662597435051002 0 0.012127245694866538 -0.018845009525738948 0 0.011912361957275167 -0.0187068770975207 0 0.012127245694866538 -0.018845009525738948 0 0.011912361957275167 -0.0187068770975207 0 0.011963626838822301 -0.018866780992593101 0 0.011645141599560602 -0.018787984957899247 0 0.011798084396378968 -0.0187643901245318 0 0.011963626838822301 -0.018866780992593101 0 0.011703614512858394 -0.018660902425576918 0 0.011613062823940104 -0.018694935951487697 0 0.011798084396378968 -0.0187643901245318 0 0.011703614512858394 -0.018660902425576918 0 0.011912361957275167 -0.0187068770975207 0 0.011798084396378968 -0.0187643901245318 0 0.011645141599560602 -0.018787984957899247 0 0.011613062823940104 -0.018694935951487697 0 0.011798084396378968 -0.0187643901245318 0 0.011645141599560602 -0.018787984957899247 0 0.011963626838822301 -0.018866780992593101 0 0.011967135848592826 -0.018978597978146418 0 0.012127245694866538 -0.018845009525738948 0 0.012272081377889705 -0.019040204129040995 0 0.011963626838822301 -0.018866780992593101 0 0.012272081377889705 -0.019040204129040995 0 0.011963626838822301 -0.018866780992593101 0 0.011967135848592826 -0.018978597978146418 0 0.012272081377889705 -0.019040204129040995 0 0.011967135848592826 -0.018978597978146418 0 0.012430125735050512 -0.019248067705639863 0 0.0044357725772662003 -0.014807022163140855 0 0.0088141384065197857 -0.013742402639959557 0 0.0055731918061224066 -0.010279047720778874 0 0.0044534558932337234 -0.0081602947536992907 0 0.005666289848838049 -0.0085548769957698792 0 0.011034879444868775 -0.018379408360057966 0 0.011967135848592826 -0.018978597978146418 0 0.011887342311934028 -0.01925892028613501 0 0.0057385711681989995 -0.018885057749346085 0 0.013714613831015687 -0.019276355221634556 0 0.011645141599560602 -0.018787984957899247 0 0.011054805981063003 -0.018700606596468196 0 0.011967135848592826 -0.018978597978146418 0 0.0051561927841595225 -0.0076833768317008484 0 0.0044534558932337234 -0.0081602947536992907 0 0.0047152276448896501 -0.0070630840554941465 0 0.0051561927841595225 -0.0076833768317008484 0 0.0044534558932337234 -0.0081602947536992907 0 0.005666289848838049 -0.0085548769957698792 0 0.0051561927841595225 -0.0076833768317008484 0 0.005603677072874548 -0.0070731831247706559 0 0.005666289848838049 -0.0085548769957698792 0 0.011967135848592826 -0.018978597978146418 0 0.011887342311934028 -0.01925892028613501 0 0.012430125735050512 -0.019248067705639863 0 0.011887342311934028 -0.01925892028613501 0 0.012430125735050512 -0.019248067705639863 0 0.012944224529229345 -0.019339086101225117 0 0.0044534558932337234 -0.0081602947536992907 0 0.0039104409616315195 -0.0064337042761079214 0 0.0047152276448896501 -0.0070630840554941465 0 0.0088141384065197857 -0.013742402639959557 0 0.0083259514879981279 -0.012816857134752651 0 0.0039104409616315195 -0.0064337042761079214 0 0.0047152276448896501 -0.0070630840554941465 0 0.0046975396476895484 -0.0062148297270626556 0 0.0050644891740343556 -0.0067376538936553612 0 0.0047152276448896501 -0.0070630840554941465 0 0.0046975396476895484 -0.0062148297270626556 0 0.0050644891740343556 -0.0067376538936553612 0 0.0055971386293405881 -0.0057569249896085566 0 0.005603677072874548 -0.0070731831247706559 0 0.0050644891740343556 -0.0067376538936553612 0 0.0051351803963857199 -0.0071819452340440848 0 0.005603677072874548 -0.0070731831247706559 0 0.0050644891740343556 -0.0067376538936553612 0 0.0051351803963857199 -0.0071819452340440848 0 0.0047152276448896501 -0.0070630840554941465 0 0.0051561927841595225 -0.0076833768317008484 0 0.0051351803963857199 -0.0071819452340440848 0 0.005603677072874548 -0.0070731831247706559 0 0.0051561927841595225 -0.0076833768317008484 0 0.0051351803963857199 -0.0071819452340440848 0 0.0047152276448896501 -0.0070630840554941465 0 0.012714411935674855 -0.019266960906848599 0 0.012976996159747383 -0.019342991199577723 0 0.012914218789945758 -0.019428427261564764 0 0.012739467402778624 -0.019188794571031263 0 0.012714411935674855 -0.019266960906848599 0 0.012914218789945758 -0.019428427261564764 0 0.012714411935674855 -0.019266960906848599 0 0.012769209714865006 -0.019314026087838984 0 0.012976996159747383 -0.019342991199577723 0 0.012272081377889705 -0.019040204129040995 0 0.012430125735050512 -0.019248067705639863 0 0.012714411935674855 -0.019266960906848599 0 0.012430125735050512 -0.019248067705639863 0 0.012714411935674855 -0.019266960906848599 0 0.012769209714865006 -0.019314026087838984 0 0.012944224529229345 -0.019339086101225117 0 0.012976996159747383 -0.019342991199577723 0 0.013264078754871525 -0.019081901148462078 0 0.012430125735050512 -0.019248067705639863 0 0.012944224529229345 -0.019339086101225117 0 0.012769209714865006 -0.019314026087838984 0 0.012944224529229345 -0.019339086101225117 0 0.012769209714865006 -0.019314026087838984 0 0.012976996159747383 -0.019342991199577723 0 0.012976996159747383 -0.019342991199577723 0 0.01299969484938002 -0.019443137749828466 0 0.012914218789945758 -0.019428427261564764 0 0.012976996159747383 -0.019342991199577723 0 0.013264078754871525 -0.019081901148462078 0 0.01299969484938002 -0.019443137749828466 0 0.0039104409616315195 -0.0064337042761079214 0 0.0039350837089101387 -0.0056971420997165168 0 0.0042084630985901317 -0.005778922105493787 0 0.0083259514879981279 -0.012816857134752651 0 0.0087947131332875052 -0.012101393679751746 0 0.012944224529229345 -0.019339086101225117 0 0.013264078754871525 -0.019081901148462078 0 0.013814971459653021 -0.018435830700643637 0 0.0040309801881801425 -0.0055470612742853816 0 0.0039350837089101387 -0.0056971420997165168 0 0.0042084630985901317 -0.005778922105493787 0 0.013264078754871525 -0.019081901148462078 0 0.013814971459653021 -0.018435830700643637 0 0.013249016370421007 -0.018327185524687754 0 0.013814971459653021 -0.018435830700643637 0 0.013249016370421007 -0.018327185524687754 0 0.013551003028015438 -0.016900339681055275 0 0.0046012799123282665 -0.0057924905660119951 0 0.0046975396476895484 -0.0062148297270626556 0 0.0042084630985901317 -0.005778922105493787 0 0.0046012799123282665 -0.0057924905660119951 0 0.0046975396476895484 -0.0062148297270626556 0 0.0048919050825038703 -0.0058370908454457061 0 0.0050644891740343556 -0.0067376538936553612 0 0.0046975396476895484 -0.0062148297270626556 0 0.0055971386293405881 -0.0057569249896085566 0 0.005284072958037702 -0.0057671432147239649 0 0.0027978713427263611 -0.005957992083637312 0 0.0039104409616315195 -0.0064337042761079214 0 0.0046975396476895484 -0.0062148297270626556 0 0.0042084630985901317 -0.005778922105493787 0 0.0040309801881801425 -0.0055470612742853816 0 0.0042084630985901317 -0.005778922105493787 0 0.0045362991419331143 -0.005360485379675887 0 0.0043195507391216026 -0.0052414951483646327 0 0.0045362991419331143 -0.005360485379675887 0 0.0048919050825038703 -0.0058370908454457061 0 0.0046012799123282665 -0.0057924905660119951 0 0.0045362991419331143 -0.005360485379675887 0 0.0048919050825038703 -0.0058370908454457061 0 0.0046012799123282665 -0.0057924905660119951 0 0.0042084630985901317 -0.005778922105493787 0 0.0045362991419331143 -0.005360485379675887 0 0.0043195507391216026 -0.0052414951483646327 0 0.0033218692800032167 -0.0042564381937186717 0 0.0043344571635257189 -0.0037663540134792203 0 0.004887361225951869 -0.0047427804581472478 0 0.0027978713427263611 -0.005957992083637312 0 -0.0015841923092913509 -0.0060254321942914872 0 -0.0018648647468614118 -0.0072262212290192356 0 -0.00071862397308458247 -0.0068195185845131966 0 -0.0018648647468614118 -0.0072262212290192356 0 -0.00118636622464072 -0.0080371308421502835 0 -0.00071862397308458247 -0.0068195185845131966 0 -0.0015841923092913509 -0.0060254321942914872 0 -0.0018648647468614118 -0.0072262212290192356 0 -0.0032258409372834997 -0.0067254136036526075 0 -0.0032258409372834997 -0.0067254136036526075 0 -0.002681520952629459 -0.007516571357906658 0 -0.0031737907003973813 -0.0082932735582652069 0 0.00048185134394947344 -0.0051853420709439468 0 0.0027978713427263611 -0.005957992083637312 0 -0.0018648647468614118 -0.0072262212290192356 0 -0.0032258409372834997 -0.0067254136036526075 0 -0.002681520952629459 -0.007516571357906658 0 -0.0031737907003973813 -0.0082932735582652069 0 -0.002159501743294118 -0.0080418458485003782 0 -0.0018579073591833519 -0.009159169680687626 0 0.0027978713427263611 -0.005957992083637312 0 0.0010095743460659576 -0.007988882855242024 0 -0.003074977464731616 -0.008384625191195795 0 -0.0015642622171319689 -0.0096394941908311722 0 -0.0032258409372834997 -0.0067254136036526075 0 -0.0034380528456760683 -0.0084913687086960905 0 -0.0031737907003973813 -0.0082932735582652069 0 -0.0034380528456760683 -0.0084913687086960905 0 -0.0031737907003973813 -0.0082932735582652069 0 -0.002658027870075201 -0.0098882821505099101 0 -0.002681520952629459 -0.007516571357906658 0 -0.0031737907003973813 -0.0082932735582652069 0 -0.002159501743294118 -0.0080418458485003782 0 -0.0018648647468614118 -0.0072262212290192356 0 -0.002159501743294118 -0.0080418458485003782 0 -0.00118636622464072 -0.0080371308421502835 0 -0.0018648647468614118 -0.0072262212290192356 0 -0.002681520952629459 -0.007516571357906658 0 -0.002159501743294118 -0.0080418458485003782 0 -0.002159501743294118 -0.0080418458485003782 0 -0.00118636622464072 -0.0080371308421502835 0 -0.0018579073591833519 -0.009159169680687626 0 -0.0018789602375411036 -0.011384914730408275 0 0.00063964601923954237 -0.011830132931706917 0 -0.0011752965418748242 -0.0101428670900725 0 -0.0018789602375411036 -0.011384914730408275 0 -0.0011752965418748242 -0.0101428670900725 0 -0.002658027870075201 -0.0098882821505099101 0 -0.0031737907003973813 -0.0082932735582652069 0 -0.0011752965418748242 -0.0101428670900725 0 -0.002658027870075201 -0.0098882821505099101 0 -0.0018789602375411036 -0.011384914730408275 0 -0.0036169106564056799 -0.011083355577679515 0 -0.002658027870075201 -0.0098882821505099101 0 -0.0034380528456760683 -0.0084913687086960905 0 -0.0036169106564056799 -0.011083355577679515 0 -0.002658027870075201 -0.0098882821505099101 0 0.0010095743460659576 -0.007988882855242024 0 0.00086738894073333029 -0.0092465427569693136 0 0.00032986446426782137 -0.0093565546072113433 0 -0.00045159789829618666 -0.008857748197384413 0 0.00066038662847497074 -0.0083452227747167953 0 0.0013406062325286396 -0.0089277020402196827 0 0.00066038662847497074 -0.0083452227747167953 0 0.0012341843181746571 -0.0080353200200800577 0 0.0013406062325286396 -0.0089277020402196827 0 0.00032986446426782137 -0.0093565546072113433 0 0.00066038662847497074 -0.0083452227747167953 0 0.00085174504289486995 -0.010281267353641954 0 0.0013406062325286396 -0.0089277020402196827 0 0.00032986446426782137 -0.0093565546072113433 0 0.00085174504289486995 -0.010281267353641954 0 0.0013406062325286396 -0.0089277020402196827 0 0.0021431749474379799 -0.010510493107514268 0 -0.00067617118450355083 -0.010433017090930989 0 0.00032986446426782137 -0.0093565546072113433 0 -0.00045159789829618666 -0.008857748197384413 0 -0.00067617118450355083 -0.010433017090930989 0 -0.0018579073591833519 -0.009159169680687626 0 -0.00045159789829618666 -0.008857748197384413 0 -0.00118636622464072 -0.0080371308421502835 0 -0.0018579073591833519 -0.009159169680687626 0 -0.00045159789829618666 -0.008857748197384413 0 -6.829332325700959e-06 -0.011153999320581883 0 -0.0015642622171319689 -0.0096394941908311722 0 -0.00118636622464072 -0.0080371308421502835 0 -0.00045159789829618666 -0.008857748197384413 0 4.7628839503051255e-05 -0.0076609521801292097 0 -0.00118636622464072 -0.0080371308421502835 0 4.7628839503051255e-05 -0.0076609521801292097 0 -0.00071862397308458247 -0.0068195185845131966 0 4.7628839503051255e-05 -0.0076609521801292097 0 0.00066038662847497074 -0.0083452227747167953 0 0.00073169963677581907 -0.0072240016710314239 0 0.00066038662847497074 -0.0083452227747167953 0 0.00073169963677581907 -0.0072240016710314239 0 0.0014150547753917012 -0.0068764706234629653 0 -0.00045159789829618666 -0.008857748197384413 0 4.7628839503051255e-05 -0.0076609521801292097 0 0.00066038662847497074 -0.0083452227747167953 0 0.00073169963677581907 -0.0072240016710314239 0 0.00038463882515160544 -0.0066590070857166376 0 0.00092285701318668668 -0.0067064721479411825 0 4.7628839503051255e-05 -0.0076609521801292097 0 0.00073169963677581907 -0.0072240016710314239 0 0.00038463882515160544 -0.0066590070857166376 0 0.00038463882515160544 -0.0066590070857166376 0 0.00092285701318668668 -0.0067064721479411825 0 0.0010888481663286094 -0.0060934971844642666 0 4.7628839503051255e-05 -0.0076609521801292097 0 0.00038463882515160544 -0.0066590070857166376 0 -0.00071862397308458247 -0.0068195185845131966 0 0.00048185134394947344 -0.0051853420709439468 0 0.00123096345129719 -0.005142089808822658 0 0.00038463882515160544 -0.0066590070857166376 0 -0.00071862397308458247 -0.0068195185845131966 0 -2.2492083145261215e-05 -0.0055331626253392633 0 -0.0015841923092913509 -0.0060254321942914872 0 -0.00071862397308458247 -0.0068195185845131966 0 -2.2492083145261215e-05 -0.0055331626253392633 0 0.00038463882515160544 -0.0066590070857166376 0 -2.2492083145261215e-05 -0.0055331626253392633 0 0.0010888481663286094 -0.0060934971844642666 0 0.0013487139374899189 -0.0053862215576428113 0 0.0013919311664267382 -0.0057622455962431963 0 0.0010888481663286094 -0.0060934971844642666 0 0.0013919311664267382 -0.0057622455962431963 0 0.0010888481663286094 -0.0060934971844642666 0 0.0014150547753917012 -0.0068764706234629653 0 0.00092285701318668668 -0.0067064721479411825 0 0.0010888481663286094 -0.0060934971844642666 0 0.0014150547753917012 -0.0068764706234629653 0 0.00073169963677581907 -0.0072240016710314239 0 0.00092285701318668668 -0.0067064721479411825 0 0.0014150547753917012 -0.0068764706234629653 0 0.0013280974518875941 -0.0071237727974074938 0 0.0013634410334268346 -0.0063906557859683332 0 0.0013240914388798221 -0.0072978648860284184 0 0.0011963938775314139 -0.0068462717352179301 0 0.0013557840810051586 -0.0070541318432251155 0 0.0013919311664267382 -0.0057622455962431963 0 0.0014150547753917012 -0.0068764706234629653 0 0.0015443640146898439 -0.005909890781258525 0 0.0013215813515240571 -0.0056706373409590805 0 0.0013919311664267382 -0.0057622455962431963 0 0.0015443640146898439 -0.005909890781258525 0 0.00091190140617318472 -0.0064933921656763812 0 0.0011691270937561758 -0.0068028061996431265 0 0.0010956040781754804 -0.0067128492316811386 0 0.0010101652710727139 -0.0060670033952069987 0 0.0013634410334268346 -0.0063906557859683332 0 0.00091190140617318472 -0.0064933921656763812 0 0.0011963938775314139 -0.0068462717352179301 0 0.0011691270937561758 -0.0068028061996431265 0 0.0009981787124142623 -0.00655777466004162 0 0.0010861811215556452 -0.0067141900262973515 0 0.0010384684835174399 -0.0064993522352079633 0 0.00091190140617318472 -0.0064933921656763812 0 0.0009981787124142623 -0.00655777466004162 0 0.0010956040781754804 -0.0067128492316811386 0 0.0021050646532521748 -0.0060233337109434123 0 0.0019037604264950667 -0.0061544162499559858 0 0.0019293649031396317 -0.0059905118309061768 0 0.0038447730528899057 -0.006590098941318733 0 0.00044521892916685104 -0.0055052801645696595 0 0.0009981787124142623 -0.00655777466004162 0 0.0010956040781754804 -0.0067128492316811386 0 0.0010861811215556452 -0.0067141900262973515 0 0.0011691270937561758 -0.0068028061996431265 0 0.0010956040781754804 -0.0067128492316811386 0 0.0011026619679433474 -0.0067115397363164556 0 0.0036752307650935582 -0.0064857229443502484 0 0.0038447730528899057 -0.006590098941318733 0 0.0038447730528899057 -0.006590098941318733 0 0.0021278935125877531 -0.0064029413400934418 0 0.0021050646532521748 -0.0060233337109434123 0 0.0019293649031396317 -0.0059905118309061768 0 0.0019502246524715266 -0.005829219436943177 0 0.0071629307169816057 -0.0053643181799738811 0 0.0072646751912130055 -0.0068198353013676329 0 0.0084281869520955992 -0.0070410077030440893 0 0.0011691270937561758 -0.0068028061996431265 0 0.0011026619679433474 -0.0067115397363164556 0 0.0013557840810051586 -0.0070541318432251155 0 0.0011963938775314139 -0.0068462717352179301 0 0.0011691270937561758 -0.0068028061996431265 0 0.0013557840810051586 -0.0070541318432251155 0 0.0071629307169816057 -0.0053643181799738811 0 0.0056088776409077357 -0.0064472966960195778 0 0.0072646751912130055 -0.0068198353013676329 0 0.0038447730528899057 -0.006590098941318733 0 0.0035285263315253316 -0.0066920045899615688 0 0.0056088776409077357 -0.0064472966960195778 0 0.0066441410516368329 -0.0078783457949352636 0 0.005304513909574848 -0.0078843139259274757 0 0.0056088776409077357 -0.0064472966960195778 0 0.0066441410516368329 -0.0078783457949352636 0 0.0072646751912130055 -0.0068198353013676329 0 0.0066441410516368329 -0.0078783457949352636 0 0.005802891997613112 -0.0088551706719591679 0 0.005304513909574848 -0.0078843139259274757 0 0.0045935165933243104 -0.0099150865250929223 0 0.0015308767383656852 -0.0063788714761952086 0 0.0066441410516368329 -0.0078783457949352636 0 0.0072646751912130055 -0.0068198353013676329 0 0.0084139353252116102 -0.0071836213817044921 0 0.0066441410516368329 -0.0078783457949352636 0 0.0072815858958405278 -0.0089977099313716079 0 0.0084139353252116102 -0.0071836213817044921 0 0.0072646751912130055 -0.0068198353013676329 0 0.0084139353252116102 -0.0071836213817044921 0 0.0084281869520955992 -0.0070410077030440893 0 0.00087601001777236353 -0.0097636217673246692 0 0.0022275197822247341 -0.0076750534055931982 0 0.0019852806128563918 -0.0099410973682333478 0 0.00092272555167113249 -0.011512953520419944 0 0.0019841778898204666 -0.011684655755602333 0 0.00092120050439013226 -0.012933777206890958 0 0.0045935165933243104 -0.0099150865250929223 0 -0.000880930291532442 -0.011233342624877993 0 0.0066441410516368329 -0.0078783457949352636 0 0.0072815858958405278 -0.0089977099313716079 0 0.005802891997613112 -0.0088551706719591679 0 0.0045935165933243104 -0.0099150865250929223 0 0.0069436270288321927 -0.0090214932310385323 0 0.0079764968627867062 -0.0092130173345348447 0 0.005802891997613112 -0.0088551706719591679 0 0.0053255299684495713 -0.010457948527078516 0 0.005802891997613112 -0.0088551706719591679 0 0.0044192265106497543 -0.0090379625750242592 0 0.0053255299684495713 -0.010457948527078516 0 0.005802891997613112 -0.0088551706719591679 0 0.0044192265106497543 -0.0090379625750242592 0 0.005304513909574848 -0.0078843139259274757 0 0.0044192265106497543 -0.0090379625750242592 0 0.0030676940687215989 -0.0092463511744205543 0 0.0037454281964207524 -0.0075312485374963087 0 0.0044192265106497543 -0.0090379625750242592 0 0.0036313715289919574 -0.010237298515885567 0 0.0053255299684495713 -0.010457948527078516 0 0.0044192265106497543 -0.0090379625750242592 0 0.0030676940687215989 -0.0092463511744205543 0 0.0036313715289919574 -0.010237298515885567 0 0.0013688286444562905 -0.0088084235471125941 0 0.0025223938234650136 -0.0077062301513434886 0 0.0030676940687215989 -0.0092463511744205543 0 0.0021431749474379799 -0.010510493107514268 0 0.0036313715289919574 -0.010237298515885567 0 0.0013406062325286396 -0.0089277020402196827 0 0.0030676940687215989 -0.0092463511744205543 0 0.0037454281964207524 -0.0075312485374963087 0 0.0013406062325286396 -0.0089277020402196827 0 0.0030676940687215989 -0.0092463511744205543 0 0.0021431749474379799 -0.010510493107514268 0 0.00066758185741818711 -0.0082309137853085867 0 0.0013280974518875941 -0.0071237727974074938 0 0.00066038662847497074 -0.0083452227747167953 0 0.0013240914388798221 -0.0072978648860284184 0 0.0012341843181746571 -0.0080353200200800577 0 0.0013406062325286396 -0.0089277020402196827 0 0.0012341843181746571 -0.0080353200200800577 0 0.0014950903089866235 -0.007682630929779324 0 0.0013240914388798221 -0.0072978648860284184 0 0.0012341843181746571 -0.0080353200200800577 0 0.0014950903089866235 -0.007682630929779324 0 0.0035285263315253316 -0.0066920045899615688 0 0.0025223938234650136 -0.0077062301513434886 0 0.0013240914388798221 -0.0072978648860284184 0 0.0013557840810051586 -0.0070541318432251155 0 0.0014950903089866235 -0.007682630929779324 0 0.0056088776409077357 -0.0064472966960195778 0 0.005304513909574848 -0.0078843139259274757 0 0.0037454281964207524 -0.0075312485374963087 0 0.0044192265106497543 -0.0090379625750242592 0 0.005304513909574848 -0.0078843139259274757 0 0.0037454281964207524 -0.0075312485374963087 0 -0.00031024839612588882 -0.0047261338253009487 0 -0.00028691881728804344 -0.0049734338512751816 0 -0.00013078828353066811 -0.0050607961271511284 0 -0.0029001648568499809 -0.0016403534768409682 0 -0.0020252106851098785 -0.0023308741801230013 0 -0.0026868112961382592 -0.0011683817633793786 0 -0.0039003020546997348 -0.0021283946003086496 0 -0.0029001648568499809 -0.0016403534768409682 0 -0.0026712088316144912 -0.0011693270853821028 0 -0.0029001648568499809 -0.0016403534768409682 0 -0.0031316338545376498 -0.0023606740390308624 0 -0.0020252106851098785 -0.0023308741801230013 0 -0.00106022841461388 -0.0035149896441878294 0 -0.0031022387173900456 -0.0037992090028107937 0 -0.0031316338545376498 -0.0023606740390308624 0 -0.0030147117069983321 -0.0031619773911770346 0 -0.0020252106851098785 -0.0023308741801230013 0 -0.0022925829429669585 -0.0037184745091381529 0 -0.0030147117069983321 -0.0031619773911770346 0 -0.0020252106851098785 -0.0023308741801230013 0 -0.0013410588397868824 -0.0035053898047770864 0 -0.0022925829429669585 -0.0037184745091381529 0 -0.0020252106851098785 -0.0023308741801230013 0 -0.00093137359088208273 -0.0040341064653080117 0 -0.00106022841461388 -0.0035149896441878294 0 -0.00051916659412963638 -0.0044861185110201878 0 -0.00050249447840328577 -0.0046498041375564094 0 -0.00031024839612588882 -0.0047261338253009487 0 -0.00050249447840328577 -0.0046498041375564094 0 -0.00031024839612588882 -0.0047261338253009487 0 -0.00050160427802480067 -0.0048722925952957912 0 -0.00031024839612588882 -0.0047261338253009487 0 -0.00050160427802480067 -0.0048722925952957912 0 -0.00038803068651169215 -0.0049948784362776064 0 -0.00031024839612588882 -0.0047261338253009487 0 -0.00028691881728804344 -0.0049734338512751816 0 -0.00038803068651169215 -0.0049948784362776064 0 -0.00050160427802480067 -0.0048722925952957912 0 -0.00049703469638115601 -0.0050366716117396281 0 -0.00038803068651169215 -0.0049948784362776064 0 -0.00050160427802480067 -0.0048722925952957912 0 -0.00067675153528997777 -0.0049200606279322249 0 -0.00060792524939470979 -0.0050448830240906687 0 -0.00050160427802480067 -0.0048722925952957912 0 -0.00060792524939470979 -0.0050448830240906687 0 -0.00049703469638115601 -0.0050366716117396281 0 -0.00067675153528997777 -0.0049200606279322249 0 -0.00080967271060402874 -0.0049325196212202929 0 -0.00079795929936212102 -0.0050657782601602015 0 -0.00067675153528997777 -0.0049200606279322249 0 -0.00069542395965156581 -0.0047933569379050812 0 -0.00080967271060402874 -0.0049325196212202929 0 -0.00067675153528997777 -0.0049200606279322249 0 -0.00069542395965156581 -0.0047933569379050812 0 -0.00058492358583010155 -0.0047472392037106988 0 -0.00069542395965156581 -0.0047933569379050812 0 -0.00055292730822590458 -0.0045640653223820672 0 -0.00084313464607467851 -0.004798452771039457 0 -0.00050160427802480067 -0.0048722925952957912 0 -0.00067675153528997777 -0.0049200606279322249 0 -0.00058492358583010155 -0.0047472392037106988 0 -0.00050249447840328577 -0.0046498041375564094 0 -0.00050160427802480067 -0.0048722925952957912 0 -0.00058492358583010155 -0.0047472392037106988 0 -0.00050249447840328577 -0.0046498041375564094 0 -0.00058492358583010155 -0.0047472392037106988 0 -0.00055292730822590458 -0.0045640653223820672 0 -0.00051916659412963638 -0.0044861185110201878 0 -0.00050249447840328577 -0.0046498041375564094 0 -0.00055292730822590458 -0.0045640653223820672 0 -0.00045696390146183921 -0.004503164251578695 0 -0.00055292730822590458 -0.0045640653223820672 0 -0.000575696265351231 -0.0045603327923816059 0 -0.00058137407768310307 -0.0045857018634899273 0 -0.00072022844378004933 -0.0047254931507788719 0 -0.00069542395965156581 -0.0047933569379050812 0 -0.00058492358583010155 -0.0047472392037106988 0 -0.00055292730822590458 -0.0045640653223820672 0 -0.00055292730822590458 -0.0045640653223820672 0 -0.00056531809365043938 -0.0045906343170819784 0 -0.00054470783145174194 -0.0046382406050800356 0 -0.00055292730822590458 -0.0045640653223820672 0 -0.00056531809365043938 -0.0045906343170819784 0 -0.000575696265351231 -0.0045603327923816059 0 -0.00056531809365043938 -0.0045906343170819784 0 -0.000575696265351231 -0.0045603327923816059 0 -0.00058973679090787174 -0.0046269337998331274 0 0.00044521892916685104 -0.0055052801645696595 0 0.00073654020475228646 -0.0051485461685065442 0 -0.00056531809365043938 -0.0045906343170819784 0 -0.00058973679090787174 -0.0046269337998331274 0 -0.00054470783145174194 -0.0046382406050800356 0 -0.00069542395965156581 -0.0047933569379050812 0 -0.00084313464607467851 -0.004798452771039457 0 -0.00080967271060402874 -0.0049325196212202929 0 -0.00084313464607467851 -0.004798452771039457 0 -0.00080967271060402874 -0.0049325196212202929 0 -0.0010368210098483947 -0.0050983255354542824 0 0.00073654020475228646 -0.0051485461685065442 0 0.0021278935125877531 -0.0064029413400934418 0 -0.00054470783145174194 -0.0046382406050800356 0 -0.00057898982173186367 -0.0047686029212979635 0 -0.000580926734583137 -0.0047552949833692551 0 -0.00072022844378004933 -0.0047254931507788719 0 0.0015308767383656852 -0.0063788714761952086 0 -0.00058973679090787174 -0.0046269337998331274 0 -0.00054470783145174194 -0.0046382406050800356 0 -0.000580926734583137 -0.0047552949833692551 0 0.0015308767383656852 -0.0063788714761952086 0 -0.000880930291532442 -0.011233342624877993 0 -0.0011188725010332498 -0.0084059415791214471 0 -0.0011895154696295554 -0.0089362672986416924 0 -0.00088823410321046427 -0.0087052320335228046 0 0.0015308767383656852 -0.0063788714761952086 0 0.0021278935125877531 -0.0064029413400934418 0 -0.00080967271060402874 -0.0049325196212202929 0 -0.0010368210098483947 -0.0050983255354542824 0 -0.00079795929936212102 -0.0050657782601602015 0 -0.0010368210098483947 -0.0050983255354542824 0 -0.00079795929936212102 -0.0050657782601602015 0 -0.00085016384780997763 -0.005325088428621492 0 0.0015308767383656852 -0.0063788714761952086 0 -0.0011204535438752066 -0.0066972203129760351 0 -0.0011895154696295554 -0.0089362672986416924 0 -0.00088823410321046427 -0.0087052320335228046 0 -0.00067504038715867189 -0.0090214363877002442 0 -0.000880930291532442 -0.011233342624877993 0 -0.0028690126139863633 -0.010494194362147309 0 -0.0040711576309755432 -0.013739639205488725 0 -0.0031540993864433249 -0.013899524777439191 0 -0.0035873726850360927 -0.014181877189097627 0 -0.0011204535438752066 -0.0066972203129760351 0 -0.0028690126139863633 -0.010494194362147309 0 -0.00065320597221088723 -0.0054852175852098022 0 -0.0007064162565177122 -0.0054963831687382236 0 -0.00097585753264160672 -0.005408164618005259 0 -0.00085016384780997763 -0.005325088428621492 0 -0.00069842418418315777 -0.005379516767581357 0 -0.00065320597221088723 -0.0054852175852098022 0 -0.00069842418418315777 -0.005379516767581357 0 -0.00065320597221088723 -0.0054852175852098022 0 -0.0007064162565177122 -0.0054963831687382236 0 -0.0007064162565177122 -0.0054963831687382236 0 -0.0006533646072834949 -0.0053860222460822942 0 -0.00055546871611146097 -0.0053208544613185683 0 -0.00069842418418315777 -0.005379516767581357 0 -0.0007064162565177122 -0.0054963831687382236 0 -0.0006533646072834949 -0.0053860222460822942 0 -0.00069842418418315777 -0.005379516767581357 0 -0.0006533646072834949 -0.0053860222460822942 0 -0.00060111310194944098 -0.005274168710632415 0 -0.0006533646072834949 -0.0053860222460822942 0 -0.00060111310194944098 -0.005274168710632415 0 -0.00055546871611146097 -0.0053208544613185683 0 -0.00060111310194944098 -0.005274168710632415 0 -0.00057424483988221143 -0.0051495895147966536 0 -0.00072227727773954578 -0.0052012395554543759 0 -0.00069842418418315777 -0.005379516767581357 0 -0.00060111310194944098 -0.005274168710632415 0 -0.00072227727773954578 -0.0052012395554543759 0 -0.00085016384780997763 -0.005325088428621492 0 -0.00069842418418315777 -0.005379516767581357 0 -0.00072227727773954578 -0.0052012395554543759 0 -0.00079795929936212102 -0.0050657782601602015 0 -0.00085016384780997763 -0.005325088428621492 0 -0.00072227727773954578 -0.0052012395554543759 0 -0.00072227727773954578 -0.0052012395554543759 0 -0.00070141463078839355 -0.0050518560829827166 0 -0.00060792524939470979 -0.0050448830240906687 0 -0.00079795929936212102 -0.0050657782601602015 0 -0.00072227727773954578 -0.0052012395554543759 0 -0.00070141463078839355 -0.0050518560829827166 0 -0.00067675153528997777 -0.0049200606279322249 0 -0.00079795929936212102 -0.0050657782601602015 0 -0.00070141463078839355 -0.0050518560829827166 0 -0.00067675153528997777 -0.0049200606279322249 0 -0.00070141463078839355 -0.0050518560829827166 0 -0.00060792524939470979 -0.0050448830240906687 0 -0.00057424483988221143 -0.0051495895147966536 0 -0.00072227727773954578 -0.0052012395554543759 0 -0.00060792524939470979 -0.0050448830240906687 0 -0.00057424483988221143 -0.0051495895147966536 0 -0.00060792524939470979 -0.0050448830240906687 0 -0.00049703469638115601 -0.0050366716117396281 0 -0.00049703469638115601 -0.0050366716117396281 0 -0.00038803068651169215 -0.0049948784362776064 0 -0.00046414026293900253 -0.0051539475738559713 0 -0.00057424483988221143 -0.0051495895147966536 0 -0.00049703469638115601 -0.0050366716117396281 0 -0.00046414026293900253 -0.0051539475738559713 0 -0.00038803068651169215 -0.0049948784362776064 0 -0.00031933157750340069 -0.005116554976815413 0 -0.00046414026293900253 -0.0051539475738559713 0 -0.00028691881728804344 -0.0049734338512751816 0 -0.00038803068651169215 -0.0049948784362776064 0 -0.00031933157750340069 -0.005116554976815413 0 -0.00031933157750340069 -0.005116554976815413 0 -0.00035638778064314095 -0.0052881976679069942 0 -0.00013078828353066811 -0.0050607961271511284 0 -0.00031933157750340069 -0.005116554976815413 0 -0.00035638778064314095 -0.0052881976679069942 0 -0.00046414026293900253 -0.0051539475738559713 0 -0.00035638778064314095 -0.0052881976679069942 0 -0.00046414026293900253 -0.0051539475738559713 0 -0.00055546871611146097 -0.0053208544613185683 0 -0.00060111310194944098 -0.005274168710632415 0 -0.00046414026293900253 -0.0051539475738559713 0 -0.00055546871611146097 -0.0053208544613185683 0 -0.00060111310194944098 -0.005274168710632415 0 -0.00057424483988221143 -0.0051495895147966536 0 -0.00046414026293900253 -0.0051539475738559713 0 -0.0007064162565177122 -0.0054963831687382236 0 -0.00035638778064314095 -0.0052881976679069942 0 -0.00055546871611146097 -0.0053208544613185683 0 -0.00072357042493604077 -0.0055279336362008538 0 -0.00060015288234861492 -0.005419167481234461 0 -0.0007064162565177122 -0.0054963831687382236 0 -0.00099152335728868021 -0.0057525150829369365 0 -0.00089744625305567959 -0.005563484159186392 0 -0.0028690126139863633 -0.010494194362147309 0 -0.0048092181023715952 -0.0093937197620002633 0 -0.0007064162565177122 -0.0054963831687382236 0 -0.00089744625305567959 -0.005563484159186392 0 -0.00097585753264160672 -0.005408164618005259 0 -0.007143643775868313 -0.0076000939582121516 0 -0.0069253615678511122 -0.0096021038576170146 0 -0.0082796461452511374 -0.01016173016063289 0 -0.00089744625305567959 -0.005563484159186392 0 -0.0011529466704768383 -0.0056863817141623897 0 -0.00097585753264160672 -0.005408164618005259 0 -0.0041479133396300528 -0.0066830061064214012 0 -0.0048092181023715952 -0.0093937197620002633 0 -0.00099152335728868021 -0.0057525150829369365 0 -0.00089744625305567959 -0.005563484159186392 0 -0.0011529466704768383 -0.0056863817141623897 0 -0.007143643775868313 -0.0076000939582121516 0 -0.0069253615678511122 -0.0096021038576170146 0 -0.0055864766332228031 -0.0089623741960817415 0 -0.00607291164036124 -0.0097418729715535186 0 -0.0069253615678511122 -0.0096021038576170146 0 -0.0058167165203634064 -0.010586137198325895 0 -0.00607291164036124 -0.0097418729715535186 0 -0.0069253615678511122 -0.0096021038576170146 0 -0.0055864766332228031 -0.0089623741960817415 0 -0.0045380716411231661 -0.0097691069884511018 0 -0.0055864766332228031 -0.0089623741960817415 0 -0.0046023886768205863 -0.0076680057803415217 0 -0.0045380716411231661 -0.0097691069884511018 0 -0.0054680925560941741 -0.0099235761287917255 0 -0.0055864766332228031 -0.0089623741960817415 0 -0.00607291164036124 -0.0097418729715535186 0 -0.0054680925560941741 -0.0099235761287917255 0 -0.0055864766332228031 -0.0089623741960817415 0 -0.007143643775868313 -0.0076000939582121516 0 -0.0055864766332228031 -0.0089623741960817415 0 -0.0046023886768205863 -0.0076680057803415217 0 -0.007143643775868313 -0.0076000939582121516 0 -0.0046023886768205863 -0.0076680057803415217 0 -0.005977757403315213 -0.0050110273828451127 0 -0.005070509953446883 -0.0052314251466864586 0 -0.0031022387173900456 -0.0037992090028107937 0 -0.0041479133396300528 -0.0066830061064214012 0 -0.0031022387173900456 -0.0037992090028107937 0 -0.00060015288234861492 -0.005419167481234461 0 -0.0031022387173900456 -0.0037992090028107937 0 -0.00099152335728868021 -0.0057525150829369365 0 -0.0011529466704768383 -0.0056863817141623897 0 -0.001321662701601898 -0.005979632020935168 0 -0.00028691881728804344 -0.0049734338512751816 0 -0.00031933157750340069 -0.005116554976815413 0 -0.00013078828353066811 -0.0050607961271511284 0 -0.0025177376264288996 -0.0017049123544704578 0 -0.0031022387173900456 -0.0037992090028107937 0 -0.010924774357286634 -0.016796786740795315 0 -0.010822490039675465 -0.016109725045463635 0 -0.010014600794974991 -0.016168254326155158 0 -0.010822490039675465 -0.016109725045463635 0 -0.01023982944794068 -0.015878633664396697 0 -0.010014600794974991 -0.016168254326155158 0 -0.0078904301054798804 -0.01228392897765967 0 -0.0093096945896754997 -0.017200649391627455 0 -0.0041581763976188358 -0.011118618677650582 0 -0.0070488326888863348 -0.011665343605945023 0 -0.0086967131818601242 -0.014478511406206632 0 -0.0078904301054798804 -0.01228392897765967 0 -0.0060514761242586252 -0.012161479131852457 0 -0.0041581763976188358 -0.011118618677650582 0 -0.0053420153762088153 -0.010578004105506172 0 -0.0070488326888863348 -0.011665343605945023 0 -0.00607291164036124 -0.0097418729715535186 0 -0.0054680925560941741 -0.0099235761287917255 0 -0.0058167165203634064 -0.010586137198325895 0 -0.0054680925560941741 -0.0099235761287917255 0 -0.0053420153762088153 -0.010578004105506172 0 -0.0058167165203634064 -0.010586137198325895 0 -0.0045380716411231661 -0.0097691069884511018 0 -0.0042647057440415278 -0.01105508080566576 0 -0.0053420153762088153 -0.010578004105506172 0 -0.0045380716411231661 -0.0097691069884511018 0 -0.0054680925560941741 -0.0099235761287917255 0 -0.0053420153762088153 -0.010578004105506172 0 -0.0053420153762088153 -0.010578004105506172 0 -0.0058167165203634064 -0.010586137198325895 0 -0.0070488326888863348 -0.011665343605945023 0 -0.0069253615678511122 -0.0096021038576170146 0 -0.0058167165203634064 -0.010586137198325895 0 -0.0082796461452511374 -0.01016173016063289 0 -0.0070493927967345089 -0.010165489638626591 0 -0.0048092181023715952 -0.0093937197620002633 0 -0.0058167165203634064 -0.010586137198325895 0 -0.0070488326888863348 -0.011665343605945023 0 -0.0085051743956129997 -0.010185005412085515 0 -0.0070488326888863348 -0.011665343605945023 0 -0.0085051743956129997 -0.010185005412085515 0 -0.0097811765088283518 -0.013040774704603813 0 -0.0070488326888863348 -0.011665343605945023 0 -0.0097811765088283518 -0.013040774704603813 0 -0.0086967131818601242 -0.014478511406206632 0 -0.0060389027558503932 -0.012343397698112863 0 -0.0049117185195164687 -0.012518603419800555 0 -0.0055685651263914547 -0.01256203838579671 0 -0.0052960395625863185 -0.013384064972572043 0 -0.0057783164517630639 -0.012719308649281858 0 -0.0055685651263914547 -0.01256203838579671 0 -0.0049117185195164687 -0.012518603419800555 0 -0.0052960395625863185 -0.013384064972572043 0 -0.0055685651263914547 -0.01256203838579671 0 -0.0082211977215413106 -0.016744084854733544 0 -0.0058451202728435582 -0.014283325930825931 0 -0.0048092181023715952 -0.0093937197620002633 0 -0.0082211977215413106 -0.016744084854733544 0 -0.0094602404432008007 -0.019805530912555682 0 -0.0096583229072618806 -0.01953781443438506 0 -0.0094439906398196428 -0.019388692221274973 0 -0.0094602404432008007 -0.019805530912555682 0 -0.0094439906398196428 -0.019388692221274973 0 -0.009003799090413581 -0.018822402040344903 0 -0.0082211977215413106 -0.016744084854733544 0 -0.0093096945896754997 -0.017200649391627455 0 -0.0098691326720812891 -0.019301615173897124 0 -0.0096846227700959266 -0.019395946639051032 0 -0.0095664833416339388 -0.01901687673735028 0 -0.0096611696526041433 -0.019551715463552017 0 -0.0096846227700959266 -0.019395946639051032 0 -0.0094439906398196428 -0.019388692221274973 0 -0.0099795078220502893 -0.018321949408289663 0 -0.0093096945896754997 -0.017200649391627455 0 -0.0098723337048465948 -0.019278474318325196 0 -0.0096611696526041433 -0.019551715463552017 0 -0.0096846227700959266 -0.019395946639051032 0 -0.0099795078220502893 -0.018321949408289663 0 -0.0096395692108300866 -0.018782575784953751 0 -0.0096846227700959266 -0.019395946639051032 0 -0.0094439906398196428 -0.019388692221274973 0 -0.0095664833416339388 -0.01901687673735028 0 -0.0093096945896754997 -0.017200649391627455 0 -0.0099740054929787578 -0.018494323614518235 0 -0.0082211977215413106 -0.016744084854733544 0 -0.0094838120359041003 -0.020049035566204246 0 -0.0090446605263555541 -0.019254101759811411 0 -0.0088598469111090712 -0.019122168580099522 0 -0.009003799090413581 -0.018822402040344903 0 -0.0088598469111090712 -0.019122168580099522 0 -0.008889122280473 -0.019260766304408986 0 -0.0086659233598502024 -0.01927985324096786 0 -0.0090446605263555541 -0.019254101759811411 0 -0.0088598469111090712 -0.019122168580099522 0 -0.008889122280473 -0.019260766304408986 0 -0.0090446605263555541 -0.019254101759811411 0 -0.008889122280473 -0.019260766304408986 0 -0.0089192722451650747 -0.019390443209805836 0 -0.0060389027558503932 -0.012343397698112863 0 -0.0057650694517475164 -0.012709295858527644 0 -0.0055685651263914547 -0.01256203838579671 0 -0.0028690126139863633 -0.010494194362147309 0 -0.0058451202728435582 -0.014283325930825931 0 -0.0058451202728435582 -0.014283325930825931 0 -0.0055035141427914915 -0.013782182232229077 0 -0.0031540993864433249 -0.013899524777439191 0 -0.0029651708068517933 -0.01416263014219072 0 -0.0035873726850360927 -0.014181877189097627 0 -0.008889122280473 -0.019260766304408986 0 -0.0089192722451650747 -0.019390443209805836 0 -0.0086659233598502024 -0.01927985324096786 0 -0.0029651708068517933 -0.01416263014219072 0 -0.0035966351312391879 -0.014662488045659413 0 -0.0035873726850360927 -0.014181877189097627 0 -0.0058451202728435582 -0.014283325930825931 0 -0.0067275740909706642 -0.017430751810399141 0 -0.0040711576309755432 -0.013739639205488725 0 -0.0035873726850360927 -0.014181877189097627 0 -0.0041636250719712473 -0.014448067803355691 0 -0.0035966351312391879 -0.014662488045659413 0 -0.0035873726850360927 -0.014181877189097627 0 -0.0041636250719712473 -0.014448067803355691 0 -0.0086659233598502024 -0.01927985324096786 0 -0.0086850445990511917 -0.01899231588262856 0 -0.0082699043816846663 -0.019089962238377736 0 -0.0035966351312391879 -0.014662488045659413 0 -0.0041636250719712473 -0.014448067803355691 0 -0.0042416195293247779 -0.015174581862457915 0 -0.0088598469111090712 -0.019122168580099522 0 -0.0086659233598502024 -0.01927985324096786 0 -0.0086850445990511917 -0.01899231588262856 0 -0.0067275740909706642 -0.017430751810399141 0 -0.0031924168024255509 -0.016847167786096878 0 -0.0086850445990511917 -0.01899231588262856 0 -0.0085759817213868599 -0.018662940088018835 0 -0.0082699043816846663 -0.019089962238377736 0 -0.0086850445990511917 -0.01899231588262856 0 -0.0085759817213868599 -0.018662940088018835 0 -0.009003799090413581 -0.018822402040344903 0 -0.0085759817213868599 -0.018662940088018835 0 -0.0081242202964008688 -0.018410857650825646 0 -0.0087850439635284265 -0.018097942920872717 0 -0.009003799090413581 -0.018822402040344903 0 -0.0097414104303076461 -0.018417211992380576 0 -0.0087850439635284265 -0.018097942920872717 0 -0.0085759817213868599 -0.018662940088018835 0 -0.009003799090413581 -0.018822402040344903 0 -0.0087850439635284265 -0.018097942920872717 0 -0.0088598469111090712 -0.019122168580099522 0 -0.0086850445990511917 -0.01899231588262856 0 -0.009003799090413581 -0.018822402040344903 0 -0.0095664833416339388 -0.01901687673735028 0 -0.0097414104303076461 -0.018417211992380576 0 -0.0099255902096845455 -0.018985522977249942 0 -0.009003799090413581 -0.018822402040344903 0 -0.0095664833416339388 -0.01901687673735028 0 -0.0097414104303076461 -0.018417211992380576 0 -0.0094439906398196428 -0.019388692221274973 0 -0.009003799090413581 -0.018822402040344903 0 -0.0095664833416339388 -0.01901687673735028 0 -0.0098691326720812891 -0.019301615173897124 0 -0.0095664833416339388 -0.01901687673735028 0 -0.0099255902096845455 -0.018985522977249942 0 -0.0097414104303076461 -0.018417211992380576 0 -0.010415697310893701 -0.018526708985618007 0 -0.010120026199134539 -0.017874308431672415 0 -0.0097414104303076461 -0.018417211992380576 0 -0.010415697310893701 -0.018526708985618007 0 -0.01028268834766188 -0.018887699628954629 0 -0.011001254706590805 -0.015415695771220161 0 -0.010822490039675465 -0.016109725045463635 0 -0.01023982944794068 -0.015878633664396697 0 -0.010648054481206539 -0.018945497785275107 0 -0.010415697310893701 -0.018526708985618007 0 -0.01028268834766188 -0.018887699628954629 0 -0.010974072646652523 -0.017042547306100143 0 -0.0099795078220502893 -0.018321949408289663 0 -0.010648054481206539 -0.018945497785275107 0 -0.0098876416577863419 -0.019375915862936636 0 -0.01028268834766188 -0.018887699628954629 0 -0.0097414104303076461 -0.018417211992380576 0 -0.01028268834766188 -0.018887699628954629 0 -0.0099255902096845455 -0.018985522977249942 0 -0.0099795078220502893 -0.018321949408289663 0 -0.010043395792651811 -0.019135593472892617 0 -0.0098691326720812891 -0.019301615173897124 0 -0.01028268834766188 -0.018887699628954629 0 -0.0099255902096845455 -0.018985522977249942 0 0.0036410730495940111 -0.011830755384533837 0 0.0061119071290993508 -0.012361615808267685 0 0.003710264786092684 -0.014504809633533114 0 0.0026474998469516436 -0.01330190522381999 0 0.00100512584254777 -0.01604236486003098 0 0.0061119071290993508 -0.012361615808267685 0 0.0043735914308547447 -0.015568176902665364 0 0.003710264786092684 -0.014504809633533114 0 0.0022996628111844808 -0.013382207322958688 0 0.0025413610224809409 -0.014906379389544795 0 0.003710264786092684 -0.014504809633533114 0 0.001761150802586428 -0.012895746159800775 0 0.0035646973583418179 -0.014383471918171719 0 0.0011034305693101193 -0.012401099143640128 0 0.0036410730495940111 -0.011830755384533837 0 0.003710264786092684 -0.014504809633533114 0 0.0011034305693101193 -0.012401099143640128 0 0.0021431749474379799 -0.010510493107514268 0 0.0036410730495940111 -0.011830755384533837 0 0.0021431749474379799 -0.010510493107514268 0 0.0036313715289919574 -0.010237298515885567 0 0.0036410730495940111 -0.011830755384533837 0 0.0036410730495940111 -0.011830755384533837 0 0.0053255299684495713 -0.010457948527078516 0 0.0061119071290993508 -0.012361615808267685 0 0.0036313715289919574 -0.010237298515885567 0 0.0036410730495940111 -0.011830755384533837 0 0.0053255299684495713 -0.010457948527078516 0 0.0045935165933243104 -0.0099150865250929223 0 0.0026474998469516436 -0.01330190522381999 0 0.00092272555167113249 -0.011512953520419944 0 0.00092120050439013226 -0.012933777206890958 0 -0.00072574221789287619 -0.014022547016352123 0 0.0079764968627867062 -0.0092130173345348447 0 0.0053255299684495713 -0.010457948527078516 0 0.0061119071290993508 -0.012361615808267685 0 0.00092120050439013226 -0.012933777206890958 0 0.00064503614412507232 -0.014151422729568059 0 -0.00072574221789287619 -0.014022547016352123 0 -0.000880930291532442 -0.011233342624877993 0 -0.001202841260951958 -0.013833868035205431 0 0.0019841778898204666 -0.011684655755602333 0 0.00092120050439013226 -0.012933777206890958 0 0.0017945852808755396 -0.013365690500713498 0 0.00092120050439013226 -0.012933777206890958 0 0.0017945852808755396 -0.013365690500713498 0 0.00064503614412507232 -0.014151422729568059 0 0.00064503614412507232 -0.014151422729568059 0 0.0015971272322746755 -0.015045044570935083 0 -0.00013369528659625771 -0.016343106295969655 0 -0.001202841260951958 -0.013833868035205431 0 -0.0031924168024255509 -0.016847167786096878 0 0.0017945852808755396 -0.013365690500713498 0 0.00064503614412507232 -0.014151422729568059 0 0.0015971272322746755 -0.015045044570935083 0 0.00064503614412507232 -0.014151422729568059 0 -0.00072574221789287619 -0.014022547016352123 0 -0.00013369528659625771 -0.016343106295969655 0 -0.00072574221789287619 -0.014022547016352123 0 -0.00013369528659625771 -0.016343106295969655 0 -0.0023799309877717881 -0.016538163011547018 0 -0.00068063127317725014 -0.016886598281241644 0 -0.0025253215669724413 -0.018131748383899846 0 -0.0031924168024255509 -0.016847167786096878 0 -0.0052101865222127976 -0.018841119698746266 0 -0.001648936269288417 -0.017493269599521279 0 -0.0022789137452945956 -0.017981030233037446 0 -0.0017441264819270702 -0.018537858722562549 0 -0.0085759817213868599 -0.018662940088018835 0 -0.0082699043816846663 -0.019089962238377736 0 -0.0081242202964008688 -0.018410857650825646 0 -0.0031924168024255509 -0.016847167786096878 0 -0.00068063127317725014 -0.016886598281241644 0 -0.0022789137452945956 -0.017981030233037446 0 -0.0017441264819270702 -0.018537858722562549 0 -0.002372298421364996 -0.018835719371485916 0 -0.0022789137452945956 -0.017981030233037446 0 -0.002372298421364996 -0.018835719371485916 0 -0.0029341038151057056 -0.018479055078600704 0 -0.0029341038151057056 -0.018479055078600704 0 -0.0035635981873261128 -0.018887862496488876 0 -0.0031397534409610779 -0.01885989575564154 0 -0.0018758161814282563 -0.017628694656320366 0 -0.0023799309877717881 -0.016538163011547018 0 -0.0035635981873261128 -0.018887862496488876 0 -0.0028054712301671344 -0.018831588196728838 0 -0.0029341038151057056 -0.018479055078600704 0 -0.0031397534409610779 -0.01885989575564154 0 -0.002372298421364996 -0.018835719371485916 0 -0.0028054712301671344 -0.018831588196728838 0 -0.0029341038151057056 -0.018479055078600704 0 -0.0025253215669724413 -0.018131748383899846 0 -0.0034322227172396656 -0.018798270166407765 0 -0.00013369528659625771 -0.016343106295969655 0 -0.0018758161814282563 -0.017628694656320366 0 -0.0023799309877717881 -0.016538163011547018 0 0.0043735914308547447 -0.015568176902665364 0 0.0033603938712341527 -0.015305309824379009 0 0.0028988395369077169 -0.016284696073708665 0 0.0025413610224809409 -0.014906379389544795 0 0.003710264786092684 -0.014504809633533114 0 0.0033603938712341527 -0.015305309824379009 0 0.0043735914308547447 -0.015568176902665364 0 0.003710264786092684 -0.014504809633533114 0 0.0033603938712341527 -0.015305309824379009 0 0.0025413610224809409 -0.014906379389544795 0 0.0033603938712341527 -0.015305309824379009 0 0.0028988395369077169 -0.016284696073708665 0 0.00100512584254777 -0.01604236486003098 0 -0.00039113295956098214 -0.018595293073307196 0 -0.0023799309877717881 -0.016538163011547018 0 -0.0035635981873261128 -0.018887862496488876 0 -0.0038829991259129045 -0.018977628183082979 0 0.0021467216743075194 -0.017441770752081732 0 0.0028988395369077169 -0.016284696073708665 0 0.0030734566781616974 -0.018222226199875569 0 0.0043735914308547447 -0.015568176902665364 0 0.0028988395369077169 -0.016284696073708665 0 0.0030734566781616974 -0.018222226199875569 0 -0.0038829991259129045 -0.018977628183082979 0 -0.0033672742889492894 -0.01924971792133863 0 -0.0035665934465373278 -0.019802267322746047 0 -0.0035635981873261128 -0.018887862496488876 0 -0.0031397534409610779 -0.01885989575564154 0 -0.0032481282679992958 -0.019050197712086728 0 -0.0035635981873261128 -0.018887862496488876 0 -0.0038829991259129045 -0.018977628183082979 0 -0.0033672742889492894 -0.01924971792133863 0 -0.0035635981873261128 -0.018887862496488876 0 -0.0033672742889492894 -0.01924971792133863 0 -0.0032481282679992958 -0.019050197712086728 0 -0.0038829991259129045 -0.018977628183082979 0 -0.0035665934465373278 -0.019802267322746047 0 -0.0045293133937178414 -0.020047616793157377 0 -0.0033672742889492894 -0.01924971792133863 0 -0.0035665934465373278 -0.019802267322746047 0 -0.0030734573884817801 -0.019579129997912122 0 -0.0035665934465373278 -0.019802267322746047 0 -0.0029807923804682549 -0.020016419309684026 0 -0.0031636310858705868 -0.020608804399687271 0 -0.0035665934465373278 -0.019802267322746047 0 -0.0029807923804682549 -0.020016419309684026 0 -0.0030734573884817801 -0.019579129997912122 0 -0.0029807923804682549 -0.020016419309684026 0 -0.0030734573884817801 -0.019579129997912122 0 -0.0025652997852262894 -0.019606326387750797 0 -0.0030734573884817801 -0.019579129997912122 0 -0.0029133208297240695 -0.019194084775291151 0 -0.0025652997852262894 -0.019606326387750797 0 -0.0033672742889492894 -0.01924971792133863 0 -0.0030734573884817801 -0.019579129997912122 0 -0.0029133208297240695 -0.019194084775291151 0 -0.0033672742889492894 -0.01924971792133863 0 -0.0029133208297240695 -0.019194084775291151 0 -0.0032481282679992958 -0.019050197712086728 0 -0.0029133208297240695 -0.019194084775291151 0 -0.0031397534409610779 -0.01885989575564154 0 -0.0032481282679992958 -0.019050197712086728 0 -0.002372298421364996 -0.018835719371485916 0 -0.0028054712301671344 -0.018831588196728838 0 -0.0029133208297240695 -0.019194084775291151 0 -0.0028054712301671344 -0.018831588196728838 0 -0.0029133208297240695 -0.019194084775291151 0 -0.0031397534409610779 -0.01885989575564154 0 -0.002372298421364996 -0.018835719371485916 0 -0.0018327612341173896 -0.019627010536151859 0 -0.0025652997852262894 -0.019606326387750797 0 -0.002372298421364996 -0.018835719371485916 0 -0.0029133208297240695 -0.019194084775291151 0 -0.0025652997852262894 -0.019606326387750797 0 -0.0081242202964008688 -0.018410857650825646 0 -0.0080121123497445389 -0.017587063829062215 0 -0.0087850439635284265 -0.018097942920872717 0 -0.0052101865222127976 -0.018841119698746266 0 -0.004648983331504708 -0.018413996711960704 0 -0.0017441264819270702 -0.018537858722562549 0 -0.002372298421364996 -0.018835719371485916 0 -0.0018327612341173896 -0.019627010536151859 0 -0.0018327612341173896 -0.019627010536151859 0 -0.0025652997852262894 -0.019606326387750797 0 -0.0025094015558820024 -0.020318104691743638 0 -0.0029807923804682549 -0.020016419309684026 0 -0.0025652997852262894 -0.019606326387750797 0 -0.0025094015558820024 -0.020318104691743638 0 -0.0025094015558820024 -0.020318104691743638 0 -0.0019527428815673698 -0.020776616989596285 0 -0.0026997291349530319 -0.021259759497767549 0 -0.0018327612341173896 -0.019627010536151859 0 -0.0025094015558820024 -0.020318104691743638 0 -0.0019527428815673698 -0.020776616989596285 0 -0.0080121123497445389 -0.017587063829062215 0 -0.0079190321803240538 -0.016782261798018304 0 -0.0085991405744645297 -0.01713373798480626 0 -0.004648983331504708 -0.018413996711960704 0 -0.0067679096525975341 -0.019227080825000908 0 -0.0067679096525975341 -0.019227080825000908 0 -0.010064367381831189 -0.017688083104679522 0 -0.01059463000479474 -0.023132349875017937 0 -0.0089400726197780677 -0.023356269131259402 0 -0.01057667378346973 -0.018428101951510387 0 -0.010758537800904437 -0.018336101307040532 0 -0.010561782924946278 -0.018357978323745933 0 -0.0067679096525975341 -0.019227080825000908 0 -0.0089400726197780677 -0.023356269131259402 0 -0.0064214766117624261 -0.02247443513549572 0 -0.0064308131303281073 -0.022570638715921808 0 -0.0062547433142564283 -0.02252967025577423 0 -0.0067679096525975341 -0.019227080825000908 0 -0.0040085782104484118 -0.021669570805475984 0 -0.0062297926209900984 -0.022318234752993431 0 -0.0064214766117624261 -0.02247443513549572 0 -0.0062547433142564283 -0.02252967025577423 0 -0.0026997291349530319 -0.021259759497767549 0 -0.0031636310858705868 -0.020608804399687271 0 -0.0034680287418746626 -0.021749788362921137 0 -0.0038323401665573977 -0.02066435559824974 0 -0.0034680287418746626 -0.021749788362921137 0 -0.004443075659397974 -0.021116086906685688 0 -0.0038323401665573977 -0.02066435559824974 0 -0.0031636310858705868 -0.020608804399687271 0 -0.0034680287418746626 -0.021749788362921137 0 -0.0035665934465373278 -0.019802267322746047 0 -0.0038323401665573977 -0.02066435559824974 0 -0.0045293133937178414 -0.020047616793157377 0 -0.0035665934465373278 -0.019802267322746047 0 -0.0038323401665573977 -0.02066435559824974 0 -0.0031636310858705868 -0.020608804399687271 0 -0.0029807923804682549 -0.020016419309684026 0 -0.0025094015558820024 -0.020318104691743638 0 -0.0031636310858705868 -0.020608804399687271 0 -0.0025094015558820024 -0.020318104691743638 0 -0.0026997291349530319 -0.021259759497767549 0 -0.0031636310858705868 -0.020608804399687271 0 -0.011090385218699912 -0.018439016674216678 0 -0.011025193321804815 -0.018398100767168215 0 -0.011023254481777099 -0.01847543103371542 0 -0.010587948146766628 -0.018189399847810536 0 -0.010031762296084767 -0.017972286166706705 0 -0.0097414104303076461 -0.018417211992380576 0 -0.010120026199134539 -0.017874308431672415 0 -0.0093157997098054432 -0.017484590044369593 0 -0.011025193321804815 -0.018398100767168215 0 -0.010888793449531992 -0.018471097781980771 0 -0.010861661601493801 -0.018398220355724901 0 -0.011025193321804815 -0.018398100767168215 0 -0.011023254481777099 -0.01847543103371542 0 -0.010888793449531992 -0.018471097781980771 0 -0.0093157997098054432 -0.017484590044369593 0 -0.0087850439635284265 -0.018097942920872717 0 -0.0085991405744645297 -0.01713373798480626 0 -0.0080121123497445389 -0.017587063829062215 0 -0.0087850439635284265 -0.018097942920872717 0 -0.0085991405744645297 -0.01713373798480626 0 -0.010031762296084767 -0.017972286166706705 0 -0.010064367381831189 -0.017688083104679522 0 -0.0097414104303076461 -0.018417211992380576 0 -0.0093157997098054432 -0.017484590044369593 0 -0.0087850439635284265 -0.018097942920872717 0 -0.01057667378346973 -0.018428101951510387 0 -0.010735669712940326 -0.018456170494764754 0 -0.010758537800904437 -0.018336101307040532 0 -0.010758537800904437 -0.018336101307040532 0 -0.010861661601493801 -0.018398220355724901 0 -0.010946210154092964 -0.018317771159142827 0 -0.01059463000479474 -0.023132349875017937 0 -0.011136460663400868 -0.023262130422622051 0 -0.010735669712940326 -0.018456170494764754 0 -0.010758537800904437 -0.018336101307040532 0 -0.010861661601493801 -0.018398220355724901 0 -0.010888793449531992 -0.018471097781980771 0 -0.010735669712940326 -0.018456170494764754 0 -0.010861661601493801 -0.018398220355724901 0 -0.011025193321804815 -0.018398100767168215 0 -0.010861661601493801 -0.018398220355724901 0 -0.010946210154092964 -0.018317771159142827 0 -0.012855801825924662 -0.028372193221399649 0 -0.011464899258235826 -0.028193520038941083 0 -0.012206702224003245 -0.027365376970597141 0 -0.012161522633607752 -0.02327133870746876 0 -0.011136460663400868 -0.023262130422622051 0 -0.011122927907837596 -0.018285467362576253 0 -0.011025193321804815 -0.018398100767168215 0 -0.010946210154092964 -0.018317771159142827 0 -0.012206702224003245 -0.027365376970597141 0 -0.011285734072535187 -0.027133389829966374 0 -0.01223930617184312 -0.026026473537079212 0 -0.011331125762664306 -0.02709111410367052 0 -0.012179989059470982 -0.026075129971358715 0 -0.011464899258235826 -0.028193520038941083 0 -0.012206702224003245 -0.027365376970597141 0 -0.011285734072535187 -0.027133389829966374 0 -0.011285734072535187 -0.027133389829966374 0 -0.010873581134889254 -0.026449911379956417 0 -0.01214019094095321 -0.026104677773483131 0 -0.011285734072535187 -0.027133389829966374 0 -0.010266926013583675 -0.026925614729558588 0 -0.010873581134889254 -0.026449911379956417 0 -0.010266926013583675 -0.026925614729558588 0 -0.010873581134889254 -0.026449911379956417 0 -0.010214317184503921 -0.026219264225507171 0 -0.010091648261609505 -0.027989336333967822 0 -0.011464899258235826 -0.028193520038941083 0 -0.011285734072535187 -0.027133389829966374 0 -0.010091648261609505 -0.027989336333967822 0 -0.011285734072535187 -0.027133389829966374 0 -0.010266926013583675 -0.026925614729558588 0 -0.010091648261609505 -0.027989336333967822 0 -0.010266926013583675 -0.026925614729558588 0 -0.0095098610697619736 -0.027208312786435439 0 -0.010091648261609505 -0.027989336333967822 0 -0.0095098610697619736 -0.027208312786435439 0 -0.0087507962092670637 -0.027769873151861919 0 -0.010266926013583675 -0.026925614729558588 0 -0.0095098610697619736 -0.027208312786435439 0 -0.0096287585769752621 -0.026574426131884044 0 -0.010266926013583675 -0.026925614729558588 0 -0.0096287585769752621 -0.026574426131884044 0 -0.010214317184503921 -0.026219264225507171 0 -0.0095025956209611323 -0.025986180793373059 0 -0.0099532920481084294 -0.025499939422410946 0 -0.010214317184503921 -0.026219264225507171 0 -0.0096287585769752621 -0.026574426131884044 0 -0.0095025956209611323 -0.025986180793373059 0 -0.010214317184503921 -0.026219264225507171 0 -0.0096287585769752621 -0.026574426131884044 0 -0.0095025956209611323 -0.025986180793373059 0 -0.0092311488577911556 -0.02633161345393753 0 -0.0095025956209611323 -0.025986180793373059 0 -0.0094649046197104562 -0.025628405906661746 0 -0.0099532920481084294 -0.025499939422410946 0 -0.0094649046197104562 -0.025628405906661746 0 -0.0099532920481084294 -0.025499939422410946 0 -0.0092124747196782666 -0.025306949657043189 0 -0.0099532920481084294 -0.025499939422410946 0 -0.010491714011795727 -0.024999949592891663 0 -0.0091958399510262186 -0.024999943879195193 0 -0.0099532920481084294 -0.025499939422410946 0 -0.0091958399510262186 -0.024999943879195193 0 -0.0092124747196782666 -0.025306949657043189 0 -0.0099532920481084294 -0.025499939422410946 0 -0.010491714011795727 -0.024999949592891663 0 -0.010910978271463785 -0.025717470110545558 0 -0.0099532920481084294 -0.025499939422410946 0 -0.010910978271463785 -0.025717470110545558 0 -0.010214317184503921 -0.026219264225507171 0 -0.010873581134889254 -0.026449911379956417 0 -0.010910978271463785 -0.025717470110545558 0 -0.010214317184503921 -0.026219264225507171 0 -0.010873581134889254 -0.026449911379956417 0 -0.010910978271463785 -0.025717470110545558 0 -0.01214019094095321 -0.026104677773483131 0 -0.010491714011795727 -0.024999949592891663 0 -0.010910978271463785 -0.025717470110545558 0 -0.011787629333985427 -0.02499995724410416 0 -0.010910978271463785 -0.025717470110545558 0 -0.011787629333985427 -0.02499995724410416 0 -0.01214019094095321 -0.026104677773483131 0 -0.013083562601539436 -0.02500000189466416 0 -0.011787629333985427 -0.02499995724410416 0 -0.01214019094095321 -0.026104677773483131 0 -0.007756667823733682 -0.027026680374796278 0 -0.0076521990971455435 -0.026445572754175955 0 -0.0069920788834883733 -0.026752264360821721 0 -0.0076521990971455435 -0.026445572754175955 0 -0.0080686345392976481 -0.026618999990396606 0 -0.0081406741657959556 -0.026218577836655627 0 -0.007756667823733682 -0.027026680374796278 0 -0.0076521990971455435 -0.026445572754175955 0 -0.0080686345392976481 -0.026618999990396606 0 -0.0076521990971455435 -0.026445572754175955 0 -0.0069920788834883733 -0.026752264360821721 0 -0.0071469064861351119 -0.026196978205774758 0 -0.0069920788834883733 -0.026752264360821721 0 -0.0065353375031662244 -0.026225331230815507 0 -0.0071469064861351119 -0.026196978205774758 0 -0.0069920788834883733 -0.026752264360821721 0 -0.0065353375031662244 -0.026225331230815507 0 -0.0063342982510219943 -0.026648207594604199 0 -0.0069920788834883733 -0.026752264360821721 0 -0.0063342982510219943 -0.026648207594604199 0 -0.0064672164852191578 -0.027134787408169367 0 -0.0064293109012190904 -0.02702947711585469 0 -0.0059352819130737578 -0.027039527802378099 0 -0.0061539302310355936 -0.026915778322175236 0 -0.0069920788834883733 -0.026752264360821721 0 -0.0070931686168185784 -0.027514558359759089 0 -0.0064672164852191578 -0.027134787408169367 0 -0.0057541282055359379 -0.024587322640188685 0 -0.0051051778034633503 -0.024396118187390591 0 -0.0057541282055359379 -0.024587322640188685 0 -0.0066409843829654232 -0.027131631114304753 0 -0.0057541282055359379 -0.024587322640188685 0 -0.0071707767343906848 -0.025124891300094012 0 -0.0064214766117624261 -0.02247443513549572 0 -0.0065839807558059783 -0.02263206304670624 0 -0.0064308131303281073 -0.022570638715921808 0 -0.0040085782104484118 -0.021669570805475984 0 -0.0057541282055359379 -0.024587322640188685 0 -0.007756667823733682 -0.027026680374796278 0 -0.0070931686168185784 -0.027514558359759089 0 -0.0079217998176117216 -0.027642576668655404 0 -0.007756667823733682 -0.027026680374796278 0 -0.0069920788834883733 -0.026752264360821721 0 -0.0070931686168185784 -0.027514558359759089 0 -0.0079217998176117216 -0.027642576668655404 0 -0.0083597261782309314 -0.027336423185164316 0 -0.0087496718323527012 -0.027760088861804727 0 -0.0071707767343906848 -0.025124891300094012 0 -0.0089400726197780677 -0.023356269131259402 0 -0.0083597261782309314 -0.027336423185164316 0 -0.0087496718323527012 -0.027760088861804727 0 -0.008724528358595782 -0.027546857921661807 0 -0.0083597261782309314 -0.027336423185164316 0 -0.0086577694450205647 -0.02712918484833652 0 -0.008724528358595782 -0.027546857921661807 0 -0.0083597261782309314 -0.027336423185164316 0 -0.0086577694450205647 -0.02712918484833652 0 -0.0083429883670819455 -0.026904838330808551 0 -0.007756667823733682 -0.027026680374796278 0 -0.0083597261782309314 -0.027336423185164316 0 -0.0083429883670819455 -0.026904838330808551 0 -0.007756667823733682 -0.027026680374796278 0 -0.0079217998176117216 -0.027642576668655404 0 -0.0083597261782309314 -0.027336423185164316 0 -0.0095098610697619736 -0.027208312786435439 0 -0.0087507962092670637 -0.027769873151861919 0 -0.0089426888864244658 -0.02733252938808698 0 -0.0087507962092670637 -0.027769873151861919 0 -0.008724528358595782 -0.027546857921661807 0 -0.0089426888864244658 -0.02733252938808698 0 -0.0089400726197780677 -0.023356269131259402 0 -0.009070969468027882 -0.02577278985684129 0 -0.0086577694450205647 -0.02712918484833652 0 -0.008724528358595782 -0.027546857921661807 0 -0.0089426888864244658 -0.02733252938808698 0 -0.0086577694450205647 -0.02712918484833652 0 -0.0089426888864244658 -0.02733252938808698 0 -0.0089775805927036871 -0.026988267872436029 0 -0.0095098610697619736 -0.027208312786435439 0 -0.0089426888864244658 -0.02733252938808698 0 -0.0089775805927036871 -0.026988267872436029 0 -0.0095098610697619736 -0.027208312786435439 0 -0.0096287585769752621 -0.026574426131884044 0 -0.0091548117597089734 -0.026701970534910316 0 -0.0095098610697619736 -0.027208312786435439 0 -0.0089775805927036871 -0.026988267872436029 0 -0.0091548117597089734 -0.026701970534910316 0 -0.0087377951682810831 -0.026745131233515934 0 -0.0089775805927036871 -0.026988267872436029 0 -0.0091548117597089734 -0.026701970534910316 0 -0.0086577694450205647 -0.02712918484833652 0 -0.0087377951682810831 -0.026745131233515934 0 -0.0089775805927036871 -0.026988267872436029 0 -0.0087377951682810831 -0.026745131233515934 0 -0.0091548117597089734 -0.026701970534910316 0 -0.0088601686064102674 -0.026380093999292281 0 -0.0096287585769752621 -0.026574426131884044 0 -0.0091548117597089734 -0.026701970534910316 0 -0.0092311488577911556 -0.02633161345393753 0 -0.0091548117597089734 -0.026701970534910316 0 -0.0092311488577911556 -0.02633161345393753 0 -0.0088601686064102674 -0.026380093999292281 0 -0.007756667823733682 -0.027026680374796278 0 -0.0083429883670819455 -0.026904838330808551 0 -0.0080686345392976481 -0.026618999990396606 0 -0.0086577694450205647 -0.02712918484833652 0 -0.0087377951682810831 -0.026745131233515934 0 -0.0083429883670819455 -0.026904838330808551 0 -0.0087377951682810831 -0.026745131233515934 0 -0.0084495394863899013 -0.0265001063818667 0 -0.0088601686064102674 -0.026380093999292281 0 -0.0087377951682810831 -0.026745131233515934 0 -0.0083429883670819455 -0.026904838330808551 0 -0.0084495394863899013 -0.0265001063818667 0 -0.0084495394863899013 -0.0265001063818667 0 -0.0080686345392976481 -0.026618999990396606 0 -0.0081406741657959556 -0.026218577836655627 0 -0.0083429883670819455 -0.026904838330808551 0 -0.0084495394863899013 -0.0265001063818667 0 -0.0080686345392976481 -0.026618999990396606 0 -0.0081406741657959556 -0.026218577836655627 0 -0.0082996607689313686 -0.025862130616176815 0 -0.0077257697497139207 -0.025953696572879378 0 -0.0081406741657959556 -0.026218577836655627 0 -0.0085985314426288394 -0.026104920577685587 0 -0.0082996607689313686 -0.025862130616176815 0 -0.0084495394863899013 -0.0265001063818667 0 -0.0081406741657959556 -0.026218577836655627 0 -0.0085985314426288394 -0.026104920577685587 0 -0.0084495394863899013 -0.0265001063818667 0 -0.0085985314426288394 -0.026104920577685587 0 -0.0088601686064102674 -0.026380093999292281 0 -0.0082996607689313686 -0.025862130616176815 0 -0.0087411572999627225 -0.02571514388839247 0 -0.0081072885398569879 -0.025439395935543441 0 -0.0085985314426288394 -0.026104920577685587 0 -0.0082996607689313686 -0.025862130616176815 0 -0.0087411572999627225 -0.02571514388839247 0 -0.0082996607689313686 -0.025862130616176815 0 -0.0081072885398569879 -0.025439395935543441 0 -0.0077257697497139207 -0.025953696572879378 0 -0.0095025956209611323 -0.025986180793373059 0 -0.0092311488577911556 -0.02633161345393753 0 -0.0090102094100074151 -0.026018949240349042 0 -0.0085985314426288394 -0.026104920577685587 0 -0.0088601686064102674 -0.026380093999292281 0 -0.0090102094100074151 -0.026018949240349042 0 -0.0092311488577911556 -0.02633161345393753 0 -0.0088601686064102674 -0.026380093999292281 0 -0.0090102094100074151 -0.026018949240349042 0 -0.0087411572999627225 -0.02571514388839247 0 -0.0090102094100074151 -0.026018949240349042 0 -0.0091970165875325024 -0.025721702532264554 0 -0.0085985314426288394 -0.026104920577685587 0 -0.0087411572999627225 -0.02571514388839247 0 -0.0090102094100074151 -0.026018949240349042 0 -0.0095025956209611323 -0.025986180793373059 0 -0.0094649046197104562 -0.025628405906661746 0 -0.0091970165875325024 -0.025721702532264554 0 -0.0095025956209611323 -0.025986180793373059 0 -0.0090102094100074151 -0.026018949240349042 0 -0.0091970165875325024 -0.025721702532264554 0 -0.0087411572999627225 -0.02571514388839247 0 -0.0092124747196782666 -0.025306949657043189 0 -0.0081072885398569879 -0.025439395935543441 0 -0.0091958399510262186 -0.024999943879195193 0 -0.0092124747196782666 -0.025306949657043189 0 -0.0078997871533376136 -0.025000004981492727 0 -0.0094649046197104562 -0.025628405906661746 0 -0.0091970165875325024 -0.025721702532264554 0 -0.0092124747196782666 -0.025306949657043189 0 -0.0087411572999627225 -0.02571514388839247 0 -0.0091970165875325024 -0.025721702532264554 0 -0.0092124747196782666 -0.025306949657043189 0 -0.0092124747196782666 -0.025306949657043189 0 -0.0079662924794344451 -0.025546422139761236 0 -0.0078997871533376136 -0.025000004981492727 0 -0.0091343875945530447 -0.025316643765333522 0 -0.0080499476050346474 -0.025490915971283258 0 -0.0079662924794344451 -0.025546422139761236 0 -0.0072975056170350265 -0.025343382826572326 0 -0.0067341675256860876 -0.025761763094433791 0 -0.0078997871533376136 -0.025000004981492727 0 -0.0072975056170350265 -0.025343382826572326 0 -0.0066038473804365004 -0.024999996446680495 0 -0.0079662924794344451 -0.025546422139761236 0 -0.0078997871533376136 -0.025000004981492727 0 -0.0072975056170350265 -0.025343382826572326 0 -0.0080499476050346474 -0.025490915971283258 0 -0.0068281205079307227 -0.025694851091266221 0 -0.0077257697497139207 -0.025953696572879378 0 -0.0071469064861351119 -0.026196978205774758 0 -0.0069359198714472811 -0.025614691200667415 0 -0.0081072885398569879 -0.025439395935543441 0 -0.0077257697497139207 -0.025953696572879378 0 -0.0069359198714472811 -0.025614691200667415 0 -0.0076521990971455435 -0.026445572754175955 0 -0.0077257697497139207 -0.025953696572879378 0 -0.0071469064861351119 -0.026196978205774758 0 -0.0076521990971455435 -0.026445572754175955 0 -0.0081406741657959556 -0.026218577836655627 0 -0.0077257697497139207 -0.025953696572879378 0 -0.0065353375031662244 -0.026225331230815507 0 -0.0071469064861351119 -0.026196978205774758 0 -0.0069359198714472811 -0.025614691200667415 0 -0.0067341675256860876 -0.025761763094433791 0 -0.0066038473804365004 -0.024999996446680495 0 -0.0060475214600254051 -0.025472628062964742 0 -0.0072975056170350265 -0.025343382826572326 0 -0.0067341675256860876 -0.025761763094433791 0 -0.0066038473804365004 -0.024999996446680495 0 -0.0066038473804365004 -0.024999996446680495 0 -0.0060475214600254051 -0.025472628062964742 0 -0.0053078885288103395 -0.024999999460971149 0 -0.0067341675256860876 -0.025761763094433791 0 -0.0060475214600254051 -0.025472628062964742 0 -0.0055036430338432788 -0.025977282632856893 0 -0.0060475214600254051 -0.025472628062964742 0 -0.0053078885288103395 -0.024999999460971149 0 -0.0055036430338432788 -0.025977282632856893 0 -0.0053078885288103395 -0.024999999460971149 0 -0.0048043924813069312 -0.02560844375089075 0 -0.0040119414827069714 -0.024999999546023905 0 -0.0053078885288103395 -0.024999999460971149 0 -0.0048043924813069312 -0.02560844375089075 0 -0.0055036430338432788 -0.025977282632856893 0 -0.0056912731532779513 -0.025880281716481043 0 -0.0045216820306263009 -0.026358598856827349 0 -0.0058294545084513517 -0.025839306580397566 0 -0.0049035414882906154 -0.026045303761700105 0 -0.0054815814606561028 -0.026340874431967434 0 -0.0048043924813069312 -0.02560844375089075 0 -0.0055036430338432788 -0.025977282632856893 0 -0.0042751470970042917 -0.026194066629992949 0 -0.0058294545084513517 -0.025839306580397566 0 -0.0059912837283210632 -0.02635062938513362 0 -0.0054815814606561028 -0.026340874431967434 0 -0.0065353375031662244 -0.026225331230815507 0 -0.0058294545084513517 -0.025839306580397566 0 -0.0059912837283210632 -0.02635062938513362 0 -0.0068281205079307227 -0.025694851091266221 0 -0.0056912731532779513 -0.025880281716481043 0 -0.0065353375031662244 -0.026225331230815507 0 -0.0069359198714472811 -0.025614691200667415 0 -0.0058294545084513517 -0.025839306580397566 0 -0.0032085151812006013 -0.024999956944907649 0 -0.0037408763905925793 -0.025725797955234143 0 -0.0032458902813835492 -0.026097929088195873 0 -0.0032085151812006013 -0.024999956944907649 0 -0.0040117810126599884 -0.025000014240249366 0 -0.0037408763905925793 -0.025725797955234143 0 -0.0048043924813069312 -0.02560844375089075 0 -0.0040119414827069714 -0.024999999546023905 0 -0.0042751470970042917 -0.026194066629992949 0 -0.0040117810126599884 -0.025000014240249366 0 -0.0041390992395606979 -0.026069652133500088 0 -0.0037408763905925793 -0.025725797955234143 0 -0.0040117670481931164 -0.024999828202921813 0 -0.0045216820306263009 -0.026358598856827349 0 -0.0041390992395606979 -0.026069652133500088 0 -0.0037408763905925793 -0.025725797955234143 0 -0.0037310174256019448 -0.026186469118871132 0 -0.0037408763905925793 -0.025725797955234143 0 -0.0037310174256019448 -0.026186469118871132 0 -0.0032458902813835492 -0.026097929088195873 0 -0.0037310174256019448 -0.026186469118871132 0 -0.0032458902813835492 -0.026097929088195873 0 -0.0039231892093208537 -0.027016826628970616 0 -0.002038743292706262 -0.025385761043863631 0 -0.0020902911948085749 -0.025483756779412767 0 -0.001077232753039092 -0.025175460235038312 0 -0.0020902911948085749 -0.025483756779412767 0 -0.001077232753039092 -0.025175460235038312 0 -0.00092454795955742349 -0.025146472394415802 0 -0.0026540542017403157 -0.025856799751195304 0 -0.0023772027537017583 -0.025523767813480317 0 -0.0012807835752868782 -0.025388880634418857 0 -0.0012610002687799009 -0.02529964596264957 0 -0.0013490374023906004 -0.025423820857716106 0 -0.0013281241028908312 -0.025480621353127526 0 -0.0012807835752868782 -0.025388880634418857 0 -0.001077232753039092 -0.025175460235038312 0 -0.0013281241028908312 -0.025480621353127526 0 -0.0012807835752868782 -0.025388880634418857 0 -0.0013490374023906004 -0.025423820857716106 0 -0.001659385336284611 -0.025442903059483525 0 -0.0011960817821108597 -0.02519937473985116 0 -0.0012807835752868782 -0.025388880634418857 0 -0.001077232753039092 -0.025175460235038312 0 -0.0011418006273094688 -0.025123433009375352 0 -0.0045216820306263009 -0.026358598856827349 0 -0.0048008219987555846 -0.025125145186136302 0 -0.0041390992395606979 -0.026069652133500088 0 -0.0043390336903196824 -0.027067263329128888 0 -0.0039231892093208537 -0.027016826628970616 0 -0.0049035414882906154 -0.026045303761700105 0 -0.0051523694850024336 -0.026982897105247809 0 -0.0054815814606561028 -0.026340874431967434 0 -0.0041390992395606979 -0.026069652133500088 0 -0.0037310174256019448 -0.026186469118871132 0 -0.0039231892093208537 -0.027016826628970616 0 -0.0023772027537017583 -0.025523767813480317 0 -0.0018761607711860404 -0.022441812930386405 0 -0.0048008219987555846 -0.025125145186136302 0 -0.0018761607711860404 -0.022441812930386405 0 -0.0026628092106309518 -0.025077744791698508 0 -0.0037340493454235519 -0.025232235383913035 0 -0.0021871118158825818 -0.022876021042430673 0 -0.0048008219987555846 -0.025125145186136302 0 -0.0023772027537017583 -0.025523767813480317 0 -0.0013253340946893851 -0.025288321365969802 0 -0.00096943846603928722 -0.023905271511457184 0 -0.0012807835752868782 -0.025388880634418857 0 -0.0011418006273094688 -0.025123433009375352 0 -0.00099525058400200847 -0.023829720618810578 0 -0.0012502904750761421 -0.025201285120936008 0 -0.0011781171696463911 -0.024831662780070669 0 -0.0012807835752868782 -0.025388880634418857 0 -0.0012610002687799009 -0.02529964596264957 0 -0.0009946047398980435 -0.023962813995945582 0 -0.0012610002687799009 -0.02529964596264957 0 -0.0009946047398980435 -0.023962813995945582 0 -0.0015591228376260027 -0.023882158611152116 0 -0.00083160899849018556 -0.025051417930973617 0 -0.0011418006273094688 -0.025123433009375352 0 -0.00099525058400200847 -0.023829720618810578 0 -0.0012610002687799009 -0.02529964596264957 0 -0.00087790907966324178 -0.025918985952867336 0 -0.00084365449570704854 -0.025660478295174774 0 -0.001077232753039092 -0.025175460235038312 0 -0.00092454795955742349 -0.025146472394415802 0 -0.0011418006273094688 -0.025123433009375352 0 -0.0023772027537017583 -0.025523767813480317 0 -0.0010738834342426504 -0.025232952016421412 0 -0.0058484112501296136 -0.02670006939096338 0 -0.0063342982510219943 -0.026648207594604199 0 -0.0064672164852191578 -0.027134787408169367 0 -0.0058216975151329153 -0.026698949444812159 0 -0.0066409843829654232 -0.027131631114304753 0 -0.0065353375031662244 -0.026225331230815507 0 -0.0063342982510219943 -0.026648207594604199 0 -0.0059912837283210632 -0.02635062938513362 0 -0.0058484112501296136 -0.02670006939096338 0 -0.0063342982510219943 -0.026648207594604199 0 -0.0059912837283210632 -0.02635062938513362 0 -0.0058484112501296136 -0.02670006939096338 0 -0.0059912837283210632 -0.02635062938513362 0 -0.0054815814606561028 -0.026340874431967434 0 -0.0051523694850024336 -0.026982897105247809 0 -0.0058484112501296136 -0.02670006939096338 0 -0.0054815814606561028 -0.026340874431967434 0 -0.0054278754111446413 -0.022085114417162665 0 -0.0044400509910215826 -0.02191529382513601 0 -0.0052200147551218472 -0.021120355802590644 0 -0.0051523694850024336 -0.026982897105247809 0 -0.0058484112501296136 -0.02670006939096338 0 -0.0059352819130737578 -0.027039527802378099 0 -0.0048008219987555846 -0.025125145186136302 0 -0.0051051778034633503 -0.024396118187390591 0 -0.0034680287418746626 -0.021749788362921137 0 -0.0044400509910215826 -0.02191529382513601 0 -0.004443075659397974 -0.021116086906685688 0 -0.0058484112501296136 -0.02670006939096338 0 -0.0059352819130737578 -0.027039527802378099 0 -0.0061539302310355936 -0.026915778322175236 0 -0.0038323401665573977 -0.02066435559824974 0 -0.004443075659397974 -0.021116086906685688 0 -0.0045293133937178414 -0.020047616793157377 0 1.746779786066616e-05 -0.02150677106337082 0 0.00017117636965232791 -0.022760478366125617 0 0.0015483523225313469 -0.021026005740288359 0 -0.0018761607711860404 -0.022441812930386405 0 -0.001616242210876891 -0.020540249553117479 0 0.00017117636965232791 -0.022760478366125617 0 2.6298044545303679e-05 -0.023500504150112605 0 0.0015483523225313469 -0.021026005740288359 0 -0.004443075659397974 -0.021116086906685688 0 -0.0052200147551218472 -0.021120355802590644 0 -0.0045293133937178414 -0.020047616793157377 0 -0.0044400509910215826 -0.02191529382513601 0 -0.004443075659397974 -0.021116086906685688 0 -0.0052200147551218472 -0.021120355802590644 0 -0.0010560255032113072 -0.022733078041291779 0 -0.0018761607711860404 -0.022441812930386405 0 0.00017117636965232791 -0.022760478366125617 0 6.8360276566123494e-05 -0.023437834368004631 0 -0.00099525058400200847 -0.023829720618810578 0 -0.00083160899849018556 -0.025051417930973617 0 6.8360276566123494e-05 -0.023437834368004631 0 -0.00099525058400200847 -0.023829720618810578 0 -0.0009946047398980435 -0.023962813995945582 0 -0.0015591228376260027 -0.023882158611152116 0 -0.0014254481348057312 -0.021755678737703635 0 -0.00087790907966324178 -0.025918985952867336 0 -0.00074852396378442766 -0.025902630383143992 0 -0.00084365449570704854 -0.025660478295174774 0 -0.00087790907966324178 -0.025918985952867336 0 -0.00064500475892111987 -0.02610041144771396 0 -0.00074852396378442766 -0.025902630383143992 0 -0.0011781171696463911 -0.024831662780070669 0 -0.0008091248184752955 -0.023811113623822176 0 -0.00064500475892111987 -0.02610041144771396 0 -0.00046324077566284089 -0.025707083492341121 0 -0.00071104303517905885 -0.026159752591367054 0 -0.00064500475892111987 -0.02610041144771396 0 -0.00026429258708948609 -0.026073669852047305 0 -0.00046324077566284089 -0.025707083492341121 0 -0.00087790907966324178 -0.025918985952867336 0 -0.00064500475892111987 -0.02610041144771396 0 -0.00026429258708948609 -0.026073669852047305 0 0.00011478894186004356 -0.021459866382229079 0 -0.00096943846603928722 -0.023905271511457184 0 1.746779786066616e-05 -0.02150677106337082 0 0.00017117636965232791 -0.022760478366125617 0 -0.00099525058400200847 -0.023829720618810578 0 0.00017270408176491887 -0.021484191556399856 0 -0.0009946047398980435 -0.023962813995945582 0 -0.0014254481348057312 -0.021755678737703635 0 -0.0014254481348057312 -0.021755678737703635 0 -0.00096613860146268745 -0.01935893249880799 0 -9.5335384010736317e-05 -0.020032848138041837 0 0.00017270408176491887 -0.021484191556399856 0 -0.0014254481348057312 -0.021755678737703635 0 -9.5335384010736317e-05 -0.020032848138041837 0 -0.00026429258708948609 -0.026073669852047305 0 -0.00046324077566284089 -0.025707083492341121 0 0.00060959670073856744 -0.025030156122009796 0 -0.0008091248184752955 -0.023811113623822176 0 -0.00017520160884403901 -0.02230076684653649 0 -0.00046324077566284089 -0.025707083492341121 0 -0.0010270415426354451 -0.02516615631328202 0 -0.00071104303517905885 -0.026159752591367054 0 -0.00046324077566284089 -0.025707083492341121 0 -0.00033601452051586065 -0.024796453772348861 0 -0.0010270415426354451 -0.02516615631328202 0 -0.00046324077566284089 -0.025707083492341121 0 -0.00033601452051586065 -0.024796453772348861 0 0.00060959670073856744 -0.025030156122009796 0 0.0003238438504885666 -0.024007323791294045 0 -0.0010439525944454543 -0.023981953611631877 0 -0.00033601452051586065 -0.024796453772348861 0 -0.0010439525944454543 -0.023981953611631877 0 -0.00033601452051586065 -0.024796453772348861 0 -0.0010270415426354451 -0.02516615631328202 0 0.00031373986394121837 -0.019276702542784345 0 -0.00017520160884403901 -0.02230076684653649 0 0.001449097665851478 -0.023217645667980274 0 0.0003238438504885666 -0.024007323791294045 0 0.00060959670073856744 -0.025030156122009796 0 0.0003238438504885666 -0.024007323791294045 0 -0.00033601452051586065 -0.024796453772348861 0 0.00060959670073856744 -0.025030156122009796 0 0.00017666294912484641 -0.017392482072719821 0 -0.00096613860146268745 -0.01935893249880799 0 0.00030132396435996427 -0.018799598994076787 0 0.00030132396435996427 -0.018799598994076787 0 0.0015448300101738404 -0.018719981415940719 0 -9.5335384010736317e-05 -0.020032848138041837 0 -0.00096613860146268745 -0.01935893249880799 0 0.00030132396435996427 -0.018799598994076787 0 -9.5335384010736317e-05 -0.020032848138041837 0 0.0011707235713640169 -0.017671750875748668 0 0.00030132396435996427 -0.018799598994076787 0 0.0015448300101738404 -0.018719981415940719 0 0.0011707235713640169 -0.017671750875748668 0 0.00017666294912484641 -0.017392482072719821 0 0.00030132396435996427 -0.018799598994076787 0 0.0021467216743075194 -0.017441770752081732 0 0.0011707235713640169 -0.017671750875748668 0 0.0015448300101738404 -0.018719981415940719 0 0.0030734566781616974 -0.018222226199875569 0 0.0015448300101738404 -0.018719981415940719 0 0.0015483523225313469 -0.021026005740288359 0 0.0021467216743075194 -0.017441770752081732 0 0.0030734566781616974 -0.018222226199875569 0 0.0015448300101738404 -0.018719981415940719 0 -0.00039113295956098214 -0.018595293073307196 0 -0.001616242210876891 -0.020540249553117479 0 0.00011478894186004356 -0.021459866382229079 0 0.0014989961336603645 -0.018873762131544066 0 0.00017270408176491887 -0.021484191556399856 0 0.0015448300101738404 -0.018719981415940719 0 -9.5335384010736317e-05 -0.020032848138041837 0 1.746779786066616e-05 -0.02150677106337082 0 0.0015448300101738404 -0.018719981415940719 0 0.0015483523225313469 -0.021026005740288359 0 0.0009137265053404416 -0.02697356762879026 0 0.00091412162054617092 -0.027080392826855468 0 0.00040419435682018508 -0.02675530190530908 0 0.00091412162054617092 -0.027080392826855468 0 0.00055274784669396431 -0.0270820428134744 0 0.00040419435682018508 -0.02675530190530908 0 0.00099121442325442459 -0.027023083231813294 0 0.001014173183624859 -0.027067350188037319 0 0.0011548599324280513 -0.027093343289613079 0 0.0009137265053404416 -0.02697356762879026 0 0.00099121442325442459 -0.027023083231813294 0 0.00088679875521538638 -0.027010540177927461 0 0.0009137265053404416 -0.02697356762879026 0 0.001014173183624859 -0.027067350188037319 0 0.00091412162054617092 -0.027080392826855468 0 0.0009137265053404416 -0.02697356762879026 0 0.00099121442325442459 -0.027023083231813294 0 0.001014173183624859 -0.027067350188037319 0 0.001014173183624859 -0.027067350188037319 0 0.0010877693343988113 -0.027145863353584453 0 0.0011548599324280513 -0.027093343289613079 0 0.0060247661104978357 -0.024414750107940239 0 1.6301214619564618e-05 -0.027934170648037829 0 0.001014173183624859 -0.027067350188037319 0 0.0010877693343988113 -0.027145863353584453 0 0.00091412162054617092 -0.027080392826855468 0 0.0011147010428997118 -0.027230872143065847 0 0.0010877693343988113 -0.027145863353584453 0 0.00091412162054617092 -0.027080392826855468 0 0.0012116446251580646 -0.027807981698058818 0 0.00091412162054617092 -0.027080392826855468 0 0.00065795557720543948 -0.027401623747259525 0 0.0017623459578476285 -0.027921737114651797 0 0.0012116446251580646 -0.027807981698058818 0 0.00091412162054617092 -0.027080392826855468 0 0.00091412162054617092 -0.027080392826855468 0 0.00065795557720543948 -0.027401623747259525 0 0.00055274784669396431 -0.0270820428134744 0 0.00022128293405634066 -0.027143233890746278 0 -0.00015844776423600332 -0.027438878897863749 0 -0.00015039769277123096 -0.026724331300020759 0 0.0005635499294055111 -0.027903630063413554 0 0.00031949384792877143 -0.02747064099248862 0 -0.00015844776423600332 -0.027438878897863749 0 0.00065795557720543948 -0.027401623747259525 0 0.00031949384792877143 -0.02747064099248862 0 0.00022128293405634066 -0.027143233890746278 0 0.0005635499294055111 -0.027903630063413554 0 0.00065795557720543948 -0.027401623747259525 0 0.00031949384792877143 -0.02747064099248862 0 0.00031949384792877143 -0.02747064099248862 0 0.00022128293405634066 -0.027143233890746278 0 -0.00015844776423600332 -0.027438878897863749 0 0.00065795557720543948 -0.027401623747259525 0 0.00022128293405634066 -0.027143233890746278 0 0.00055274784669396431 -0.0270820428134744 0 -0.00048680953174568377 -0.027748072713013001 0 -0.00015844776423600332 -0.027438878897863749 0 -0.00060981829480167486 -0.027069440895679246 0 -0.00015844776423600332 -0.027438878897863749 0 -0.00060981829480167486 -0.027069440895679246 0 -0.00015039769277123096 -0.026724331300020759 0 0.0028908139520076258 -0.022698050499305171 0 -0.00080649489227527769 -0.026659524610616131 0 -0.00060981829480167486 -0.027069440895679246 0 -0.00015039769277123096 -0.026724331300020759 0 -0.00071104303517905885 -0.026159752591367054 0 -0.00080649489227527769 -0.026659524610616131 0 -0.00073749655282997226 -0.025926920420488057 0 -0.00015039769277123096 -0.026724331300020759 0 -0.00020067570399477105 -0.026223778070012811 0 -0.00071104303517905885 -0.026159752591367054 0 0.00022128293405634066 -0.027143233890746278 0 0.00055274784669396431 -0.0270820428134744 0 0.00040419435682018508 -0.02675530190530908 0 0.00022128293405634066 -0.027143233890746278 0 -0.00015039769277123096 -0.026724331300020759 0 0.00040419435682018508 -0.02675530190530908 0 -0.00015039769277123096 -0.026724331300020759 0 0.00040419435682018508 -0.02675530190530908 0 -0.00020067570399477105 -0.026223778070012811 0 0.00040419435682018508 -0.02675530190530908 0 -0.00020067570399477105 -0.026223778070012811 0 0.00033630036746095445 -0.026002368866692539 0 -0.00020067570399477105 -0.026223778070012811 0 -0.00046385719673629834 -0.025877258699948093 0 0.00033630036746095445 -0.026002368866692539 0 -0.00020067570399477105 -0.026223778070012811 0 -0.00071104303517905885 -0.026159752591367054 0 -0.00061684399894996241 -0.026035880174382672 0 -0.00020067570399477105 -0.026223778070012811 0 -0.00061684399894996241 -0.026035880174382672 0 -0.00046385719673629834 -0.025877258699948093 0 -0.00064500475892111987 -0.02610041144771396 0 -0.00061684399894996241 -0.026035880174382672 0 -0.00074852396378442766 -0.025902630383143992 0 -0.00064500475892111987 -0.02610041144771396 0 -0.00071104303517905885 -0.026159752591367054 0 -0.00061684399894996241 -0.026035880174382672 0 -0.00061684399894996241 -0.026035880174382672 0 -0.00074852396378442766 -0.025902630383143992 0 -0.00046385719673629834 -0.025877258699948093 0 -0.00046385719673629834 -0.025877258699948093 0 -0.00084365449570704854 -0.025660478295174774 0 -0.00048042500079319584 -0.025436112484502196 0 -0.00074852396378442766 -0.025902630383143992 0 -0.00046385719673629834 -0.025877258699948093 0 -0.00084365449570704854 -0.025660478295174774 0 1.0775750574554951e-05 -0.027006969513630446 0 -0.00019527826198723102 -0.026345274027993242 0 -0.00092490680213762496 -0.026316343499556159 0 0.0001649306182959122 -0.026484853208704362 0 -0.00068778031417428005 -0.02589319043139212 0 -0.00046385719673629834 -0.025877258699948093 0 0.00033630036746095445 -0.026002368866692539 0 -0.00048042500079319584 -0.025436112484502196 0 0.00037817497372316265 -0.026580217529245487 0 1.0775750574554951e-05 -0.027006969513630446 0 0.00058847689513085496 -0.026968493676034946 0 0.00037817497372316265 -0.026580217529245487 0 1.0775750574554951e-05 -0.027006969513630446 0 -0.00019527826198723102 -0.026345274027993242 0 0.0009137265053404416 -0.02697356762879026 0 1.0775750574554951e-05 -0.027006969513630446 0 0.00058847689513085496 -0.026968493676034946 0 0.0009137265053404416 -0.02697356762879026 0 0.00040419435682018508 -0.02675530190530908 0 0.00033630036746095445 -0.026002368866692539 0 0.00081034962919692918 -0.026932705922323906 0 0.0001649306182959122 -0.026484853208704362 0 0.0009137265053404416 -0.02697356762879026 0 0.00088679875521538638 -0.027010540177927461 0 0.00058847689513085496 -0.026968493676034946 0 0.00099121442325442459 -0.027023083231813294 0 0.00088679875521538638 -0.027010540177927461 0 0.0010409331093194974 -0.026984442136820906 0 0.00088679875521538638 -0.027010540177927461 0 0.00091261575874188223 -0.027004068093302937 0 0.0010409331093194974 -0.026984442136820906 0 0.00088679875521538638 -0.027010540177927461 0 0.00058847689513085496 -0.026968493676034946 0 0.00091261575874188223 -0.027004068093302937 0 0.00058847689513085496 -0.026968493676034946 0 0.00091261575874188223 -0.027004068093302937 0 0.00088970580708485107 -0.026754442971190583 0 0.00037817497372316265 -0.026580217529245487 0 0.00058847689513085496 -0.026968493676034946 0 0.00088970580708485107 -0.026754442971190583 0 0.00037817497372316265 -0.026580217529245487 0 0.00088970580708485107 -0.026754442971190583 0 0.00078654394708971634 -0.026345937453607478 0 0.00088970580708485107 -0.026754442971190583 0 0.00078654394708971634 -0.026345937453607478 0 0.0015678073959736678 -0.026472316942185381 0 0.00078654394708971634 -0.026345937453607478 0 0.00013824817612194219 -0.026019961418023992 0 0.00089586620540219801 -0.025964863605881804 0 0.00037817497372316265 -0.026580217529245487 0 0.00078654394708971634 -0.026345937453607478 0 0.00013824817612194219 -0.026019961418023992 0 0.00037817497372316265 -0.026580217529245487 0 -0.00019527826198723102 -0.026345274027993242 0 0.00013824817612194219 -0.026019961418023992 0 -0.00019527826198723102 -0.026345274027993242 0 0.00013824817612194219 -0.026019961418023992 0 -0.00062468733034519832 -0.025813072543304061 0 0.00013824817612194219 -0.026019961418023992 0 -0.00045012711558733721 -0.025644599951949683 0 -0.00062468733034519832 -0.025813072543304061 0 0.00013824817612194219 -0.026019961418023992 0 -0.00045012711558733721 -0.025644599951949683 0 1.2246611703523483e-05 -0.025550309428460184 0 0.00013824817612194219 -0.026019961418023992 0 1.2246611703523483e-05 -0.025550309428460184 0 0.00089586620540219801 -0.025964863605881804 0 -0.0012610002687799009 -0.02529964596264957 0 -0.00048042500079319584 -0.025436112484502196 0 -0.0013490374023906004 -0.025423820857716106 0 -0.0012610002687799009 -0.02529964596264957 0 -0.00084365449570704854 -0.025660478295174774 0 -0.00048042500079319584 -0.025436112484502196 0 -0.00068778031417428005 -0.02589319043139212 0 -0.0012582168193856537 -0.025470389648370832 0 -0.00092490680213762496 -0.026316343499556159 0 -0.00062468733034519832 -0.025813072543304061 0 -0.0010458000982866116 -0.025681408616383256 0 -0.00019527826198723102 -0.026345274027993242 0 -0.00092490680213762496 -0.026316343499556159 0 -0.00062468733034519832 -0.025813072543304061 0 -0.00045012711558733721 -0.025644599951949683 0 -0.00062468733034519832 -0.025813072543304061 0 -0.0009668943666063883 -0.025418197986709933 0 -0.00062468733034519832 -0.025813072543304061 0 -0.0010385357082634357 -0.02551162407443015 0 -0.0009668943666063883 -0.025418197986709933 0 -0.00062468733034519832 -0.025813072543304061 0 -0.0010385357082634357 -0.02551162407443015 0 -0.0010458000982866116 -0.025681408616383256 0 -0.00092490680213762496 -0.026316343499556159 0 -0.0010458000982866116 -0.025681408616383256 0 -0.0013490374023906004 -0.025423820857716106 0 -0.0010458000982866116 -0.025681408616383256 0 -0.0012074435459043375 -0.025484219696969238 0 -0.0013490374023906004 -0.025423820857716106 0 -0.0010385357082634357 -0.02551162407443015 0 -0.0010458000982866116 -0.025681408616383256 0 -0.0012074435459043375 -0.025484219696969238 0 -0.0013281241028908312 -0.025480621353127526 0 -0.0012074435459043375 -0.025484219696969238 0 -0.0013490374023906004 -0.025423820857716106 0 -0.0010385357082634357 -0.02551162407443015 0 -0.0012074435459043375 -0.025484219696969238 0 -0.0011986663491291071 -0.025278730624279291 0 -0.0013281241028908312 -0.025480621353127526 0 -0.0012074435459043375 -0.025484219696969238 0 -0.0011986663491291071 -0.025278730624279291 0 -0.001659385336284611 -0.025442903059483525 0 -0.0017151128352530696 -0.02527809425574842 0 -0.002038743292706262 -0.025385761043863631 0 -0.0020902911948085749 -0.025483756779412767 0 -0.0022520513809805511 -0.025336768627226631 0 -0.0010385357082634357 -0.02551162407443015 0 -0.0009668943666063883 -0.025418197986709933 0 -0.0011986663491291071 -0.025278730624279291 0 -0.0009668943666063883 -0.025418197986709933 0 -0.0011801600093249605 -0.025262328874736624 0 -0.0011986663491291071 -0.025278730624279291 0 -0.0009668943666063883 -0.025418197986709933 0 -0.0011801600093249605 -0.025262328874736624 0 -0.00070661328703861253 -0.025413615003220077 0 -0.0011801600093249605 -0.025262328874736624 0 -0.0017178135777745768 -0.024999978242180469 0 -0.0011986663491291071 -0.025278730624279291 0 -0.001720864633703964 -0.024999979947732742 0 -0.0022520513809805511 -0.025336768627226631 0 -0.0024039922525927997 -0.025000065718253663 0 -0.0017198642670278293 -0.024999998245469883 0 -0.0017151128352530696 -0.02527809425574842 0 -0.0032085151812006013 -0.024999956944907649 0 -0.0032458902813835492 -0.026097929088195873 0 -0.0024051197960795767 -0.025000018783206401 0 -0.0020902911948085749 -0.025483756779412767 0 -0.0022520513809805511 -0.025336768627226631 0 -0.0024039922525927997 -0.025000065718253663 0 -0.0026540542017403157 -0.025856799751195304 0 -0.0024049517762849406 -0.024999939127003889 0 1.2246611703523483e-05 -0.025550309428460184 0 -0.00065524086512496653 -0.025266903709068034 0 0.00020122969260045898 -0.025258670637361209 0 1.2246611703523483e-05 -0.025550309428460184 0 0.00020122969260045898 -0.025258670637361209 0 0.0010213751523551367 -0.025465738450860583 0 -0.00045012711558733721 -0.025644599951949683 0 1.2246611703523483e-05 -0.025550309428460184 0 -0.00070661328703861253 -0.025413615003220077 0 -0.00045012711558733721 -0.025644599951949683 0 -0.0009668943666063883 -0.025418197986709933 0 -0.00070661328703861253 -0.025413615003220077 0 -0.0011801600093249605 -0.025262328874736624 0 -0.00070661328703861253 -0.025413615003220077 0 -0.00065524086512496653 -0.025266903709068034 0 1.2246611703523483e-05 -0.025550309428460184 0 -0.00070661328703861253 -0.025413615003220077 0 -0.00065524086512496653 -0.025266903709068034 0 -0.0017178135777745768 -0.024999978242180469 0 -0.00065524086512496653 -0.025266903709068034 0 -0.00053270314003891692 -0.024999529043222366 0 -0.0011801600093249605 -0.025262328874736624 0 -0.0017178135777745768 -0.024999978242180469 0 -0.00065524086512496653 -0.025266903709068034 0 -0.00065524086512496653 -0.025266903709068034 0 0.00020122969260045898 -0.025258670637361209 0 -0.00053270314003891692 -0.024999529043222366 0 0.00020122969260045898 -0.025258670637361209 0 -0.00053270314003891692 -0.024999529043222366 0 0.00065487046475797418 -0.024999875303492538 0 0.00020122969260045898 -0.025258670637361209 0 0.00065487046475797418 -0.024999875303492538 0 0.0010213751523551367 -0.025465738450860583 0 0.0011063061976118354 -0.025486058071197717 0 0.0022156737506261195 -0.025199259004666578 0 0.0010213751523551367 -0.025465738450860583 0 0.0023595245271805509 -0.02559079189453399 0 0.002785802479689843 -0.024916723377827715 0 0.00065487046475797418 -0.024999875303492538 0 0.0010213751523551367 -0.025465738450860583 0 0.0017051137260131037 -0.025495078407518246 0 0.00065487046475797418 -0.024999875303492538 0 0.0018411325156764192 -0.024999806210081594 0 0.0017051137260131037 -0.025495078407518246 0 0.0018411325156764192 -0.024999806210081594 0 0.0017051137260131037 -0.025495078407518246 0 0.0030287294293106972 -0.02500010512433181 0 0.002785802479689843 -0.024916723377827715 0 0.0030307538296674872 -0.024999382453635626 0 0.0032453459785281619 -0.025240228023027698 0 0.0022156737506261195 -0.025199259004666578 0 0.0030285336822425696 -0.025000002721979456 0 0.0036548883062880373 -0.025614724625721234 0 0.0032453459785281619 -0.025240228023027698 0 0.003078482986437901 -0.025466759228906101 0 0.0023595245271805509 -0.02559079189453399 0 0.002785802479689843 -0.024916723377827715 0 0.003078482986437901 -0.025466759228906101 0 0.002785802479689843 -0.024916723377827715 0 0.0032453459785281619 -0.025240228023027698 0 0.003078482986437901 -0.025466759228906101 0 0.0023595245271805509 -0.02559079189453399 0 0.003078482986437901 -0.025466759228906101 0 0.0028791829311698709 -0.025969315964049399 0 0.003078482986437901 -0.025466759228906101 0 0.0028791829311698709 -0.025969315964049399 0 0.0036417858363632788 -0.025976296139305369 0 0.0036548883062880373 -0.025614724625721234 0 0.003078482986437901 -0.025466759228906101 0 0.0036417858363632788 -0.025976296139305369 0 0.0036548883062880373 -0.025614724625721234 0 0.0036417858363632788 -0.025976296139305369 0 0.0042528179279375695 -0.025968450863554631 0 0.0036417858363632788 -0.025976296139305369 0 0.0035089836712344172 -0.026348557702456362 0 0.0043314951280518888 -0.026349597644873182 0 0.0028791829311698709 -0.025969315964049399 0 0.0035089836712344172 -0.026348557702456362 0 0.0026521866464952705 -0.026390875453667258 0 0.0028791829311698709 -0.025969315964049399 0 0.0036417858363632788 -0.025976296139305369 0 0.0035089836712344172 -0.026348557702456362 0 0.0028791829311698709 -0.025969315964049399 0 0.0026521866464952705 -0.026390875453667258 0 0.0018924018814469976 -0.025990707160804951 0 0.0026521866464952705 -0.026390875453667258 0 0.0015678073959736678 -0.026472316942185381 0 0.0018924018814469976 -0.025990707160804951 0 0.00078654394708971634 -0.026345937453607478 0 0.0015678073959736678 -0.026472316942185381 0 0.00089586620540219801 -0.025964863605881804 0 0.0015678073959736678 -0.026472316942185381 0 0.00089586620540219801 -0.025964863605881804 0 0.0018924018814469976 -0.025990707160804951 0 0.0010213751523551367 -0.025465738450860583 0 0.00089586620540219801 -0.025964863605881804 0 0.0018924018814469976 -0.025990707160804951 0 1.2246611703523483e-05 -0.025550309428460184 0 0.0010213751523551367 -0.025465738450860583 0 0.00089586620540219801 -0.025964863605881804 0 0.0023595245271805509 -0.02559079189453399 0 0.0028791829311698709 -0.025969315964049399 0 0.0018924018814469976 -0.025990707160804951 0 0.0010213751523551367 -0.025465738450860583 0 0.0023595245271805509 -0.02559079189453399 0 0.0018924018814469976 -0.025990707160804951 0 0.0053487289440637105 -0.02577932017597526 0 0.0059968513751661413 -0.026378295406390462 0 0.006645806832654309 -0.025795474575877598 0 0.0060111035079735923 -0.024999793785816678 0 0.0053487289440637105 -0.02577932017597526 0 0.006645806832654309 -0.025795474575877598 0 0.0060111035079735923 -0.024999793785816678 0 0.0053487289440637105 -0.02577932017597526 0 0.0045196656227507468 -0.024999787813520802 0 0.0053487289440637105 -0.02577932017597526 0 0.0041002579639869557 -0.025536698562570775 0 0.0048367191967413087 -0.025979254376185413 0 0.0053487289440637105 -0.02577932017597526 0 0.0045196656227507468 -0.024999787813520802 0 0.0041002579639869557 -0.025536698562570775 0 0.0030307538296674872 -0.024999382453635626 0 0.0045196656227507468 -0.024999787813520802 0 0.0041002579639869557 -0.025536698562570775 0 0.0030307538296674872 -0.024999382453635626 0 0.0032453459785281619 -0.025240228023027698 0 0.0041002579639869557 -0.025536698562570775 0 0.0036548883062880373 -0.025614724625721234 0 0.0041002579639869557 -0.025536698562570775 0 0.0042528179279375695 -0.025968450863554631 0 0.0036548883062880373 -0.025614724625721234 0 0.0032453459785281619 -0.025240228023027698 0 0.0041002579639869557 -0.025536698562570775 0 0.0036417858363632788 -0.025976296139305369 0 0.0042528179279375695 -0.025968450863554631 0 0.0043314951280518888 -0.026349597644873182 0 0.0042528179279375695 -0.025968450863554631 0 0.0043314951280518888 -0.026349597644873182 0 0.0049013860563096642 -0.026296855384782672 0 0.0049013860563096642 -0.026296855384782672 0 0.0048367191967413087 -0.025979254376185413 0 0.0054123926461440604 -0.026281087522921014 0 0.0042528179279375695 -0.025968450863554631 0 0.0049013860563096642 -0.026296855384782672 0 0.0048367191967413087 -0.025979254376185413 0 0.0041002579639869557 -0.025536698562570775 0 0.0042528179279375695 -0.025968450863554631 0 0.0048367191967413087 -0.025979254376185413 0 0.0053487289440637105 -0.02577932017597526 0 0.0048367191967413087 -0.025979254376185413 0 0.0054123926461440604 -0.026281087522921014 0 0.0053487289440637105 -0.02577932017597526 0 0.0054123926461440604 -0.026281087522921014 0 0.0059968513751661413 -0.026378295406390462 0 0.0054123926461440604 -0.026281087522921014 0 0.0058190715620237412 -0.026434849816233823 0 0.0055292913949484398 -0.026517158432037689 0 0.0049013860563096642 -0.026296855384782672 0 0.0054123926461440604 -0.026281087522921014 0 0.0055292913949484398 -0.026517158432037689 0 0.0054123926461440604 -0.026281087522921014 0 0.0058190715620237412 -0.026434849816233823 0 0.0059968513751661413 -0.026378295406390462 0 0.0058190715620237412 -0.026434849816233823 0 0.0059968513751661413 -0.026378295406390462 0 0.0060391805451708728 -0.026435223708981527 0 0.0062199475958172176 -0.026584317555682059 0 0.0059733991374403229 -0.026614812676091549 0 0.0063363295607449816 -0.026638760470870184 0 0.0062199475958172176 -0.026584317555682059 0 0.0059733991374403229 -0.026614812676091549 0 0.0059780565941034893 -0.026518862314216247 0 0.0062199475958172176 -0.026584317555682059 0 0.0059780565941034893 -0.026518862314216247 0 0.0061818323881538207 -0.026482974483288062 0 0.0060391805451708728 -0.026435223708981527 0 0.0059780565941034893 -0.026518862314216247 0 0.0061818323881538207 -0.026482974483288062 0 0.0058190715620237412 -0.026434849816233823 0 0.0060391805451708728 -0.026435223708981527 0 0.0059780565941034893 -0.026518862314216247 0 0.0058190715620237412 -0.026434849816233823 0 0.0059780565941034893 -0.026518862314216247 0 0.0055292913949484398 -0.026517158432037689 0 0.0059733991374403229 -0.026614812676091549 0 0.0059780565941034893 -0.026518862314216247 0 0.0055292913949484398 -0.026517158432037689 0 0.0059733991374403229 -0.026614812676091549 0 0.0055292913949484398 -0.026517158432037689 0 0.0056661105840712838 -0.026647918523561669 0 0.0059733991374403229 -0.026614812676091549 0 0.0056661105840712838 -0.026647918523561669 0 0.0059970338623402562 -0.026682624349180312 0 0.0055292913949484398 -0.026517158432037689 0 0.0056661105840712838 -0.026647918523561669 0 0.0052139267238183141 -0.026657454654710745 0 0.0056661105840712838 -0.026647918523561669 0 0.0052139267238183141 -0.026657454654710745 0 0.0057140049629195574 -0.026756751285262607 0 0.0055292913949484398 -0.026517158432037689 0 0.0052139267238183141 -0.026657454654710745 0 0.0049446893873739224 -0.026491694678942121 0 0.0049013860563096642 -0.026296855384782672 0 0.0055292913949484398 -0.026517158432037689 0 0.0049446893873739224 -0.026491694678942121 0 0.0052139267238183141 -0.026657454654710745 0 0.0049446893873739224 -0.026491694678942121 0 0.0046699237687852458 -0.026601542123227764 0 0.0043314951280518888 -0.026349597644873182 0 0.0046699237687852458 -0.026601542123227764 0 0.0040876888306556058 -0.026648022751003517 0 0.0043314951280518888 -0.026349597644873182 0 0.0049013860563096642 -0.026296855384782672 0 0.0049446893873739224 -0.026491694678942121 0 0.0043314951280518888 -0.026349597644873182 0 0.0049446893873739224 -0.026491694678942121 0 0.0046699237687852458 -0.026601542123227764 0 0.0052139267238183141 -0.026657454654710745 0 0.004668644679531017 -0.026802518306605086 0 0.0052383409391563917 -0.026855370159162929 0 0.0052139267238183141 -0.026657454654710745 0 0.0046699237687852458 -0.026601542123227764 0 0.004668644679531017 -0.026802518306605086 0 0.004668644679531017 -0.026802518306605086 0 0.0052383409391563917 -0.026855370159162929 0 0.004713774513995574 -0.027029607939413294 0 0.0052383409391563917 -0.026855370159162929 0 0.0053459971549731419 -0.027004833874561159 0 0.004713774513995574 -0.027029607939413294 0 0.0052383409391563917 -0.026855370159162929 0 0.0053459971549731419 -0.027004833874561159 0 0.0059204564092287899 -0.026820915755895101 0 0.0053459971549731419 -0.027004833874561159 0 0.0059204564092287899 -0.026820915755895101 0 0.006020495071196735 -0.026901012282350208 0 0.0052383409391563917 -0.026855370159162929 0 0.0059204564092287899 -0.026820915755895101 0 0.0057140049629195574 -0.026756751285262607 0 0.0052139267238183141 -0.026657454654710745 0 0.0052383409391563917 -0.026855370159162929 0 0.0057140049629195574 -0.026756751285262607 0 0.0056661105840712838 -0.026647918523561669 0 0.0057140049629195574 -0.026756751285262607 0 0.0059970338623402562 -0.026682624349180312 0 0.0057140049629195574 -0.026756751285262607 0 0.0059970338623402562 -0.026682624349180312 0 0.0062388050514267232 -0.026693907427557683 0 0.0059204564092287899 -0.026820915755895101 0 0.0062388050514267232 -0.026693907427557683 0 0.0065229302165077177 -0.026649601994913636 0 0.0059204564092287899 -0.026820915755895101 0 0.0057140049629195574 -0.026756751285262607 0 0.0062388050514267232 -0.026693907427557683 0 0.0062388050514267232 -0.026693907427557683 0 0.0066939524690185206 -0.026515715343419434 0 0.0065229302165077177 -0.026649601994913636 0 0.0062388050514267232 -0.026693907427557683 0 0.0063363295607449816 -0.026638760470870184 0 0.0066939524690185206 -0.026515715343419434 0 0.0059970338623402562 -0.026682624349180312 0 0.0062388050514267232 -0.026693907427557683 0 0.0063363295607449816 -0.026638760470870184 0 0.0059733991374403229 -0.026614812676091549 0 0.0059970338623402562 -0.026682624349180312 0 0.0063363295607449816 -0.026638760470870184 0 0.0027596798216897984 -0.026890548226420254 0 0.0032361866814890664 -0.027057398032526499 0 0.0023836692202804711 -0.027131007742436816 0 0.0027596798216897984 -0.026890548226420254 0 0.0032361866814890664 -0.027057398032526499 0 0.0032927489737586946 -0.026735422207418581 0 0.00077186579007791232 -0.026503880487321215 0 0.004476072225210734 -0.025899534873599833 0 0.00091261575874188223 -0.027004068093302937 0 0.0013318542943155736 -0.027361278253895862 0 0.0013307855623261133 -0.026908955187557933 0 0.0027596798216897984 -0.026890548226420254 0 0.0023836692202804711 -0.027131007742436816 0 0.0021555437702965208 -0.026783405354372822 0 0.004476072225210734 -0.025899534873599833 0 0.0018482675264386726 -0.027000619430946234 0 0.00091261575874188223 -0.027004068093302937 0 0.00088970580708485107 -0.026754442971190583 0 0.0013307855623261133 -0.026908955187557933 0 0.00088970580708485107 -0.026754442971190583 0 0.0015678073959736678 -0.026472316942185381 0 0.0013307855623261133 -0.026908955187557933 0 0.0015678073959736678 -0.026472316942185381 0 0.0021555437702965208 -0.026783405354372822 0 0.0024909833474168011 -0.026687495584927664 0 0.0016452660252877299 -0.026391590818641217 0 0.0018482675264386726 -0.027000619430946234 0 0.0026521866464952705 -0.026390875453667258 0 0.0015678073959736678 -0.026472316942185381 0 0.0024909833474168011 -0.026687495584927664 0 0.0026521866464952705 -0.026390875453667258 0 0.0024909833474168011 -0.026687495584927664 0 0.0032927489737586946 -0.026735422207418581 0 0.0027596798216897984 -0.026890548226420254 0 0.0021555437702965208 -0.026783405354372822 0 0.0024909833474168011 -0.026687495584927664 0 0.0027596798216897984 -0.026890548226420254 0 0.0024909833474168011 -0.026687495584927664 0 0.0032927489737586946 -0.026735422207418581 0 0.0035089836712344172 -0.026348557702456362 0 0.0032927489737586946 -0.026735422207418581 0 0.0040876888306556058 -0.026648022751003517 0 0.0035089836712344172 -0.026348557702456362 0 0.0026521866464952705 -0.026390875453667258 0 0.0032927489737586946 -0.026735422207418581 0 0.0035089836712344172 -0.026348557702456362 0 0.0043314951280518888 -0.026349597644873182 0 0.0040876888306556058 -0.026648022751003517 0 0.004668644679531017 -0.026802518306605086 0 0.0040876888306556058 -0.026648022751003517 0 0.0039448120904323238 -0.027007312438468722 0 0.0046699237687852458 -0.026601542123227764 0 0.004668644679531017 -0.026802518306605086 0 0.0040876888306556058 -0.026648022751003517 0 0.0032927489737586946 -0.026735422207418581 0 0.0040876888306556058 -0.026648022751003517 0 0.0039448120904323238 -0.027007312438468722 0 0.0032361866814890664 -0.027057398032526499 0 0.0032927489737586946 -0.026735422207418581 0 0.0039448120904323238 -0.027007312438468722 0 0.0032361866814890664 -0.027057398032526499 0 0.0039448120904323238 -0.027007312438468722 0 0.0033802082149668802 -0.027405034200930364 0 0.004668644679531017 -0.026802518306605086 0 0.0039448120904323238 -0.027007312438468722 0 0.004713774513995574 -0.027029607939413294 0 0.0039448120904323238 -0.027007312438468722 0 0.004713774513995574 -0.027029607939413294 0 0.0045165642082925428 -0.027441293208733914 0 0.0053459971549731419 -0.027004833874561159 0 0.0045165642082925428 -0.027441293208733914 0 0.0053867350480249375 -0.027138596989658502 0 0.0053459971549731419 -0.027004833874561159 0 0.004713774513995574 -0.027029607939413294 0 0.0045165642082925428 -0.027441293208733914 0 0.0039448120904323238 -0.027007312438468722 0 0.0045165642082925428 -0.027441293208733914 0 0.0033802082149668802 -0.027405034200930364 0 0.011180419384656873 -0.023754592099167991 0 0.010835660544533256 -0.023496832206869527 0 0.010833406692716723 -0.023744972039053239 0 0.0077643778624855017 -0.025553082844808082 0 0.0073938820188181901 -0.025418162207130137 0 0.010835660544533256 -0.023496832206869527 0 0.010525359333925456 -0.023589076120471522 0 0.010833406692716723 -0.023744972039053239 0 0.004476072225210734 -0.025899534873599833 0 0.0073938820188181901 -0.025418162207130137 0 0.0032361866814890664 -0.027057398032526499 0 0.0023836692202804711 -0.027131007742436816 0 0.0033802082149668802 -0.027405034200930364 0 0.004476072225210734 -0.025899534873599833 0 0.0057612213209810512 -0.025201196364560828 0 0.010461309171982451 -0.023267251392999722 0 0.010835660544533256 -0.023496832206869527 0 0.010525359333925456 -0.023589076120471522 0 0.00099121442325442459 -0.027023083231813294 0 0.0010409331093194974 -0.026984442136820906 0 0.0011548599324280513 -0.027093343289613079 0 0.010525359333925456 -0.023589076120471522 0 0.010573029880590714 -0.023908389956088488 0 0.010833406692716723 -0.023744972039053239 0 0.0057612213209810512 -0.025201196364560828 0 0.008222659074260381 -0.025535488951861519 0 0.0010877693343988113 -0.027145863353584453 0 0.0011548599324280513 -0.027093343289613079 0 0.0011673897073053397 -0.027185183775881371 0 0.0011548599324280513 -0.027093343289613079 0 0.0011673897073053397 -0.027185183775881371 0 0.0012625651734027468 -0.027239952940875299 0 0.0011830952660821258 -0.027243823251817987 0 0.0011673897073053397 -0.027185183775881371 0 0.0012625651734027468 -0.027239952940875299 0 0.008222659074260381 -0.025535488951861519 0 0.01032434950358339 -0.024386042894383373 0 0.0071900236838388608 -0.024185597838591331 0 0.0096614184144745204 -0.024465228215244116 0 0.0096624108551951627 -0.024850572519617989 0 0.0071510836070477826 -0.024592841302005598 0 0.008222659074260381 -0.025535488951861519 0 0.0071510836070477826 -0.024592841302005598 0 0.01032434950358339 -0.024386042894383373 0 0.010573029880590714 -0.023908389956088488 0 0.010833406692716723 -0.023744972039053239 0 0.011003907348326566 -0.023949215698709031 0 0.010573029880590714 -0.023908389956088488 0 0.010573813422456906 -0.023934005968799448 0 0.011003907348326566 -0.023949215698709031 0 0.013621622084420753 -0.024170311334649544 0 0.013229297506259945 -0.023675477772258018 0 0.012632635928819412 -0.023970731833282809 0 0.01032434950358339 -0.024386042894383373 0 0.012173054670535503 -0.023965071064602477 0 0.013229297506259945 -0.023675477772258018 0 0.012613550117157642 -0.023377786277620948 0 0.012632635928819412 -0.023970731833282809 0 0.013017163656569224 -0.022328469269934599 0 0.013487897215595965 -0.022465142637784579 0 0.013589394154923639 -0.023173204832319438 0 0.01032434950358339 -0.024386042894383373 0 0.01418884606480621 -0.022714633562064674 0 0.013621622084420753 -0.024170311334649544 0 0.013229297506259945 -0.023675477772258018 0 0.013578128262749773 -0.023129185925738323 0 0.013487897215595965 -0.022465142637784579 0 0.013578128262749773 -0.023129185925738323 0 0.013589394154923639 -0.023173204832319438 0 0.012772170332460558 -0.018860330220063348 0 0.012746019934877693 -0.018653827384101648 0 0.01291449349266682 -0.018671074456830614 0 0.012772170332460558 -0.018860330220063348 0 0.01291449349266682 -0.018671074456830614 0 0.012865505682340466 -0.019069693932477191 0 0.013578128262749773 -0.023129185925738323 0 0.013589394154923639 -0.023173204832319438 0 0.013525120889482031 -0.022058822784345341 0 0.013578128262749773 -0.023129185925738323 0 0.013027195609490533 -0.023025572991457646 0 0.013525120889482031 -0.022058822784345341 0 0.013229297506259945 -0.023675477772258018 0 0.013578128262749773 -0.023129185925738323 0 0.013027195609490533 -0.023025572991457646 0 0.013229297506259945 -0.023675477772258018 0 0.013027195609490533 -0.023025572991457646 0 0.012613550117157642 -0.023377786277620948 0 0.013027195609490533 -0.023025572991457646 0 0.013525120889482031 -0.022058822784345341 0 0.012305028666748681 -0.022759180418255021 0 0.013055347063158222 -0.019318562292903692 0 0.012865505682340466 -0.019069693932477191 0 0.012914218789945758 -0.019428427261564764 0 0.014168432603050745 -0.020172187838884484 0 0.013120682633026712 -0.020774553931138053 0 0.01291449349266682 -0.018671074456830614 0 0.013055347063158222 -0.019318562292903692 0 0.012865505682340466 -0.019069693932477191 0 0.012739467402778624 -0.019188794571031263 0 0.012865505682340466 -0.019069693932477191 0 0.012914218789945758 -0.019428427261564764 0 0.012305028666748681 -0.022759180418255021 0 0.011488221263601921 -0.023012571860512566 0 0.012082715684615533 -0.021825535624799663 0 0.011488221263601921 -0.023012571860512566 0 0.011320236196353591 -0.022187794569494768 0 0.012082715684615533 -0.021825535624799663 0 0.013525120889482031 -0.022058822784345341 0 0.012305028666748681 -0.022759180418255021 0 0.012082715684615533 -0.021825535624799663 0 0.013027195609490533 -0.023025572991457646 0 0.012305028666748681 -0.022759180418255021 0 0.012613550117157642 -0.023377786277620948 0 0.012305028666748681 -0.022759180418255021 0 0.012613550117157642 -0.023377786277620948 0 0.011927368156442573 -0.023321740836394971 0 0.012305028666748681 -0.022759180418255021 0 0.011488221263601921 -0.023012571860512566 0 0.011927368156442573 -0.023321740836394971 0 0.011488221263601921 -0.023012571860512566 0 0.011927368156442573 -0.023321740836394971 0 0.011381097505311058 -0.023809408988407867 0 0.011488221263601921 -0.023012571860512566 0 0.011381097505311058 -0.023809408988407867 0 0.011063955575808903 -0.02350666207173811 0 0.011927368156442573 -0.023321740836394971 0 0.011381097505311058 -0.023809408988407867 0 0.012632635928819412 -0.023970731833282809 0 0.012613550117157642 -0.023377786277620948 0 0.011927368156442573 -0.023321740836394971 0 0.012632635928819412 -0.023970731833282809 0 0.011234070599385641 -0.023795307900279401 0 0.012173054670535503 -0.023965071064602477 0 0.011180419384656873 -0.023754592099167991 0 0.010833406692716723 -0.023744972039053239 0 0.011003907348326566 -0.023949215698709031 0 0.011180419384656873 -0.023754592099167991 0 0.011381097505311058 -0.023809408988407867 0 0.011003907348326566 -0.023949215698709031 0 0.0077643778624855017 -0.025553082844808082 0 0.0083595085994401103 -0.025511974763685375 0 0.0045165642082925428 -0.027441293208733914 0 0.0053867350480249375 -0.027138596989658502 0 0.0055993765665365586 -0.027197542087627546 0 0.011180419384656873 -0.023754592099167991 0 0.011381097505311058 -0.023809408988407867 0 0.011212752787030119 -0.02390766181962509 0 0.0053867350480249375 -0.027138596989658502 0 0.006020495071196735 -0.026901012282350208 0 0.0055993765665365586 -0.027197542087627546 0 0.0053459971549731419 -0.027004833874561159 0 0.0053867350480249375 -0.027138596989658502 0 0.006020495071196735 -0.026901012282350208 0 0.0059204564092287899 -0.026820915755895101 0 0.006020495071196735 -0.026901012282350208 0 0.0065229302165077177 -0.026649601994913636 0 0.006020495071196735 -0.026901012282350208 0 0.0055993765665365586 -0.027197542087627546 0 0.0066183849445148489 -0.026704370445961467 0 0.006020495071196735 -0.026901012282350208 0 0.0068799983574515207 -0.026492518932379239 0 0.0066183849445148489 -0.026704370445961467 0 0.011212752787030119 -0.02390766181962509 0 0.011063955575808903 -0.02350666207173811 0 0.010431055364314594 -0.023581003277528892 0 0.0083595085994401103 -0.025511974763685375 0 0.008481551212033981 -0.02509427178992913 0 0.011381097505311058 -0.023809408988407867 0 0.011212752787030119 -0.02390766181962509 0 0.011063955575808903 -0.02350666207173811 0 0.0066939524690185206 -0.026515715343419434 0 0.0065229302165077177 -0.026649601994913636 0 0.0071208752381349731 -0.026232725358520982 0 0.006020495071196735 -0.026901012282350208 0 0.0065229302165077177 -0.026649601994913636 0 0.0068799983574515207 -0.026492518932379239 0 0.0065229302165077177 -0.026649601994913636 0 0.0068799983574515207 -0.026492518932379239 0 0.0071208752381349731 -0.026232725358520982 0 0.0071208752381349731 -0.026232725358520982 0 0.0076382336669292691 -0.025827228076660391 0 0.00762780904031766 -0.025505476945619665 0 0.0068799983574515207 -0.026492518932379239 0 0.0071208752381349731 -0.026232725358520982 0 0.0076382336669292691 -0.025827228076660391 0 0.0068799983574515207 -0.026492518932379239 0 0.0076382336669292691 -0.025827228076660391 0 0.0066183849445148489 -0.026704370445961467 0 0.0085107907768900148 -0.024510469070353293 0 0.008481551212033981 -0.02509427178992913 0 0.0096060857599767867 -0.023373138469717478 0 0.010429475606804527 -0.02243389408085749 0 0.0094838877384366867 -0.02271577030336925 0 0.0076382336669292691 -0.025827228076660391 0 0.0082873202242574016 -0.023840287389023454 0 0.00762780904031766 -0.025505476945619665 0 0.0085107907768900148 -0.024510469070353293 0 0.0081554368724771724 -0.023813448582637866 0 0.011488221263601921 -0.023012571860512566 0 0.011063955575808903 -0.02350666207173811 0 0.010832207189650006 -0.022998571135920732 0 0.011063955575808903 -0.02350666207173811 0 0.010431055364314594 -0.023581003277528892 0 0.010832207189650006 -0.022998571135920732 0 0.0096060857599767867 -0.023373138469717478 0 0.010431055364314594 -0.023581003277528892 0 0.010832207189650006 -0.022998571135920732 0 0.0096060857599767867 -0.023373138469717478 0 0.010832207189650006 -0.022998571135920732 0 0.010429475606804527 -0.02243389408085749 0 0.011488221263601921 -0.023012571860512566 0 0.011320236196353591 -0.022187794569494768 0 0.010832207189650006 -0.022998571135920732 0 0.011320236196353591 -0.022187794569494768 0 0.010832207189650006 -0.022998571135920732 0 0.010429475606804527 -0.02243389408085749 0 0.011320236196353591 -0.022187794569494768 0 0.011093276043962328 -0.021446841195516451 0 0.01170589478384238 -0.020945046136513931 0 0.011320236196353591 -0.022187794569494768 0 0.011093276043962328 -0.021446841195516451 0 0.010429475606804527 -0.02243389408085749 0 0.011093276043962328 -0.021446841195516451 0 0.010429475606804527 -0.02243389408085749 0 0.010390145162039148 -0.021135449860661557 0 0.011093276043962328 -0.021446841195516451 0 0.010390145162039148 -0.021135449860661557 0 0.011248781439749124 -0.020364326871136942 0 0.011093276043962328 -0.021446841195516451 0 0.011248781439749124 -0.020364326871136942 0 0.01170589478384238 -0.020945046136513931 0 0.0082873202242574016 -0.023840287389023454 0 0.0094838877384366867 -0.02271577030336925 0 0.0085836010577860656 -0.022193473431516481 0 0.0096060857599767867 -0.023373138469717478 0 0.0082873202242574016 -0.023840287389023454 0 0.0094838877384366867 -0.02271577030336925 0 0.010429475606804527 -0.02243389408085749 0 0.0094838877384366867 -0.02271577030336925 0 0.010390145162039148 -0.021135449860661557 0 0.010401500445496037 -0.021207365415753052 0 0.009179840171678489 -0.021367717502411277 0 0.0094838877384366867 -0.02271577030336925 0 0.010390145162039148 -0.021135449860661557 0 0.0085836010577860656 -0.022193473431516481 0 0.0096104524315366799 -0.020543676137454853 0 0.0099914235844772419 -0.019130053558980415 0 0.0089626015268881639 -0.019308192832876599 0 0.0096104524315366799 -0.020543676137454853 0 0.010422683271965641 -0.019973699351808889 0 0.0099914235844772419 -0.019130053558980415 0 0.010390145162039148 -0.021135449860661557 0 0.010422683271965641 -0.019973699351808889 0 0.011024671553200326 -0.01998770998505121 0 0.010390145162039148 -0.021135449860661557 0 0.0096104524315366799 -0.020543676137454853 0 0.010422683271965641 -0.019973699351808889 0 0.010422683271965641 -0.019973699351808889 0 0.01085293836592102 -0.019022067288547467 0 0.0099914235844772419 -0.019130053558980415 0 0.010422683271965641 -0.019973699351808889 0 0.01085293836592102 -0.019022067288547467 0 0.010931391140783696 -0.019614266209420927 0 0.011490988612594118 -0.019551330415741475 0 0.011248781439749124 -0.020364326871136942 0 0.010740790845809972 -0.019128706010740713 0 0.011364033664963068 -0.020595111924222378 0 0.010938923957986476 -0.018354107932799915 0 0.011248781439749124 -0.020364326871136942 0 0.011024671553200326 -0.01998770998505121 0 0.011510487647587235 -0.01944379890120037 0 0.010390145162039148 -0.021135449860661557 0 0.011248781439749124 -0.020364326871136942 0 0.011024671553200326 -0.01998770998505121 0 0.010422683271965641 -0.019973699351808889 0 0.011024671553200326 -0.01998770998505121 0 0.010931391140783696 -0.019614266209420927 0 0.011024671553200326 -0.01998770998505121 0 0.011406082291980453 -0.019453156349652834 0 0.011510487647587235 -0.01944379890120037 0 0.01085293836592102 -0.019022067288547467 0 0.011406082291980453 -0.019453156349652834 0 0.011712851864690758 -0.017923071909780777 0 0.011406082291980453 -0.019453156349652834 0 0.011642798781011508 -0.019401902962862757 0 0.011712851864690758 -0.017923071909780777 0 0.011087994929983646 -0.018481373387815688 0 0.010938923957986476 -0.018354107932799915 0 0.011024671553200326 -0.01998770998505121 0 0.011406082291980453 -0.019453156349652834 0 0.010931391140783696 -0.019614266209420927 0 0.01085293836592102 -0.019022067288547467 0 0.011406082291980453 -0.019453156349652834 0 0.010931391140783696 -0.019614266209420927 0 0.011490988612594118 -0.019551330415741475 0 0.010740790845809972 -0.019128706010740713 0 0.011877276173231571 -0.018833121768155735 0 0.010938923957986476 -0.018354107932799915 0 0.011868104929686565 -0.017134134799734791 0 0.010813277869980252 -0.01582252665727912 0 0.01189195747354348 -0.015657576926706749 0 0.011404464700415843 -0.014851493597969605 0 0.011490988612594118 -0.019551330415741475 0 0.011248781439749124 -0.020364326871136942 0 0.011950625220811148 -0.01984773909663988 0 0.011490988612594118 -0.019551330415741475 0 0.011877276173231571 -0.018833121768155735 0 0.011950625220811148 -0.01984773909663988 0 0.011877276173231571 -0.018833121768155735 0 0.011950625220811148 -0.01984773909663988 0 0.012414832780029011 -0.019198691605252477 0 0.011950625220811148 -0.01984773909663988 0 0.012414832780029011 -0.019198691605252477 0 0.012793984387176478 -0.020042876952121074 0 0.011877276173231571 -0.018833121768155735 0 0.012414832780029011 -0.019198691605252477 0 0.012451085702319844 -0.018281502703591239 0 0.011868104929686565 -0.017134134799734791 0 0.012746693411341914 -0.017051433929513225 0 0.012414832780029011 -0.019198691605252477 0 0.01292128652055741 -0.019054109127140468 0 0.012451085702319844 -0.018281502703591239 0 0.013249016370421007 -0.018327185524687754 0 0.01292128652055741 -0.019054109127140468 0 0.012451085702319844 -0.018281502703591239 0 0.013264078754871525 -0.019081901148462078 0 0.013249016370421007 -0.018327185524687754 0 0.01292128652055741 -0.019054109127140468 0 0.013264078754871525 -0.019081901148462078 0 0.01292128652055741 -0.019054109127140468 0 0.01299969484938002 -0.019443137749828466 0 0.012414832780029011 -0.019198691605252477 0 0.01292128652055741 -0.019054109127140468 0 0.012793984387176478 -0.020042876952121074 0 0.01292128652055741 -0.019054109127140468 0 0.012793984387176478 -0.020042876952121074 0 0.01299969484938002 -0.019443137749828466 0 0.012793984387176478 -0.020042876952121074 0 0.01299969484938002 -0.019443137749828466 0 0.012914218789945758 -0.019428427261564764 0 0.013055347063158222 -0.019318562292903692 0 0.012793984387176478 -0.020042876952121074 0 0.012914218789945758 -0.019428427261564764 0 0.013120682633026712 -0.020774553931138053 0 0.012851152146247343 -0.019993573780080064 0 0.012793984387176478 -0.020042876952121074 0 0.012082715684615533 -0.021825535624799663 0 0.01170589478384238 -0.020945046136513931 0 0.013525120889482031 -0.022058822784345341 0 0.012793984387176478 -0.020042876952121074 0 0.012082715684615533 -0.021825535624799663 0 0.011320236196353591 -0.022187794569494768 0 0.012082715684615533 -0.021825535624799663 0 0.01170589478384238 -0.020945046136513931 0 0.011248781439749124 -0.020364326871136942 0 0.011950625220811148 -0.01984773909663988 0 0.01170589478384238 -0.020945046136513931 0 0.011950625220811148 -0.01984773909663988 0 0.012793984387176478 -0.020042876952121074 0 0.01170589478384238 -0.020945046136513931 0 0.0050175122491709617 -0.022206689160029571 0 0.0064097923516696744 -0.022838092547616949 0 0.0055913159465358665 -0.023673111339715329 0 0.0050175122491709617 -0.022206689160029571 0 0.0055913159465358665 -0.023673111339715329 0 0.0044777916440636965 -0.023250713102919866 0 0.0050175122491709617 -0.022206689160029571 0 0.0064097923516696744 -0.022838092547616949 0 0.0057834805876275392 -0.020958766226785261 0 0.0064097923516696744 -0.022838092547616949 0 0.0065712648710871064 -0.023998845386722024 0 0.0055913159465358665 -0.023673111339715329 0 0.0065712648710871064 -0.023998845386722024 0 0.0055913159465358665 -0.023673111339715329 0 0.0061590037865097008 -0.025028783581355237 0 0.0055913159465358665 -0.023673111339715329 0 0.0061590037865097008 -0.025028783581355237 0 0.0049998528507848019 -0.024665270870524961 0 0.0055913159465358665 -0.023673111339715329 0 0.0044777916440636965 -0.023250713102919866 0 0.0049998528507848019 -0.024665270870524961 0 0.0044777916440636965 -0.023250713102919866 0 0.0030636210650177107 -0.023851481200286635 0 0.0049998528507848019 -0.024665270870524961 0 0.0035062421343362168 -0.021454613777565721 0 0.0029798919362319441 -0.020743430663768957 0 0.0028119691749436508 -0.021826772445594094 0 0.0035062421343362168 -0.021454613777565721 0 0.0029798919362319441 -0.020743430663768957 0 0.0038671554143825063 -0.02039803544826253 0 0.0050175122491709617 -0.022206689160029571 0 0.0044777916440636965 -0.023250713102919866 0 0.0035626049132700113 -0.021854804900365947 0 0.0044777916440636965 -0.023250713102919866 0 0.0030636210650177107 -0.023851481200286635 0 0.0035626049132700113 -0.021854804900365947 0 0.0030277420247976574 -0.022519575294588586 0 0.0037554805234548097 -0.021103477797716264 0 0.0050175122491709617 -0.022206689160029571 0 0.0035626049132700113 -0.021854804900365947 0 0.0042429150160334045 -0.019493517885415708 0 0.0038671554143825063 -0.02039803544826253 0 0.0031500149847323651 -0.019503541795450857 0 0.0042429150160334045 -0.019493517885415708 0 0.0037554805234548097 -0.021103477797716264 0 0.0042173368549649551 -0.019599188576759432 0 0.0029798919362319441 -0.020743430663768957 0 0.0038671554143825063 -0.02039803544826253 0 0.0031500149847323651 -0.019503541795450857 0 0.0031500149847323651 -0.019503541795450857 0 0.002862824937628846 -0.01833415291103439 0 0.0036422045399897435 -0.018590982753218389 0 0.0031500149847323651 -0.019503541795450857 0 0.0042429150160334045 -0.019493517885415708 0 0.0036422045399897435 -0.018590982753218389 0 0.0042429150160334045 -0.019493517885415708 0 0.0046914385389989514 -0.01826593369653191 0 0.0036422045399897435 -0.018590982753218389 0 0.0042429150160334045 -0.019493517885415708 0 0.0055822859205674012 -0.019028497948260486 0 0.0046914385389989514 -0.01826593369653191 0 0.0042429150160334045 -0.019493517885415708 0 0.0057834805876275392 -0.020958766226785261 0 0.0055822859205674012 -0.019028497948260486 0 0.0050175122491709617 -0.022206689160029571 0 0.0042429150160334045 -0.019493517885415708 0 0.0057834805876275392 -0.020958766226785261 0 0.0064097923516696744 -0.022838092547616949 0 0.0057834805876275392 -0.020958766226785261 0 0.0071873081361882897 -0.02249456132551636 0 0.0057525190730841839 -0.021018837296687166 0 0.0070909046608574507 -0.02142176414068234 0 0.0057834805876275392 -0.020958766226785261 0 0.0055822859205674012 -0.019028497948260486 0 0.0070028172763442467 -0.018988307266073728 0 0.0070028172763442467 -0.018988307266073728 0 0.0079279581362777744 -0.019493528481437962 0 0.0081876479095492945 -0.018303904721988225 0 0.0070028172763442467 -0.018988307266073728 0 0.0079279581362777744 -0.019493528481437962 0 0.0071740463233745215 -0.020439973964775628 0 0.0079279581362777744 -0.019493528481437962 0 0.0071740463233745215 -0.020439973964775628 0 0.0084735476177154705 -0.020347317051889517 0 0.0070909046608574507 -0.02142176414068234 0 0.0080831595056693774 -0.02155065556445375 0 0.0057834805876275392 -0.020958766226785261 0 0.0070028172763442467 -0.018988307266073728 0 0.0071740463233745215 -0.020439973964775628 0 0.0099914235844772419 -0.019130053558980415 0 0.0089626015268881639 -0.019308192832876599 0 0.009418178458155721 -0.01807709630703936 0 0.0079279581362777744 -0.019493528481437962 0 0.0089626015268881639 -0.019308192832876599 0 0.0081876479095492945 -0.018303904721988225 0 0.0079279581362777744 -0.019493528481437962 0 0.0089626015268881639 -0.019308192832876599 0 0.0084735476177154705 -0.020347317051889517 0 0.0096104524315366799 -0.020543676137454853 0 0.0089626015268881639 -0.019308192832876599 0 0.0084735476177154705 -0.020347317051889517 0 0.009179840171678489 -0.021367717502411277 0 0.0080831595056693774 -0.02155065556445375 0 0.0085836010577860656 -0.022193473431516481 0 0.00765924687872314 -0.022793259128935293 0 0.0077906622342685597 -0.023539199185443772 0 0.00765924687872314 -0.022793259128935293 0 0.0077906622342685597 -0.023539199185443772 0 0.0073734694853429305 -0.024253567474565172 0 0.0077906622342685597 -0.023539199185443772 0 0.0073734694853429305 -0.024253567474565172 0 0.0075197334607587304 -0.02483677905760039 0 0.0082873202242574016 -0.023840287389023454 0 0.0085836010577860656 -0.022193473431516481 0 0.0077906622342685597 -0.023539199185443772 0 0.0082873202242574016 -0.023840287389023454 0 0.0077906622342685597 -0.023539199185443772 0 0.0075197334607587304 -0.02483677905760039 0 0.0064097923516696744 -0.022838092547616949 0 0.0071873081361882897 -0.02249456132551636 0 0.0071605965661916083 -0.023541510402381297 0 0.00765924687872314 -0.022793259128935293 0 0.0071605965661916083 -0.023541510402381297 0 0.0073734694853429305 -0.024253567474565172 0 0.0071873081361882897 -0.02249456132551636 0 0.00765924687872314 -0.022793259128935293 0 0.0071605965661916083 -0.023541510402381297 0 0.0071605965661916083 -0.023541510402381297 0 0.0073734694853429305 -0.024253567474565172 0 0.0070897741750514439 -0.024831980040824847 0 0.0065712648710871064 -0.023998845386722024 0 0.0071605965661916083 -0.023541510402381297 0 0.0070897741750514439 -0.024831980040824847 0 0.0064097923516696744 -0.022838092547616949 0 0.0065712648710871064 -0.023998845386722024 0 0.0071605965661916083 -0.023541510402381297 0 0.0073734694853429305 -0.024253567474565172 0 0.0071351562301301581 -0.025650338815027825 0 0.0072358512010273187 -0.025733060148936362 0 0.0074424602420146953 -0.024373056394714428 0 0.0071239531287944271 -0.025210717975175996 0 0.0071351562301301581 -0.025650338815027825 0 0.0072358512010273187 -0.025733060148936362 0 0.0074681088442274009 -0.026068704912294256 0 0.0075197334607587304 -0.02483677905760039 0 0.00762780904031766 -0.025505476945619665 0 0.0073450829944515074 -0.025757513382064025 0 0.0082873202242574016 -0.023840287389023454 0 0.0075197334607587304 -0.02483677905760039 0 0.00762780904031766 -0.025505476945619665 0 0.0073734694853429305 -0.024253567474565172 0 0.0072358512010273187 -0.025733060148936362 0 0.0075197334607587304 -0.02483677905760039 0 0.0072358512010273187 -0.025733060148936362 0 0.0075197334607587304 -0.02483677905760039 0 0.0073450829944515074 -0.025757513382064025 0 0.0072358512010273187 -0.025733060148936362 0 0.0073450829944515074 -0.025757513382064025 0 0.0071728366435797695 -0.0261085109210904 0 0.0071208752381349731 -0.026232725358520982 0 0.00762780904031766 -0.025505476945619665 0 0.0073450829944515074 -0.025757513382064025 0 0.0071208752381349731 -0.026232725358520982 0 0.0071728366435797695 -0.0261085109210904 0 0.0068975462549575612 -0.026270602731787569 0 0.0071208752381349731 -0.026232725358520982 0 0.0073450829944515074 -0.025757513382064025 0 0.0071728366435797695 -0.0261085109210904 0 0.006926180735430873 -0.026233390398633236 0 0.0067819458326952922 -0.026306648869017284 0 0.0071728366435797695 -0.0261085109210904 0 0.0068975462549575612 -0.026270602731787569 0 0.0073636517605710902 -0.026122373619127812 0 0.0068975462549575612 -0.026270602731787569 0 0.0073636517605710902 -0.026122373619127812 0 0.0072734222484599027 -0.025928152344048574 0 0.0066939524690185206 -0.026515715343419434 0 0.0071208752381349731 -0.026232725358520982 0 0.0068975462549575612 -0.026270602731787569 0 0.0072358512010273187 -0.025733060148936362 0 0.0074681088442274009 -0.026068704912294256 0 0.0074036039177667601 -0.026115213711454914 0 0.0074681088442274009 -0.026068704912294256 0 0.0074036039177667601 -0.026115213711454914 0 0.0076579930737650471 -0.026157512592894294 0 0.0071728366435797695 -0.0261085109210904 0 0.0074036039177667601 -0.026115213711454914 0 0.0073636517605710902 -0.026122373619127812 0 0.0072358512010273187 -0.025733060148936362 0 0.0071728366435797695 -0.0261085109210904 0 0.0074036039177667601 -0.026115213711454914 0 0.0074036039177667601 -0.026115213711454914 0 0.0073636517605710902 -0.026122373619127812 0 0.0076371246470976935 -0.026110034050461764 0 0.0073636517605710902 -0.026122373619127812 0 0.0076371246470976935 -0.026110034050461764 0 0.0075856431816422668 -0.025980126370803575 0 0.0074036039177667601 -0.026115213711454914 0 0.0076371246470976935 -0.026110034050461764 0 0.0076579930737650471 -0.026157512592894294 0 0.0076371246470976935 -0.026110034050461764 0 0.0076579930737650471 -0.026157512592894294 0 0.007830143736376638 -0.026142053675630779 0 0.0076371246470976935 -0.026110034050461764 0 0.007830143736376638 -0.026142053675630779 0 0.0078894487238250419 -0.02604458125791468 0 0.007830143736376638 -0.026142053675630779 0 0.0080299535889238813 -0.026143171054830699 0 0.0079452082226140978 -0.026204213076083272 0 0.0080299535889238813 -0.026143171054830699 0 0.0079452082226140978 -0.026204213076083272 0 0.0082381719231594992 -0.02621883372609312 0 0.0079452082226140978 -0.026204213076083272 0 0.0080697165719124664 -0.026262376804779268 0 0.0077851996686846524 -0.026193175820051744 0 0.0079452082226140978 -0.026204213076083272 0 0.0082381719231594992 -0.02621883372609312 0 0.0080697165719124664 -0.026262376804779268 0 0.0076579930737650471 -0.026157512592894294 0 0.007830143736376638 -0.026142053675630779 0 0.0079452082226140978 -0.026204213076083272 0 0.0076579930737650471 -0.026157512592894294 0 0.0079452082226140978 -0.026204213076083272 0 0.0077851996686846524 -0.026193175820051744 0 0.0082381719231594992 -0.02621883372609312 0 0.0084110828710746415 -0.026364132953595153 0 0.0086631976626336728 -0.026163366043495517 0 0.0082381719231594992 -0.02621883372609312 0 0.0080697165719124664 -0.026262376804779268 0 0.0084110828710746415 -0.026364132953595153 0 0.0080697165719124664 -0.026262376804779268 0 0.0084110828710746415 -0.026364132953595153 0 0.0079882993662225756 -0.026286434090980929 0 0.0084110828710746415 -0.026364132953595153 0 0.0079882993662225756 -0.026286434090980929 0 0.0080478351510662009 -0.026359694858214797 0 0.0074681088442274009 -0.026068704912294256 0 0.0076579930737650471 -0.026157512592894294 0 0.0077851996686846524 -0.026193175820051744 0 0.0080697165719124664 -0.026262376804779268 0 0.0079882993662225756 -0.026286434090980929 0 0.0077851996686846524 -0.026193175820051744 0 0.0079882993662225756 -0.026286434090980929 0 0.0077851996686846524 -0.026193175820051744 0 0.0077497834190543412 -0.026188942470957519 0 0.0074681088442274009 -0.026068704912294256 0 0.0077851996686846524 -0.026193175820051744 0 0.0077497834190543412 -0.026188942470957519 0 0.0074681088442274009 -0.026068704912294256 0 0.0077497834190543412 -0.026188942470957519 0 0.0077466483876611246 -0.026222284489269831 0 0.0071351562301301581 -0.025650338815027825 0 0.0074681088442274009 -0.026068704912294256 0 0.0077466483876611246 -0.026222284489269831 0 0.0079882993662225756 -0.026286434090980929 0 0.0077466483876611246 -0.026222284489269831 0 0.0080478351510662009 -0.026359694858214797 0 0.0069426554820071658 -0.026161400414593965 0 0.0078752428681158389 -0.026301687052598145 0 0.0079882993662225756 -0.026286434090980929 0 0.0077497834190543412 -0.026188942470957519 0 0.0077466483876611246 -0.026222284489269831 0 0.0060580369024818611 -0.026101114548950026 0 0.0062508388652382611 -0.026398190232082921 0 0.0080478351510662009 -0.026359694858214797 0 0.0062508388652382611 -0.026398190232082921 0 0.0061590037865097008 -0.025028783581355237 0 0.0049998528507848019 -0.024665270870524961 0 0.0060580369024818611 -0.026101114548950026 0 0.0062508388652382611 -0.026398190232082921 0 0.0061590037865097008 -0.025028783581355237 0 0.0070897741750514439 -0.024831980040824847 0 0.0060580369024818611 -0.026101114548950026 0 0.0061590037865097008 -0.025028783581355237 0 0.0065712648710871064 -0.023998845386722024 0 0.0070897741750514439 -0.024831980040824847 0 0.0061590037865097008 -0.025028783581355237 0 0.0071239531287944271 -0.025210717975175996 0 0.0069426554820071658 -0.026161400414593965 0 0.0056421955266411509 -0.025599891260620102 0 0.0060343021122190752 -0.026633104092759801 0 0.0030277420247976574 -0.022519575294588586 0 0.0056421955266411509 -0.025599891260620102 0 0.0030636210650177107 -0.023851481200286635 0 0.0023050422841465095 -0.026093349094478462 0 0.0039570304738697111 -0.026256496362115755 0 0.0035062421343362168 -0.021454613777565721 0 0.0031648889510343019 -0.022506232376515826 0 0.0028119691749436508 -0.021826772445594094 0 0.0030636210650177107 -0.023851481200286635 0 0.0039570304738697111 -0.026256496362115755 0 0.0049998528507848019 -0.024665270870524961 0 0.0062508388652382611 -0.026398190232082921 0 0.0039570304738697111 -0.026256496362115755 0 0.0049998528507848019 -0.024665270870524961 0 0.0062554906304901105 -0.026519225672355103 0 0.0060343021122190752 -0.026633104092759801 0 0.0062508388652382611 -0.026398190232082921 0 0.0080387840561497934 -0.027169076319128148 0 0.0080478351510662009 -0.026359694858214797 0 0.0080387840561497934 -0.027169076319128148 0 0.0086853972515702187 -0.026760508179417566 0 0.0080478351510662009 -0.026359694858214797 0 0.0089127555157919435 -0.027324805236818225 0 0.0080387840561497934 -0.027169076319128148 0 0.0086853972515702187 -0.026760508179417566 0 0.0056421955266411509 -0.025599891260620102 0 0.0090356835782205609 -0.026867284898398982 0 0.0089127555157919435 -0.027324805236818225 0 0.0086853972515702187 -0.026760508179417566 0 0.0091932207242159478 -0.026797417695329728 0 0.0086853972515702187 -0.026760508179417566 0 0.0090852336525445235 -0.026584753413005507 0 0.0091932207242159478 -0.026797417695329728 0 0.0086853972515702187 -0.026760508179417566 0 0.0090852336525445235 -0.026584753413005507 0 0.0080478351510662009 -0.026359694858214797 0 0.0084110828710746415 -0.026364132953595153 0 0.0090852336525445235 -0.026584753413005507 0 0.0080478351510662009 -0.026359694858214797 0 0.0084110828710746415 -0.026364132953595153 0 0.0090852336525445235 -0.026584753413005507 0 0.0093302334048810005 -0.026450108227447536 0 0.0090852336525445235 -0.026584753413005507 0 0.0093302334048810005 -0.026450108227447536 0 0.010388125217625109 -0.026980759496306631 0 0.0093302334048810005 -0.026450108227447536 0 0.009862396484522324 -0.026056579715557155 0 0.010388125217625109 -0.026980759496306631 0 0.0093302334048810005 -0.026450108227447536 0 0.009862396484522324 -0.026056579715557155 0 0.009203933947251608 -0.025906500397704924 0 0.0093302334048810005 -0.026450108227447536 0 0.009203933947251608 -0.025906500397704924 0 0.0086631976626336728 -0.026163366043495517 0 0.0084110828710746415 -0.026364132953595153 0 0.0093302334048810005 -0.026450108227447536 0 0.0086631976626336728 -0.026163366043495517 0 0.0082381719231594992 -0.02621883372609312 0 0.0086631976626336728 -0.026163366043495517 0 0.0082559005106511239 -0.026057027357074807 0 0.007830143736376638 -0.026142053675630779 0 0.0080299535889238813 -0.026143171054830699 0 0.0078894487238250419 -0.02604458125791468 0 0.0080299535889238813 -0.026143171054830699 0 0.0082559005106511239 -0.026057027357074807 0 0.0078894487238250419 -0.02604458125791468 0 0.0080299535889238813 -0.026143171054830699 0 0.0082381719231594992 -0.02621883372609312 0 0.0082559005106511239 -0.026057027357074807 0 0.0082559005106511239 -0.026057027357074807 0 0.0080398663625377061 -0.025863823441802027 0 0.0078894487238250419 -0.02604458125791468 0 0.0080398663625377061 -0.025863823441802027 0 0.0085824311480554548 -0.025791448118254425 0 0.0080812310759593893 -0.025585613223408441 0 0.0082559005106511239 -0.026057027357074807 0 0.0080398663625377061 -0.025863823441802027 0 0.0085824311480554548 -0.025791448118254425 0 0.0086631976626336728 -0.026163366043495517 0 0.0082559005106511239 -0.026057027357074807 0 0.0085824311480554548 -0.025791448118254425 0 0.009203933947251608 -0.025906500397704924 0 0.0086631976626336728 -0.026163366043495517 0 0.0085824311480554548 -0.025791448118254425 0 0.0085824311480554548 -0.025791448118254425 0 0.0090966091998221105 -0.025525763589537009 0 0.0086336712044438029 -0.025373940497474073 0 0.009203933947251608 -0.025906500397704924 0 0.0085824311480554548 -0.025791448118254425 0 0.0090966091998221105 -0.025525763589537009 0 0.0085824311480554548 -0.025791448118254425 0 0.0086336712044438029 -0.025373940497474073 0 0.0080812310759593893 -0.025585613223408441 0 0.0086336712044438029 -0.025373940497474073 0 0.0087121722695764833 -0.02528239000700442 0 0.0087625859829283184 -0.025340572463575503 0 0.0085474321175416524 -0.025401492088446449 0 0.008486730707359634 -0.025363732128740584 0 0.0086336712044438029 -0.025373940497474073 0 0.0087625859829283184 -0.025340572463575503 0 0.0087284583938037202 -0.025294257350786095 0 0.0086336712044438029 -0.025373940497474073 0 0.0089840950284942218 -0.025072625707985966 0 0.0087284583938037202 -0.025294257350786095 0 0.0090966091998221105 -0.025525763589537009 0 0.0086336712044438029 -0.025373940497474073 0 0.0089840950284942218 -0.025072625707985966 0 0.010109211029408963 -0.025470854367707175 0 0.0098221530303373265 -0.025461755475288665 0 0.0090966091998221105 -0.025525763589537009 0 0.010115349850030214 -0.025436093333078561 0 0.0089840950284942218 -0.025072625707985966 0 0.009862396484522324 -0.026056579715557155 0 0.010115349850030214 -0.025436093333078561 0 0.010653252382192672 -0.025545198892157745 0 0.009862396484522324 -0.026056579715557155 0 0.009203933947251608 -0.025906500397704924 0 0.010115349850030214 -0.025436093333078561 0 0.009203933947251608 -0.025906500397704924 0 0.0090966091998221105 -0.025525763589537009 0 0.010115349850030214 -0.025436093333078561 0 0.0063363295607449816 -0.026638760470870184 0 0.0065930069779844211 -0.026570769619592961 0 0.0063995056909424385 -0.026594361699261229 0 0.0062199475958172176 -0.026584317555682059 0 0.0063363295607449816 -0.026638760470870184 0 0.0063995056909424385 -0.026594361699261229 0 0.0063363295607449816 -0.026638760470870184 0 0.0066939524690185206 -0.026515715343419434 0 0.0065930069779844211 -0.026570769619592961 0 0.0066939524690185206 -0.026515715343419434 0 0.0068975462549575612 -0.026270602731787569 0 0.0065930069779844211 -0.026570769619592961 0 0.0068975462549575612 -0.026270602731787569 0 0.0065930069779844211 -0.026570769619592961 0 0.0064983801863820493 -0.026521566291064738 0 0.0065930069779844211 -0.026570769619592961 0 0.0065055803479421642 -0.026587566356889115 0 0.0064983801863820493 -0.026521566291064738 0 0.0065930069779844211 -0.026570769619592961 0 0.0065055803479421642 -0.026587566356889115 0 0.0063995056909424385 -0.026594361699261229 0 0.0065055803479421642 -0.026587566356889115 0 0.0065111946847262701 -0.02657712309380059 0 0.0065174867097981815 -0.02653883319627523 0 0.0065055803479421642 -0.026587566356889115 0 0.0064983801863820493 -0.026521566291064738 0 0.0065111946847262701 -0.02657712309380059 0 0.0072734222484599027 -0.025928152344048574 0 0.0075856431816422668 -0.025980126370803575 0 0.0076483470522285182 -0.0257142419656308 0 0.0067819458326952922 -0.026306648869017284 0 0.0077465350896767848 -0.025954318855817674 0 0.0073636517605710902 -0.026122373619127812 0 0.0072734222484599027 -0.025928152344048574 0 0.0075856431816422668 -0.025980126370803575 0 0.0075856431816422668 -0.025980126370803575 0 0.0078894487238250419 -0.02604458125791468 0 0.007806289408152956 -0.025870777397203521 0 0.0075856431816422668 -0.025980126370803575 0 0.007806289408152956 -0.025870777397203521 0 0.0076483470522285182 -0.0257142419656308 0 0.0076371246470976935 -0.026110034050461764 0 0.0075856431816422668 -0.025980126370803575 0 0.0078894487238250419 -0.02604458125791468 0 0.0080398663625377061 -0.025863823441802027 0 0.0078894487238250419 -0.02604458125791468 0 0.007806289408152956 -0.025870777397203521 0 0.0080398663625377061 -0.025863823441802027 0 0.007806289408152956 -0.025870777397203521 0 0.007718518122191589 -0.02577510729939551 0 0.0077304838923255544 -0.025860120065366188 0 0.0077465350896767848 -0.025954318855817674 0 0.0080398663625377061 -0.025863823441802027 0 0.007718518122191589 -0.02577510729939551 0 0.0080812310759593893 -0.025585613223408441 0 0.0077465350896767848 -0.025954318855817674 0 0.008486730707359634 -0.025363732128740584 0 0.0087709088230070904 -0.025293528616812441 0 0.0087121722695764833 -0.02528239000700442 0 0.0087625859829283184 -0.025340572463575503 0 0.0087617131466889969 -0.025233678300199031 0 0.0087709088230070904 -0.025293528616812441 0 0.0087121722695764833 -0.02528239000700442 0 0.0087625859829283184 -0.025340572463575503 0 0.0088476909418266445 -0.025312718804623227 0 0.0088515383110361612 -0.025391829144666096 0 0.0087617131466889969 -0.025233678300199031 0 0.0087709088230070904 -0.025293528616812441 0 0.0088476909418266445 -0.025312718804623227 0 0.0077465350896767848 -0.025954318855817674 0 0.0077504653636339509 -0.025875561938300172 0 0.0087709088230070904 -0.025293528616812441 0 0.0087625859829283184 -0.025340572463575503 0 0.0088476909418266445 -0.025312718804623227 0 0.0065055803479421642 -0.026587566356889115 0 0.0065174867097981815 -0.02653883319627523 0 0.0063995056909424385 -0.026594361699261229 0 0.0077504653636339509 -0.025875561938300172 0 0.0069408871577926077 -0.026243760934378964 0 0.0088476909418266445 -0.025312718804623227 0 0.0089174905803391744 -0.02539824289237429 0 0.0088515383110361612 -0.025391829144666096 0 0.0065174867097981815 -0.02653883319627523 0 0.0061818323881538207 -0.026482974483288062 0 0.0062859919865582981 -0.026330793108365617 0 0.0061503180260369999 -0.026623242292581277 0 0.0069408871577926077 -0.026243760934378964 0 0.0060391805451708728 -0.026435223708981527 0 0.0061818323881538207 -0.026482974483288062 0 0.0061321842456645769 -0.026423489444734261 0 0.0065174867097981815 -0.02653883319627523 0 0.0061818323881538207 -0.026482974483288062 0 0.0063995056909424385 -0.026594361699261229 0 0.0062199475958172176 -0.026584317555682059 0 0.0061818323881538207 -0.026482974483288062 0 0.0063995056909424385 -0.026594361699261229 0 0.0066192953812403022 -0.026621933660765141 0 0.0072190403093385976 -0.026568988249556887 0 0.006645806832654309 -0.025795474575877598 0 0.0059968513751661413 -0.026378295406390462 0 0.0066192953812403022 -0.026621933660765141 0 0.006645806832654309 -0.025795474575877598 0 0.0066192953812403022 -0.026621933660765141 0 0.0067133972771134427 -0.027248357204584218 0 0.0072190403093385976 -0.026568988249556887 0 0.0059968513751661413 -0.026378295406390462 0 0.0060391805451708728 -0.026435223708981527 0 0.0061321842456645769 -0.026423489444734261 0 0.0059968513751661413 -0.026378295406390462 0 0.0066192953812403022 -0.026621933660765141 0 0.0067133972771134427 -0.027248357204584218 0 0.0059555890005497571 -0.026531572759076506 0 0.0069408871577926077 -0.026243760934378964 0 0.0089174905803391744 -0.02539824289237429 0 0.0088925213377680726 -0.025461959167895086 0 0.0088515383110361612 -0.025391829144666096 0 0.0069408871577926077 -0.026243760934378964 0 0.008148114206255299 -0.025979364771885994 0 0.008148114206255299 -0.025979364771885994 0 0.0083326657905480935 -0.025789836729649945 0 0.0072190403093385976 -0.026568988249556887 0 0.0078294708919405733 -0.026058292596153821 0 0.006645806832654309 -0.025795474575877598 0 0.0088337679262957842 -0.025425647565304178 0 0.0089391878114497836 -0.025639980697981776 0 0.0088397014340537046 -0.025586058134758963 0 0.0088925213377680726 -0.025461959167895086 0 0.0088337679262957842 -0.025425647565304178 0 0.0088397014340537046 -0.025586058134758963 0 0.0088925213377680726 -0.025461959167895086 0 0.0088515383110361612 -0.025391829144666096 0 0.0088337679262957842 -0.025425647565304178 0 0.0087625859829283184 -0.025340572463575503 0 0.0088515383110361612 -0.025391829144666096 0 0.0088337679262957842 -0.025425647565304178 0 0.0087625859829283184 -0.025340572463575503 0 0.0088337679262957842 -0.025425647565304178 0 0.0087284583938037202 -0.025294257350786095 0 0.0088337679262957842 -0.025425647565304178 0 0.0089391878114497836 -0.025639980697981776 0 0.0087398252805513527 -0.025357432156219575 0 0.0089391878114497836 -0.025639980697981776 0 0.008626456194541934 -0.025383713114943311 0 0.0097813211385658731 -0.025379522062018392 0 0.0089936798075037402 -0.024999788600003629 0 0.008626456194541934 -0.025383713114943311 0 0.0097813211385658731 -0.025379522062018392 0 0.0089936798075037402 -0.024999788600003629 0 0.008626456194541934 -0.025383713114943311 0 0.0075019672446046655 -0.02499978451218025 0 0.008626456194541934 -0.025383713114943311 0 0.0077035250166633401 -0.025531470593248368 0 0.0075019672446046655 -0.02499978451218025 0 0.0086266235029121667 -0.025389275760602611 0 0.0083326657905480935 -0.025789836729649945 0 0.008626456194541934 -0.025383713114943311 0 0.0078294708919405733 -0.026058292596153821 0 0.0077035250166633401 -0.025531470593248368 0 0.0089391878114497836 -0.025639980697981776 0 0.008626456194541934 -0.025383713114943311 0 0.0088397014340537046 -0.025586058134758963 0 0.0078294708919405733 -0.026058292596153821 0 0.0077035250166633401 -0.025531470593248368 0 0.006645806832654309 -0.025795474575877598 0 0.0077035250166633401 -0.025531470593248368 0 0.0075019672446046655 -0.02499978451218025 0 0.006645806832654309 -0.025795474575877598 0 0.0060111035079735923 -0.024999793785816678 0 0.0075019672446046655 -0.02499978451218025 0 0.006645806832654309 -0.025795474575877598 0 0.010819323786932997 -0.025771502864123209 0 0.010528793636498106 -0.025713212347372404 0 0.01102394165788665 -0.025613364144194552 0 0.010819323786932997 -0.025771502864123209 0 0.01102394165788665 -0.025613364144194552 0 0.011314982266553907 -0.025577481533396687 0 0.010819323786932997 -0.025771502864123209 0 0.010878241240933645 -0.02553098896915457 0 0.011314982266553907 -0.025577481533396687 0 0.010878241240933645 -0.02553098896915457 0 0.011314982266553907 -0.025577481533396687 0 0.011076273356013321 -0.025464138220751855 0 0.010115349850030214 -0.025436093333078561 0 0.010819323786932997 -0.025771502864123209 0 0.010878241240933645 -0.02553098896915457 0 0.010115349850030214 -0.025436093333078561 0 0.010878241240933645 -0.02553098896915457 0 0.010900791863016854 -0.025405563565869753 0 0.010115349850030214 -0.025436093333078561 0 0.010819323786932997 -0.025771502864123209 0 0.010658695113784198 -0.025790316816446494 0 0.0098221530303373265 -0.025461755475288665 0 0.0094254507515510767 -0.025670316518031269 0 0.010819323786932997 -0.025771502864123209 0 0.010658695113784198 -0.025790316816446494 0 0.010145801870348812 -0.026046611474718307 0 0.0088337679262957842 -0.025425647565304178 0 0.0087284583938037202 -0.025294257350786095 0 0.0087398252805513527 -0.025357432156219575 0 0.0089840950284942218 -0.025072625707985966 0 0.0087284583938037202 -0.025294257350786095 0 0.0087398252805513527 -0.025357432156219575 0 0.008978536361472814 -0.02560806183208365 0 0.0094254507515510767 -0.025670316518031269 0 0.010819323786932997 -0.025771502864123209 0 0.010145801870348812 -0.026046611474718307 0 0.010528793636498106 -0.025713212347372404 0 0.010528793636498106 -0.025713212347372404 0 0.0097813211385658731 -0.025379522062018392 0 0.010871344882709423 -0.025401312531641074 0 0.0089391878114497836 -0.025639980697981776 0 0.010145801870348812 -0.026046611474718307 0 0.0097813211385658731 -0.025379522062018392 0 0.010145801870348812 -0.026046611474718307 0 0.010528793636498106 -0.025713212347372404 0 0.0097813211385658731 -0.025379522062018392 0 0.0089936798075037402 -0.024999788600003629 0 0.0097813211385658731 -0.025379522062018392 0 0.010484657198391849 -0.024999653291969567 0 0.0097813211385658731 -0.025379522062018392 0 0.010484657198391849 -0.024999653291969567 0 0.010871344882709423 -0.025401312531641074 0 0.010484657198391849 -0.024999653291969567 0 0.010871344882709423 -0.025401312531641074 0 0.011974510929373646 -0.024999999351151318 0 0.010871344882709423 -0.025401312531641074 0 0.011481038106519728 -0.025441605887738909 0 0.011974510929373646 -0.024999999351151318 0 0.010871344882709423 -0.025401312531641074 0 0.01102394165788665 -0.025613364144194552 0 0.011481038106519728 -0.025441605887738909 0 0.010528793636498106 -0.025713212347372404 0 0.010871344882709423 -0.025401312531641074 0 0.01102394165788665 -0.025613364144194552 0 0.011314982266553907 -0.025577481533396687 0 0.012150645540961581 -0.025361207471270134 0 0.011481038106519728 -0.025441605887738909 0 0.01102394165788665 -0.025613364144194552 0 0.011314982266553907 -0.025577481533396687 0 0.011481038106519728 -0.025441605887738909 0 0.012150645540961581 -0.025361207471270134 0 0.011481038106519728 -0.025441605887738909 0 0.011974510929373646 -0.024999999351151318 0 0.012150645540961581 -0.025361207471270134 0 0.013294279364641611 -0.025635316021521731 0 0.013467209803425344 -0.024999724109644392 0 0.012150645540961581 -0.025361207471270134 0 0.011974510929373646 -0.024999999351151318 0 0.013467209803425344 -0.024999724109644392 0 0.013294279364641611 -0.025635316021521731 0 0.013467209803425344 -0.024999724109644392 0 0.014364644092374734 -0.02574868019400034 0 0.013191416582469266 -0.026469757129190554 0 0.014223620983190043 -0.027702304689023155 0 0.014364644092374734 -0.02574868019400034 0 0.013294279364641611 -0.025635316021521731 0 0.013191416582469266 -0.026469757129190554 0 0.014364644092374734 -0.02574868019400034 0 0.012064110469542647 -0.025338691136370366 0 0.012210125314062025 -0.026118431665202283 0 0.012150645540961581 -0.025361207471270134 0 0.013294279364641611 -0.025635316021521731 0 0.013191416582469266 -0.026469757129190554 0 0.011314982266553907 -0.025577481533396687 0 0.012150645540961581 -0.025361207471270134 0 0.011242346242427958 -0.025517434575574344 0 0.011314982266553907 -0.025577481533396687 0 0.011242346242427958 -0.025517434575574344 0 0.011076273356013321 -0.025464138220751855 0 0.011242346242427958 -0.025517434575574344 0 0.011076273356013321 -0.025464138220751855 0 0.011088246885918248 -0.025389545528925844 0 0.013280807930037761 -0.025363495463278953 0 0.014769854086367723 -0.026353902056364724 0 0.012210125314062025 -0.026118431665202283 0 0.013280807930037761 -0.025363495463278953 0 0.013280807930037761 -0.025363495463278953 0 0.01166243270119195 -0.024750334305891644 0 0.011076273356013321 -0.025464138220751855 0 0.011088246885918248 -0.025389545528925844 0 0.010900791863016854 -0.025405563565869753 0 0.011088246885918248 -0.025389545528925844 0 0.010900791863016854 -0.025405563565869753 0 0.011228149333228951 -0.025449831443577649 0 0.010878241240933645 -0.02553098896915457 0 0.011076273356013321 -0.025464138220751855 0 0.010900791863016854 -0.025405563565869753 0 0.01514914780551576 -0.025783142434042353 0 0.015222657516571354 -0.025486705420059413 0 0.014976368442875672 -0.025172679253221506 0 0.01514914780551576 -0.025783142434042353 0 0.015390639343609978 -0.026040279012559567 0 0.014976368442875672 -0.025172679253221506 0 0.01261043148532686 -0.02247515807367936 0 0.013533399533703023 -0.023582450125634015 0 0.012460466420572733 -0.024613313828695475 0 0.015038255604572483 -0.02585304302694745 0 0.015222657516571354 -0.025486705420059413 0 0.015112032581079096 -0.025781408176625945 0 0.013280807930037761 -0.025363495463278953 0 0.014301264346559532 -0.024450738522567624 0 0.01514914780551576 -0.025783142434042353 0 0.015222657516571354 -0.025486705420059413 0 0.015112032581079096 -0.025781408176625945 0 0.015038255604572483 -0.02585304302694745 0 0.015112032581079096 -0.025781408176625945 0 0.015054838873784471 -0.025873581703154333 0 0.015038255604572483 -0.02585304302694745 0 0.015054838873784471 -0.025873581703154333 0 0.014364644092374734 -0.02574868019400034 0 0.015054838873784471 -0.025873581703154333 0 0.015571329985513032 -0.025624810490022961 0 0.015390639343609978 -0.026040279012559567 0 0.01514914780551576 -0.025783142434042353 0 0.015054838873784471 -0.025873581703154333 0 0.015390639343609978 -0.026040279012559567 0 0.01514914780551576 -0.025783142434042353 0 0.015112032581079096 -0.025781408176625945 0 0.015054838873784471 -0.025873581703154333 0 0.015054838873784471 -0.025873581703154333 0 0.014987231025827035 -0.025605794720795466 0 0.015571329985513032 -0.025624810490022961 0 0.015054838873784471 -0.025873581703154333 0 0.014987231025827035 -0.025605794720795466 0 0.014364644092374734 -0.02574868019400034 0 0.014987231025827035 -0.025605794720795466 0 0.014364644092374734 -0.02574868019400034 0 0.01495838472461457 -0.024999999820361041 0 0.013467209803425344 -0.024999724109644392 0 0.014364644092374734 -0.02574868019400034 0 0.01495838472461457 -0.024999999820361041 0 0.014987231025827035 -0.025605794720795466 0 0.01495838472461457 -0.024999999820361041 0 0.015571329985513032 -0.025624810490022961 0 0.016448803958105926 -0.024999772356138376 0 0.01644158701822776 -0.02578500214199636 0 0.015571329985513032 -0.025624810490022961 0 0.01495838472461457 -0.024999999820361041 0 0.016448803958105926 -0.024999772356138376 0 0.015571329985513032 -0.025624810490022961 0 0.017097086521598599 -0.024985373358945039 0 0.017523029527214802 -0.024960890443473726 0 0.016448803958105926 -0.024999772356138376 0 0.01644158701822776 -0.02578500214199636 0 0.017553837799535905 -0.025000035182431948 0 0.017846692588606036 -0.024203499172248864 0 0.017977009760430221 -0.024266515109028698 0 0.017710448061060972 -0.024270767969649509 0 0.01644158701822776 -0.02578500214199636 0 0.015571329985513032 -0.025624810490022961 0 0.015390639343609978 -0.026040279012559567 0 0.018645662512852275 -0.024804691762069037 0 0.017940201424950598 -0.024999293743475315 0 0.019433021759889296 -0.024999303200195708 0 0.018645662512852275 -0.024804691762069037 0 0.017973108272953467 -0.024777643188179065 0 0.017940201424950598 -0.024999293743475315 0 0.017846692588606036 -0.024203499172248864 0 0.017973108272953467 -0.024777643188179065 0 0.017556065835793628 -0.024999695028825871 0 0.017973108272953467 -0.024777643188179065 0 0.017940201424950598 -0.024999293743475315 0 0.017556065835793628 -0.024999695028825871 0 0.017846692588606036 -0.024203499172248864 0 0.017973108272953467 -0.024777643188179065 0 0.018095854598355728 -0.024533508805756925 0 0.017846692588606036 -0.024203499172248864 0 0.017977009760430221 -0.024266515109028698 0 0.018095854598355728 -0.024533508805756925 0 0.017977009760430221 -0.024266515109028698 0 0.018095854598355728 -0.024533508805756925 0 0.018178190910970081 -0.0242180158078951 0 0.018645662512852275 -0.024804691762069037 0 0.017973108272953467 -0.024777643188179065 0 0.018095854598355728 -0.024533508805756925 0 0.018645662512852275 -0.024804691762069037 0 0.018095854598355728 -0.024533508805756925 0 0.019124744058676264 -0.024652322374439848 0 0.019124744058676264 -0.024652322374439848 0 0.019649621473921085 -0.024631376243659488 0 0.019364144510494438 -0.024805426830306114 0 0.018645662512852275 -0.024804691762069037 0 0.019124744058676264 -0.024652322374439848 0 0.019364144510494438 -0.024805426830306114 0 0.018301891283820704 -0.024439163846291922 0 0.019439997186156785 -0.024214080756388295 0 0.018095854598355728 -0.024533508805756925 0 0.019124744058676264 -0.024652322374439848 0 0.01989046741588241 -0.024653772238351031 0 0.018095854598355728 -0.024533508805756925 0 0.019054236860798809 -0.023870795182114657 0 0.018902188437964419 -0.023985866834068673 0 0.019124744058676264 -0.024652322374439848 0 0.01989046741588241 -0.024653772238351031 0 0.019649621473921085 -0.024631376243659488 0 0.01989046741588241 -0.024653772238351031 0 0.019649621473921085 -0.024631376243659488 0 0.019917826786369313 -0.024456879552696702 0 0.018095854598355728 -0.024533508805756925 0 0.018902188437964419 -0.023985866834068673 0 0.018178190910970081 -0.0242180158078951 0 0.018902188437964419 -0.023985866834068673 0 0.018265780257500697 -0.024245637232008677 0 0.018178190910970081 -0.0242180158078951 0 0.018902188437964419 -0.023985866834068673 0 0.018265780257500697 -0.024245637232008677 0 0.018047169282634327 -0.024572416372832497 0 0.017977009760430221 -0.024266515109028698 0 0.018178190910970081 -0.0242180158078951 0 0.017710448061060972 -0.024270767969649509 0 0.018265780257500697 -0.024245637232008677 0 0.018047169282634327 -0.024572416372832497 0 0.017710448061060972 -0.024270767969649509 0 0.018265780257500697 -0.024245637232008677 0 0.018178190910970081 -0.0242180158078951 0 0.017710448061060972 -0.024270767969649509 0 0.018047169282634327 -0.024572416372832497 0 0.017059495678956729 -0.024754931912827436 0 0.017374490224301344 -0.025231762561303828 0 0.018902188437964419 -0.023985866834068673 0 0.018047169282634327 -0.024572416372832497 0 0.018108701582536236 -0.025185987999304878 0 0.018047169282634327 -0.024572416372832497 0 0.017710448061060972 -0.024270767969649509 0 0.017059495678956729 -0.024754931912827436 0 0.018986149264311643 -0.023904964225197504 0 0.019148271144711088 -0.023975641062042728 0 0.019054236860798809 -0.023870795182114657 0 0.019898504357305596 -0.022977180907982075 0 0.020268811951541427 -0.02284594961894822 0 0.019054236860798809 -0.023870795182114657 0 0.019898504357305596 -0.022977180907982075 0 0.020143715282656072 -0.022677962981549844 0 0.019054236860798809 -0.023870795182114657 0 0.018902188437964419 -0.023985866834068673 0 0.020268811951541427 -0.02284594961894822 0 0.019439997186156785 -0.024214080756388295 0 0.020348765338330126 -0.022826928492194164 0 0.01989046741588241 -0.024653772238351031 0 0.019917826786369313 -0.024456879552696702 0 0.020162836320342929 -0.023890659327117061 0 0.017846692588606036 -0.024203499172248864 0 0.016525234101856509 -0.024184439453721937 0 0.017710448061060972 -0.024270767969649509 0 0.017097086521598599 -0.024985373358945039 0 0.015953528154291751 -0.025120364323612508 0 0.016525234101856509 -0.024184439453721937 0 0.017710448061060972 -0.024270767969649509 0 0.017059495678956729 -0.024754931912827436 0 0.016525234101856509 -0.024184439453721937 0 0.017059495678956729 -0.024754931912827436 0 0.01612753127826265 -0.024974864243222945 0 0.016525234101856509 -0.024184439453721937 0 0.01612753127826265 -0.024974864243222945 0 0.014976368442875672 -0.025172679253221506 0 0.015953528154291751 -0.025120364323612508 0 0.01511162309490334 -0.025213912768105921 0 0.015539587899796356 -0.025279612619676494 0 0.01612753127826265 -0.024974864243222945 0 0.014976368442875672 -0.025172679253221506 0 0.015539587899796356 -0.025279612619676494 0 0.01612753127826265 -0.024974864243222945 0 0.016506435326962547 -0.025441576056385039 0 0.017059495678956729 -0.024754931912827436 0 0.01612753127826265 -0.024974864243222945 0 0.016506435326962547 -0.025441576056385039 0 0.017059495678956729 -0.024754931912827436 0 0.016506435326962547 -0.025441576056385039 0 0.017374490224301344 -0.025231762561303828 0 0.016506435326962547 -0.025441576056385039 0 0.017629250177922932 -0.026196984911246304 0 0.016525929880972838 -0.026300096412899723 0 0.016506435326962547 -0.025441576056385039 0 0.017374490224301344 -0.025231762561303828 0 0.017629250177922932 -0.026196984911246304 0 0.016506435326962547 -0.025441576056385039 0 0.015781559602592383 -0.025835613966924569 0 0.016525929880972838 -0.026300096412899723 0 0.015781559602592383 -0.025835613966924569 0 0.015215434762849669 -0.026549037479440745 0 0.01509120775165314 -0.025738109638752026 0 0.015539587899796356 -0.025279612619676494 0 0.015781559602592383 -0.025835613966924569 0 0.01509120775165314 -0.025738109638752026 0 0.015539587899796356 -0.025279612619676494 0 0.016506435326962547 -0.025441576056385039 0 0.015781559602592383 -0.025835613966924569 0 0.020203686046396628 -0.02272391609492757 0 0.020268811951541427 -0.02284594961894822 0 0.02024211309649223 -0.022751703894501936 0 0.020203686046396628 -0.02272391609492757 0 0.019898504357305596 -0.022977180907982075 0 0.020143715282656072 -0.022677962981549844 0 0.020203686046396628 -0.02272391609492757 0 0.019898504357305596 -0.022977180907982075 0 0.020268811951541427 -0.02284594961894822 0 0.018047169282634327 -0.024572416372832497 0 0.017374490224301344 -0.025231762561303828 0 0.018108701582536236 -0.025185987999304878 0 0.017374490224301344 -0.025231762561303828 0 0.018108701582536236 -0.025185987999304878 0 0.017629250177922932 -0.026196984911246304 0 0.019148271144711088 -0.023975641062042728 0 0.018947893426041321 -0.024497753397165672 0 0.020203686046396628 -0.02272391609492757 0 0.02024211309649223 -0.022751703894501936 0 0.020494318341528265 -0.022696731091830714 0 0.02024211309649223 -0.022751703894501936 0 0.020655195810854531 -0.023121994300582555 0 0.020494318341528265 -0.022696731091830714 0 0.018947893426041321 -0.024497753397165672 0 0.018707569572255608 -0.025369016144478545 0 0.02024211309649223 -0.022751703894501936 0 0.020141663689231037 -0.023284688912182005 0 0.020655195810854531 -0.023121994300582555 0 0.017629250177922932 -0.026196984911246304 0 0.017254981638963458 -0.027552342601921829 0 0.016525929880972838 -0.026300096412899723 0 0.020141663689231037 -0.023284688912182005 0 0.020655195810854531 -0.023121994300582555 0 0.020628115410957659 -0.023708838859771094 0 0.015781559602592383 -0.025835613966924569 0 0.015215434762849669 -0.026549037479440745 0 0.016525929880972838 -0.026300096412899723 0 0.015215434762849669 -0.026549037479440745 0 0.016525929880972838 -0.026300096412899723 0 0.016104520011607209 -0.027298625795001349 0 0.017254981638963458 -0.027552342601921829 0 0.016525929880972838 -0.026300096412899723 0 0.016104520011607209 -0.027298625795001349 0 0.017254981638963458 -0.027552342601921829 0 0.016104520011607209 -0.027298625795001349 0 0.015852367698999652 -0.028494264423214396 0 0.016104520011607209 -0.027298625795001349 0 0.014978841576434393 -0.027591342468270504 0 0.015852367698999652 -0.028494264423214396 0 0.015215434762849669 -0.026549037479440745 0 0.016104520011607209 -0.027298625795001349 0 0.014978841576434393 -0.027591342468270504 0 0.014978841576434393 -0.027591342468270504 0 0.013330488487870737 -0.027199168324244582 0 0.014236433417536705 -0.028441270527052968 0 0.015215434762849669 -0.026549037479440745 0 0.014978841576434393 -0.027591342468270504 0 0.013330488487870737 -0.027199168324244582 0 0.015215434762849669 -0.026549037479440745 0 0.013892706954050454 -0.026078297744307456 0 0.013330488487870737 -0.027199168324244582 0 0.015215434762849669 -0.026549037479440745 0 0.013892706954050454 -0.026078297744307456 0 0.01509120775165314 -0.025738109638752026 0 0.013892706954050454 -0.026078297744307456 0 0.013330488487870737 -0.027199168324244582 0 0.011748558841776384 -0.026174844336088337 0 0.013330488487870737 -0.027199168324244582 0 0.010388125217625109 -0.026980759496306631 0 0.011748558841776384 -0.026174844336088337 0 0.013330488487870737 -0.027199168324244582 0 0.010388125217625109 -0.026980759496306631 0 0.01225515104558784 -0.028485220660746918 0 0.009862396484522324 -0.026056579715557155 0 0.010388125217625109 -0.026980759496306631 0 0.010639814413740905 -0.026158395507100238 0 0.010388125217625109 -0.026980759496306631 0 0.010639814413740905 -0.026158395507100238 0 0.011748558841776384 -0.026174844336088337 0 0.011793040873323163 -0.02631456452966088 0 0.01166243270119195 -0.024750334305891644 0 0.011748558841776384 -0.026174844336088337 0 0.010653252382192672 -0.025545198892157745 0 0.011228149333228951 -0.025449831443577649 0 0.009862396484522324 -0.026056579715557155 0 0.010639814413740905 -0.026158395507100238 0 0.010653252382192672 -0.025545198892157745 0 0.010639814413740905 -0.026158395507100238 0 0.011748558841776384 -0.026174844336088337 0 0.010653252382192672 -0.025545198892157745 0 0.010115349850030214 -0.025436093333078561 0 0.010900791863016854 -0.025405563565869753 0 0.010653252382192672 -0.025545198892157745 0 0.010900791863016854 -0.025405563565869753 0 0.010653252382192672 -0.025545198892157745 0 0.011228149333228951 -0.025449831443577649 0 0.013533399533703023 -0.023582450125634015 0 0.012460466420572733 -0.024613313828695475 0 0.013555746982263682 -0.024616377231795179 0 0.012460466420572733 -0.024613313828695475 0 0.013555746982263682 -0.024616377231795179 0 0.013429433245528083 -0.02528741587528666 0 0.013555746982263682 -0.024616377231795179 0 0.014756639860722119 -0.025028631781960603 0 0.013429433245528083 -0.02528741587528666 0 0.013533399533703023 -0.023582450125634015 0 0.013555746982263682 -0.024616377231795179 0 0.014756639860722119 -0.025028631781960603 0 0.015222657516571354 -0.025486705420059413 0 0.014976368442875672 -0.025172679253221506 0 0.014756639860722119 -0.025028631781960603 0 0.014301264346559532 -0.024450738522567624 0 0.014753986965028941 -0.025015719149253487 0 0.015539587899796356 -0.025279612619676494 0 0.014976368442875672 -0.025172679253221506 0 0.014756639860722119 -0.025028631781960603 0 0.014756639860722119 -0.025028631781960603 0 0.014314274994836578 -0.025537623738189564 0 0.013429433245528083 -0.02528741587528666 0 0.015539587899796356 -0.025279612619676494 0 0.014756639860722119 -0.025028631781960603 0 0.01509120775165314 -0.025738109638752026 0 0.014756639860722119 -0.025028631781960603 0 0.014314274994836578 -0.025537623738189564 0 0.01509120775165314 -0.025738109638752026 0 0.013892706954050454 -0.026078297744307456 0 0.014314274994836578 -0.025537623738189564 0 0.01509120775165314 -0.025738109638752026 0 0.013892706954050454 -0.026078297744307456 0 0.014314274994836578 -0.025537623738189564 0 0.013429433245528083 -0.02528741587528666 0 0.013892706954050454 -0.026078297744307456 0 0.011748558841776384 -0.026174844336088337 0 0.013429433245528083 -0.02528741587528666 0 0.011748558841776384 -0.026174844336088337 0 0.012460466420572733 -0.024613313828695475 0 0.013429433245528083 -0.02528741587528666 0 0.025002349133988834 -0.022408310934296911 0 0.023807684602354929 -0.022838669238112098 0 0.024999648264141975 -0.022407601262429914 0 0.026260981861427408 -0.022066034009975345 0 0.025372249531965912 -0.021103371675572673 0 0.02499781389550957 -0.022414203506130388 0 0.024369139593134165 -0.02406011076677711 0 0.024521250887865643 -0.024187298688862983 0 0.024999011667675163 -0.024998052014482311 0 0.023585517683774659 -0.024758281418248193 0 0.022631604400261449 -0.024998812219154974 0 0.02499781389550957 -0.022414203506130388 0 0.024999011667675163 -0.024998052014482311 0 0.024521250887865643 -0.024187298688862983 0 0.024999011667675163 -0.024998052014482311 0 0.024521250887865643 -0.024187298688862983 0 0.023585517683774659 -0.024758281418248193 0 0.024521250887865643 -0.024187298688862983 0 0.023585517683774659 -0.024758281418248193 0 0.023561133207853049 -0.024777345196918973 0 0.023585517683774659 -0.024758281418248193 0 0.022631604400261449 -0.024998812219154974 0 0.02229585162810795 -0.025217827608393202 0 0.023585517683774659 -0.024758281418248193 0 0.023561133207853049 -0.024777345196918973 0 0.02229585162810795 -0.025217827608393202 0 0.021267377566900645 -0.024682577535382728 0 0.021080103972093037 -0.024910350861695185 0 0.01953919928565041 -0.024440185366077141 0 0.019613915587019616 -0.024170876655150417 0 0.019839657488503106 -0.024431168435335437 0 0.024369139593134165 -0.02406011076677711 0 0.024521250887865643 -0.024187298688862983 0 0.023561133207853049 -0.024777345196918973 0 0.023807684602354929 -0.022838669238112098 0 0.021267377566900645 -0.024682577535382728 0 0.01943092239636203 -0.024228684462452663 0 0.01953919928565041 -0.024440185366077141 0 0.019613915587019616 -0.024170876655150417 0 0.023807684602354929 -0.022838669238112098 0 0.021493730183940442 -0.022281777364620121 0 0.019613915587019616 -0.024170876655150417 0 0.01968584824155651 -0.023958082436085052 0 0.019839657488503106 -0.024431168435335437 0 0.021493730183940442 -0.022281777364620121 0 0.021214093234317565 -0.022463050892531675 0 0.01968584824155651 -0.023958082436085052 0 0.019839657488503106 -0.024431168435335437 0 0.019904089456798203 -0.024183877855566489 0 0.019839657488503106 -0.024431168435335437 0 0.019902972799869224 -0.024775561998010971 0 0.019904089456798203 -0.024183877855566489 0 0.01953919928565041 -0.024440185366077141 0 0.019839657488503106 -0.024431168435335437 0 0.01984439372731996 -0.0248097765587246 0 0.022631604400261449 -0.024998812219154974 0 0.02229585162810795 -0.025217827608393202 0 0.02092314741516195 -0.025000103576390459 0 0.019839657488503106 -0.024431168435335437 0 0.01984439372731996 -0.0248097765587246 0 0.020255856191890621 -0.024909529300607407 0 0.01984439372731996 -0.0248097765587246 0 0.020919224987718001 -0.024999525389293075 0 0.020255856191890621 -0.024909529300607407 0 0.021080103972093037 -0.024910350861695185 0 0.020922693985871446 -0.024999808326639589 0 0.020919224987718001 -0.024999525389293075 0 0.020255856191890621 -0.024909529300607407 0 0.019433021759889296 -0.024999303200195708 0 0.019839657488503106 -0.024431168435335437 0 0.020255856191890621 -0.024909529300607407 0 0.019902972799869224 -0.024775561998010971 0 0.020255856191890621 -0.024909529300607407 0 0.019902972799869224 -0.024775561998010971 0 0.019433021759889296 -0.024999303200195708 0 0.018645662512852275 -0.024804691762069037 0 0.019433021759889296 -0.024999303200195708 0 0.019364144510494438 -0.024805426830306114 0 0.019902972799869224 -0.024775561998010971 0 0.019364144510494438 -0.024805426830306114 0 0.019909044111754509 -0.024494258743941778 0 0.019902972799869224 -0.024775561998010971 0 0.019433021759889296 -0.024999303200195708 0 0.019364144510494438 -0.024805426830306114 0 0.019649621473921085 -0.024631376243659488 0 0.019364144510494438 -0.024805426830306114 0 0.019909044111754509 -0.024494258743941778 0 0.019917826786369313 -0.024456879552696702 0 0.019909044111754509 -0.024494258743941778 0 0.020162836320342929 -0.023890659327117061 0 0.019649621473921085 -0.024631376243659488 0 0.019917826786369313 -0.024456879552696702 0 0.019909044111754509 -0.024494258743941778 0 0.019902972799869224 -0.024775561998010971 0 0.019909044111754509 -0.024494258743941778 0 0.019904089456798203 -0.024183877855566489 0 0.019909044111754509 -0.024494258743941778 0 0.019904089456798203 -0.024183877855566489 0 0.020176179451147389 -0.023791897615134134 0 0.019904089456798203 -0.024183877855566489 0 0.020176179451147389 -0.023791897615134134 0 0.020467562512381531 -0.022785827510716821 0 0.01968584824155651 -0.023958082436085052 0 0.019904089456798203 -0.024183877855566489 0 0.020467562512381531 -0.022785827510716821 0 0.020366372375296458 -0.023322587609862461 0 0.020176179451147389 -0.023791897615134134 0 0.020467562512381531 -0.022785827510716821 0 0.01989046741588241 -0.024653772238351031 0 0.020162836320342929 -0.023890659327117061 0 0.020569492424074524 -0.022848083315326527 0 0.020366372375296458 -0.023322587609862461 0 0.020162836320342929 -0.023890659327117061 0 0.020176179451147389 -0.023791897615134134 0 0.020366372375296458 -0.023322587609862461 0 0.020162836320342929 -0.023890659327117061 0 0.020569492424074524 -0.022848083315326527 0 0.019909044111754509 -0.024494258743941778 0 0.020162836320342929 -0.023890659327117061 0 0.020176179451147389 -0.023791897615134134 0 0.020569492424074524 -0.022848083315326527 0 0.020467562512381531 -0.022785827510716821 0 0.021211539289794048 -0.022480141561176396 0 0.020203686046396628 -0.02272391609492757 0 0.020143715282656072 -0.022677962981549844 0 0.020494318341528265 -0.022696731091830714 0 0.020366372375296458 -0.023322587609862461 0 0.020569492424074524 -0.022848083315326527 0 0.020467562512381531 -0.022785827510716821 0 0.021214093234317565 -0.022463050892531675 0 0.020601648857793906 -0.022714508082912956 0 0.020467562512381531 -0.022785827510716821 0 0.021534133811544384 -0.022088092409543854 0 0.021211539289794048 -0.022480141561176396 0 0.022426139691938313 -0.020929267335370906 0 0.020467562512381531 -0.022785827510716821 0 0.021534133811544384 -0.022088092409543854 0 0.021534133811544384 -0.022088092409543854 0 0.021211539289794048 -0.022480141561176396 0 0.022563734041853682 -0.021944001459147679 0 0.020143715282656072 -0.022677962981549844 0 0.021211539289794048 -0.022480141561176396 0 0.020494318341528265 -0.022696731091830714 0 0.020348765338330126 -0.022826928492194164 0 0.021085889538767052 -0.022543081740818548 0 0.020655195810854531 -0.023121994300582555 0 0.020494318341528265 -0.022696731091830714 0 0.021085563617327902 -0.022997319979140167 0 0.021211539289794048 -0.022480141561176396 0 0.020494318341528265 -0.022696731091830714 0 0.021085563617327902 -0.022997319979140167 0 0.020655195810854531 -0.023121994300582555 0 0.021225953903942826 -0.023553650036575179 0 0.020628115410957659 -0.023708838859771094 0 0.020655195810854531 -0.023121994300582555 0 0.021085563617327902 -0.022997319979140167 0 0.021225953903942826 -0.023553650036575179 0 0.021085563617327902 -0.022997319979140167 0 0.021845926177584511 -0.023063950440407516 0 0.021225953903942826 -0.023553650036575179 0 0.021845926177584511 -0.023063950440407516 0 0.022004412526417473 -0.02367275734410899 0 0.021225953903942826 -0.023553650036575179 0 0.021211539289794048 -0.022480141561176396 0 0.021085563617327902 -0.022997319979140167 0 0.021845926177584511 -0.023063950440407516 0 0.021845926177584511 -0.023063950440407516 0 0.024119242100507997 -0.021826835880224306 0 0.022563734041853682 -0.021944001459147679 0 0.021211539289794048 -0.022480141561176396 0 0.021845926177584511 -0.023063950440407516 0 0.022563734041853682 -0.021944001459147679 0 0.021845926177584511 -0.023063950440407516 0 0.023076800333004029 -0.023457683819268049 0 0.022004412526417473 -0.02367275734410899 0 0.024281431230839565 -0.022038185286475175 0 0.024191143759959791 -0.021790380874785121 0 0.021845926177584511 -0.023063950440407516 0 0.023076800333004029 -0.023457683819268049 0 0.024119242100507997 -0.021826835880224306 0 0.024119242100507997 -0.021826835880224306 0 0.022563734041853682 -0.021944001459147679 0 0.024238846103775413 -0.021389754178004945 0 0.022426139691938313 -0.020929267335370906 0 0.021534133811544384 -0.022088092409543854 0 0.022563734041853682 -0.021944001459147679 0 0.022426139691938313 -0.020929267335370906 0 0.022563734041853682 -0.021944001459147679 0 0.024238846103775413 -0.021389754178004945 0 0.024105096630129139 -0.020472683905027073 0 0.022426139691938313 -0.020929267335370906 0 0.024238846103775413 -0.021389754178004945 0 0.024105096630129139 -0.020472683905027073 0 0.024892756895736973 -0.02097826287069229 0 0.024238846103775413 -0.021389754178004945 0 0.024971723953805498 -0.020440543092914543 0 0.024105096630129139 -0.020472683905027073 0 0.024892756895736973 -0.02097826287069229 0 0.024892756895736973 -0.02097826287069229 0 0.024238846103775413 -0.021389754178004945 0 0.024888874837528836 -0.020853606114561253 0 0.025493747162264983 -0.020836005722943217 0 0.024119242100507997 -0.021826835880224306 0 0.024567960084560143 -0.021220049337039505 0 0.024119242100507997 -0.021826835880224306 0 0.024238846103775413 -0.021389754178004945 0 0.024567960084560143 -0.021220049337039505 0 0.025493747162264983 -0.020836005722943217 0 0.024567960084560143 -0.021220049337039505 0 0.024698711689078473 -0.020483060292179094 0 0.024698711689078473 -0.020483060292179094 0 0.024888874837528836 -0.020853606114561253 0 0.024849068154134485 -0.020046476419660071 0 0.024567960084560143 -0.021220049337039505 0 0.024698711689078473 -0.020483060292179094 0 0.024888874837528836 -0.020853606114561253 0 0.024238846103775413 -0.021389754178004945 0 0.024567960084560143 -0.021220049337039505 0 0.024888874837528836 -0.020853606114561253 0 0.024888874837528836 -0.020853606114561253 0 0.024849068154134485 -0.020046476419660071 0 0.025114666672958811 -0.020749211546151038 0 0.024849068154134485 -0.020046476419660071 0 0.024999154934934178 -0.019102087483541315 0 0.024670269457949669 -0.020077004047472674 0 0.024849068154134485 -0.020046476419660071 0 0.024999154934934178 -0.019102087483541315 0 0.024999879376971432 -0.020201063436919995 0 0.024849068154134485 -0.020046476419660071 0 0.024999879376971432 -0.020201063436919995 0 0.025114666672958811 -0.020749211546151038 0 0.024999879376971432 -0.020201063436919995 0 0.025170601155572139 -0.020835071833153123 0 0.025114666672958811 -0.020749211546151038 0 0.025170601155572139 -0.020835071833153123 0 0.025114666672958811 -0.020749211546151038 0 0.025372249531965912 -0.021103371675572673 0 0.024999879376971432 -0.020201063436919995 0 0.025170601155572139 -0.020835071833153123 0 0.024999755608654157 -0.021304679306150823 0 0.024892756895736973 -0.02097826287069229 0 0.024888874837528836 -0.020853606114561253 0 0.025114666672958811 -0.020749211546151038 0 0.024892756895736973 -0.02097826287069229 0 0.025114666672958811 -0.020749211546151038 0 0.025372249531965912 -0.021103371675572673 0 0.023807684602354929 -0.022838669238112098 0 0.025752908968472654 -0.020795459171811879 0 0.024971723953805498 -0.020440543092914543 0 0.024892756895736973 -0.02097826287069229 0 0.025372249531965912 -0.021103371675572673 0 0.024999648264141975 -0.022407601262429914 0 0.024999755608654157 -0.021304679306150823 0 0.025372249531965912 -0.021103371675572673 0 0.025170601155572139 -0.020835071833153123 0 0.024999755608654157 -0.021304679306150823 0 0.025372249531965912 -0.021103371675572673 0 0.025000003238113157 -0.015815640598669901 0 0.02499999680402604 -0.016824814353426431 0 0.025242748221026682 -0.01562216865797752 0 0.02556852621179969 -0.016657668912654935 0 0.024999559184231235 -0.016825691539842098 0 0.024893340981934856 -0.016241147013900552 0 0.024999999024939455 -0.016824609194135844 0 0.025066578466949679 -0.015912547756817969 0 0.02556852621179969 -0.016657668912654935 0 0.025482091127432049 -0.01731191290748155 0 0.0259704686628285 -0.017292954752649595 0 0.02556852621179969 -0.016657668912654935 0 0.024999559184231235 -0.016825691539842098 0 0.025482091127432049 -0.01731191290748155 0 0.02499987655973834 -0.01796114883979457 0 0.025645213287569645 -0.018079657480029945 0 0.025482091127432049 -0.01731191290748155 0 0.024999559184231235 -0.016825691539842098 0 0.02499987655973834 -0.01796114883979457 0 0.025482091127432049 -0.01731191290748155 0 0.025000005363602439 -0.019098287064219437 0 0.02499987655973834 -0.01796114883979457 0 0.025645213287569645 -0.018079657480029945 0 0.024999942161229135 -0.019098463383145678 0 0.025110501058110243 -0.019049557176263106 0 0.024849068154134485 -0.020046476419660071 0 0.024670269457949669 -0.020077004047472674 0 0.024585795651497731 -0.020071072312333127 0 0.025110501058110243 -0.019049557176263106 0 0.025246260171151398 -0.018386903290926532 0 0.025645213287569645 -0.018079657480029945 0 0.025482091127432049 -0.01731191290748155 0 0.0259704686628285 -0.017292954752649595 0 0.024670269457949669 -0.020077004047472674 0 0.024455132808752281 -0.019499843256510163 0 0.024585795651497731 -0.020071072312333127 0 0.024455132808752281 -0.019499843256510163 0 0.024585795651497731 -0.020071072312333127 0 0.025198629247834552 -0.019867291225104083 0 0.024698711689078473 -0.020483060292179094 0 0.024849068154134485 -0.020046476419660071 0 0.024585795651497731 -0.020071072312333127 0 0.024698711689078473 -0.020483060292179094 0 0.024585795651497731 -0.020071072312333127 0 0.025198629247834552 -0.019867291225104083 0 0.025493747162264983 -0.020836005722943217 0 0.024698711689078473 -0.020483060292179094 0 0.025198629247834552 -0.019867291225104083 0 0.024455132808752281 -0.019499843256510163 0 0.025198629247834552 -0.019867291225104083 0 0.025135478170464933 -0.018146127841492082 0 0.025198629247834552 -0.019867291225104083 0 0.025135478170464933 -0.018146127841492082 0 0.026094056566359044 -0.018757207592607111 0 0.025246260171151398 -0.018386903290926532 0 0.025779957963022151 -0.01744697416453897 0 0.02556852621179969 -0.016657668912654935 0 0.0259704686628285 -0.017292954752649595 0 0.026335442782204701 -0.016763174616302598 0 0.02556852621179969 -0.016657668912654935 0 0.026335442782204701 -0.016763174616302598 0 0.0259705856866469 -0.016226239638598861 0 0.026335442782204701 -0.016763174616302598 0 0.026357261852528145 -0.016235507216570206 0 0.0259705856866469 -0.016226239638598861 0 0.026335442782204701 -0.016763174616302598 0 0.02668130841289057 -0.016495584180795216 0 0.026357261852528145 -0.016235507216570206 0 0.025779957963022151 -0.01744697416453897 0 0.026622112553675189 -0.016550996182820674 0 0.025135478170464933 -0.018146127841492082 0 0.026094056566359044 -0.018757207592607111 0 0.02668130841289057 -0.016495584180795216 0 0.027388663090903213 -0.018199016171168217 0 0.026094056566359044 -0.018757207592607111 0 0.02668130841289057 -0.016495584180795216 0 0.027388663090903213 -0.018199016171168217 0 0.027879576848202393 -0.016454173790251193 0 0.02668130841289057 -0.016495584180795216 0 0.024578465784105958 -0.020980669207892953 0 0.024807302137354808 -0.021645592401751085 0 0.021740671805619862 -0.024336564459319556 0 0.021455525395743687 -0.024346616743186875 0 0.021447672871470834 -0.024320052353293615 0 0.027388663090903213 -0.018199016171168217 0 0.026094056566359044 -0.018757207592607111 0 0.026440552829452849 -0.019814079530316629 0 0.025198629247834552 -0.019867291225104083 0 0.026094056566359044 -0.018757207592607111 0 0.026440552829452849 -0.019814079530316629 0 0.025493747162264983 -0.020836005722943217 0 0.025198629247834552 -0.019867291225104083 0 0.026440552829452849 -0.019814079530316629 0 0.024281431230839565 -0.022038185286475175 0 0.024343532316098759 -0.021933964035370464 0 0.023076800333004029 -0.023457683819268049 0 0.022208565910850225 -0.024069331330852282 0 0.022004412526417473 -0.02367275734410899 0 0.022208565910850225 -0.024069331330852282 0 0.022004412526417473 -0.02367275734410899 0 0.021634554416811315 -0.023996703296121163 0 0.024578465784105958 -0.020980669207892953 0 0.024343532316098759 -0.021933964035370464 0 0.021740671805619862 -0.024336564459319556 0 0.022208565910850225 -0.024069331330852282 0 0.021634554416811315 -0.023996703296121163 0 0.021634554416811315 -0.023996703296121163 0 0.021123806166953994 -0.0240040181902101 0 0.021366492534114098 -0.024227337482034927 0 0.022004412526417473 -0.02367275734410899 0 0.021634554416811315 -0.023996703296121163 0 0.021225953903942826 -0.023553650036575179 0 0.021634554416811315 -0.023996703296121163 0 0.021225953903942826 -0.023553650036575179 0 0.021123806166953994 -0.0240040181902101 0 0.021225953903942826 -0.023553650036575179 0 0.021123806166953994 -0.0240040181902101 0 0.020628115410957659 -0.023708838859771094 0 0.021123806166953994 -0.0240040181902101 0 0.021082192843034104 -0.024211496513472069 0 0.021366492534114098 -0.024227337482034927 0 0.021123806166953994 -0.0240040181902101 0 0.021082192843034104 -0.024211496513472069 0 0.020808589475425892 -0.024187360280278649 0 0.021082192843034104 -0.024211496513472069 0 0.021267552811473148 -0.02432568875893152 0 0.021033541406987842 -0.024326042490548778 0 0.021082192843034104 -0.024211496513472069 0 0.021267552811473148 -0.02432568875893152 0 0.021366492534114098 -0.024227337482034927 0 0.021740671805619862 -0.024336564459319556 0 0.021366492534114098 -0.024227337482034927 0 0.021455525395743687 -0.024346616743186875 0 0.021740671805619862 -0.024336564459319556 0 0.021634554416811315 -0.023996703296121163 0 0.021366492534114098 -0.024227337482034927 0 0.021267552811473148 -0.02432568875893152 0 0.021366492534114098 -0.024227337482034927 0 0.021455525395743687 -0.024346616743186875 0 0.021455525395743687 -0.024346616743186875 0 0.021376360035868677 -0.024337400975033296 0 0.021447672871470834 -0.024320052353293615 0 0.021455525395743687 -0.024346616743186875 0 0.021376360035868677 -0.024337400975033296 0 0.021282843297713714 -0.024388347942059831 0 0.021267552811473148 -0.02432568875893152 0 0.021282843297713714 -0.024388347942059831 0 0.021033541406987842 -0.024326042490548778 0 0.021282843297713714 -0.024388347942059831 0 0.021033541406987842 -0.024326042490548778 0 0.02098668401193042 -0.024400843790882854 0 0.021267552811473148 -0.02432568875893152 0 0.021455525395743687 -0.024346616743186875 0 0.021282843297713714 -0.024388347942059831 0 0.02130752814768732 -0.024262826014917388 0 0.020984820802072882 -0.024376364595077651 0 0.020592154034528111 -0.02362356727742947 0 0.021282843297713714 -0.024388347942059831 0 0.02130752814768732 -0.024262826014917388 0 0.0212266882458911 -0.024383129799283997 0 0.02125295033508505 -0.024208767960880669 0 0.02086549691661576 -0.023998869823333668 0 0.021376360035868677 -0.024337400975033296 0 0.021282843297713714 -0.024388347942059831 0 0.02130752814768732 -0.024262826014917388 0 0.021505876627086088 -0.013209898604384276 0 0.024807302137354808 -0.021645592401751085 0 0.021376360035868677 -0.024337400975033296 0 0.02130752814768732 -0.024262826014917388 0 0.021447672871470834 -0.024320052353293615 0 0.02130752814768732 -0.024262826014917388 0 0.021426006060639786 -0.024352421131417338 0 0.021447672871470834 -0.024320052353293615 0 0.019198216383425826 -0.0070315564998375416 0 0.019347158463714931 -0.0069521566319181022 0 0.019398522102742653 -0.007109823821729591 0 0.021505876627086088 -0.013209898604384276 0 0.01999633091833742 -0.015988731671591469 0 0.019347158463714931 -0.0069521566319181022 0 0.019398522102742653 -0.007109823821729591 0 0.019452666190944032 -0.0069134924142531017 0 0.02130752814768732 -0.024262826014917388 0 0.021426006060639786 -0.024352421131417338 0 0.020984820802072882 -0.024376364595077651 0 0.019347158463714931 -0.0069521566319181022 0 0.019417946080884641 -0.0067956188550443337 0 0.019452666190944032 -0.0069134924142531017 0 0.019347158463714931 -0.0069521566319181022 0 0.019417946080884641 -0.0067956188550443337 0 0.019340151348128151 -0.0066515464812425002 0 0.019417946080884641 -0.0067956188550443337 0 0.019471567456303067 -0.0066566955338718493 0 0.019340151348128151 -0.0066515464812425002 0 0.019471567456303067 -0.0066566955338718493 0 0.019340151348128151 -0.0066515464812425002 0 0.019530379960345266 -0.0065769525599834577 0 0.019910260263585545 -0.0069188925618471758 0 0.019792086919009473 -0.0070461907770383338 0 0.01972045249049301 -0.0068532947013666464 0 0.019914772577922627 -0.0073203776586439288 0 0.019910260263585545 -0.0069188925618471758 0 0.019792086919009473 -0.0070461907770383338 0 0.021505876627086088 -0.013209898604384276 0 0.01948721225629374 -0.0054480009839314412 0 0.019198216383425826 -0.0070315564998375416 0 0.019347158463714931 -0.0069521566319181022 0 0.019340151348128151 -0.0066515464812425002 0 0.019914772577922627 -0.0073203776586439288 0 0.019738202790792029 -0.0072196839258148555 0 0.019792086919009473 -0.0070461907770383338 0 0.019738202790792029 -0.0072196839258148555 0 0.019713187037679516 -0.0070689471706453285 0 0.019792086919009473 -0.0070461907770383338 0 0.019713187037679516 -0.0070689471706453285 0 0.019792086919009473 -0.0070461907770383338 0 0.01972045249049301 -0.0068532947013666464 0 0.024337915547579761 -0.010962607053670739 0 0.023766491491704362 -0.010048293624629681 0 0.027348374146012128 -0.013607116179774515 0 0.026969222065969054 -0.01412943996425205 0 0.027137905407838732 -0.014671374466357868 0 0.019713187037679516 -0.0070689471706453285 0 0.019602812531043953 -0.0071597013155820207 0 0.01972045249049301 -0.0068532947013666464 0 0.027348374146012128 -0.013607116179774515 0 0.027137905407838732 -0.014671374466357868 0 0.028289997675314923 -0.013149075357757388 0 0.027348374146012128 -0.013607116179774515 0 0.026969222065969054 -0.01412943996425205 0 0.02673974838171839 -0.013800367197023279 0 0.023657394965924033 -0.011128588014071027 0 0.024337915547579761 -0.010962607053670739 0 0.026969222065969054 -0.01412943996425205 0 0.027137905407838732 -0.014671374466357868 0 0.026928345445450134 -0.014610028064998422 0 0.027372536028727891 -0.015000033852567644 0 0.026878305214299722 -0.014744673762824729 0 0.027038776814867084 -0.015094949904625159 0 0.019738202790792029 -0.0072196839258148555 0 0.019713187037679516 -0.0070689471706453285 0 0.019602812531043953 -0.0071597013155820207 0 0.024337915547579761 -0.010962607053670739 0 0.02523767127529777 -0.011547277755816859 0 0.024337915547579761 -0.010962607053670739 0 0.0243538522001264 -0.011402771375586977 0 0.026988297558354048 -0.014681216299696641 0 0.026928345445450134 -0.014610028064998422 0 0.026877086049868094 -0.014797491759647801 0 0.026928345445450134 -0.014610028064998422 0 0.026877086049868094 -0.014797491759647801 0 0.026756309073363054 -0.014762575124892966 0 0.026878305214299722 -0.014744673762824729 0 0.026886132071809898 -0.014970868971013723 0 0.027038776814867084 -0.015094949904625159 0 0.026878305214299722 -0.014744673762824729 0 0.026877086049868094 -0.014797491759647801 0 0.026886132071809898 -0.014970868971013723 0 0.026877086049868094 -0.014797491759647801 0 0.026886132071809898 -0.014970868971013723 0 0.026727522727162788 -0.014943995582171216 0 0.026886132071809898 -0.014970868971013723 0 0.026708152249442434 -0.015208180139791274 0 0.026727522727162788 -0.014943995582171216 0 0.026708152249442434 -0.015208180139791274 0 0.026609276823276511 -0.015669094395933329 0 0.027038776814867084 -0.015094949904625159 0 0.026609276823276511 -0.015669094395933329 0 0.027038776814867084 -0.015094949904625159 0 0.02725704361403616 -0.015623534777710587 0 0.026886132071809898 -0.014970868971013723 0 0.026708152249442434 -0.015208180139791274 0 0.027038776814867084 -0.015094949904625159 0 0.021505876627086088 -0.013209898604384276 0 0.023657394965924033 -0.011128588014071027 0 0.027372536028727891 -0.015000033852567644 0 0.027038776814867084 -0.015094949904625159 0 0.02725704361403616 -0.015623534777710587 0 0.028103180815107036 -0.015288232181107727 0 0.027372536028727891 -0.015000033852567644 0 0.02725704361403616 -0.015623534777710587 0 0.028103180815107036 -0.015288232181107727 0 0.02725704361403616 -0.015623534777710587 0 0.027879576848202393 -0.016454173790251193 0 0.02725704361403616 -0.015623534777710587 0 0.027879576848202393 -0.016454173790251193 0 0.02668130841289057 -0.016495584180795216 0 0.026609276823276511 -0.015669094395933329 0 0.02668130841289057 -0.016495584180795216 0 0.026357261852528145 -0.016235507216570206 0 0.026609276823276511 -0.015669094395933329 0 0.02725704361403616 -0.015623534777710587 0 0.02668130841289057 -0.016495584180795216 0 0.026609276823276511 -0.015669094395933329 0 0.026357261852528145 -0.016235507216570206 0 0.026154071034756445 -0.015565002132591974 0 0.026357261852528145 -0.016235507216570206 0 0.0259705856866469 -0.016226239638598861 0 0.026154071034756445 -0.015565002132591974 0 0.0259705856866469 -0.016226239638598861 0 0.026154071034756445 -0.015565002132591974 0 0.025399482401692628 -0.015713890892721169 0 0.025757164037753095 -0.015114957893031852 0 0.026154071034756445 -0.015565002132591974 0 0.025399482401692628 -0.015713890892721169 0 0.025757164037753095 -0.015114957893031852 0 0.026154071034756445 -0.015565002132591974 0 0.026206255713875796 -0.014942991853106094 0 0.026154071034756445 -0.015565002132591974 0 0.026453900740734455 -0.015416549252775073 0 0.026494293212079793 -0.015091273158473181 0 0.026154071034756445 -0.015565002132591974 0 0.026494293212079793 -0.015091273158473181 0 0.026206255713875796 -0.014942991853106094 0 0.026609276823276511 -0.015669094395933329 0 0.026154071034756445 -0.015565002132591974 0 0.026453900740734455 -0.015416549252775073 0 0.026708152249442434 -0.015208180139791274 0 0.026609276823276511 -0.015669094395933329 0 0.026453900740734455 -0.015416549252775073 0 0.026708152249442434 -0.015208180139791274 0 0.026453900740734455 -0.015416549252775073 0 0.026494293212079793 -0.015091273158473181 0 0.026708152249442434 -0.015208180139791274 0 0.026494293212079793 -0.015091273158473181 0 0.026727522727162788 -0.014943995582171216 0 0.026494293212079793 -0.015091273158473181 0 0.026727522727162788 -0.014943995582171216 0 0.026571058973244664 -0.014810846825893679 0 0.026877086049868094 -0.014797491759647801 0 0.026727522727162788 -0.014943995582171216 0 0.026756309073363054 -0.014762575124892966 0 0.026727522727162788 -0.014943995582171216 0 0.026571058973244664 -0.014810846825893679 0 0.026756309073363054 -0.014762575124892966 0 0.026571058973244664 -0.014810846825893679 0 0.026206255713875796 -0.014942991853106094 0 0.026386501110745812 -0.014594422539304264 0 0.026494293212079793 -0.015091273158473181 0 0.026571058973244664 -0.014810846825893679 0 0.026206255713875796 -0.014942991853106094 0 0.026386501110745812 -0.014594422539304264 0 0.026279650125486474 -0.014282883515540322 0 0.025966639434688105 -0.014479058146188687 0 0.026206255713875796 -0.014942991853106094 0 0.026386501110745812 -0.014594422539304264 0 0.025966639434688105 -0.014479058146188687 0 0.026386501110745812 -0.014594422539304264 0 0.026279650125486474 -0.014282883515540322 0 0.026535582258915634 -0.014202053227489334 0 0.026969222065969054 -0.01412943996425205 0 0.026638752827495726 -0.014551272102936793 0 0.026535582258915634 -0.014202053227489334 0 0.026928345445450134 -0.014610028064998422 0 0.026756309073363054 -0.014762575124892966 0 0.026638752827495726 -0.014551272102936793 0 0.026571058973244664 -0.014810846825893679 0 0.026386501110745812 -0.014594422539304264 0 0.026638752827495726 -0.014551272102936793 0 0.026571058973244664 -0.014810846825893679 0 0.026756309073363054 -0.014762575124892966 0 0.026638752827495726 -0.014551272102936793 0 0.026386501110745812 -0.014594422539304264 0 0.026638752827495726 -0.014551272102936793 0 0.026535582258915634 -0.014202053227489334 0 0.026969222065969054 -0.01412943996425205 0 0.026928345445450134 -0.014610028064998422 0 0.026638752827495726 -0.014551272102936793 0 0.026237107818569461 -0.01384989480389567 0 0.025776331211697662 -0.013042397448577263 0 0.026643963517245507 -0.013198210793059401 0 0.026969222065969054 -0.01412943996425205 0 0.02673974838171839 -0.013800367197023279 0 0.026535582258915634 -0.014202053227489334 0 0.026279650125486474 -0.014282883515540322 0 0.026237107818569461 -0.01384989480389567 0 0.025966639434688105 -0.014479058146188687 0 0.02673974838171839 -0.013800367197023279 0 0.026535582258915634 -0.014202053227489334 0 0.026237107818569461 -0.01384989480389567 0 0.026279650125486474 -0.014282883515540322 0 0.026535582258915634 -0.014202053227489334 0 0.026237107818569461 -0.01384989480389567 0 0.02673974838171839 -0.013800367197023279 0 0.026237107818569461 -0.01384989480389567 0 0.026643963517245507 -0.013198210793059401 0 0.027348374146012128 -0.013607116179774515 0 0.02673974838171839 -0.013800367197023279 0 0.026643963517245507 -0.013198210793059401 0 0.025522247709881891 -0.013941431830701454 0 0.025256158920730885 -0.013324293312924545 0 0.025776331211697662 -0.013042397448577263 0 0.026237107818569461 -0.01384989480389567 0 0.025522247709881891 -0.013941431830701454 0 0.025776331211697662 -0.013042397448577263 0 0.026237107818569461 -0.01384989480389567 0 0.025522247709881891 -0.013941431830701454 0 0.025966639434688105 -0.014479058146188687 0 0.025522247709881891 -0.013941431830701454 0 0.025966639434688105 -0.014479058146188687 0 0.025276986654975079 -0.014713415469583869 0 0.025757164037753095 -0.015114957893031852 0 0.025966639434688105 -0.014479058146188687 0 0.025276986654975079 -0.014713415469583869 0 0.025757164037753095 -0.015114957893031852 0 0.026206255713875796 -0.014942991853106094 0 0.025966639434688105 -0.014479058146188687 0 0.025276986654975079 -0.014713415469583869 0 0.024675006552896679 -0.014210745315796519 0 0.024748395667822561 -0.01537574490346102 0 0.025522247709881891 -0.013941431830701454 0 0.025276986654975079 -0.014713415469583869 0 0.024675006552896679 -0.014210745315796519 0 0.024675006552896679 -0.014210745315796519 0 0.025256158920730885 -0.013324293312924545 0 0.024804280083703278 -0.012889679161173829 0 0.025522247709881891 -0.013941431830701454 0 0.024675006552896679 -0.014210745315796519 0 0.025256158920730885 -0.013324293312924545 0 0.02517087791696955 -0.013737908512930452 0 0.025457627757706047 -0.01253093063628003 0 0.024999997265848527 -0.012526738714534405 0 0.025490107813891161 -0.012822362114792703 0 0.024999998951279398 -0.013797237963538678 0 0.025672104220297389 -0.013266302418204886 0 0.025460545276624599 -0.012922540670558213 0 0.02500000800127871 -0.013797324879085728 0 0.025672104220297389 -0.013266302418204886 0 0.025460545276624599 -0.012922540670558213 0 0.025860606344705071 -0.012227927517104144 0 0.025672104220297389 -0.013266302418204886 0 0.02500000800127871 -0.013797324879085728 0 0.025475771416446934 -0.014413410597559259 0 0.025522719630562463 -0.012808626762083974 0 0.025000061398739313 -0.013797115719802432 0 0.02517087791696955 -0.013737908512930452 0 0.025116240024575808 -0.014874802452627534 0 0.02500000800127871 -0.013797324879085728 0 0.024999983033448407 -0.014806392892294714 0 0.025475771416446934 -0.014413410597559259 0 0.025276986654975079 -0.014713415469583869 0 0.024748395667822561 -0.01537574490346102 0 0.025399482401692628 -0.015713890892721169 0 0.025757164037753095 -0.015114957893031852 0 0.025276986654975079 -0.014713415469583869 0 0.025399482401692628 -0.015713890892721169 0 0.02556852621179969 -0.016657668912654935 0 0.0259705856866469 -0.016226239638598861 0 0.025399482401692628 -0.015713890892721169 0 0.02556852621179969 -0.016657668912654935 0 0.025399482401692628 -0.015713890892721169 0 0.024893340981934856 -0.016241147013900552 0 0.025116240024575808 -0.014874802452627534 0 0.025066578466949679 -0.015912547756817969 0 0.025000003238113157 -0.015815640598669901 0 0.024999983033448407 -0.014806392892294714 0 0.025242748221026682 -0.01562216865797752 0 0.024748395667822561 -0.01537574490346102 0 0.025399482401692628 -0.015713890892721169 0 0.024893340981934856 -0.016241147013900552 0 0.024999983033448407 -0.014806392892294714 0 0.025475771416446934 -0.014413410597559259 0 0.025242748221026682 -0.01562216865797752 0 0.012828935180172857 -0.031030864124561741 0 0.012458035660565107 -0.030595454784973029 0 0.012379631211920422 -0.031487245468079336 0 0.012458035660565107 -0.030595454784973029 0 0.013959206254345661 -0.030334717568730764 0 0.013973749500279095 -0.03111784061489431 0 0.012828935180172857 -0.031030864124561741 0 0.012458035660565107 -0.030595454784973029 0 0.013394806062436621 -0.030887664697061234 0 0.012544407044365609 -0.030620017847664213 0 0.013757632323117261 -0.031100702443127782 0 0.013973749500279095 -0.03111784061489431 0 0.014859354069163996 -0.030675983152299725 0 0.01536512400299141 -0.031511686401058357 0 0.013757632323117261 -0.031100702443127782 0 0.015057683825368602 -0.028521388404179043 0 0.013959206254345661 -0.030334717568730764 0 0.013973749500279095 -0.03111784061489431 0 0.014859354069163996 -0.030675983152299725 0 0.012828935180172857 -0.031030864124561741 0 0.013394806062436621 -0.030887664697061234 0 0.013542751736696073 -0.0314659167343882 0 0.013394806062436621 -0.030887664697061234 0 0.014305609121924343 -0.03113693890355286 0 0.013924081771990036 -0.031299580491352334 0 0.013394806062436621 -0.030887664697061234 0 0.013542751736696073 -0.0314659167343882 0 0.013720927127196296 -0.031286445124878173 0 0.013394806062436621 -0.030887664697061234 0 0.013720927127196296 -0.031286445124878173 0 0.013924081771990036 -0.031299580491352334 0 0.012320309587808049 -0.021926317892957316 0 0.014129416992909902 -0.021801796712420579 0 0.013463191226101841 -0.021476912251502014 0 0.01387131919190481 -0.02699174417665038 0 0.013630438594350806 -0.026214642303480959 0 0.013542751736696073 -0.0314659167343882 0 0.013720927127196296 -0.031286445124878173 0 0.013918717790579561 -0.031290880651322919 0 0.012384767301808952 -0.021066474438447946 0 0.013630438594350806 -0.026214642303480959 0 0.012828935180172857 -0.031030864124561741 0 0.013542751736696073 -0.0314659167343882 0 0.012379631211920422 -0.031487245468079336 0 0.011614644125194241 -0.016484428176669327 0 0.012591682308310119 -0.016501043576533619 0 0.012546067790983701 -0.016030548892585882 0 0.012384767301808952 -0.021066474438447946 0 0.013001243676806216 -0.024218936364056323 0 0.012384767301808952 -0.021066474438447946 0 0.012690210845769675 -0.015303086854477635 0 0.013010155476112851 -0.016190652661044289 0 0.013404399445829159 -0.016598533207291138 0 0.013375453537430516 -0.015574080832444043 0 0.013001243676806216 -0.024218936364056323 0 0.0097716349993092928 -0.024042583425620091 0 0.012591682308310119 -0.016501043576533619 0 0.013010155476112851 -0.016190652661044289 0 0.013404399445829159 -0.016598533207291138 0 0.012591682308310119 -0.016501043576533619 0 0.012546067790983701 -0.016030548892585882 0 0.013010155476112851 -0.016190652661044289 0 0.0031648889510343019 -0.022506232376515826 0 0.0024068590914339506 -0.022427508751978159 0 0.0028119691749436508 -0.021826772445594094 0 0.0056421955266411509 -0.025599891260620102 0 0.0097716349993092928 -0.024042583425620091 0 0.0093092889385620395 -0.026991048895017911 0 0.0091932207242159478 -0.026797417695329728 0 0.0094546122344472214 -0.02671569230956931 0 0.0091045563052289565 -0.026967648245187693 0 0.0093092889385620395 -0.026991048895017911 0 0.0091932207242159478 -0.026797417695329728 0 0.0097716349993092928 -0.024042583425620091 0 0.010175258510602511 -0.029333748079934038 0 0.012379631211920422 -0.031487245468079336 0 0.010947263827734836 -0.031428684942760715 0 0.011704182276699905 -0.030606586091432728 0 0.010947263827734836 -0.031428684942760715 0 0.011704182276699905 -0.030606586091432728 0 0.010728776874190235 -0.029609188785818655 0 0.012458035660565107 -0.030595454784973029 0 0.012379631211920422 -0.031487245468079336 0 0.011704182276699905 -0.030606586091432728 0 0.012458035660565107 -0.030595454784973029 0 0.011704182276699905 -0.030606586091432728 0 0.012011388871347787 -0.029746381769809246 0 0.012011388871347787 -0.029746381769809246 0 0.010728776874190235 -0.029609188785818655 0 0.01225515104558784 -0.028485220660746918 0 0.011704182276699905 -0.030606586091432728 0 0.012011388871347787 -0.029746381769809246 0 0.010728776874190235 -0.029609188785818655 0 0.0090852336525445235 -0.026584753413005507 0 0.0091932207242159478 -0.026797417695329728 0 0.0094546122344472214 -0.02671569230956931 0 0.010316904022939614 -0.026450029697824846 0 0.010175258510602511 -0.029333748079934038 0 0.0090852336525445235 -0.026584753413005507 0 0.010388125217625109 -0.026980759496306631 0 0.0094546122344472214 -0.02671569230956931 0 0.010388125217625109 -0.026980759496306631 0 0.010728776874190235 -0.029609188785818655 0 0.01225515104558784 -0.028485220660746918 0 0.01225515104558784 -0.028485220660746918 0 0.01344898370482476 -0.029573604182918996 0 0.014236433417536705 -0.028441270527052968 0 0.013330488487870737 -0.027199168324244582 0 0.01225515104558784 -0.028485220660746918 0 0.014236433417536705 -0.028441270527052968 0 0.012458035660565107 -0.030595454784973029 0 0.013959206254345661 -0.030334717568730764 0 0.01344898370482476 -0.029573604182918996 0 0.012458035660565107 -0.030595454784973029 0 0.012011388871347787 -0.029746381769809246 0 0.01344898370482476 -0.029573604182918996 0 0.012011388871347787 -0.029746381769809246 0 0.01225515104558784 -0.028485220660746918 0 0.01344898370482476 -0.029573604182918996 0 0.01344898370482476 -0.029573604182918996 0 0.014236433417536705 -0.028441270527052968 0 0.014965593300489336 -0.029722894572682977 0 0.013959206254345661 -0.030334717568730764 0 0.01344898370482476 -0.029573604182918996 0 0.014965593300489336 -0.029722894572682977 0 0.013959206254345661 -0.030334717568730764 0 0.014965593300489336 -0.029722894572682977 0 0.014859354069163996 -0.030675983152299725 0 0.014978841576434393 -0.027591342468270504 0 0.014236433417536705 -0.028441270527052968 0 0.015852367698999652 -0.028494264423214396 0 0.014236433417536705 -0.028441270527052968 0 0.015852367698999652 -0.028494264423214396 0 0.014965593300489336 -0.029722894572682977 0 0.017254981638963458 -0.027552342601921829 0 0.015852367698999652 -0.028494264423214396 0 0.016884798507213361 -0.029216708042102198 0 0.015852367698999652 -0.028494264423214396 0 0.016884798507213361 -0.029216708042102198 0 0.015984036259784559 -0.029834385188725266 0 0.018426747858738844 -0.026791283803927451 0 0.018106863014384019 -0.026791877559975714 0 0.016884798507213361 -0.029216708042102198 0 0.015984036259784559 -0.029834385188725266 0 0.016494167998872048 -0.031033083625188876 0 0.015852367698999652 -0.028494264423214396 0 0.015984036259784559 -0.029834385188725266 0 0.014965593300489336 -0.029722894572682977 0 0.015984036259784559 -0.029834385188725266 0 0.014965593300489336 -0.029722894572682977 0 0.015726498071281618 -0.030760019441324782 0 0.020141663689231037 -0.023284688912182005 0 0.020014822183370275 -0.023902530668789009 0 0.020628115410957659 -0.023708838859771094 0 0.018707569572255608 -0.025369016144478545 0 0.018426747858738844 -0.026791283803927451 0 0.020014822183370275 -0.023902530668789009 0 0.020628115410957659 -0.023708838859771094 0 0.020439237651684341 -0.024045508424241697 0 0.020014822183370275 -0.023902530668789009 0 0.020439237651684341 -0.024045508424241697 0 0.020290017683723505 -0.024453959456657841 0 0.020439237651684341 -0.024045508424241697 0 0.020808589475425892 -0.024187360280278649 0 0.020290017683723505 -0.024453959456657841 0 0.020628115410957659 -0.023708838859771094 0 0.020439237651684341 -0.024045508424241697 0 0.020808589475425892 -0.024187360280278649 0 0.021123806166953994 -0.0240040181902101 0 0.020628115410957659 -0.023708838859771094 0 0.020808589475425892 -0.024187360280278649 0 0.021033541406987842 -0.024326042490548778 0 0.020797679588969973 -0.024324793713572088 0 0.02098668401193042 -0.024400843790882854 0 0.020808589475425892 -0.024187360280278649 0 0.021033541406987842 -0.024326042490548778 0 0.020797679588969973 -0.024324793713572088 0 0.021082192843034104 -0.024211496513472069 0 0.020808589475425892 -0.024187360280278649 0 0.021033541406987842 -0.024326042490548778 0 0.020808589475425892 -0.024187360280278649 0 0.020797679588969973 -0.024324793713572088 0 0.020647785849598865 -0.024219737750811945 0 0.020797679588969973 -0.024324793713572088 0 0.020647785849598865 -0.024219737750811945 0 0.020618408947299615 -0.024404450190794052 0 0.02062510988855755 -0.024265210365903574 0 0.020896633838876973 -0.024183218776023082 0 0.020647785849598865 -0.024219737750811945 0 0.020618408947299615 -0.024404450190794052 0 0.020457250010136617 -0.024387807419985197 0 0.020618408947299615 -0.024404450190794052 0 0.020813444022873894 -0.024534289083608125 0 0.02037608358184061 -0.024519923650273348 0 0.020991224811769543 -0.024330815291418582 0 0.021136223469098853 -0.024302621788016707 0 0.020756650501010145 -0.024245651279586306 0 0.021001882189142628 -0.024335626147318237 0 0.021026071029489047 -0.024335588365397284 0 0.0212266882458911 -0.024383129799283997 0 0.021173738997000088 -0.024443570023912613 0 0.019646832368523177 -0.02417179905050873 0 0.020261849917870608 -0.0236615036621667 0 0.019646832368523177 -0.02417179905050873 0 0.020991224811769543 -0.024330815291418582 0 0.021026071029489047 -0.024335588365397284 0 0.021136223469098853 -0.024302621788016707 0 0.020261849917870608 -0.0236615036621667 0 0.020380771002851978 -0.023697036120901592 0 0.020797679588969973 -0.024324793713572088 0 0.020618408947299615 -0.024404450190794052 0 0.020813444022873894 -0.024534289083608125 0 0.021282843297713714 -0.024388347942059831 0 0.020813444022873894 -0.024534289083608125 0 0.02098668401193042 -0.024400843790882854 0 0.021282843297713714 -0.024388347942059831 0 0.021136223469098853 -0.024302621788016707 0 0.0212266882458911 -0.024383129799283997 0 0.021026071029489047 -0.024335588365397284 0 0.021136223469098853 -0.024302621788016707 0 0.0212266882458911 -0.024383129799283997 0 0.021162298859588421 -0.024387835406983662 0 0.021173738997000088 -0.024443570023912613 0 0.020261849917870608 -0.0236615036621667 0 0.02086549691661576 -0.023998869823333668 0 0.020797679588969973 -0.024324793713572088 0 0.020813444022873894 -0.024534289083608125 0 0.02098668401193042 -0.024400843790882854 0 0.015726498071281618 -0.030760019441324782 0 0.016494167998872048 -0.031033083625188876 0 0.01536512400299141 -0.031511686401058357 0 0.014859354069163996 -0.030675983152299725 0 0.015726498071281618 -0.030760019441324782 0 0.01536512400299141 -0.031511686401058357 0 0.014965593300489336 -0.029722894572682977 0 0.014859354069163996 -0.030675983152299725 0 0.015726498071281618 -0.030760019441324782 0 0.015984036259784559 -0.029834385188725266 0 0.015726498071281618 -0.030760019441324782 0 0.016494167998872048 -0.031033083625188876 0 0.020014822183370275 -0.023902530668789009 0 0.020290017683723505 -0.024453959456657841 0 0.01980336144675697 -0.02466302247545402 0 0.020896633838876973 -0.024183218776023082 0 0.018106863014384019 -0.026791877559975714 0 0.020647785849598865 -0.024219737750811945 0 0.020457250010136617 -0.024387807419985197 0 0.020342286451725578 -0.024313851689159695 0 0.018106863014384019 -0.026791877559975714 0 0.015057683825368602 -0.028521388404179043 0 0.01746946528519128 -0.026216113331850158 0 0.017229139777443343 -0.027236445816867603 0 0.015933887710310568 -0.026819339662722215 0 0.02054079290314946 -0.023315756114561301 0 0.018119871499052097 -0.022515412879491308 0 0.017273497304645686 -0.023004054142735094 0 0.018106863014384019 -0.026791877559975714 0 0.017173324941272047 -0.024210854066343136 0 0.019384043667164834 -0.023035228308115784 0 0.017913416503631693 -0.022816803874107856 0 0.017867661160305099 -0.023016681383330167 0 0.020261849917870608 -0.0236615036621667 0 0.017139062364764045 -0.020703529767780886 0 0.017439141645301873 -0.02229200593820994 0 0.018119871499052097 -0.022515412879491308 0 0.017273497304645686 -0.023004054142735094 0 0.017173324941272047 -0.024210854066343136 0 0.019646832368523177 -0.02417179905050873 0 0.020457250010136617 -0.024387807419985197 0 0.020295447022760593 -0.024495769096699403 0 0.02037608358184061 -0.024519923650273348 0 0.020457250010136617 -0.024387807419985197 0 0.020342286451725578 -0.024313851689159695 0 0.020295447022760593 -0.024495769096699403 0 0.020618408947299615 -0.024404450190794052 0 0.020457250010136617 -0.024387807419985197 0 0.02037608358184061 -0.024519923650273348 0 0.016526104947695245 -0.021677365747516129 0 0.016378043728264364 -0.02231275955346745 0 0.015031901378047869 -0.022182515584096247 0 0.018479269798638759 -0.018822067803153934 0 0.018187598352501038 -0.020080041104316139 0 0.014240157749238558 -0.018422725103747688 0 0.017173324941272047 -0.024210854066343136 0 0.017139062364764045 -0.020703529767780886 0 0.017139062364764045 -0.020703529767780886 0 0.017683761585986123 -0.016066208380392799 0 0.011139541533661554 -0.015971547978195253 0 0.011389661679218573 -0.01609687884381595 0 0.011599809329356833 -0.015679388865375381 0 0.016825317287622096 -0.026014462451541917 0 0.015036071609362808 -0.025440327897011734 0 0.013983786251553207 -0.025857407832254872 0 0.017173324941272047 -0.024210854066343136 0 0.013630438594350806 -0.026214642303480959 0 0.016526104947695245 -0.021677365747516129 0 0.014129416992909902 -0.021801796712420579 0 0.013463191226101841 -0.021476912251502014 0 0.017683761585986123 -0.016066208380392799 0 0.014072207400974181 -0.01921880221999564 0 0.017139062364764045 -0.020703529767780886 0 0.014072207400974181 -0.01921880221999564 0 0.016526104947695245 -0.021677365747516129 0 0.015031901378047869 -0.022182515584096247 0 0.014129416992909902 -0.021801796712420579 0 0.012384767301808952 -0.021066474438447946 0 0.014072207400974181 -0.01921880221999564 0 0.012320309587808049 -0.021926317892957316 0 0.015023696258077522 -0.022171275410507046 0 0.014129416992909902 -0.021801796712420579 0 0.011932099629434796 -0.016187557550704442 0 0.011389661679218573 -0.01609687884381595 0 0.011599809329356833 -0.015679388865375381 0 0.014072207400974181 -0.01921880221999564 0 0.01478374884499018 -0.020364765609975126 0 0.017173324941272047 -0.024210854066343136 0 0.015057683825368602 -0.028521388404179043 0 0.015057683825368602 -0.028521388404179043 0 0.013630438594350806 -0.026214642303480959 0 0.011139541533661554 -0.015971547978195253 0 0.011599809329356833 -0.015679388865375381 0 0.011267214544266314 -0.015166368969868867 0 0.017683761585986123 -0.016066208380392799 0 0.015403557606575798 -0.010277908650084063 0 0.019759467347383368 -0.0075051459187439815 0 0.01966460985691363 -0.0072217266613800171 0 0.019512114653071753 -0.0072556078255183558 0 0.019759467347383368 -0.0075051459187439815 0 0.01966460985691363 -0.0072217266613800171 0 0.019805956483710474 -0.0070784438566167179 0 0.017683761585986123 -0.016066208380392799 0 0.019781091570176969 -0.015451809260120882 0 0.019805956483710474 -0.0070784438566167179 0 0.019597094554976612 -0.0070493554561504345 0 0.019635286142375221 -0.0067591852807944034 0 0.01966460985691363 -0.0072217266613800171 0 0.019805956483710474 -0.0070784438566167179 0 0.019597094554976612 -0.0070493554561504345 0 0.011599809329356833 -0.015679388865375381 0 0.011267214544266314 -0.015166368969868867 0 0.01177311072232114 -0.014997949702432855 0 0.011267214544266314 -0.015166368969868867 0 0.011417736102167269 -0.014337973642321152 0 0.01177311072232114 -0.014997949702432855 0 0.019398522102742653 -0.007109823821729591 0 0.019512114653071753 -0.0072556078255183558 0 0.019494862338443823 -0.0070424565514173986 0 0.01999633091833742 -0.015988731671591469 0 0.019781091570176969 -0.015451809260120882 0 0.020984820802072882 -0.024376364595077651 0 0.020592154034528111 -0.02362356727742947 0 0.019606528519370014 -0.023801391995387298 0 0.019384043667164834 -0.023035228308115784 0 0.017867661160305099 -0.023016681383330167 0 0.019606528519370014 -0.023801391995387298 0 0.019384043667164834 -0.023035228308115784 0 0.020592154034528111 -0.02362356727742947 0 0.019606528519370014 -0.023801391995387298 0 0.01966460985691363 -0.0072217266613800171 0 0.019512114653071753 -0.0072556078255183558 0 0.019597094554976612 -0.0070493554561504345 0 0.019597094554976612 -0.0070493554561504345 0 0.019494862338443823 -0.0070424565514173986 0 0.019546145458493161 -0.0068445083841816405 0 0.019512114653071753 -0.0072556078255183558 0 0.019597094554976612 -0.0070493554561504345 0 0.019494862338443823 -0.0070424565514173986 0 0.019398522102742653 -0.007109823821729591 0 0.019494862338443823 -0.0070424565514173986 0 0.019452666190944032 -0.0069134924142531017 0 0.019494862338443823 -0.0070424565514173986 0 0.019452666190944032 -0.0069134924142531017 0 0.019546145458493161 -0.0068445083841816405 0 0.019452666190944032 -0.0069134924142531017 0 0.019546145458493161 -0.0068445083841816405 0 0.01950552340407025 -0.0067247950861588981 0 0.019417946080884641 -0.0067956188550443337 0 0.019452666190944032 -0.0069134924142531017 0 0.01950552340407025 -0.0067247950861588981 0 0.019546145458493161 -0.0068445083841816405 0 0.01960727561287803 -0.0065173237257354034 0 0.019635286142375221 -0.0067591852807944034 0 0.019597094554976612 -0.0070493554561504345 0 0.019546145458493161 -0.0068445083841816405 0 0.019635286142375221 -0.0067591852807944034 0 0.019546145458493161 -0.0068445083841816405 0 0.01960727561287803 -0.0065173237257354034 0 0.01950552340407025 -0.0067247950861588981 0 0.01960727561287803 -0.0065173237257354034 0 0.01950552340407025 -0.0067247950861588981 0 0.019544774307555714 -0.0065881312274142364 0 0.019471567456303067 -0.0066566955338718493 0 0.019544774307555714 -0.0065881312274142364 0 0.019530379960345266 -0.0065769525599834577 0 0.019471567456303067 -0.0066566955338718493 0 0.01950552340407025 -0.0067247950861588981 0 0.019544774307555714 -0.0065881312274142364 0 0.019417946080884641 -0.0067956188550443337 0 0.019471567456303067 -0.0066566955338718493 0 0.01950552340407025 -0.0067247950861588981 0 0.015403557606575798 -0.010277908650084063 0 0.015552538412252211 -0.010677378042848946 0 0.019805956483710474 -0.0070784438566167179 0 0.019723859705069811 -0.0066832531753333166 0 0.019635286142375221 -0.0067591852807944034 0 0.01960727561287803 -0.0065173237257354034 0 0.019635286142375221 -0.0067591852807944034 0 0.019549489526440814 -0.0064610369947853477 0 0.019723859705069811 -0.0066832531753333166 0 0.019635286142375221 -0.0067591852807944034 0 0.019549489526440814 -0.0064610369947853477 0 0.011417736102167269 -0.014337973642321152 0 0.011999101116918626 -0.014349530840455519 0 0.011600360658249017 -0.013505110303746683 0 0.019723859705069811 -0.0066832531753333166 0 0.019549489526440814 -0.0064610369947853477 0 0.019436141008772303 -0.0063708125238204072 0 0.015552538412252211 -0.010677378042848946 0 0.015544289084740774 -0.010019320835845473 0 0.012419608281326452 -0.013892701217895606 0 0.011999101116918626 -0.014349530840455519 0 0.011600360658249017 -0.013505110303746683 0 0.012419608281326452 -0.013892701217895606 0 0.011999101116918626 -0.014349530840455519 0 0.012745727648934535 -0.01446224342048533 0 0.011999101116918626 -0.014349530840455519 0 0.012292403755012248 -0.015009599654429872 0 0.012745727648934535 -0.01446224342048533 0 0.011417736102167269 -0.014337973642321152 0 0.011999101116918626 -0.014349530840455519 0 0.01177311072232114 -0.014997949702432855 0 0.011999101116918626 -0.014349530840455519 0 0.01177311072232114 -0.014997949702432855 0 0.012292403755012248 -0.015009599654429872 0 0.01177311072232114 -0.014997949702432855 0 0.012292403755012248 -0.015009599654429872 0 0.012101862486749821 -0.01561081731392522 0 0.012292403755012248 -0.015009599654429872 0 0.012834179406509459 -0.01517622741843736 0 0.012745727648934535 -0.01446224342048533 0 0.012292403755012248 -0.015009599654429872 0 0.012517466049411403 -0.015504950927909404 0 0.012101862486749821 -0.01561081731392522 0 0.012292403755012248 -0.015009599654429872 0 0.012517466049411403 -0.015504950927909404 0 0.012834179406509459 -0.01517622741843736 0 0.011932099629434796 -0.016187557550704442 0 0.012546067790983701 -0.016030548892585882 0 0.012101862486749821 -0.01561081731392522 0 0.012546067790983701 -0.016030548892585882 0 0.012517466049411403 -0.015504950927909404 0 0.012831198417220054 -0.015711207877438949 0 0.012546067790983701 -0.016030548892585882 0 0.012517466049411403 -0.015504950927909404 0 0.012101862486749821 -0.01561081731392522 0 0.011599809329356833 -0.015679388865375381 0 0.01177311072232114 -0.014997949702432855 0 0.012101862486749821 -0.01561081731392522 0 0.011932099629434796 -0.016187557550704442 0 0.011599809329356833 -0.015679388865375381 0 0.012101862486749821 -0.01561081731392522 0 0.0024068590914339506 -0.022427508751978159 0 0.0028119691749436508 -0.021826772445594094 0 0.0023306646520046869 -0.021218348288966769 0 0.0029798919362319441 -0.020743430663768957 0 0.0028119691749436508 -0.021826772445594094 0 0.0023306646520046869 -0.021218348288966769 0 0.0097716349993092928 -0.024042583425620091 0 0.0076572540956546739 -0.017432250943460622 0 0.013010155476112851 -0.016190652661044289 0 0.013375453537430516 -0.015574080832444043 0 0.012831198417220054 -0.015711207877438949 0 0.012546067790983701 -0.016030548892585882 0 0.013010155476112851 -0.016190652661044289 0 0.012831198417220054 -0.015711207877438949 0 0.012517466049411403 -0.015504950927909404 0 0.012831198417220054 -0.015711207877438949 0 0.012834179406509459 -0.01517622741843736 0 0.013375453537430516 -0.015574080832444043 0 0.012831198417220054 -0.015711207877438949 0 0.012834179406509459 -0.01517622741843736 0 0.013375453537430516 -0.015574080832444043 0 0.012834179406509459 -0.01517622741843736 0 0.013329115663966912 -0.014659993135655528 0 0.0076572540956546739 -0.017432250943460622 0 0.0077791179580104014 -0.017451495488600186 0 0.0029798919362319441 -0.020743430663768957 0 0.0023306646520046869 -0.021218348288966769 0 0.0022172157464363739 -0.020003057929902326 0 0.0029798919362319441 -0.020743430663768957 0 0.0031500149847323651 -0.019503541795450857 0 0.0022172157464363739 -0.020003057929902326 0 0.012834179406509459 -0.01517622741843736 0 0.013329115663966912 -0.014659993135655528 0 0.012745727648934535 -0.01446224342048533 0 0.012419608281326452 -0.013892701217895606 0 0.012745727648934535 -0.01446224342048533 0 0.013286861913784496 -0.013783564271964203 0 0.013329115663966912 -0.014659993135655528 0 0.012745727648934535 -0.01446224342048533 0 0.013286861913784496 -0.013783564271964203 0 0.0031500149847323651 -0.019503541795450857 0 0.0022172157464363739 -0.020003057929902326 0 0.0020675904894757193 -0.018610183358083749 0 0.0031500149847323651 -0.019503541795450857 0 0.0020675904894757193 -0.018610183358083749 0 0.002862824937628846 -0.01833415291103439 0 0.0077791179580104014 -0.017451495488600186 0 0.0078016440485230787 -0.016540951331549467 0 0.0078016440485230787 -0.016540951331549467 0 0.006429998069567699 -0.013165907468436294 0 0.001993075766124845 -0.017019703326715017 0 0.0032325619323666102 -0.017757616112224664 0 0.002862824937628846 -0.01833415291103439 0 0.0020675904894757193 -0.018610183358083749 0 0.001993075766124845 -0.017019703326715017 0 0.002862824937628846 -0.01833415291103439 0 0.012419608281326452 -0.013892701217895606 0 0.013286861913784496 -0.013783564271964203 0 0.012730522753808973 -0.013348683522917085 0 0.013286861913784496 -0.013783564271964203 0 0.012730522753808973 -0.013348683522917085 0 0.013236586215073429 -0.012944355894443611 0 0.0055315492570868902 -0.0034693626260691693 0 0.0091182285889186664 -0.0078973551790540684 0 0.011408230471609526 -0.0040246584251195051 0 0.012730522753808973 -0.013348683522917085 0 0.013236586215073429 -0.012944355894443611 0 0.012525017978707236 -0.012828959463176007 0 0.006429998069567699 -0.013165907468436294 0 0.012435592935232978 -0.0080321699199506959 0 0.006429998069567699 -0.013165907468436294 0 0.0020320511780548473 -0.017880621684288747 0 0.006429998069567699 -0.013165907468436294 0 0.004216846588912527 -0.011669710377984763 0 0.0028716316184766071 -0.016615923392134881 0 0.003115104483190044 -0.015724514603865893 0 0.0034446778743035858 -0.016042274948942139 0 0.0055315492570868902 -0.0034693626260691693 0 0.0055602743591017904 -0.0088515898612847206 0 0.0091182285889186664 -0.0078973551790540684 0 0.0091182285889186664 -0.0078973551790540684 0 0.0073888364750699992 -0.011344995823967757 0 0.012392118027024689 -0.011665893631873828 0 0.0073888364750699992 -0.011344995823967757 0 0.012392118027024689 -0.011665893631873828 0 0.0072232771509995516 -0.01406288656874826 0 0.0055602743591017904 -0.0088515898612847206 0 0.0073888364750699992 -0.011344995823967757 0 0.0057387400258489558 -0.01371742356658954 0 0.0055602743591017904 -0.0088515898612847206 0 0.0091182285889186664 -0.0078973551790540684 0 0.0073888364750699992 -0.011344995823967757 0 0.003115104483190044 -0.015724514603865893 0 0.0034954799503799298 -0.015456583057678672 0 0.0034446778743035858 -0.016042274948942139 0 0.003115104483190044 -0.015724514603865893 0 0.0034954799503799298 -0.015456583057678672 0 0.0038745777834267589 -0.015407745413442364 0 0.004216846588912527 -0.011669710377984763 0 0.0047726423231394914 -0.014763123681393694 0 0.017503924534891 -0.0077850533292231489 0 0.016646781228461537 -0.0080225624783848946 0 0.01720704430529376 -0.0068214117352683084 0 0.017503924534891 -0.0077850533292231489 0 0.016646781228461537 -0.0080225624783848946 0 0.017273331236781674 -0.0085017346784101375 0 0.014957188535483328 -0.0098150082795226828 0 0.01695309552484791 -0.0069574418009526427 0 0.0091182285889186664 -0.0078973551790540684 0 0.012392118027024689 -0.011665893631873828 0 0.012497537053721034 -0.007751982107150758 0 0.012392118027024689 -0.011665893631873828 0 0.012497537053721034 -0.007751982107150758 0 0.01720704430529376 -0.0068214117352683084 0 0.012497537053721034 -0.007751982107150758 0 0.01720704430529376 -0.0068214117352683084 0 0.011408230471609526 -0.0040246584251195051 0 0.0091182285889186664 -0.0078973551790540684 0 0.012497537053721034 -0.007751982107150758 0 0.011408230471609526 -0.0040246584251195051 0 0.017503924534891 -0.0077850533292231489 0 0.01720704430529376 -0.0068214117352683084 0 0.0181223838844797 -0.0071325275631579877 0 0.01720704430529376 -0.0068214117352683084 0 0.017631303405733219 -0.005151402794851657 0 0.011408230471609526 -0.0040246584251195051 0 0.01720704430529376 -0.0068214117352683084 0 0.0181223838844797 -0.0071325275631579877 0 0.018247631396693879 -0.0065572619635781383 0 0.01720704430529376 -0.0068214117352683084 0 0.017631303405733219 -0.005151402794851657 0 0.018247631396693879 -0.0065572619635781383 0 0.011795401647495598 -0.012700085757192043 0 0.012525017978707236 -0.012828959463176007 0 0.012203708624957394 -0.013271113941279429 0 0.01496242622763788 -0.0089481858978530063 0 0.012435592935232978 -0.0080321699199506959 0 0.011795401647495598 -0.012700085757192043 0 0.012203708624957394 -0.013271113941279429 0 0.011600360658249017 -0.013505110303746683 0 0.012730522753808973 -0.013348683522917085 0 0.012525017978707236 -0.012828959463176007 0 0.012203708624957394 -0.013271113941279429 0 0.012419608281326452 -0.013892701217895606 0 0.012730522753808973 -0.013348683522917085 0 0.012203708624957394 -0.013271113941279429 0 0.012419608281326452 -0.013892701217895606 0 0.012203708624957394 -0.013271113941279429 0 0.011600360658249017 -0.013505110303746683 0 0.019549489526440814 -0.0064610369947853477 0 0.019436141008772303 -0.0063708125238204072 0 0.019437396357153379 -0.0062653220190196542 0 0.01960727561287803 -0.0065173237257354034 0 0.019549489526440814 -0.0064610369947853477 0 0.019437396357153379 -0.0062653220190196542 0 0.019437396357153379 -0.0062653220190196542 0 0.019768172983922635 -0.0064372155712061393 0 0.019758077784342642 -0.0063147860095053177 0 0.019437396357153379 -0.0062653220190196542 0 0.019362156996976312 -0.0063932813288466546 0 0.019768172983922635 -0.0064372155712061393 0 0.019436141008772303 -0.0063708125238204072 0 0.019437396357153379 -0.0062653220190196542 0 0.018870461031755516 -0.006124090307198864 0 0.018982988417127943 -0.0061437685743486129 0 0.019436141008772303 -0.0063708125238204072 0 0.018870461031755516 -0.006124090307198864 0 0.01496242622763788 -0.0089481858978530063 0 0.015544289084740774 -0.010019320835845473 0 0.019437396357153379 -0.0062653220190196542 0 0.019362156996976312 -0.0063932813288466546 0 0.018870461031755516 -0.006124090307198864 0 0.01496242622763788 -0.0089481858978530063 0 0.018170420853050043 -0.0077848155920576048 0 0.019572791933908259 -0.0065450755609797826 0 0.019601447586095996 -0.0064977842835621368 0 0.019565726799649408 -0.0065707295998196419 0 0.019572791933908259 -0.0065450755609797826 0 0.019601447586095996 -0.0064977842835621368 0 0.019530379960345266 -0.0065769525599834577 0 0.019544774307555714 -0.0065881312274142364 0 0.019601447586095996 -0.0064977842835621368 0 0.019530379960345266 -0.0065769525599834577 0 0.019544774307555714 -0.0065881312274142364 0 0.019601447586095996 -0.0064977842835621368 0 0.019620611912903357 -0.0064887543292323829 0 0.01960727561287803 -0.0065173237257354034 0 0.019620611912903357 -0.0064887543292323829 0 0.019758077784342642 -0.0063147860095053177 0 0.01960727561287803 -0.0065173237257354034 0 0.019544774307555714 -0.0065881312274142364 0 0.019620611912903357 -0.0064887543292323829 0 0.01960727561287803 -0.0065173237257354034 0 0.019437396357153379 -0.0062653220190196542 0 0.019758077784342642 -0.0063147860095053177 0 0.019601447586095996 -0.0064977842835621368 0 0.019620611912903357 -0.0064887543292323829 0 0.019758077784342642 -0.0063147860095053177 0 0.019768172983922635 -0.0064372155712061393 0 0.019758077784342642 -0.0063147860095053177 0 0.020236650873149638 -0.0064469010182873591 0 0.019601447586095996 -0.0064977842835621368 0 0.019758077784342642 -0.0063147860095053177 0 0.019565726799649408 -0.0065707295998196419 0 0.020158632961920411 -0.0064219155656908217 0 0.019309468137039949 -0.0060464139293795452 0 0.019758077784342642 -0.0063147860095053177 0 0.020236650873149638 -0.0064469010182873591 0 0.020666748458059544 -0.0061807368040393247 0 0.020595242925871511 -0.0064464475156334701 0 0.020723098005842818 -0.0062844962582998152 0 0.020666748458059544 -0.0061807368040393247 0 0.020236650873149638 -0.0064469010182873591 0 0.020595242925871511 -0.0064464475156334701 0 0.020666748458059544 -0.0061807368040393247 0 0.020659843393263003 -0.0066417166487606578 0 0.020195707682896427 -0.0066910830046701033 0 0.020544882051446545 -0.0067907348314391039 0 0.020236650873149638 -0.0064469010182873591 0 0.020659843393263003 -0.0066417166487606578 0 0.020195707682896427 -0.0066910830046701033 0 0.020595242925871511 -0.0064464475156334701 0 0.020659843393263003 -0.0066417166487606578 0 0.020720518066232055 -0.0065114462262077519 0 0.020236650873149638 -0.0064469010182873591 0 0.020595242925871511 -0.0064464475156334701 0 0.020659843393263003 -0.0066417166487606578 0 0.019768172983922635 -0.0064372155712061393 0 0.020195707682896427 -0.0066910830046701033 0 0.019680378663619727 -0.0067587626106124007 0 0.019768172983922635 -0.0064372155712061393 0 0.020236650873149638 -0.0064469010182873591 0 0.020195707682896427 -0.0066910830046701033 0 0.020195707682896427 -0.0066910830046701033 0 0.020281725516978596 -0.007014879185685342 0 0.019680378663619727 -0.0067587626106124007 0 0.020195707682896427 -0.0066910830046701033 0 0.020281725516978596 -0.007014879185685342 0 0.020544882051446545 -0.0067907348314391039 0 0.020381432888160231 -0.0078247863492957974 0 0.019691133306474776 -0.006676447162564097 0 0.020659843393263003 -0.0066417166487606578 0 0.020956117774340682 -0.0068389599703288454 0 0.020544882051446545 -0.0067907348314391039 0 0.020281725516978596 -0.007014879185685342 0 0.020956117774340682 -0.0068389599703288454 0 0.020544882051446545 -0.0067907348314391039 0 0.0181223838844797 -0.0071325275631579877 0 0.018247631396693879 -0.0065572619635781383 0 0.018903896876728096 -0.0066960776373232271 0 0.0181223838844797 -0.0071325275631579877 0 0.018903896876728096 -0.0066960776373232271 0 0.018683698292350094 -0.0074849897924712024 0 0.018870461031755516 -0.006124090307198864 0 0.018247631396693879 -0.0065572619635781383 0 0.018903896876728096 -0.0066960776373232271 0 0.017631303405733219 -0.005151402794851657 0 0.018870461031755516 -0.006124090307198864 0 0.018247631396693879 -0.0065572619635781383 0 0.019362156996976312 -0.0063932813288466546 0 0.018870461031755516 -0.006124090307198864 0 0.018903896876728096 -0.0066960776373232271 0 0.018903896876728096 -0.0066960776373232271 0 0.019680378663619727 -0.0067587626106124007 0 0.018683698292350094 -0.0074849897924712024 0 0.019362156996976312 -0.0063932813288466546 0 0.018903896876728096 -0.0066960776373232271 0 0.019680378663619727 -0.0067587626106124007 0 0.019362156996976312 -0.0063932813288466546 0 0.019768172983922635 -0.0064372155712061393 0 0.019680378663619727 -0.0067587626106124007 0 0.019680378663619727 -0.0067587626106124007 0 0.019387972283916324 -0.0079456161995055275 0 0.018683698292350094 -0.0074849897924712024 0 0.020476818732239364 -0.0081325904009768909 0 0.019680378663619727 -0.0067587626106124007 0 0.019387972283916324 -0.0079456161995055275 0 0.019387972283916324 -0.0079456161995055275 0 0.018683698292350094 -0.0074849897924712024 0 0.018313738904059643 -0.0085269184264742531 0 0.017503924534891 -0.0077850533292231489 0 0.018683698292350094 -0.0074849897924712024 0 0.018313738904059643 -0.0085269184264742531 0 0.017503924534891 -0.0077850533292231489 0 0.0181223838844797 -0.0071325275631579877 0 0.018683698292350094 -0.0074849897924712024 0 0.018313738904059643 -0.0085269184264742531 0 0.019630746618059646 -0.0089819133448345301 0 0.018356614685555009 -0.0097180884058179554 0 0.020476818732239364 -0.0081325904009768909 0 0.019387972283916324 -0.0079456161995055275 0 0.019630746618059646 -0.0089819133448345301 0 0.019387972283916324 -0.0079456161995055275 0 0.018313738904059643 -0.0085269184264742531 0 0.019630746618059646 -0.0089819133448345301 0 0.019630746618059646 -0.0089819133448345301 0 0.018356614685555009 -0.0097180884058179554 0 0.019812594040115362 -0.010252346472485373 0 0.018313738904059643 -0.0085269184264742531 0 0.018356614685555009 -0.0097180884058179554 0 0.017282849032614515 -0.0092910865910318819 0 0.020281725516978596 -0.007014879185685342 0 0.020956117774340682 -0.0068389599703288454 0 0.020808002981762504 -0.0074652220928189961 0 0.020381432888160231 -0.0078247863492957974 0 0.021439746244281261 -0.0069275255496641357 0 0.020476818732239364 -0.0081325904009768909 0 0.019630746618059646 -0.0089819133448345301 0 0.021316336628583517 -0.0093980327406390715 0 0.019630746618059646 -0.0089819133448345301 0 0.021316336628583517 -0.0093980327406390715 0 0.019812594040115362 -0.010252346472485373 0 0.021439746244281261 -0.0069275255496641357 0 0.020360248435706663 -0.0069845718269675094 0 0.021439746244281261 -0.0069275255496641357 0 0.022003504845632932 -0.0045277410492039222 0 0.021656636003425545 -0.0036726217642062686 0 0.021521062802973317 -0.003990189166709685 0 0.021869674849347674 -0.0040356617864430967 0 0.021521062802973317 -0.003990189166709685 0 0.021764324709565325 -0.0043170943462916165 0 0.021869674849347674 -0.0040356617864430967 0 0.021656636003425545 -0.0036726217642062686 0 0.021521062802973317 -0.003990189166709685 0 0.021142017731623733 -0.0038426173251266478 0 0.021521062802973317 -0.003990189166709685 0 0.021142017731623733 -0.0038426173251266478 0 0.021112412545696832 -0.0041501022613559006 0 0.021764324709565325 -0.0043170943462916165 0 0.021112412545696832 -0.0041501022613559006 0 0.021445432033680916 -0.0043656118003690004 0 0.021521062802973317 -0.003990189166709685 0 0.021764324709565325 -0.0043170943462916165 0 0.021112412545696832 -0.0041501022613559006 0 0.018356614685555009 -0.0097180884058179554 0 0.01826666061789756 -0.011064142926556445 0 0.017303239331141827 -0.010183351538009427 0 0.018356614685555009 -0.0097180884058179554 0 0.019812594040115362 -0.010252346472485373 0 0.01826666061789756 -0.011064142926556445 0 0.020360248435706663 -0.0069845718269675094 0 0.020095645397430244 -0.0077186230286179457 0 0.021142017731623733 -0.0038426173251266478 0 0.021112412545696832 -0.0041501022613559006 0 0.02051481193635701 -0.0040194245210170045 0 0.021112412545696832 -0.0041501022613559006 0 0.02051481193635701 -0.0040194245210170045 0 0.020812965997009252 -0.0044457527585089153 0 0.02051481193635701 -0.0040194245210170045 0 0.020294296645248799 -0.0043333617789509107 0 0.020812965997009252 -0.0044457527585089153 0 0.020095645397430244 -0.0077186230286179457 0 0.014414355270444119 -0.0060366625016449712 0 0.02051481193635701 -0.0040194245210170045 0 0.019823280745079757 -0.0043053792073208287 0 0.020294296645248799 -0.0043333617789509107 0 0.01826666061789756 -0.011064142926556445 0 0.017198284472100339 -0.01091634008235336 0 0.016767591155784516 -0.011817494160572935 0 0.01826666061789756 -0.011064142926556445 0 0.017198284472100339 -0.01091634008235336 0 0.017303239331141827 -0.010183351538009427 0 0.017198284472100339 -0.01091634008235336 0 0.017303239331141827 -0.010183351538009427 0 0.01623166679220709 -0.010502713668802821 0 0.017303239331141827 -0.010183351538009427 0 0.01623166679220709 -0.010502713668802821 0 0.016525058768987615 -0.0096071266644366729 0 0.0059340131096928053 -0.0072470948584693103 0 0.0062391312504449714 -0.0062517625038984153 0 0.0054989590267644035 -0.0058591570605653264 0 0.010946133076888619 -0.0088946950611102898 0 0.014414355270444119 -0.0060366625016449712 0 0.017198284472100339 -0.01091634008235336 0 0.01623166679220709 -0.010502713668802821 0 0.016767591155784516 -0.011817494160572935 0 0.0055659649259352925 -0.0052242658083685185 0 0.010680477719594794 -0.0049784299408802361 0 0.0062391312504449714 -0.0062517625038984153 0 0.0054989590267644035 -0.0058591570605653264 0 0.005625664584491292 -0.0057880810259569506 0 0.0059340131096928053 -0.0072470948584693103 0 0.0062391312504449714 -0.0062517625038984153 0 0.0065279449260055439 -0.0067251740171991566 0 0.006865393983698509 -0.006092561039204916 0 0.0069881341358628904 -0.0066992420467611108 0 0.0065279449260055439 -0.0067251740171991566 0 0.0062391312504449714 -0.0062517625038984153 0 0.006865393983698509 -0.006092561039204916 0 0.0065279449260055439 -0.0067251740171991566 0 0.006865393983698509 -0.006092561039204916 0 0.0069881341358628904 -0.0066992420467611108 0 0.007546223777244801 -0.0059804004634715965 0 0.0069881341358628904 -0.0066992420467611108 0 0.007546223777244801 -0.0059804004634715965 0 0.0073507877932798265 -0.0068862394401825377 0 0.007546223777244801 -0.0059804004634715965 0 0.0079218059832494685 -0.0067475299769237081 0 0.0073507877932798265 -0.0068862394401825377 0 0.0040705424595780205 -0.016115998707899204 0 0.0046429428610580336 -0.016477190719997301 0 0.0042189050962012954 -0.016258140296732764 0 0.0060027117586516077 -0.011614093273647963 0 0.0057905710025579517 -0.012200596454964067 0 0.0079218059832494685 -0.0067475299769237081 0 0.0073507877932798265 -0.0068862394401825377 0 0.0072250512783173012 -0.0077255879352086951 0 0.0069881341358628904 -0.0066992420467611108 0 0.0073507877932798265 -0.0068862394401825377 0 0.0070762953765009006 -0.0072503803370331825 0 0.0073507877932798265 -0.0068862394401825377 0 0.0070762953765009006 -0.0072503803370331825 0 0.0072250512783173012 -0.0077255879352086951 0 0.0070762953765009006 -0.0072503803370331825 0 0.0072250512783173012 -0.0077255879352086951 0 0.0068897364645368999 -0.0075725172691577585 0 0.0046429428610580336 -0.016477190719997301 0 0.0042189050962012954 -0.016258140296732764 0 0.0043456788319326343 -0.016177098306340561 0 0.0059340131096928053 -0.0072470948584693103 0 0.0065279449260055439 -0.0067251740171991566 0 0.0066213831978997528 -0.0073454860712122367 0 0.0069881341358628904 -0.0066992420467611108 0 0.0070762953765009006 -0.0072503803370331825 0 0.0066213831978997528 -0.0073454860712122367 0 0.0069881341358628904 -0.0066992420467611108 0 0.0065279449260055439 -0.0067251740171991566 0 0.0066213831978997528 -0.0073454860712122367 0 0.0066213831978997528 -0.0073454860712122367 0 0.0068897364645368999 -0.0075725172691577585 0 0.0066337777320470172 -0.0079737762223125834 0 0.0072250512783173012 -0.0077255879352086951 0 0.0068897364645368999 -0.0075725172691577585 0 0.0066337777320470172 -0.0079737762223125834 0 0.0070762953765009006 -0.0072503803370331825 0 0.0066213831978997528 -0.0073454860712122367 0 0.0068897364645368999 -0.0075725172691577585 0 0.0059340131096928053 -0.0072470948584693103 0 0.0066213831978997528 -0.0073454860712122367 0 0.0066337777320470172 -0.0079737762223125834 0 0.010946133076888619 -0.0088946950611102898 0 0.0090610786433155364 -0.011454536869265836 0 0.0072563034041202429 -0.0150173133080797 0 0.0048974909883524008 -0.016096771762729764 0 0.0057387400258489558 -0.01371742356658954 0 0.0059340131096928053 -0.0072470948584693103 0 0.0066337777320470172 -0.0079737762223125834 0 0.0064798065048655359 -0.0087420035319253318 0 0.0072250512783173012 -0.0077255879352086951 0 0.0066337777320470172 -0.0079737762223125834 0 0.0064798065048655359 -0.0087420035319253318 0 0.0057905710025579517 -0.012200596454964067 0 0.0090610786433155364 -0.011454536869265836 0 0.0046429428610580336 -0.016477190719997301 0 0.0072563034041202429 -0.0150173133080797 0 0.0048974909883524008 -0.016096771762729764 0 0.0048822347176599888 -0.01605583026399535 0 0.0047726423231394914 -0.014763123681393694 0 0.0048974909883524008 -0.016096771762729764 0 0.0042859221446742111 -0.015854173529310574 0 0.0038745777834267589 -0.015407745413442364 0 0.0042189050962012954 -0.016258140296732764 0 0.0041191751528856157 -0.016070310011755219 0 0.0043456788319326343 -0.016177098306340561 0 0.0041191751528856157 -0.016070310011755219 0 0.0043456788319326343 -0.016177098306340561 0 0.0042859221446742111 -0.015854173529310574 0 0.0043456788319326343 -0.016177098306340561 0 0.0048974909883524008 -0.016096771762729764 0 0.0042859221446742111 -0.015854173529310574 0 0.0046429428610580336 -0.016477190719997301 0 0.0043456788319326343 -0.016177098306340561 0 0.0048974909883524008 -0.016096771762729764 0 0.0041191751528856157 -0.016070310011755219 0 0.004007014624028582 -0.015702025240579922 0 0.0042859221446742111 -0.015854173529310574 0 0.004007014624028582 -0.015702025240579922 0 0.0038745777834267589 -0.015407745413442364 0 0.0037587893785004135 -0.015501179134172496 0 0.004007014624028582 -0.015702025240579922 0 0.0042859221446742111 -0.015854173529310574 0 0.0038745777834267589 -0.015407745413442364 0 0.0034954799503799298 -0.015456583057678672 0 0.0038745777834267589 -0.015407745413442364 0 0.0037587893785004135 -0.015501179134172496 0 0.012392118027024689 -0.011665893631873828 0 0.007984237562202014 -0.016019487555390781 0 0.0072232771509995516 -0.01406288656874826 0 0.0090610786433155364 -0.011454536869265836 0 0.0085858440583586031 -0.01404426178048563 0 0.0072563034041202429 -0.0150173133080797 0 0.0057387400258489558 -0.01371742356658954 0 0.0072232771509995516 -0.01406288656874826 0 0.0073888364750699992 -0.011344995823967757 0 0.0057387400258489558 -0.01371742356658954 0 0.0072232771509995516 -0.01406288656874826 0 0.016646781228461537 -0.0080225624783848946 0 0.016684070819423764 -0.0089284417059213098 0 0.017273331236781674 -0.0085017346784101375 0 0.016646781228461537 -0.0080225624783848946 0 0.01567565331604381 -0.0091829343888997945 0 0.016684070819423764 -0.0089284417059213098 0 0.014957188535483328 -0.0098150082795226828 0 0.0090610786433155364 -0.011454536869265836 0 0.018313738904059643 -0.0085269184264742531 0 0.017273331236781674 -0.0085017346784101375 0 0.017282849032614515 -0.0092910865910318819 0 0.017503924534891 -0.0077850533292231489 0 0.018313738904059643 -0.0085269184264742531 0 0.017273331236781674 -0.0085017346784101375 0 0.016684070819423764 -0.0089284417059213098 0 0.017273331236781674 -0.0085017346784101375 0 0.017282849032614515 -0.0092910865910318819 0 0.018356614685555009 -0.0097180884058179554 0 0.017303239331141827 -0.010183351538009427 0 0.017282849032614515 -0.0092910865910318819 0 0.017303239331141827 -0.010183351538009427 0 0.017282849032614515 -0.0092910865910318819 0 0.016525058768987615 -0.0096071266644366729 0 0.01567565331604381 -0.0091829343888997945 0 0.016684070819423764 -0.0089284417059213098 0 0.016525058768987615 -0.0096071266644366729 0 0.01623166679220709 -0.010502713668802821 0 0.01567565331604381 -0.0091829343888997945 0 0.016525058768987615 -0.0096071266644366729 0 0.016684070819423764 -0.0089284417059213098 0 0.017282849032614515 -0.0092910865910318819 0 0.016525058768987615 -0.0096071266644366729 0 0.025168115605927022 -0.010249860172860944 0 0.025318594883038531 -0.0090900035200157728 0 0.024999998446795998 -0.0099068213056228427 0 0.025171420527765994 -0.01022477656359414 0 0.025342803003952929 -0.0091933090563516961 0 0.025768994279525129 -0.010012281914386486 0 0.025166690711747999 -0.010234831863765682 0 0.025335996644394607 -0.009208043002309917 0 0.025669708368262895 -0.0096584206954269114 0 0.025318594883038531 -0.0090900035200157728 0 0.025583831371954097 -0.0093894268657891879 0 0.025672034409561496 -0.0089941034531867275 0 0.025309221526685688 -0.0088597521333631437 0 0.025583831371954097 -0.0093894268657891879 0 0.026035079584012025 -0.0091267669758872197 0 0.025879932412006874 -0.0099564942567079914 0 0.025583831371954097 -0.0093894268657891879 0 0.025672034409561496 -0.0089941034531867275 0 0.026035079584012025 -0.0091267669758872197 0 0.025717654888563847 -0.0093919447954504322 0 0.02550505125460972 -0.010895610652539559 0 0.02537348193622322 -0.0098020539937889867 0 0.024913002607836673 -0.011070020032906755 0 0.025629473507811272 -0.010429916521702366 0 0.025768994279525129 -0.010012281914386486 0 0.026200238728314 -0.010815456207192377 0 0.025576465801606902 -0.010697310387437256 0 0.025669708368262895 -0.0096584206954269114 0 0.02550505125460972 -0.010895610652539559 0 0.026200238728314 -0.010815456207192377 0 0.025576465801606902 -0.010697310387437256 0 0.025598159893633912 -0.011189733232560707 0 0.025168115605927022 -0.010249860172860944 0 0.025000043230080815 -0.01125598439393965 0 0.025576465801606902 -0.010697310387437256 0 0.025166690711747999 -0.010234831863765682 0 0.024999989435678906 -0.011256267756690263 0 0.024999998446795998 -0.0099068213056228427 0 0.025171420527765994 -0.01022477656359414 0 0.02499999874211066 -0.011256252445769699 0 0.025768994279525129 -0.010012281914386486 0 0.025576465801606902 -0.010697310387437256 0 0.025166690711747999 -0.010234831863765682 0 0.025576465801606902 -0.010697310387437256 0 0.024999989435678906 -0.011256267756690263 0 0.025598159893633912 -0.011189733232560707 0 0.025598159893633912 -0.011189733232560707 0 0.025432255392913442 -0.011645874683847639 0 0.025776906041293641 -0.01146322068359865 0 0.025432255392913442 -0.011645874683847639 0 0.025674874934919236 -0.011772662229336248 0 0.025776906041293641 -0.01146322068359865 0 0.024999989435678906 -0.011256267756690263 0 0.025598159893633912 -0.011189733232560707 0 0.025432255392913442 -0.011645874683847639 0 0.024999997265848527 -0.012526738714534405 0 0.024999989435678906 -0.011256267756690263 0 0.025432255392913442 -0.011645874683847639 0 0.025490107813891161 -0.012822362114792703 0 0.025515385583725458 -0.01213207524557983 0 0.025995210011391413 -0.011854340368310779 0 0.024999997265848527 -0.012526738714534405 0 0.025432255392913442 -0.011645874683847639 0 0.025515385583725458 -0.01213207524557983 0 0.025522719630562463 -0.012808626762083974 0 0.02559732033690798 -0.012255095189841483 0 0.025674874934919236 -0.011772662229336248 0 0.025515385583725458 -0.01213207524557983 0 0.025995210011391413 -0.011854340368310779 0 0.025432255392913442 -0.011645874683847639 0 0.025674874934919236 -0.011772662229336248 0 0.025515385583725458 -0.01213207524557983 0 0.024999997265848527 -0.012526738714534405 0 0.025490107813891161 -0.012822362114792703 0 0.025515385583725458 -0.01213207524557983 0 0.025460545276624599 -0.012922540670558213 0 0.025860606344705071 -0.012227927517104144 0 0.025886417541682638 -0.012092035935601314 0 0.025256158920730885 -0.013324293312924545 0 0.024804280083703278 -0.012889679161173829 0 0.025438332050448841 -0.012370823208995302 0 0.025457627757706047 -0.01253093063628003 0 0.02559732033690798 -0.012255095189841483 0 0.024804280083703278 -0.012889679161173829 0 0.024835359086963386 -0.012723743208998849 0 0.025438332050448841 -0.012370823208995302 0 0.02550505125460972 -0.010895610652539559 0 0.02559732033690798 -0.012255095189841483 0 0.026200238728314 -0.010815456207192377 0 0.025995210011391413 -0.011854340368310779 0 0.025776906041293641 -0.01146322068359865 0 0.025050317229224257 -0.011635644757034169 0 0.024835359086963386 -0.012723743208998849 0 0.025438332050448841 -0.012370823208995302 0 0.025674874934919236 -0.011772662229336248 0 0.025995210011391413 -0.011854340368310779 0 0.025776906041293641 -0.01146322068359865 0 0.026200238728314 -0.010815456207192377 0 0.025598159893633912 -0.011189733232560707 0 0.025776906041293641 -0.01146322068359865 0 0.02550505125460972 -0.010895610652539559 0 0.025407872438629499 -0.012226037950280202 0 0.025286304908638972 -0.012008256529310113 0 0.026529761613514457 -0.012219738778149145 0 0.026057245441763376 -0.0109335032803739 0 0.024913002607836673 -0.011070020032906755 0 0.025286304908638972 -0.012008256529310113 0 0.026057245441763376 -0.0109335032803739 0 0.025256158920730885 -0.013324293312924545 0 0.025438332050448841 -0.012370823208995302 0 0.025776331211697662 -0.013042397448577263 0 0.025286304908638972 -0.012008256529310113 0 0.025776331211697662 -0.013042397448577263 0 0.026529761613514457 -0.012219738778149145 0 0.025407872438629499 -0.012226037950280202 0 0.025727266144491834 -0.012917065264060213 0 0.026643963517245507 -0.013198210793059401 0 0.026529761613514457 -0.012219738778149145 0 0.027523399421747006 -0.012654393792670148 0 0.025776331211697662 -0.013042397448577263 0 0.026643963517245507 -0.013198210793059401 0 0.026529761613514457 -0.012219738778149145 0 0.026529761613514457 -0.012219738778149145 0 0.026057245441763376 -0.0109335032803739 0 0.027686145061893777 -0.011443624739140868 0 0.026702536931780943 -0.010409185633711342 0 0.026057245441763376 -0.0109335032803739 0 0.026158257686378788 -0.0099566992426753775 0 0.025700155160032139 -0.010805395845286095 0 0.028304913789538446 -0.011493859553816299 0 0.026702536931780943 -0.010409185633711342 0 0.026057245441763376 -0.0109335032803739 0 0.027178032134110248 -0.010820778874779216 0 0.024913002607836673 -0.011070020032906755 0 0.026057245441763376 -0.0109335032803739 0 0.025629473507811272 -0.010429916521702366 0 0.026057245441763376 -0.0109335032803739 0 0.025629473507811272 -0.010429916521702366 0 0.026158257686378788 -0.0099566992426753775 0 0.02537348193622322 -0.0098020539937889867 0 0.025629473507811272 -0.010429916521702366 0 0.026158257686378788 -0.0099566992426753775 0 0.02537348193622322 -0.0098020539937889867 0 0.026158257686378788 -0.0099566992426753775 0 0.025860928296884383 -0.009241585248215254 0 0.026158257686378788 -0.0099566992426753775 0 0.026994943078177552 -0.0098570668843114776 0 0.026328270714896403 -0.0093126187368335854 0 0.026702536931780943 -0.010409185633711342 0 0.026158257686378788 -0.0099566992426753775 0 0.026994943078177552 -0.0098570668843114776 0 0.026994943078177552 -0.0098570668843114776 0 0.027764561516747697 -0.0098214240415508951 0 0.027760474044605351 -0.010407550725324245 0 0.027760474044605351 -0.010407550725324245 0 0.027178032134110248 -0.010820778874779216 0 0.028038866253204658 -0.010880777752147063 0 0.026702536931780943 -0.010409185633711342 0 0.026994943078177552 -0.0098570668843114776 0 0.027178032134110248 -0.010820778874779216 0 0.026994943078177552 -0.0098570668843114776 0 0.027760474044605351 -0.010407550725324245 0 0.027178032134110248 -0.010820778874779216 0 0.026529761613514457 -0.012219738778149145 0 0.027686145061893777 -0.011443624739140868 0 0.027523399421747006 -0.012654393792670148 0 0.027686145061893777 -0.011443624739140868 0 0.027523399421747006 -0.012654393792670148 0 0.028364780843617605 -0.01213555356167194 0 0.027348374146012128 -0.013607116179774515 0 0.027523399421747006 -0.012654393792670148 0 0.028289997675314923 -0.013149075357757388 0 0.027348374146012128 -0.013607116179774515 0 0.026643963517245507 -0.013198210793059401 0 0.027523399421747006 -0.012654393792670148 0 0.027523399421747006 -0.012654393792670148 0 0.028289997675314923 -0.013149075357757388 0 0.028364780843617605 -0.01213555356167194 0 0.023766491491704362 -0.010048293624629681 0 0.024974403672063765 -0.0092150415483442417 0 0.028289997675314923 -0.013149075357757388 0 0.028364780843617605 -0.01213555356167194 0 0.029232143573125403 -0.011739199701736936 0 0.027686145061893777 -0.011443624739140868 0 0.028364780843617605 -0.01213555356167194 0 0.029232143573125403 -0.011739199701736936 0 0.028304913789538446 -0.011493859553816299 0 0.024974403672063765 -0.0092150415483442417 0 0.019798273742266378 -0.0067076508387202216 0 0.019788971927501658 -0.0067528665100755952 0 0.019656277309905462 -0.0066047310272179085 0 0.019910260263585545 -0.0069188925618471758 0 0.01972045249049301 -0.0068532947013666464 0 0.019788971927501658 -0.0067528665100755952 0 0.01972045249049301 -0.0068532947013666464 0 0.019798273742266378 -0.0067076508387202216 0 0.019788971927501658 -0.0067528665100755952 0 0.019910260263585545 -0.0069188925618471758 0 0.019788971927501658 -0.0067528665100755952 0 0.019656277309905462 -0.0066047310272179085 0 0.01948721225629374 -0.0054480009839314412 0 0.019626984365181954 -0.0072102163624199007 0 0.019340151348128151 -0.0066515464812425002 0 0.019530379960345266 -0.0065769525599834577 0 0.019656277309905462 -0.0066047310272179085 0 0.019530379960345266 -0.0065769525599834577 0 0.019579812099900604 -0.0065664874075298564 0 0.019656277309905462 -0.0066047310272179085 0 0.019572791933908259 -0.0065450755609797826 0 0.019530379960345266 -0.0065769525599834577 0 0.019579812099900604 -0.0065664874075298564 0 0.022920263386217124 -0.0065755378761142274 0 0.020723098005842818 -0.0062844962582998152 0 0.022069474578938951 -0.0077466871431257668 0 0.024974403672063765 -0.0092150415483442417 0 0.019309468137039949 -0.0060464139293795452 0 0.019579812099900604 -0.0065664874075298564 0 0.019565726799649408 -0.0065707295998196419 0 0.019656277309905462 -0.0066047310272179085 0 0.022920263386217124 -0.0065755378761142274 0 0.020723098005842818 -0.0062844962582998152 0 0.020666748458059544 -0.0061807368040393247 0 0.019798273742266378 -0.0067076508387202216 0 0.019565726799649408 -0.0065707295998196419 0 0.019656277309905462 -0.0066047310272179085 0 0.019572791933908259 -0.0065450755609797826 0 0.019579812099900604 -0.0065664874075298564 0 0.019565726799649408 -0.0065707295998196419 0 0.020328180496727275 -0.0059499643226958842 0 0.02293060806006432 -0.0080233891711380088 0 0.020595242925871511 -0.0064464475156334701 0 0.020723098005842818 -0.0062844962582998152 0 0.020720518066232055 -0.0065114462262077519 0 0.020723098005842818 -0.0062844962582998152 0 0.020720518066232055 -0.0065114462262077519 0 0.020930551043290824 -0.0066078038681582855 0 0.020659843393263003 -0.0066417166487606578 0 0.020956117774340682 -0.0068389599703288454 0 0.020930551043290824 -0.0066078038681582855 0 0.020659843393263003 -0.0066417166487606578 0 0.020720518066232055 -0.0065114462262077519 0 0.020930551043290824 -0.0066078038681582855 0 0.027760474044605351 -0.010407550725324245 0 0.028038866253204658 -0.010880777752147063 0 0.028301223562375275 -0.010502167637049854 0 0.024974403672063765 -0.0092150415483442417 0 0.02293060806006432 -0.0080233891711380088 0 0.027764561516747697 -0.0098214240415508951 0 0.027760474044605351 -0.010407550725324245 0 0.028301223562375275 -0.010502167637049854 0 0.021325665586996733 -0.0068540036695952317 0 0.021453460379102562 -0.0066612994923652387 0 0.021428385843000455 -0.0068271310881737671 0 0.024927945985968109 -0.0085098947467990727 0 0.02293060806006432 -0.0080233891711380088 0 0.020523050150134982 -0.0064898235301670045 0 0.02293060806006432 -0.0080233891711380088 0 0.020956117774340682 -0.0068389599703288454 0 0.021453460379102562 -0.0066612994923652387 0 0.021428385843000455 -0.0068271310881737671 0 0.020956117774340682 -0.0068389599703288454 0 0.021428385843000455 -0.0068271310881737671 0 0.021579287456992117 -0.0068599873899499409 0 0.021439746244281261 -0.0069275255496641357 0 0.021716448220924285 -0.0068381962625006952 0 0.020956117774340682 -0.0068389599703288454 0 0.020808002981762504 -0.0074652220928189961 0 0.021579287456992117 -0.0068599873899499409 0 0.021325665586996733 -0.0068540036695952317 0 0.021428385843000455 -0.0068271310881737671 0 0.021364868504335568 -0.0065474344279987514 0 0.021428385843000455 -0.0068271310881737671 0 0.021579287456992117 -0.0068599873899499409 0 0.021364868504335568 -0.0065474344279987514 0 0.021364868504335568 -0.0065474344279987514 0 0.021765095975172989 -0.0061374429831013103 0 0.02140616702166221 -0.0057832775802652784 0 0.021579287456992117 -0.0068599873899499409 0 0.021364868504335568 -0.0065474344279987514 0 0.021765095975172989 -0.0061374429831013103 0 0.022740599613726039 -0.0063147784114950005 0 0.021579287456992117 -0.0068599873899499409 0 0.021765095975172989 -0.0061374429831013103 0 0.022740599613726039 -0.0063147784114950005 0 0.021765095975172989 -0.0061374429831013103 0 0.022299448309660064 -0.0055242542560744881 0 0.022003504845632932 -0.0045277410492039222 0 0.022012841441519368 -0.0047030672269603585 0 0.021765095975172989 -0.0061374429831013103 0 0.022299448309660064 -0.0055242542560744881 0 0.02140616702166221 -0.0057832775802652784 0 0.021764324709565325 -0.0043170943462916165 0 0.021869674849347674 -0.0040356617864430967 0 0.021976565151215967 -0.004643832249685338 0 0.021764324709565325 -0.0043170943462916165 0 0.021976565151215967 -0.004643832249685338 0 0.022013049907123976 -0.004398089529634901 0 0.021976565151215967 -0.004643832249685338 0 0.02132023406655293 -0.0052056191015455635 0 0.021439570559729341 -0.0047308811972242354 0 0.022299448309660064 -0.0055242542560744881 0 0.021976565151215967 -0.004643832249685338 0 0.02140616702166221 -0.0057832775802652784 0 0.021976565151215967 -0.004643832249685338 0 0.02140616702166221 -0.0057832775802652784 0 0.02132023406655293 -0.0052056191015455635 0 0.02140616702166221 -0.0057832775802652784 0 0.02132023406655293 -0.0052056191015455635 0 0.02092741310870961 -0.0055911288324014515 0 0.02132023406655293 -0.0052056191015455635 0 0.020976101660775556 -0.0050976821016397956 0 0.02092741310870961 -0.0055911288324014515 0 0.02132023406655293 -0.0052056191015455635 0 0.021439570559729341 -0.0047308811972242354 0 0.020976101660775556 -0.0050976821016397956 0 0.021439570559729341 -0.0047308811972242354 0 0.020976101660775556 -0.0050976821016397956 0 0.021136552474403023 -0.0046726594174335131 0 0.020603410607332066 -0.0048637675217492737 0 0.020976101660775556 -0.0050976821016397956 0 0.021136552474403023 -0.0046726594174335131 0 0.020603410607332066 -0.0048637675217492737 0 0.020976101660775556 -0.0050976821016397956 0 0.020629400406677122 -0.0053731814981858418 0 0.020976101660775556 -0.0050976821016397956 0 0.020629400406677122 -0.0053731814981858418 0 0.02092741310870961 -0.0055911288324014515 0 0.020629400406677122 -0.0053731814981858418 0 0.02092741310870961 -0.0055911288324014515 0 0.020614820659314626 -0.0057468534158761709 0 0.020629400406677122 -0.0053731814981858418 0 0.020614820659314626 -0.0057468534158761709 0 0.02012508633727373 -0.005636663408584569 0 0.023680883661809218 -0.007692206439614162 0 0.024566685590483878 -0.0063428186988894264 0 0.020614820659314626 -0.0057468534158761709 0 0.020763564753459821 -0.0063913409032849361 0 0.02012508633727373 -0.005636663408584569 0 0.02092741310870961 -0.0055911288324014515 0 0.020614820659314626 -0.0057468534158761709 0 0.020763564753459821 -0.0063913409032849361 0 0.021364868504335568 -0.0065474344279987514 0 0.02140616702166221 -0.0057832775802652784 0 0.020763564753459821 -0.0063913409032849361 0 0.02140616702166221 -0.0057832775802652784 0 0.02092741310870961 -0.0055911288324014515 0 0.020763564753459821 -0.0063913409032849361 0 0.021325665586996733 -0.0068540036695952317 0 0.021364868504335568 -0.0065474344279987514 0 0.020763564753459821 -0.0063913409032849361 0 0.024927945985968109 -0.0085098947467990727 0 0.023680883661809218 -0.007692206439614162 0 0.026994943078177552 -0.0098570668843114776 0 0.027764561516747697 -0.0098214240415508951 0 0.027129992768841673 -0.009009099698373834 0 0.026994943078177552 -0.0098570668843114776 0 0.027129992768841673 -0.009009099698373834 0 0.026599148354053127 -0.0089963770399406097 0 0.026994943078177552 -0.0098570668843114776 0 0.026599148354053127 -0.0089963770399406097 0 0.026328270714896403 -0.0093126187368335854 0 0.026599148354053127 -0.0089963770399406097 0 0.026328270714896403 -0.0093126187368335854 0 0.026121440803518244 -0.0088166777160393443 0 0.025717654888563847 -0.0093919447954504322 0 0.026061921419656308 -0.0085485014239456546 0 0.026158257686378788 -0.0099566992426753775 0 0.026328270714896403 -0.0093126187368335854 0 0.025860928296884383 -0.009241585248215254 0 0.02537348193622322 -0.0098020539937889867 0 0.025860928296884383 -0.009241585248215254 0 0.026130960904598266 -0.0084252568423718067 0 0.025860928296884383 -0.009241585248215254 0 0.026640766311005398 -0.0083164536822169614 0 0.026130960904598266 -0.0084252568423718067 0 0.025949543276185944 -0.0091525567457654382 0 0.026369809460319249 -0.0086192501567332082 0 0.026328270714896403 -0.0093126187368335854 0 0.025860928296884383 -0.009241585248215254 0 0.026121440803518244 -0.0088166777160393443 0 0.026640766311005398 -0.0083164536822169614 0 0.026069836741967126 -0.0083515090825670296 0 0.026708121802012676 -0.0071713730678948078 0 0.026640766311005398 -0.0083164536822169614 0 0.026130960904598266 -0.0084252568423718067 0 0.026069836741967126 -0.0083515090825670296 0 0.026130960904598266 -0.0084252568423718067 0 0.026069836741967126 -0.0083515090825670296 0 0.026042588238304572 -0.0084452021060037134 0 0.026069836741967126 -0.0083515090825670296 0 0.026432911770951004 -0.007629646034591684 0 0.026090010505681667 -0.0078912307627035626 0 0.026369809460319249 -0.0086192501567332082 0 0.024566685590483878 -0.0063428186988894264 0 0.027129992768841673 -0.009009099698373834 0 0.026599148354053127 -0.0089963770399406097 0 0.026432082501199917 -0.0082311025558519588 0 0.026599148354053127 -0.0089963770399406097 0 0.026121440803518244 -0.0088166777160393443 0 0.026432082501199917 -0.0082311025558519588 0 0.026640766311005398 -0.0083164536822169614 0 0.02706808062872533 -0.0075607221276795073 0 0.026708121802012676 -0.0071713730678948078 0 0.022419057732690414 -0.0040797892110117076 0 0.024566685590483878 -0.0063428186988894264 0 0.020603410607332066 -0.0048637675217492737 0 0.020629400406677122 -0.0053731814981858418 0 0.02012508633727373 -0.005636663408584569 0 0.024681915718004446 -0.003576340202723243 0 0.02440526687969127 -0.0041102388050364771 0 0.024228220726326237 -0.0039056222017521494 0 0.024566685590483878 -0.0063428186988894264 0 0.025794233334145742 -0.005529171788528805 0 0.024681915718004446 -0.003576340202723243 0 0.024228220726326237 -0.0039056222017521494 0 0.024567784698059609 -0.0033501190649038752 0 0.025192712548663648 -0.0035666360906473414 0 0.025201329848118219 -0.003578724147127912 0 0.025168675190227103 -0.0035167729622882149 0 0.025794233334145742 -0.005529171788528805 0 0.024760016957421034 -0.0031173982022473712 0 0.025192712548663648 -0.0035666360906473414 0 0.025201329848118219 -0.003578724147127912 0 0.025243091055293734 -0.0036003638106961184 0 0.025794233334145742 -0.005529171788528805 0 0.025804850907983321 -0.0050014095318298771 0 0.026069836741967126 -0.0083515090825670296 0 0.02698950599076351 -0.0071971698691694905 0 0.026432911770951004 -0.007629646034591684 0 0.02631636535434756 -0.0088495309834158552 0 0.025794233334145742 -0.005529171788528805 0 0.02698950599076351 -0.0071971698691694905 0 0.026432911770951004 -0.007629646034591684 0 0.026315949238724677 -0.006398034300907459 0 0.025930704702354968 -0.0073956109138861598 0 0.025866987824313955 -0.0078604004888248348 0 0.026090010505681667 -0.0078912307627035626 0 0.025930704702354968 -0.0073956109138861598 0 0.025582357611124349 -0.0067277470269000916 0 0.02556554958824811 -0.0076553636063810548 0 0.026432911770951004 -0.007629646034591684 0 0.025930704702354968 -0.0073956109138861598 0 0.026315949238724677 -0.006398034300907459 0 0.026432911770951004 -0.007629646034591684 0 0.025930704702354968 -0.0073956109138861598 0 0.026090010505681667 -0.0078912307627035626 0 0.025930704702354968 -0.0073956109138861598 0 0.02556554958824811 -0.0076553636063810548 0 0.025866987824313955 -0.0078604004888248348 0 0.025930704702354968 -0.0073956109138861598 0 0.026315949238724677 -0.006398034300907459 0 0.025582357611124349 -0.0067277470269000916 0 0.025582357611124349 -0.0067277470269000916 0 0.024999901205451071 -0.0072737053886713261 0 0.024999914381936165 -0.0059899035386021754 0 0.025582357611124349 -0.0067277470269000916 0 0.024999901205451071 -0.0072737053886713261 0 0.02556554958824811 -0.0076553636063810548 0 0.024999901205451071 -0.0072737053886713261 0 0.02556554958824811 -0.0076553636063810548 0 0.025421681353996969 -0.0082276133299452065 0 0.024999901205451071 -0.0072737053886713261 0 0.024999881252145084 -0.0085571532797669558 0 0.025421681353996969 -0.0082276133299452065 0 0.02556554958824811 -0.0076553636063810548 0 0.025421681353996969 -0.0082276133299452065 0 0.02569469749092966 -0.0080939110504684234 0 0.02556554958824811 -0.0076553636063810548 0 0.025866987824313955 -0.0078604004888248348 0 0.02569469749092966 -0.0080939110504684234 0 0.025866987824313955 -0.0078604004888248348 0 0.02569469749092966 -0.0080939110504684234 0 0.02593936714799281 -0.0081765464211714257 0 0.026069836741967126 -0.0083515090825670296 0 0.026090010505681667 -0.0078912307627035626 0 0.02593936714799281 -0.0081765464211714257 0 0.025866987824313955 -0.0078604004888248348 0 0.026090010505681667 -0.0078912307627035626 0 0.02593936714799281 -0.0081765464211714257 0 0.026069836741967126 -0.0083515090825670296 0 0.02593936714799281 -0.0081765464211714257 0 0.025961467688775476 -0.0084205077651958241 0 0.02593936714799281 -0.0081765464211714257 0 0.025961467688775476 -0.0084205077651958241 0 0.025752372042441747 -0.0083731031171151264 0 0.025961467688775476 -0.0084205077651958241 0 0.025752372042441747 -0.0083731031171151264 0 0.025843274885583738 -0.0085637343386764896 0 0.025961467688775476 -0.0084205077651958241 0 0.026042588238304572 -0.0084452021060037134 0 0.02600854125400975 -0.0085777652644505199 0 0.026130960904598266 -0.0084252568423718067 0 0.026042588238304572 -0.0084452021060037134 0 0.02600854125400975 -0.0085777652644505199 0 0.026069836741967126 -0.0083515090825670296 0 0.025961467688775476 -0.0084205077651958241 0 0.026042588238304572 -0.0084452021060037134 0 0.025421681353996969 -0.0082276133299452065 0 0.02569469749092966 -0.0080939110504684234 0 0.025752372042441747 -0.0083731031171151264 0 0.025421681353996969 -0.0082276133299452065 0 0.025752372042441747 -0.0083731031171151264 0 0.025637438073655209 -0.0086519021039239679 0 0.02569469749092966 -0.0080939110504684234 0 0.02593936714799281 -0.0081765464211714257 0 0.025752372042441747 -0.0083731031171151264 0 0.025752372042441747 -0.0083731031171151264 0 0.025843274885583738 -0.0085637343386764896 0 0.025637438073655209 -0.0086519021039239679 0 0.026035079584012025 -0.0091267669758872197 0 0.02600854125400975 -0.0085777652644505199 0 0.025843814803217069 -0.0087869070186356243 0 0.026035079584012025 -0.0091267669758872197 0 0.026130960904598266 -0.0084252568423718067 0 0.02600854125400975 -0.0085777652644505199 0 0.025843274885583738 -0.0085637343386764896 0 0.025637438073655209 -0.0086519021039239679 0 0.025843814803217069 -0.0087869070186356243 0 0.025961467688775476 -0.0084205077651958241 0 0.025843274885583738 -0.0085637343386764896 0 0.02600854125400975 -0.0085777652644505199 0 0.025843274885583738 -0.0085637343386764896 0 0.02600854125400975 -0.0085777652644505199 0 0.025843814803217069 -0.0087869070186356243 0 0.025672034409561496 -0.0089941034531867275 0 0.026035079584012025 -0.0091267669758872197 0 0.025843814803217069 -0.0087869070186356243 0 0.025672034409561496 -0.0089941034531867275 0 0.025637438073655209 -0.0086519021039239679 0 0.025843814803217069 -0.0087869070186356243 0 0.024999881252145084 -0.0085571532797669558 0 0.025421681353996969 -0.0082276133299452065 0 0.025310360128860867 -0.0091312106890811141 0 0.024999998446795998 -0.0099068213056228427 0 0.02499999864952519 -0.0085573926229105552 0 0.025342803003952929 -0.0091933090563516961 0 0.025672034409561496 -0.0089941034531867275 0 0.025637438073655209 -0.0086519021039239679 0 0.025309221526685688 -0.0088597521333631437 0 0.025417636731974457 -0.0082694892645822759 0 0.025318594883038531 -0.0090900035200157728 0 0.025421681353996969 -0.0082276133299452065 0 0.025637438073655209 -0.0086519021039239679 0 0.025309221526685688 -0.0088597521333631437 0 0.025000137183408742 -0.0085576339175175587 0 0.025318594883038531 -0.0090900035200157728 0 0.024999499019727159 -0.003281851571442747 0 0.025432565947692054 -0.0036173605042081401 0 0.025860449889386451 -0.0027157701519176171 0 0.025432565947692054 -0.0036173605042081401 0 0.025448376071708311 -0.0035107188034572707 0 0.025860449889386451 -0.0027157701519176171 0 0.025432565947692054 -0.0036173605042081401 0 0.025351598064214734 -0.0038346256184855231 0 0.025448376071708311 -0.0035107188034572707 0 0.025432565947692054 -0.0036173605042081401 0 0.025351598064214734 -0.0038346256184855231 0 0.025000445251736378 -0.0047032057811989651 0 0.024999499019727159 -0.003281851571442747 0 0.025432565947692054 -0.0036173605042081401 0 0.025000445251736378 -0.0047032057811989651 0 0.025000071792059521 -0.0047059117826223351 0 0.02542292058635191 -0.0047396663525112893 0 0.025351598064214734 -0.0038346256184855231 0 0.025000445251736378 -0.0047032057811989651 0 0.025259542329011335 -0.0039416343051307239 0 0.025000010627533018 -0.0047061051064592437 0 0.025695727761920261 -0.0055625146799651963 0 0.024999914381936165 -0.0059899035386021754 0 0.025582357611124349 -0.0067277470269000916 0 0.025695727761920261 -0.0055625146799651963 0 0.024999914381936165 -0.0059899035386021754 0 0.025804850907983321 -0.0050014095318298771 0 0.02542292058635191 -0.0047396663525112893 0 0.026315949238724677 -0.006398034300907459 0 0.025582357611124349 -0.0067277470269000916 0 0.025695727761920261 -0.0055625146799651963 0 0.025243091055293734 -0.0036003638106961184 0 0.025259542329011335 -0.0039416343051307239 0 0.025255900954623968 -0.0037344493598649373 0 0.025351598064214734 -0.0038346256184855231 0 0.025259542329011335 -0.0039416343051307239 0 0.025255900954623968 -0.0037344493598649373 0 0.025241650313701007 -0.0036316039672686434 0 0.025186005529292035 -0.0035895986993841082 0 0.025114787107944788 -0.0034155121093927196 0 0.025351598064214734 -0.0038346256184855231 0 0.025241650313701007 -0.0036316039672686434 0 0.025274191412670996 -0.003551459452602432 0 0.025351598064214734 -0.0038346256184855231 0 0.025255900954623968 -0.0037344493598649373 0 0.025241650313701007 -0.0036316039672686434 0 0.025255900954623968 -0.0037344493598649373 0 0.025241650313701007 -0.0036316039672686434 0 0.025186005529292035 -0.0035895986993841082 0 0.025243091055293734 -0.0036003638106961184 0 0.025255900954623968 -0.0037344493598649373 0 0.025186005529292035 -0.0035895986993841082 0 0.025192712548663648 -0.0035666360906473414 0 0.025243091055293734 -0.0036003638106961184 0 0.025186005529292035 -0.0035895986993841082 0 0.025186005529292035 -0.0035895986993841082 0 0.025168675190227103 -0.0035167729622882149 0 0.025114787107944788 -0.0034155121093927196 0 0.025192712548663648 -0.0035666360906473414 0 0.025186005529292035 -0.0035895986993841082 0 0.025168675190227103 -0.0035167729622882149 0 0.025241650313701007 -0.0036316039672686434 0 0.025114787107944788 -0.0034155121093927196 0 0.025274191412670996 -0.003551459452602432 0 0.025114787107944788 -0.0034155121093927196 0 0.025093413273909921 -0.0033779435936864594 0 0.025274191412670996 -0.003551459452602432 0 0.025093413273909921 -0.0033779435936864594 0 0.025274191412670996 -0.003551459452602432 0 0.025448376071708311 -0.0035107188034572707 0 0.025351598064214734 -0.0038346256184855231 0 0.025274191412670996 -0.003551459452602432 0 0.025448376071708311 -0.0035107188034572707 0 0.025093413273909921 -0.0033779435936864594 0 0.025448376071708311 -0.0035107188034572707 0 0.025195237161784324 -0.0034772553072821236 0 0.025448376071708311 -0.0035107188034572707 0 0.025195237161784324 -0.0034772553072821236 0 0.025342860090301907 -0.0034735661650926153 0 0.025195237161784324 -0.0034772553072821236 0 0.024813405068775822 -0.0034414746696857651 0 0.024976152782911785 -0.0036184427652484401 0 0.025093413273909921 -0.0033779435936864594 0 0.024813405068775822 -0.0034414746696857651 0 0.024723734164679 -0.0032500997727112177 0 0.025093413273909921 -0.0033779435936864594 0 0.025195237161784324 -0.0034772553072821236 0 0.024813405068775822 -0.0034414746696857651 0 0.024813405068775822 -0.0034414746696857651 0 0.0242015537658886 -0.0033931053095398 0 0.024287360223122108 -0.0036600250120198304 0 0.024813405068775822 -0.0034414746696857651 0 0.0242015537658886 -0.0033931053095398 0 0.024723734164679 -0.0032500997727112177 0 0.0242015537658886 -0.0033931053095398 0 0.024337774191014763 -0.0029858736075092144 0 0.024723734164679 -0.0032500997727112177 0 0.024337774191014763 -0.0029858736075092144 0 0.024723734164679 -0.0032500997727112177 0 0.024814252698479772 -0.0031749773624589156 0 0.025093413273909921 -0.0033779435936864594 0 0.024723734164679 -0.0032500997727112177 0 0.024814252698479772 -0.0031749773624589156 0 0.024760016957421034 -0.0031173982022473712 0 0.024822411623676804 -0.0033443329079597336 0 0.025114787107944788 -0.0034155121093927196 0 0.025093413273909921 -0.0033779435936864594 0 0.024814252698479772 -0.0031749773624589156 0 0.024567784698059609 -0.0033501190649038752 0 0.024814252698479772 -0.0031749773624589156 0 0.024796221767259059 -0.0031982436974295324 0 0.025168675190227103 -0.0035167729622882149 0 0.025114787107944788 -0.0034155121093927196 0 0.024814252698479772 -0.0031749773624589156 0 0.022419057732690414 -0.0040797892110117076 0 0.022998057044747982 -0.0037484076352218253 0 0.020603410607332066 -0.0048637675217492737 0 0.021136552474403023 -0.0046726594174335131 0 0.021215231633894209 -0.004230405586589981 0 0.024681915718004446 -0.003576340202723243 0 0.024567784698059609 -0.0033501190649038752 0 0.024796221767259059 -0.0031982436974295324 0 0.021439570559729341 -0.0047308811972242354 0 0.021412064117958696 -0.0044828114846478155 0 0.021828044330115658 -0.0043323297652512445 0 0.021412064117958696 -0.0044828114846478155 0 0.021215231633894209 -0.004230405586589981 0 0.021828044330115658 -0.0043323297652512445 0 0.021412064117958696 -0.0044828114846478155 0 0.021136552474403023 -0.0046726594174335131 0 0.021215231633894209 -0.004230405586589981 0 0.021439570559729341 -0.0047308811972242354 0 0.021412064117958696 -0.0044828114846478155 0 0.021136552474403023 -0.0046726594174335131 0 0.024337774191014763 -0.0029858736075092144 0 0.024814252698479772 -0.0031749773624589156 0 0.024796221767259059 -0.0031982436974295324 0 0.023055291626015852 -0.0034507593555896674 0 0.022998057044747982 -0.0037484076352218253 0 0.021850842831131739 -0.0037759801333266023 0 0.021215231633894209 -0.004230405586589981 0 0.021828044330115658 -0.0043323297652512445 0 0.021850842831131739 -0.0037759801333266023 0 0.021828044330115658 -0.0043323297652512445 0 0.022239920631579414 -0.0041744338668496554 0 0.021976565151215967 -0.004643832249685338 0 0.021439570559729341 -0.0047308811972242354 0 0.021828044330115658 -0.0043323297652512445 0 0.021976565151215967 -0.004643832249685338 0 0.021828044330115658 -0.0043323297652512445 0 0.022013049907123976 -0.004398089529634901 0 0.021828044330115658 -0.0043323297652512445 0 0.022013049907123976 -0.004398089529634901 0 0.022239920631579414 -0.0041744338668496554 0 0.022013049907123976 -0.004398089529634901 0 0.022239920631579414 -0.0041744338668496554 0 0.021817893509290157 -0.0044777120818397867 0 0.022239920631579414 -0.0041744338668496554 0 0.022488757604809437 -0.0035257851273913197 0 0.022364830018183478 -0.0034319031548531421 0 0.022239920631579414 -0.0041744338668496554 0 0.022405339075440987 -0.0036536436221611982 0 0.022488757604809437 -0.0035257851273913197 0 0.023055291626015852 -0.0034507593555896674 0 0.02296519068137514 -0.0035169329685020984 0 0.021850842831131739 -0.0037759801333266023 0 0.022239920631579414 -0.0041744338668496554 0 0.022405339075440987 -0.0036536436221611982 0 0.021850842831131739 -0.0037759801333266023 0 0.022405339075440987 -0.0036536436221611982 0 0.023001463185647046 -0.0034383942951628737 0 0.0242015537658886 -0.0033931053095398 0 0.023001463185647046 -0.0034383942951628737 0 0.023540278658133369 -0.0037127301949773815 0 0.0242015537658886 -0.0033931053095398 0 0.024337774191014763 -0.0029858736075092144 0 0.023001463185647046 -0.0034383942951628737 0 0.023001463185647046 -0.0034383942951628737 0 0.0227821045985248 -0.0036380918067970671 0 0.023079242862359049 -0.003727757597645983 0 0.023001463185647046 -0.0034383942951628737 0 0.0227821045985248 -0.0036380918067970671 0 0.022488757604809437 -0.0035257851273913197 0 0.0227821045985248 -0.0036380918067970671 0 0.02242142654333561 -0.0036704918092883751 0 0.022488757604809437 -0.0035257851273913197 0 0.022405339075440987 -0.0036536436221611982 0 0.023001463185647046 -0.0034383942951628737 0 0.022488757604809437 -0.0035257851273913197 0 0.020687395491952382 -0.0018005758960703165 0 0.019508340787197192 0.00057918316384124205 0 0.022458708294458299 -0.0037241109010879205 0 0.02237690250276235 -0.0037241327732021354 0 0.022302556910810647 -0.0037871873796314643 0 0.02242142654333561 -0.0036704918092883751 0 0.022458708294458299 -0.0037241109010879205 0 0.02237690250276235 -0.0037241327732021354 0 0.0227821045985248 -0.0036380918067970671 0 0.02242142654333561 -0.0036704918092883751 0 0.022945932122069322 -0.0039685416452889593 0 0.0227821045985248 -0.0036380918067970671 0 0.022945932122069322 -0.0039685416452889593 0 0.023079242862359049 -0.003727757597645983 0 0.023180980802286054 -0.0043543641016052306 0 0.020687395491952382 -0.0018005758960703165 0 0.023079242862359049 -0.003727757597645983 0 0.023540278658133369 -0.0037127301949773815 0 0.023126708932332367 -0.0039287667529920786 0 0.023001463185647046 -0.0034383942951628737 0 0.023079242862359049 -0.003727757597645983 0 0.023540278658133369 -0.0037127301949773815 0 0.023540278658133369 -0.0037127301949773815 0 0.023666680989202271 -0.0039705410515672186 0 0.023126708932332367 -0.0039287667529920786 0 0.022981194126010625 -0.0039786525416627911 0 0.023666680989202271 -0.0039705410515672186 0 0.023126708932332367 -0.0039287667529920786 0 0.022945932122069322 -0.0039685416452889593 0 0.023079242862359049 -0.003727757597645983 0 0.023126708932332367 -0.0039287667529920786 0 0.020687395491952382 -0.0018005758960703165 0 0.021347902115430351 -0.0019141662986264761 0 0.017450025627891948 0.0038945986498484567 0 0.017663606230747263 0.0037142268724736386 0 0.017470006061460042 0.0037292474075070617 0 0.020687395491952382 -0.0018005758960703165 0 0.020542659710099782 -0.00012496483826367462 0 0.022981194126010625 -0.0039786525416627911 0 0.023666680989202271 -0.0039705410515672186 0 0.023810397616174348 -0.0042537094408748614 0 0.017663606230747263 0.0037142268724736386 0 0.017470006061460042 0.0037292474075070617 0 0.017546023706248432 0.0035394150331707697 0 0.017450025627891948 0.0038945986498484567 0 0.01726703132150114 0.0037767762831756924 0 0.017055326975647506 0.0037972739096167282 0 0.017470006061460042 0.0037292474075070617 0 0.017382528330106006 0.0037709028861007332 0 0.01733179189410811 0.0036303155373269861 0 0.017450025627891948 0.0038945986498484567 0 0.017382528330106006 0.0037709028861007332 0 0.01726703132150114 0.0037767762831756924 0 0.017450025627891948 0.0038945986498484567 0 0.017470006061460042 0.0037292474075070617 0 0.017382528330106006 0.0037709028861007332 0 0.01726703132150114 0.0037767762831756924 0 0.01733179189410811 0.0036303155373269861 0 0.017096246025953464 0.0036301337976371679 0 0.017382528330106006 0.0037709028861007332 0 0.01726703132150114 0.0037767762831756924 0 0.01733179189410811 0.0036303155373269861 0 0.01733179189410811 0.0036303155373269861 0 0.017246306708917143 0.0033926633946068925 0 0.017096246025953464 0.0036301337976371679 0 0.01733179189410811 0.0036303155373269861 0 0.017246306708917143 0.0033926633946068925 0 0.017546023706248432 0.0035394150331707697 0 0.017679867918689904 0.0032086608083364879 0 0.017246306708917143 0.0033926633946068925 0 0.017546023706248432 0.0035394150331707697 0 0.017470006061460042 0.0037292474075070617 0 0.01733179189410811 0.0036303155373269861 0 0.017546023706248432 0.0035394150331707697 0 0.018481586076928513 0.0040749875393995254 0 0.019314914575423281 0.0053781995497066415 0 0.020221799125103055 0.0045786353771430184 0 0.020542659710099782 -0.00012496483826367462 0 0.02178017667691835 0.00055342196307559444 0 0.017663606230747263 0.0037142268724736386 0 0.017546023706248432 0.0035394150331707697 0 0.017887266604263683 0.0035291854674182363 0 0.017679867918689904 0.0032086608083364879 0 0.017546023706248432 0.0035394150331707697 0 0.017887266604263683 0.0035291854674182363 0 0.01769326593292481 0.0043518138348831153 0 0.02178017667691835 0.00055342196307559444 0 0.02178017667691835 0.00055342196307559444 0 0.022811075142780041 0.00076006469365772953 0 0.025400196741765135 -0.0033076297443944518 0 0.025238468775541856 -0.0031185323591943976 0 0.025207249213458988 -0.0033466337180387004 0 0.02178017667691835 0.00055342196307559444 0 0.024731793128233249 -0.0045834528474915995 0 0.025400196741765135 -0.0033076297443944518 0 0.025207249213458988 -0.0033466337180387004 0 0.025060387683089234 -0.0037961781439528933 0 0.025207249213458988 -0.0033466337180387004 0 0.025060387683089234 -0.0037961781439528933 0 0.025244414143701061 -0.0034978048588731577 0 0.025060387683089234 -0.0037961781439528933 0 0.024976152782911785 -0.0036184427652484401 0 0.025244414143701061 -0.0034978048588731577 0 0.025060387683089234 -0.0037961781439528933 0 0.024426270972382827 -0.0039058860483357247 0 0.024976152782911785 -0.0036184427652484401 0 0.024556672994813709 -0.0047135201492868595 0 0.025060387683089234 -0.0037961781439528933 0 0.024426270972382827 -0.0039058860483357247 0 0.023810397616174348 -0.0042537094408748614 0 0.024556672994813709 -0.0047135201492868595 0 0.024426270972382827 -0.0039058860483357247 0 0.023666680989202271 -0.0039705410515672186 0 0.023810397616174348 -0.0042537094408748614 0 0.024426270972382827 -0.0039058860483357247 0 0.024426270972382827 -0.0039058860483357247 0 0.024287360223122108 -0.0036600250120198304 0 0.024976152782911785 -0.0036184427652484401 0 0.023666680989202271 -0.0039705410515672186 0 0.024426270972382827 -0.0039058860483357247 0 0.024287360223122108 -0.0036600250120198304 0 0.0242015537658886 -0.0033931053095398 0 0.023540278658133369 -0.0037127301949773815 0 0.024287360223122108 -0.0036600250120198304 0 0.023540278658133369 -0.0037127301949773815 0 0.023666680989202271 -0.0039705410515672186 0 0.024287360223122108 -0.0036600250120198304 0 0.024813405068775822 -0.0034414746696857651 0 0.024287360223122108 -0.0036600250120198304 0 0.024976152782911785 -0.0036184427652484401 0 0.025195237161784324 -0.0034772553072821236 0 0.024976152782911785 -0.0036184427652484401 0 0.025342860090301907 -0.0034735661650926153 0 0.024976152782911785 -0.0036184427652484401 0 0.025342860090301907 -0.0034735661650926153 0 0.025244414143701061 -0.0034978048588731577 0 0.025448376071708311 -0.0035107188034572707 0 0.025342860090301907 -0.0034735661650926153 0 0.025331000312608164 -0.0033869794671321789 0 0.025475808710105359 -0.0034366907309645129 0 0.025569142780728419 -0.0030297426619533187 0 0.025342860090301907 -0.0034735661650926153 0 0.025499556099527015 -0.0031293848610980234 0 0.025331000312608164 -0.0033869794671321789 0 0.025499556099527015 -0.0031293848610980234 0 0.025244414143701061 -0.0034978048588731577 0 0.025323392077645408 -0.0031830543022415615 0 0.025342860090301907 -0.0034735661650926153 0 0.025499556099527015 -0.0031293848610980234 0 0.025244414143701061 -0.0034978048588731577 0 0.025207249213458988 -0.0033466337180387004 0 0.025244414143701061 -0.0034978048588731577 0 0.025323392077645408 -0.0031830543022415615 0 0.025238468775541856 -0.0031185323591943976 0 0.025207249213458988 -0.0033466337180387004 0 0.025323392077645408 -0.0031830543022415615 0 0.025377492159109366 -0.0031701193295358477 0 0.025238468775541856 -0.0031185323591943976 0 0.025375269053415101 -0.0030430489245100267 0 0.025238468775541856 -0.0031185323591943976 0 0.025323392077645408 -0.0031830543022415615 0 0.025375269053415101 -0.0030430489245100267 0 0.025570033649328434 -0.0031412926115785473 0 0.025375269053415101 -0.0030430489245100267 0 0.025726684222388482 -0.0026125132482948915 0 0.025323392077645408 -0.0031830543022415615 0 0.025375269053415101 -0.0030430489245100267 0 0.02547865720384886 -0.0029480885640270158 0 0.025375269053415101 -0.0030430489245100267 0 0.02547865720384886 -0.0029480885640270158 0 0.025726684222388482 -0.0026125132482948915 0 0.025499556099527015 -0.0031293848610980234 0 0.025323392077645408 -0.0031830543022415615 0 0.02547865720384886 -0.0029480885640270158 0 0.025499556099527015 -0.0031293848610980234 0 0.02547865720384886 -0.0029480885640270158 0 0.025726684222388482 -0.0026125132482948915 0 0.025499556099527015 -0.0031293848610980234 0 0.025726684222388482 -0.0026125132482948915 0 0.025191485073023653 -0.0026440776841083397 0 0.025726684222388482 -0.0026125132482948915 0 0.025545144007530184 -0.0011405061635156879 0 0.025191485073023653 -0.0026440776841083397 0 0.02651165109182688 -0.00028163687609443304 0 0.025726684222388482 -0.0026125132482948915 0 0.025545144007530184 -0.0011405061635156879 0 0.026084211427858377 -0.0020454627425202311 0 0.0257909701522877 -0.00235233686503577 0 0.025491469681525953 8.1888016874489747e-05 0 0.02651165109182688 -0.00028163687609443304 0 0.025545144007530184 -0.0011405061635156879 0 0.025000145392587693 -2.4896273356926579e-05 0 0.024999883803929226 -0.00043154471557985997 0 0.025604407290065211 -0.0013173626020062884 0 0.025545144007530184 -0.0011405061635156879 0 0.024998620482610263 -2.6500606808384709e-05 0 0.025191485073023653 -0.0026440776841083397 0 0.025491469681525953 8.1888016874489747e-05 0 0.025545144007530184 -0.0011405061635156879 0 0.024998620482610263 -2.6500606808384709e-05 0 0.02498468050752942 -0.00021760440879797015 0 0.025416948456518224 -0.0019435445096652542 0 0.024999883803929226 -0.00043154471557985997 0 0.025604407290065211 -0.0013173626020062884 0 0.024999920198839294 -0.0018564778171893089 0 0.025604407290065211 -0.0013173626020062884 0 0.024999920198839294 -0.0018564778171893089 0 0.025860449889386451 -0.0027157701519176171 0 0.025499556099527015 -0.0031293848610980234 0 0.025191485073023653 -0.0026440776841083397 0 0.025331000312608164 -0.0033869794671321789 0 0.025416948456518224 -0.0019435445096652542 0 0.025569142780728419 -0.0030297426619533187 0 0.024999499019727159 -0.003281851571442747 0 0.024999920198839294 -0.0018564778171893089 0 0.025860449889386451 -0.0027157701519176171 0 0.012633612897428963 -0.0039030464468083111 0 0.012150988881287126 -0.0068324900708450816 0 0.011597656581915987 -0.004319508100645973 0 0.012677070572534246 -0.0039703857948020999 0 0.012011084077635679 -0.0053724968362884656 0 0.012677070572534246 -0.0039703857948020999 0 0.014837499587444479 -0.0058968657140286767 0 0.012338255854918968 -0.0073208084365702338 0 0.011597656581915987 -0.004319508100645973 0 0.012677070572534246 -0.0039703857948020999 0 0.011568106999285383 -0.0032340181387272965 0 0.014837499587444479 -0.0058968657140286767 0 0.014297239695925397 -0.0031827899897928094 0 0.016251838300231174 -0.0038956748132341276 0 0.012677070572534246 -0.0039703857948020999 0 0.014837499587444479 -0.0058968657140286767 0 0.014297239695925397 -0.0031827899897928094 0 0.014837499587444479 -0.0058968657140286767 0 0.016469373866223238 -0.0086587413162893794 0 0.01373326821816394 -0.0086041015081645411 0 0.014837499587444479 -0.0058968657140286767 0 0.012338255854918968 -0.0073208084365702338 0 0.01373326821816394 -0.0086041015081645411 0 0.011597656581915987 -0.004319508100645973 0 0.012011084077635679 -0.0053724968362884656 0 0.010902650620059812 -0.0048554432712042102 0 0.012011084077635679 -0.0053724968362884656 0 0.01087938886829963 -0.0057004327360969387 0 0.010902650620059812 -0.0048554432712042102 0 0.01087938886829963 -0.0057004327360969387 0 0.010370197029634697 -0.0052713181204074987 0 0.010902650620059812 -0.0048554432712042102 0 0.01087938886829963 -0.0057004327360969387 0 0.010370197029634697 -0.0052713181204074987 0 0.0098040445254456449 -0.0056356718283163106 0 0.010370197029634697 -0.0052713181204074987 0 0.010902650620059812 -0.0048554432712042102 0 0.0099100944281783412 -0.0048731600958528964 0 0.0091473833097334249 -0.0049766787441341493 0 0.0098040445254456449 -0.0056356718283163106 0 0.0086778777051974391 -0.0054231567612799351 0 0.0099100944281783412 -0.0048731600958528964 0 0.0091473833097334249 -0.0049766787441341493 0 0.0098040445254456449 -0.0056356718283163106 0 0.010370197029634697 -0.0052713181204074987 0 0.0099100944281783412 -0.0048731600958528964 0 0.0098040445254456449 -0.0056356718283163106 0 0.0099100944281783412 -0.0048731600958528964 0 0.0091473833097334249 -0.0049766787441341493 0 0.0095189339273687203 -0.0044756959380674874 0 0.0095189339273687203 -0.0044756959380674874 0 0.0095703356199170267 -0.0038614636365213919 0 0.0089273768417197329 -0.0044013261881879857 0 0.0091473833097334249 -0.0049766787441341493 0 0.0095189339273687203 -0.0044756959380674874 0 0.0089273768417197329 -0.0044013261881879857 0 0.0099100944281783412 -0.0048731600958528964 0 0.0095189339273687203 -0.0044756959380674874 0 0.01012388687143817 -0.0043251183795181662 0 0.0095189339273687203 -0.0044756959380674874 0 0.01012388687143817 -0.0043251183795181662 0 0.0095703356199170267 -0.0038614636365213919 0 0.01012388687143817 -0.0043251183795181662 0 0.0095703356199170267 -0.0038614636365213919 0 0.01074971901253881 -0.0038449327994447549 0 0.011597656581915987 -0.004319508100645973 0 0.010902650620059812 -0.0048554432712042102 0 0.01074971901253881 -0.0038449327994447549 0 0.010902650620059812 -0.0048554432712042102 0 0.0099100944281783412 -0.0048731600958528964 0 0.01012388687143817 -0.0043251183795181662 0 0.010902650620059812 -0.0048554432712042102 0 0.01012388687143817 -0.0043251183795181662 0 0.01074971901253881 -0.0038449327994447549 0 0.011597656581915987 -0.004319508100645973 0 0.01074971901253881 -0.0038449327994447549 0 0.011568106999285383 -0.0032340181387272965 0 0.010143234432336662 -0.0023156145760714264 0 0.01207222461589998 -0.0017243261086188552 0 0.011775753049327464 -0.0023867427355741336 0 0.010143234432336662 -0.0023156145760714264 0 0.011775753049327464 -0.0023867427355741336 0 0.011568106999285383 -0.0032340181387272965 0 0.01074971901253881 -0.0038449327994447549 0 0.010143234432336662 -0.0023156145760714264 0 0.011568106999285383 -0.0032340181387272965 0 0.0095703356199170267 -0.0038614636365213919 0 0.010143234432336662 -0.0023156145760714264 0 0.0084745981753668268 -0.0040111104911790272 0 0.0083409660752461773 -0.0033293804451896979 0 0.0085751486455874718 -0.0039968243791913523 0 0.0095703356199170267 -0.0038614636365213919 0 0.01074971901253881 -0.0038449327994447549 0 0.010143234432336662 -0.0023156145760714264 0 0.0070253161708752811 -0.0047931757349775773 0 0.0080576293040655264 -0.0048631439915912209 0 0.0084745981753668268 -0.0040111104911790272 0 0.007546223777244801 -0.0059804004634715965 0 0.0070253161708752811 -0.0047931757349775773 0 0.0080576293040655264 -0.0048631439915912209 0 0.006865393983698509 -0.006092561039204916 0 0.007546223777244801 -0.0059804004634715965 0 0.0070253161708752811 -0.0047931757349775773 0 0.0062391312504449714 -0.0062517625038984153 0 0.0070253161708752811 -0.0047931757349775773 0 0.0055460081244025645 -0.0057382425772474393 0 0.0083409660752461773 -0.0033293804451896979 0 0.010680477719594794 -0.0049784299408802361 0 0.0062391312504449714 -0.0062517625038984153 0 0.006865393983698509 -0.006092561039204916 0 0.0070253161708752811 -0.0047931757349775773 0 0.010143234432336662 -0.0023156145760714264 0 0.012562643837560863 -0.0006256823424209756 0 0.01207222461589998 -0.0017243261086188552 0 0.012974390184022454 -0.00088530246173158995 0 0.01207222461589998 -0.0017243261086188552 0 0.01257018133911965 -0.002557435286590901 0 0.012562643837560863 -0.0006256823424209756 0 0.012974390184022454 -0.00088530246173158995 0 0.01207222461589998 -0.0017243261086188552 0 0.014125436876412894 -0.0051131929340029643 0 0.01479921794621617 -0.0047279634909731406 0 0.013669216733864672 -0.0039299295183728884 0 0.014414355270444119 -0.0060366625016449712 0 0.013891020135540579 -0.0032725012794353921 0 0.010680477719594794 -0.0049784299408802361 0 0.013891020135540579 -0.0032725012794353921 0 0.014414355270444119 -0.0060366625016449712 0 0.010680477719594794 -0.0049784299408802361 0 0.012974390184022454 -0.00088530246173158995 0 0.01257018133911965 -0.002557435286590901 0 0.014297239695925397 -0.0031827899897928094 0 0.011775753049327464 -0.0023867427355741336 0 0.01257018133911965 -0.002557435286590901 0 0.011568106999285383 -0.0032340181387272965 0 0.01207222461589998 -0.0017243261086188552 0 0.011775753049327464 -0.0023867427355741336 0 0.01257018133911965 -0.002557435286590901 0 0.012677070572534246 -0.0039703857948020999 0 0.01257018133911965 -0.002557435286590901 0 0.014297239695925397 -0.0031827899897928094 0 0.012677070572534246 -0.0039703857948020999 0 0.01257018133911965 -0.002557435286590901 0 0.011568106999285383 -0.0032340181387272965 0 0.013891020135540579 -0.0032725012794353921 0 0.01378188095399235 -0.0017998586823553947 0 0.015602645985665539 -0.0013593353596881518 0 0.014297239695925397 -0.0031827899897928094 0 0.016251838300231174 -0.0038956748132341276 0 0.012951404950207832 0.00044892770066731866 0 0.015602645985665539 -0.0013593353596881518 0 0.014297239695925397 -0.0031827899897928094 0 0.013891020135540579 -0.0032725012794353921 0 0.018270321987053733 -0.0030358625680672736 0 0.019823280745079757 -0.0043053792073208287 0 0.019868244544352601 -0.0044096465363373432 0 0.020294296645248799 -0.0043333617789509107 0 0.019868244544352601 -0.0044096465363373432 0 0.020334671679653679 -0.0046659226177848219 0 0.020294296645248799 -0.0043333617789509107 0 0.020334671679653679 -0.0046659226177848219 0 0.020294296645248799 -0.0043333617789509107 0 0.020812965997009252 -0.0044457527585089153 0 0.021112412545696832 -0.0041501022613559006 0 0.020812965997009252 -0.0044457527585089153 0 0.021445432033680916 -0.0043656118003690004 0 0.020671968626991104 -0.0048710582587999781 0 0.021164313610359781 -0.0046856922320375749 0 0.020796310528914438 -0.0053003763923137621 0 0.020812965997009252 -0.0044457527585089153 0 0.020671968626991104 -0.0048710582587999781 0 0.021164313610359781 -0.0046856922320375749 0 0.020334671679653679 -0.0046659226177848219 0 0.020812965997009252 -0.0044457527585089153 0 0.020671968626991104 -0.0048710582587999781 0 0.018270321987053733 -0.0030358625680672736 0 0.019476845858192881 -0.0040819490747735672 0 0.015602645985665539 -0.0013593353596881518 0 0.018398187866051213 -0.0032324101191176877 0 0.016251838300231174 -0.0038956748132341276 0 0.022013049907123976 -0.004398089529634901 0 0.021445432033680916 -0.0043656118003690004 0 0.021817893509290157 -0.0044777120818397867 0 0.021764324709565325 -0.0043170943462916165 0 0.022013049907123976 -0.004398089529634901 0 0.021445432033680916 -0.0043656118003690004 0 0.020812965997009252 -0.0044457527585089153 0 0.021445432033680916 -0.0043656118003690004 0 0.021164313610359781 -0.0046856922320375749 0 0.021445432033680916 -0.0043656118003690004 0 0.021164313610359781 -0.0046856922320375749 0 0.021817893509290157 -0.0044777120818397867 0 0.021164313610359781 -0.0046856922320375749 0 0.021817893509290157 -0.0044777120818397867 0 0.021806241014788556 -0.0050364102838586396 0 0.022239920631579414 -0.0041744338668496554 0 0.021817893509290157 -0.0044777120818397867 0 0.021806241014788556 -0.0050364102838586396 0 0.022488757604809437 -0.0035257851273913197 0 0.022364830018183478 -0.0034319031548531421 0 0.022297469994352836 -0.0036346983674897478 0 0.022201589314231347 -0.0041931563002310396 0 0.022000104319583449 -0.0042780530078543894 0 0.021164313610359781 -0.0046856922320375749 0 0.021806241014788556 -0.0050364102838586396 0 0.020796310528914438 -0.0053003763923137621 0 0.021806241014788556 -0.0050364102838586396 0 0.020796310528914438 -0.0053003763923137621 0 0.020042736805232119 -0.0065081427396923262 0 0.022000104319583449 -0.0042780530078543894 0 0.020531067557631372 -0.0050151647020365547 0 0.022364830018183478 -0.0034319031548531421 0 0.021708517421976291 -0.003834173492909878 0 0.021074697948653395 -0.0035178205035622978 0 0.022269360248093031 -0.0035969373992907404 0 0.021998968380182751 -0.0042730714620369962 0 0.022364830018183478 -0.0034319031548531421 0 0.021708517421976291 -0.003834173492909878 0 0.022297469994352836 -0.0036346983674897478 0 0.021708517421976291 -0.003834173492909878 0 0.022297469994352836 -0.0036346983674897478 0 0.021631823858793229 -0.0044471507261832945 0 0.02242142654333561 -0.0036704918092883751 0 0.022488757604809437 -0.0035257851273913197 0 0.022297469994352836 -0.0036346983674897478 0 0.02242142654333561 -0.0036704918092883751 0 0.022297469994352836 -0.0036346983674897478 0 0.022309792997011163 -0.003702276168152737 0 0.018398187866051213 -0.0032324101191176877 0 0.016251838300231174 -0.0038956748132341276 0 0.017567494339793408 -0.0055519874904275627 0 0.014837499587444479 -0.0058968657140286767 0 0.016251838300231174 -0.0038956748132341276 0 0.017567494339793408 -0.0055519874904275627 0 0.019476845858192881 -0.0040819490747735672 0 0.020738745003147326 -0.0051585448584354947 0 0.018398187866051213 -0.0032324101191176877 0 0.017567494339793408 -0.0055519874904275627 0 0.019236059082337793 -0.0051654862408023238 0 0.018398187866051213 -0.0032324101191176877 0 0.020796310528914438 -0.0053003763923137621 0 0.019236059082337793 -0.0051654862408023238 0 0.020796310528914438 -0.0053003763923137621 0 0.019236059082337793 -0.0051654862408023238 0 0.020042736805232119 -0.0065081427396923262 0 0.017567494339793408 -0.0055519874904275627 0 0.019236059082337793 -0.0051654862408023238 0 0.020042736805232119 -0.0065081427396923262 0 0.020531067557631372 -0.0050151647020365547 0 0.018008671450602955 -0.0065236934457901588 0 0.021074697948653395 -0.0035178205035622978 0 0.019646512663880112 -0.0040761881983459305 0 0.02074647651454611 -0.0043262614194307493 0 0.021708517421976291 -0.003834173492909878 0 0.021074697948653395 -0.0035178205035622978 0 0.02074647651454611 -0.0043262614194307493 0 0.014837499587444479 -0.0058968657140286767 0 0.017567494339793408 -0.0055519874904275627 0 0.016469373866223238 -0.0086587413162893794 0 0.017567494339793408 -0.0055519874904275627 0 0.020042736805232119 -0.0065081427396923262 0 0.016469373866223238 -0.0086587413162893794 0 0.019646512663880112 -0.0040761881983459305 0 0.019867610593998948 -0.0049304565569493666 0 0.019021047755138489 -0.0050482346134802149 0 0.019646512663880112 -0.0040761881983459305 0 0.02074647651454611 -0.0043262614194307493 0 0.019867610593998948 -0.0049304565569493666 0 0.02074647651454611 -0.0043262614194307493 0 0.020862511072873222 -0.0054458780582159116 0 0.021631823858793229 -0.0044471507261832945 0 0.02074647651454611 -0.0043262614194307493 0 0.020862511072873222 -0.0054458780582159116 0 0.019867610593998948 -0.0049304565569493666 0 0.019867610593998948 -0.0049304565569493666 0 0.0191728705367353 -0.0057403908480214028 0 0.019021047755138489 -0.0050482346134802149 0 0.020862511072873222 -0.0054458780582159116 0 0.019867610593998948 -0.0049304565569493666 0 0.0191728705367353 -0.0057403908480214028 0 0.022297469994352836 -0.0036346983674897478 0 0.022309792997011163 -0.003702276168152737 0 0.022213429753307298 -0.0037146313618771527 0 0.02237690250276235 -0.0037241327732021354 0 0.022309792997011163 -0.003702276168152737 0 0.022302556910810647 -0.0037871873796314643 0 0.02242142654333561 -0.0036704918092883751 0 0.02237690250276235 -0.0037241327732021354 0 0.022309792997011163 -0.003702276168152737 0 0.022309792997011163 -0.003702276168152737 0 0.022213429753307298 -0.0037146313618771527 0 0.022302556910810647 -0.0037871873796314643 0 0.021708517421976291 -0.003834173492909878 0 0.02074647651454611 -0.0043262614194307493 0 0.021631823858793229 -0.0044471507261832945 0 0.022083225454858493 -0.0038445855162528241 0 0.022213429753307298 -0.0037146313618771527 0 0.022302556910810647 -0.0037871873796314643 0 0.016726652014666984 0.0036498764677075474 0 0.017055326975647506 0.0037972739096167282 0 0.016906720811114894 0.0036195001796348039 0 0.020154858368112101 -0.0030896710113842226 0 0.021998968380182751 -0.0042730714620369962 0 0.020154858368112101 -0.0030896710113842226 0 0.019508340787197192 0.00057918316384124205 0 0.017055326975647506 0.0037972739096167282 0 0.017096246025953464 0.0036301337976371679 0 0.016906720811114894 0.0036195001796348039 0 0.01726703132150114 0.0037767762831756924 0 0.017055326975647506 0.0037972739096167282 0 0.017096246025953464 0.0036301337976371679 0 0.017246306708917143 0.0033926633946068925 0 0.017096246025953464 0.0036301337976371679 0 0.016916132732481767 0.003496284930650843 0 0.017096246025953464 0.0036301337976371679 0 0.016916132732481767 0.003496284930650843 0 0.016906720811114894 0.0036195001796348039 0 0.016726652014666984 0.0036498764677075474 0 0.016906720811114894 0.0036195001796348039 0 0.016777368066793731 0.0035396853527359016 0 0.016916132732481767 0.003496284930650843 0 0.016906720811114894 0.0036195001796348039 0 0.016777368066793731 0.0035396853527359016 0 0.016916132732481767 0.003496284930650843 0 0.016777368066793731 0.0035396853527359016 0 0.016732315229146377 0.0034416871467325043 0 0.016916132732481767 0.003496284930650843 0 0.016925407026402769 0.0033458046487548896 0 0.016732315229146377 0.0034416871467325043 0 0.016702552262267547 0.0033590382280801554 0 0.016925407026402769 0.0033458046487548896 0 0.016732315229146377 0.0034416871467325043 0 0.017246306708917143 0.0033926633946068925 0 0.016916132732481767 0.003496284930650843 0 0.016925407026402769 0.0033458046487548896 0 0.019370309610581053 -0.0059256882062592294 0 0.019661426479392754 -0.0058303672152196662 0 0.0191728705367353 -0.0057403908480214028 0 0.019904142573774396 -0.0054313017670326947 0 0.019661426479392754 -0.0058303672152196662 0 0.0191728705367353 -0.0057403908480214028 0 0.020154858368112101 -0.0030896710113842226 0 0.019231792308421414 -0.0063912374937867417 0 0.019370309610581053 -0.0059256882062592294 0 0.019661426479392754 -0.0058303672152196662 0 0.019410424244676362 -0.0062029891692567006 0 0.020154858368112101 -0.0030896710113842226 0 0.018018050670895434 -0.0013216862150476603 0 0.016726652014666984 0.0036498764677075474 0 0.016777368066793731 0.0035396853527359016 0 0.016645565719245171 0.0035052273664671427 0 0.016777368066793731 0.0035396853527359016 0 0.016645565719245171 0.0035052273664671427 0 0.016732315229146377 0.0034416871467325043 0 0.016278411447550007 0.0041331502921642463 0 0.015827464831830652 0.0026122458110733556 0 0.016702552262267547 0.0033590382280801554 0 0.016732315229146377 0.0034416871467325043 0 0.01659433407748892 0.0034171108088766299 0 0.016645565719245171 0.0035052273664671427 0 0.016732315229146377 0.0034416871467325043 0 0.01659433407748892 0.0034171108088766299 0 0.0140738515439678 0.0046255635877969345 0 0.015162501237363513 0.0038932716508106205 0 0.014025375372350131 0.0057845015376344015 0 0.019370309610581053 -0.0059256882062592294 0 0.019410424244676362 -0.0062029891692567006 0 0.018813380213670048 -0.0060283880577445617 0 0.018018050670895434 -0.0013216862150476603 0 0.015827464831830652 0.0026122458110733556 0 0.0140738515439678 0.0046255635877969345 0 0.014025375372350131 0.0057845015376344015 0 0.013322253884393384 0.0050509279569597963 0 0.013959764727249375 0.0060458167992888303 0 0.013322253884393384 0.0050509279569597963 0 0.011954467467365325 0.0058935095021712628 0 0.015827464831830652 0.0026122458110733556 0 0.015215883064289101 0.0040496556918211916 0 0.011943726516717868 0.0046489658618998828 0 0.011954467467365325 0.0058935095021712628 0 0.010377465265077728 0.004991538826481551 0 0.013959764727249375 0.0060458167992888303 0 0.011954467467365325 0.0058935095021712628 0 0.010960069865062667 0.0076485462742837372 0 0.011954467467365325 0.0058935095021712628 0 0.010377465265077728 0.004991538826481551 0 0.010960069865062667 0.0076485462742837372 0 0.015827464831830652 0.0026122458110733556 0 0.015480007889353418 0.00060796800457788155 0 0.011943726516717868 0.0046489658618998828 0 0.013322253884393384 0.0050509279569597963 0 0.011954467467365325 0.0058935095021712628 0 0.010377465265077728 0.004991538826481551 0 0.0073869536081573725 0.0050160757846066401 0 0.010960069865062667 0.0076485462742837372 0 0.0059951096769984887 0.0026308453768152228 0 0.0099590367829368379 -0.001101384555985981 0 0.0099590367829368379 -0.001101384555985981 0 0.015480007889353418 0.00060796800457788155 0 0.017868942891920453 -0.0056301986434128025 0 0.018797974577475073 -0.0057174965408770453 0 0.018582811103354097 -0.0053945865769422846 0 0.0073869536081573725 0.0050160757846066401 0 0.0080865235000582899 0.0091530360113475685 0 0.010960069865062667 0.0076485462742837372 0 0.017868942891920453 -0.0056301986434128025 0 0.018813380213670048 -0.0060283880577445617 0 0.018797974577475073 -0.0057174965408770453 0 0.019370309610581053 -0.0059256882062592294 0 0.018813380213670048 -0.0060283880577445617 0 0.0191728705367353 -0.0057403908480214028 0 0.018797974577475073 -0.0057174965408770453 0 0.0191728705367353 -0.0057403908480214028 0 0.018582811103354097 -0.0053945865769422846 0 0.018813380213670048 -0.0060283880577445617 0 0.018797974577475073 -0.0057174965408770453 0 0.0191728705367353 -0.0057403908480214028 0 0.0191728705367353 -0.0057403908480214028 0 0.019021047755138489 -0.0050482346134802149 0 0.018582811103354097 -0.0053945865769422846 0 0.019021047755138489 -0.0050482346134802149 0 0.018405624685002595 -0.0049829318472068883 0 0.018363881503844742 -0.004735979572047487 0 0.019021047755138489 -0.0050482346134802149 0 0.018582811103354097 -0.0053945865769422846 0 0.018405624685002595 -0.0049829318472068883 0 0.017868942891920453 -0.0056301986434128025 0 0.018186274131527781 -0.0051739365098012373 0 0.017970331641897347 -0.0047329077370722519 0 0.0099590367829368379 -0.001101384555985981 0 0.011976813529600602 -0.0060730904735285278 0 0.017868942891920453 -0.0056301986434128025 0 0.018582811103354097 -0.0053945865769422846 0 0.018186274131527781 -0.0051739365098012373 0 0.0073388507762310821 -0.0043748184770087293 0 0.0074515640632081253 -0.0035234417593276181 0 0.0070969669286804196 -0.0039028690190310352 0 0.018582811103354097 -0.0053945865769422846 0 0.018186274131527781 -0.0051739365098012373 0 0.018405624685002595 -0.0049829318472068883 0 0.018186274131527781 -0.0051739365098012373 0 0.01817752355079175 -0.004847006122720798 0 0.017970331641897347 -0.0047329077370722519 0 0.018186274131527781 -0.0051739365098012373 0 0.018405624685002595 -0.0049829318472068883 0 0.01817752355079175 -0.004847006122720798 0 0.01817752355079175 -0.004847006122720798 0 0.018333446033950082 -0.0047598123179079972 0 0.017970331641897347 -0.0047329077370722519 0 0.018405624685002595 -0.0049829318472068883 0 0.018334655390386149 -0.0048349642116835342 0 0.018363881503844742 -0.004735979572047487 0 0.016940282750571061 -0.0058216475056308524 0 0.015763541507473153 -0.0065690033783435712 0 0.018405624685002595 -0.0049829318472068883 0 0.01817752355079175 -0.004847006122720798 0 0.018334655390386149 -0.0048349642116835342 0 0.01817752355079175 -0.004847006122720798 0 0.018334655390386149 -0.0048349642116835342 0 0.018363881503844742 -0.004735979572047487 0 0.012338255854918968 -0.0073208084365702338 0 0.011965425433893156 -0.010525345610000564 0 0.01373326821816394 -0.0086041015081645411 0 0.01309783089592857 -0.010575559153111065 0 0.011965425433893156 -0.010525345610000564 0 0.01373326821816394 -0.0086041015081645411 0 0.012150988881287126 -0.0068324900708450816 0 0.011976813529600602 -0.0060730904735285278 0 0.012011084077635679 -0.0053724968362884656 0 0.01087938886829963 -0.0057004327360969387 0 0.011737959880638525 -0.0067750683326151381 0 0.015763541507473153 -0.0065690033783435712 0 0.011976813529600602 -0.0060730904735285278 0 0.016469373866223238 -0.0086587413162893794 0 0.01309783089592857 -0.010575559153111065 0 0.01373326821816394 -0.0086041015081645411 0 0.019646512663880112 -0.0040761881983459305 0 0.019021047755138489 -0.0050482346134802149 0 0.018363881503844742 -0.004735979572047487 0 0.018008671450602955 -0.0065236934457901588 0 0.015763541507473153 -0.0065690033783435712 0 0.0091854580379670224 -0.005933286620145012 0 0.0098040445254456449 -0.0056356718283163106 0 0.0086778777051974391 -0.0054231567612799351 0 0.0097631087251863948 -0.0065668803373137123 0 0.0097809247291148916 -0.0060693198605922764 0 0.010395122962923827 -0.0061582371317856054 0 0.0097631087251863948 -0.0065668803373137123 0 0.0091854580379670224 -0.005933286620145012 0 0.0097809247291148916 -0.0060693198605922764 0 0.0091854580379670224 -0.005933286620145012 0 0.0098040445254456449 -0.0056356718283163106 0 0.0097809247291148916 -0.0060693198605922764 0 0.0098040445254456449 -0.0056356718283163106 0 0.0097809247291148916 -0.0060693198605922764 0 0.010395122962923827 -0.0061582371317856054 0 0.01087938886829963 -0.0057004327360969387 0 0.011737959880638525 -0.0067750683326151381 0 0.010395122962923827 -0.0061582371317856054 0 0.011976813529600602 -0.0060730904735285278 0 0.0074840646536985939 -0.004934204073461095 0 0.01087938886829963 -0.0057004327360969387 0 0.0098040445254456449 -0.0056356718283163106 0 0.010395122962923827 -0.0061582371317856054 0 0.011737959880638525 -0.0067750683326151381 0 0.0097631087251863948 -0.0065668803373137123 0 0.010395122962923827 -0.0061582371317856054 0 0.0074515640632081253 -0.0035234417593276181 0 0.0061890117883337727 -0.0035660333138134068 0 0.0070969669286804196 -0.0039028690190310352 0 0.0061890117883337727 -0.0035660333138134068 0 0.0070969669286804196 -0.0039028690190310352 0 0.0066748035003372126 -0.0040157836463508168 0 0.0073388507762310821 -0.0043748184770087293 0 0.0070969669286804196 -0.0039028690190310352 0 0.0066748035003372126 -0.0040157836463508168 0 0.0099590367829368379 -0.001101384555985981 0 0.0059121811466395268 -0.0033809130015158752 0 0.0056129069682472194 -0.0032658045471305841 0 0.0060143795602242691 -0.0031899758224522919 0 0.0061888384101217147 -0.0035935329467252949 0 0.0061890117883337727 -0.0035660333138134068 0 0.0066748035003372126 -0.0040157836463508168 0 0.0061888384101217147 -0.0035935329467252949 0 0.0059121811466395268 -0.0033809130015158752 0 0.0062797772919042164 -0.0036646559203207035 0 0.0060143795602242691 -0.0031899758224522919 0 0.0061888384101217147 -0.0035935329467252949 0 0.0062825981137411098 -0.0031804162883503338 0 0.0061888384101217147 -0.0035935329467252949 0 0.0062825981137411098 -0.0031804162883503338 0 0.0065240293048394755 -0.0033828277260063312 0 0.0062825981137411098 -0.0031804162883503338 0 0.0061736129349695265 -0.0028606532162094547 0 0.0065107181554605702 -0.002806669163978428 0 0.0060143795602242691 -0.0031899758224522919 0 0.0062825981137411098 -0.0031804162883503338 0 0.0061736129349695265 -0.0028606532162094547 0 0.0060143795602242691 -0.0031899758224522919 0 0.0061736129349695265 -0.0028606532162094547 0 0.005773073451177487 -0.002574075228972985 0 0.0061736129349695265 -0.0028606532162094547 0 0.005773073451177487 -0.002574075228972985 0 0.0061758925873803515 -0.0023384665958713735 0 0.0061736129349695265 -0.0028606532162094547 0 0.0061758925873803515 -0.0023384665958713735 0 0.0065107181554605702 -0.002806669163978428 0 0.0050047661405755546 -0.0028882563806549703 0 0.0056129069682472194 -0.0032658045471305841 0 0.005773073451177487 -0.002574075228972985 0 0.0052849915917357613 -0.0015098465537023401 0 0.0050047661405755546 -0.0028882563806549703 0 0.005773073451177487 -0.002574075228972985 0 0.0056129069682472194 -0.0032658045471305841 0 0.0060143795602242691 -0.0031899758224522919 0 0.005773073451177487 -0.002574075228972985 0 0.0052849915917357613 -0.0015098465537023401 0 0.005773073451177487 -0.002574075228972985 0 0.0059840851437355114 -0.0018441035877476729 0 0.0061758925873803515 -0.0023384665958713735 0 0.0063478353986528941 -0.0016837420396266991 0 0.0064833590149466335 -0.0021595344850278931 0 0.005773073451177487 -0.002574075228972985 0 0.0061758925873803515 -0.0023384665958713735 0 0.0059840851437355114 -0.0018441035877476729 0 0.0061758925873803515 -0.0023384665958713735 0 0.0059840851437355114 -0.0018441035877476729 0 0.0063478353986528941 -0.0016837420396266991 0 0.0066322460242941202 -0.0014221211414072656 0 0.0063478353986528941 -0.0016837420396266991 0 0.0064833590149466335 -0.0021595344850278931 0 0.0066322460242941202 -0.0014221211414072656 0 0.0064833590149466335 -0.0021595344850278931 0 0.0068101979051260952 -0.0023399962759468864 0 0.0061758925873803515 -0.0023384665958713735 0 0.0064833590149466335 -0.0021595344850278931 0 0.0065107181554605702 -0.002806669163978428 0 0.0064833590149466335 -0.0021595344850278931 0 0.0068101979051260952 -0.0023399962759468864 0 0.0065107181554605702 -0.002806669163978428 0 0.0066322460242941202 -0.0014221211414072656 0 0.0071756800455482035 -0.0018613977789583951 0 0.0068101979051260952 -0.0023399962759468864 0 0.0071756800455482035 -0.0018613977789583951 0 0.0068101979051260952 -0.0023399962759468864 0 0.0070350039627052044 -0.0030703159711651996 0 0.0068101979051260952 -0.0023399962759468864 0 0.0070350039627052044 -0.0030703159711651996 0 0.0065107181554605702 -0.002806669163978428 0 0.0070350039627052044 -0.0030703159711651996 0 0.0065107181554605702 -0.002806669163978428 0 0.0065240293048394755 -0.0033828277260063312 0 0.0062825981137411098 -0.0031804162883503338 0 0.0065107181554605702 -0.002806669163978428 0 0.0065240293048394755 -0.0033828277260063312 0 0.0068297717549703502 -0.00061430590371656544 0 0.0057556210713687328 -0.0012795911367234052 0 0.0069849005653566908 -0.0021752784251518743 0 0.0071756800455482035 -0.0018613977789583951 0 0.0070350039627052044 -0.0030703159711651996 0 0.0079052815671134223 -0.0022512915366414642 0 0.0070350039627052044 -0.0030703159711651996 0 0.0079052815671134223 -0.0022512915366414642 0 0.0073667926729364805 -0.0036899361530675864 0 0.0079052815671134223 -0.0022512915366414642 0 0.0080481728372082846 -0.0038173206436679457 0 0.0073667926729364805 -0.0036899361530675864 0 0.006765326343383617 -0.0020549894944581646 0 0.0071327682001254217 -0.0034725514706489221 0 0.0057556210713687328 -0.0012795911367234052 0 0.0062482336158960162 -0.0032980083516992143 0 0.0069849005653566908 -0.0021752784251518743 0 0.0071327682001254217 -0.0034725514706489221 0 0.0073336018464891543 -0.0051413827113056133 0 0.0073667926729364805 -0.0036899361530675864 0 0.007364044103708247 -0.0047701359506969587 0 0.0066926049905411495 -0.0039831507528339891 0 0.0080481728372082846 -0.0038173206436679457 0 0.0073667926729364805 -0.0036899361530675864 0 0.007364044103708247 -0.0047701359506969587 0 0.007364044103708247 -0.0047701359506969587 0 0.0078086922542463166 -0.0052552533058140742 0 0.0074468338006360426 -0.0051283844993921975 0 0.0080481728372082846 -0.0038173206436679457 0 0.007364044103708247 -0.0047701359506969587 0 0.0077185769163789089 -0.0050145376676443464 0 0.007364044103708247 -0.0047701359506969587 0 0.0069710496375141352 -0.0054316391483684541 0 0.0077185769163789089 -0.0050145376676443464 0 0.0061888384101217147 -0.0035935329467252949 0 0.0065240293048394755 -0.0033828277260063312 0 0.0066926049905411495 -0.0039831507528339891 0 0.0070350039627052044 -0.0030703159711651996 0 0.0065240293048394755 -0.0033828277260063312 0 0.0066926049905411495 -0.0039831507528339891 0 0.0070350039627052044 -0.0030703159711651996 0 0.0073667926729364805 -0.0036899361530675864 0 0.0066926049905411495 -0.0039831507528339891 0 0.007364044103708247 -0.0047701359506969587 0 0.0080296319011659324 -0.0058557689905671638 0 0.0078086922542463166 -0.0052552533058140742 0 0.0073929962634439418 -0.0047939217464594373 0 0.0075688335566010036 -0.0049365187843106598 0 0.0061890117883337727 -0.0035660333138134068 0 0.0061888384101217147 -0.0035935329467252949 0 0.0066926049905411495 -0.0039831507528339891 0 0.0080296319011659324 -0.0058557689905671638 0 0.0086778777051974391 -0.0054231567612799351 0 0.0078086922542463166 -0.0052552533058140742 0 0.0074840646536985939 -0.004934204073461095 0 0.0075688335566010036 -0.0049365187843106598 0 0.0091854580379670224 -0.005933286620145012 0 0.0080296319011659324 -0.0058557689905671638 0 0.0086778777051974391 -0.0054231567612799351 0 0.0097631087251863948 -0.0065668803373137123 0 0.0091854580379670224 -0.005933286620145012 0 0.0080296319011659324 -0.0058557689905671638 0 0.0086778777051974391 -0.0054231567612799351 0 0.0080923244748614068 -0.0046749310738204717 0 0.0078086922542463166 -0.0052552533058140742 0 0.0091473833097334249 -0.0049766787441341493 0 0.0086778777051974391 -0.0054231567612799351 0 0.0080923244748614068 -0.0046749310738204717 0 0.0095703356199170267 -0.0038614636365213919 0 0.0089273768417197329 -0.0044013261881879857 0 0.0084745981753668268 -0.0040111104911790272 0 0.0089273768417197329 -0.0044013261881879857 0 0.0080923244748614068 -0.0046749310738204717 0 0.0084745981753668268 -0.0040111104911790272 0 0.0091473833097334249 -0.0049766787441341493 0 0.0089273768417197329 -0.0044013261881879857 0 0.0080923244748614068 -0.0046749310738204717 0 0.0080923244748614068 -0.0046749310738204717 0 0.0084745981753668268 -0.0040111104911790272 0 0.0085821636126237159 -0.0040957677387464617 0 0.0080608013205317949 -0.0050015229532117704 0 0.0084393102753665475 -0.0034949888093728839 0 0.0077828612200326582 -0.0045276527694654211 0 0.0080923244748614068 -0.0046749310738204717 0 0.0078700923641711346 -0.0043920204488206993 0 0.0077828612200326582 -0.0045276527694654211 0 0.0080923244748614068 -0.0046749310738204717 0 0.0076865283595277199 -0.0047858571072680288 0 0.0076865283595277199 -0.0047858571072680288 0 0.0078086922542463166 -0.0052552533058140742 0 0.0074468338006360426 -0.0051283844993921975 0 0.0080923244748614068 -0.0046749310738204717 0 0.0076865283595277199 -0.0047858571072680288 0 0.0078086922542463166 -0.0052552533058140742 0 0.007364044103708247 -0.0047701359506969587 0 0.0074468338006360426 -0.0051283844993921975 0 0.0069710496375141352 -0.0054316391483684541 0 0.0074468338006360426 -0.0051283844993921975 0 0.0069710496375141352 -0.0054316391483684541 0 0.0074077973999424384 -0.0045845413052748299 0 0.0068897845883244564 -0.0054207444402616161 0 0.0063652694377963181 -0.0058473408927540707 0 0.0069710496375141352 -0.0054316391483684541 0 0.005291105281184985 -0.0069758995707449268 0 0.0067885501320450207 -0.0076181046111452998 0 0.0076865283595277199 -0.0047858571072680288 0 0.0074468338006360426 -0.0051283844993921975 0 0.0074077973999424384 -0.0045845413052748299 0 0.0077828612200326582 -0.0045276527694654211 0 0.0076865283595277199 -0.0047858571072680288 0 0.0074077973999424384 -0.0045845413052748299 0 0.0063652694377963181 -0.0058473408927540707 0 0.0059898490590886084 -0.0061369153899204151 0 0.005291105281184985 -0.0069758995707449268 0 0.0053486467908777603 -0.0085697963868801158 0 0.0041621628987880384 -0.0083685076079336104 0 0.005291105281184985 -0.0069758995707449268 0 0.0053486467908777603 -0.0085697963868801158 0 0.0067885501320450207 -0.0076181046111452998 0 0.0053486467908777603 -0.0085697963868801158 0 0.0067885501320450207 -0.0076181046111452998 0 0.0066588892311087921 -0.0093250872407051166 0 0.0053486467908777603 -0.0085697963868801158 0 0.0066588892311087921 -0.0093250872407051166 0 0.0050538690932855485 -0.010078815873845298 0 0.0053486467908777603 -0.0085697963868801158 0 0.0042744387146219686 -0.0094764874977711581 0 0.0041621628987880384 -0.0083685076079336104 0 0.0053486467908777603 -0.0085697963868801158 0 0.0042744387146219686 -0.0094764874977711581 0 0.0050538690932855485 -0.010078815873845298 0 0.0042744387146219686 -0.0094764874977711581 0 0.0031554109599239294 -0.0097126140925461457 0 0.0041621628987880384 -0.0083685076079336104 0 0.0078138501572920759 -0.0044041221880415328 0 0.0078700923641711346 -0.0043920204488206993 0 0.007785512581187517 -0.0043551968058083953 0 0.0061108682772822538 -0.0087823453358816111 0 0.0059898490590886084 -0.0061369153899204151 0 0.0061108682772822538 -0.0087823453358816111 0 0.0084393102753665475 -0.0034949888093728839 0 0.0080576293040655264 -0.0048631439915912209 0 0.0086654556468047095 -0.0057107003755226442 0 0.0085821636126237159 -0.0040957677387464617 0 0.007546223777244801 -0.0059804004634715965 0 0.0080576293040655264 -0.0048631439915912209 0 0.0086654556468047095 -0.0057107003755226442 0 0.0080576293040655264 -0.0048631439915912209 0 0.0084745981753668268 -0.0040111104911790272 0 0.0085821636126237159 -0.0040957677387464617 0 0.0077828612200326582 -0.0045276527694654211 0 0.0078700923641711346 -0.0043920204488206993 0 0.007785512581187517 -0.0043551968058083953 0 0.0077828612200326582 -0.0045276527694654211 0 0.0074077973999424384 -0.0045845413052748299 0 0.007785512581187517 -0.0043551968058083953 0 0.009053338538891802 -0.00899294659407914 0 0.0079193177125918678 -0.0083544896450975584 0 0.0090487611734158049 -0.0075784654344917581 0 0.0099944732202042769 -0.0081415319926264086 0 0.009053338538891802 -0.00899294659407914 0 0.0090487611734158049 -0.0075784654344917581 0 0.0099944732202042769 -0.0081415319926264086 0 0.0099872519026542005 -0.0096040694290061169 0 0.009053338538891802 -0.00899294659407914 0 0.0066588892311087921 -0.0093250872407051166 0 0.0079193177125918678 -0.0083544896450975584 0 0.0081314656674615383 -0.0097874745416592079 0 0.009053338538891802 -0.00899294659407914 0 0.0079193177125918678 -0.0083544896450975584 0 0.0081314656674615383 -0.0097874745416592079 0 0.0067885501320450207 -0.0076181046111452998 0 0.0066588892311087921 -0.0093250872407051166 0 0.0079193177125918678 -0.0083544896450975584 0 0.0067885501320450207 -0.0076181046111452998 0 0.0079193177125918678 -0.0083544896450975584 0 0.0078027617378861889 -0.0069365806927025155 0 0.0079193177125918678 -0.0083544896450975584 0 0.0078027617378861889 -0.0069365806927025155 0 0.0090487611734158049 -0.0075784654344917581 0 0.0069710496375141352 -0.0054316391483684541 0 0.0067885501320450207 -0.0076181046111452998 0 0.0078027617378861889 -0.0069365806927025155 0 0.0077846510963790324 -0.0067984092761834121 0 0.0073336018464891543 -0.0051413827113056133 0 0.0069710496375141352 -0.0054316391483684541 0 0.0078027617378861889 -0.0069365806927025155 0 0.0077185769163789089 -0.0050145376676443464 0 0.0078027617378861889 -0.0069365806927025155 0 0.0080996050169898619 -0.0056996476023207683 0 0.0069280122216343774 -0.005256637164733167 0 0.0078027617378861889 -0.0069365806927025155 0 0.0080996050169898619 -0.0056996476023207683 0 0.0088316536825773211 -0.0063425892300452182 0 0.0080996050169898619 -0.0056996476023207683 0 0.0088316536825773211 -0.0063425892300452182 0 0.0092393811334983717 -0.0051210007573306814 0 0.0078027617378861889 -0.0069365806927025155 0 0.0088316536825773211 -0.0063425892300452182 0 0.0090487611734158049 -0.0075784654344917581 0 0.0099944732202042769 -0.0081415319926264086 0 0.0090487611734158049 -0.0075784654344917581 0 0.010108943890910641 -0.0062622534599810729 0 0.0088316536825773211 -0.0063425892300452182 0 0.0090487611734158049 -0.0075784654344917581 0 0.010108943890910641 -0.0062622534599810729 0 0.0088316536825773211 -0.0063425892300452182 0 0.010108943890910641 -0.0062622534599810729 0 0.0092393811334983717 -0.0051210007573306814 0 0.010108943890910641 -0.0062622534599810729 0 0.0092393811334983717 -0.0051210007573306814 0 0.010250610476784626 -0.0043811799665228225 0 0.0080996050169898619 -0.0056996476023207683 0 0.0092393811334983717 -0.0051210007573306814 0 0.0082217397115312493 -0.0044210193987439025 0 0.0092393811334983717 -0.0051210007573306814 0 0.0091307368557084941 -0.0039289322336015474 0 0.0082217397115312493 -0.0044210193987439025 0 0.0091307368557084941 -0.0039289322336015474 0 0.0082217397115312493 -0.0044210193987439025 0 0.0084066895202517186 -0.002798983649452805 0 0.0091307368557084941 -0.0039289322336015474 0 0.010250610476784626 -0.0043811799665228225 0 0.0097535504337983199 -0.0029532219700574595 0 0.0092393811334983717 -0.0051210007573306814 0 0.0091307368557084941 -0.0039289322336015474 0 0.010250610476784626 -0.0043811799665228225 0 0.0069280122216343774 -0.005256637164733167 0 0.0082217397115312493 -0.0044210193987439025 0 0.0073681225104923415 -0.0035927440908189276 0 0.0080996050169898619 -0.0056996476023207683 0 0.0069280122216343774 -0.005256637164733167 0 0.0082217397115312493 -0.0044210193987439025 0 0.0082217397115312493 -0.0044210193987439025 0 0.0073681225104923415 -0.0035927440908189276 0 0.0084066895202517186 -0.002798983649452805 0 0.0062482336158960162 -0.0032980083516992143 0 0.0069280122216343774 -0.005256637164733167 0 0.0073681225104923415 -0.0035927440908189276 0 0.0073681225104923415 -0.0035927440908189276 0 0.0069849005653566908 -0.0021752784251518743 0 0.0084066895202517186 -0.002798983649452805 0 0.0062482336158960162 -0.0032980083516992143 0 0.0073681225104923415 -0.0035927440908189276 0 0.0069849005653566908 -0.0021752784251518743 0 0.0084066895202517186 -0.002798983649452805 0 0.0075576261031808853 -0.0010654436820437794 0 0.0086848141294242568 -0.0012380807316649972 0 0.0068297717549703502 -0.00061430590371656544 0 0.0069849005653566908 -0.0021752784251518743 0 0.0075576261031808853 -0.0010654436820437794 0 0.0069849005653566908 -0.0021752784251518743 0 0.0084066895202517186 -0.002798983649452805 0 0.0075576261031808853 -0.0010654436820437794 0 0.0084066895202517186 -0.002798983649452805 0 0.0097535504337983199 -0.0029532219700574595 0 0.0086848141294242568 -0.0012380807316649972 0 0.0091307368557084941 -0.0039289322336015474 0 0.0084066895202517186 -0.002798983649452805 0 0.0097535504337983199 -0.0029532219700574595 0 0.0097535504337983199 -0.0029532219700574595 0 0.0086848141294242568 -0.0012380807316649972 0 0.01029157088761371 -0.0014585442044822128 0 0.007541159564518559 -0.00083686737039829497 0 0.0080465319771378697 -0.0019317756188106244 0 0.0049099170923457827 -0.00023138385083511687 0 0.0047937611769661654 -0.00020565388147782788 0 0.0047251463554352242 -0.00079424796603180922 0 0.0097535504337983199 -0.0029532219700574595 0 0.01029157088761371 -0.0014585442044822128 0 0.011331104047021099 -0.0030499068137356568 0 0.010250610476784626 -0.0043811799665228225 0 0.0097535504337983199 -0.0029532219700574595 0 0.011331104047021099 -0.0030499068137356568 0 0.0047251463554352242 -0.00079424796603180922 0 0.0048545470669721334 -0.00083707751178368301 0 0.0047029018851143366 -0.0013684228466699872 0 0.0049099170923457827 -0.00023138385083511687 0 0.0047251463554352242 -0.00079424796603180922 0 0.0048545470669721334 -0.00083707751178368301 0 0.0048802917983040628 -0.0002629349778813115 0 0.0049722549025579812 -0.00046932288856536098 0 0.0049099170923457827 -0.00023138385083511687 0 0.0049594028555798144 -0.00071738802019592339 0 0.0048545470669721334 -0.00083707751178368301 0 0.0049594028555798144 -0.00071738802019592339 0 0.004913826462385926 -0.0010817133404395008 0 0.0050648863933467417 -0.00099668692034827339 0 0.0049722549025579812 -0.00046932288856536098 0 0.005112446873919943 -0.00071467905001772203 0 0.0050874350548407504 -9.4662300926315831e-05 0 0.0050108225789676844 -0.00024303463563353565 0 0.0051417654553100626 -0.00044198633094217498 0 0.004913826462385926 -0.0010817133404395008 0 0.0050648863933467417 -0.00099668692034827339 0 0.0049772138400866438 -0.0012976521218221592 0 0.0049594028555798144 -0.00071738802019592339 0 0.004913826462385926 -0.0010817133404395008 0 0.0048545470669721334 -0.00083707751178368301 0 0.004913826462385926 -0.0010817133404395008 0 0.0048545470669721334 -0.00083707751178368301 0 0.0047029018851143366 -0.0013684228466699872 0 0.004913826462385926 -0.0010817133404395008 0 0.0047029018851143366 -0.0013684228466699872 0 0.0049158755016087703 -0.0015703740197718875 0 0.0049158755016087703 -0.0015703740197718875 0 0.0049772138400866438 -0.0012976521218221592 0 0.004951425504167245 -0.0015589527513399414 0 0.004913826462385926 -0.0010817133404395008 0 0.0049158755016087703 -0.0015703740197718875 0 0.0049772138400866438 -0.0012976521218221592 0 0.012253312493127045 -0.004549724951707179 0 0.013133506610430621 -0.0059161664576390174 0 0.012607850085446083 -0.0058704767332429086 0 0.00839264046335466 -0.002922434558596265 0 0.0096115187237612622 -0.0040882462978237867 0 0.0049158755016087703 -0.0015703740197718875 0 0.0054609135210847547 -0.0021198321924132601 0 0.0051012906904425144 -0.0021548546216919066 0 0.0047029018851143366 -0.0013684228466699872 0 0.0049158755016087703 -0.0015703740197718875 0 0.0051012906904425144 -0.0021548546216919066 0 0.0049623226645117277 -0.0016816287989658565 0 0.005121885790966397 -0.0019145526661900592 0 0.012253312493127045 -0.004549724951707179 0 0.011594288128595389 -0.0051898268848701891 0 0.012031970181779971 -0.0058241358237702111 0 0.012253312493127045 -0.004549724951707179 0 0.012031970181779971 -0.0058241358237702111 0 0.012607850085446083 -0.0058704767332429086 0 0.011594288128595389 -0.0051898268848701891 0 0.01093500864522675 -0.0052289649099994309 0 0.011175480535137382 -0.0062849796633014628 0 0.012253312493127045 -0.004549724951707179 0 0.011594288128595389 -0.0051898268848701891 0 0.011280294583338703 -0.0044786836790569303 0 0.011594288128595389 -0.0051898268848701891 0 0.01093500864522675 -0.0052289649099994309 0 0.011280294583338703 -0.0044786836790569303 0 0.010108943890910641 -0.0062622534599810729 0 0.010250610476784626 -0.0043811799665228225 0 0.01093500864522675 -0.0052289649099994309 0 0.010250610476784626 -0.0043811799665228225 0 0.01093500864522675 -0.0052289649099994309 0 0.011280294583338703 -0.0044786836790569303 0 0.010250610476784626 -0.0043811799665228225 0 0.011331104047021099 -0.0030499068137356568 0 0.011280294583338703 -0.0044786836790569303 0 0.0080465319771378697 -0.0019317756188106244 0 0.00839264046335466 -0.002922434558596265 0 0.011331104047021099 -0.0030499068137356568 0 0.012253312493127045 -0.004549724951707179 0 0.011280294583338703 -0.0044786836790569303 0 0.0059146275319718073 -0.0007662867848983756 0 0.0054586729987118072 -0.00078187569395429108 0 0.006153269535057012 -0.0012143096110016304 0 0.0062792254292026077 -0.00066823962747194099 0 0.0063661922490162448 -0.0015767304808257919 0 0.006153269535057012 -0.0012143096110016304 0 0.0062792254292026077 -0.00066823962747194099 0 0.0059146275319718073 -0.0007662867848983756 0 0.006153269535057012 -0.0012143096110016304 0 0.0062792254292026077 -0.00066823962747194099 0 0.0059146275319718073 -0.0007662867848983756 0 0.0057783784813525444 -0.0004294105256717794 0 0.0060478155795291571 -0.00021656257713313648 0 0.0062792254292026077 -0.00066823962747194099 0 0.0057783784813525444 -0.0004294105256717794 0 0.0057783784813525444 -0.0004294105256717794 0 0.0054586729987118072 -0.00078187569395429108 0 0.0054124402835493204 -0.00040727370051419194 0 0.0059146275319718073 -0.0007662867848983756 0 0.0057783784813525444 -0.0004294105256717794 0 0.0054586729987118072 -0.00078187569395429108 0 0.0054277193526974833 -0.0010951530668885867 0 0.0057967385853171073 -0.0014501143393617437 0 0.006153269535057012 -0.0012143096110016304 0 0.0054776692195550227 -0.00094487183899118329 0 0.006121422471646429 -0.0012011355967696913 0 0.0054277193526974833 -0.0010951530668885867 0 0.0050648863933467417 -0.00099668692034827339 0 0.0050783814169099457 -0.0013212036493517019 0 0.0054776692195550227 -0.00094487183899118329 0 0.005112446873919943 -0.00071467905001772203 0 0.0054586729987118072 -0.00078187569395429108 0 0.0054124402835493204 -0.00040727370051419194 0 0.0051417654553100626 -0.00044198633094217498 0 0.0052509268195016527 -0.00021463854831288063 0 0.0054124402835493204 -0.00040727370051419194 0 0.0051417654553100626 -0.00044198633094217498 0 0.0050648863933467417 -0.00099668692034827339 0 0.0049772138400866438 -0.0012976521218221592 0 0.0050783814169099457 -0.0013212036493517019 0 0.0050783814169099457 -0.0013212036493517019 0 0.004951425504167245 -0.0015589527513399414 0 0.0051246897296919778 -0.0016733352722305605 0 0.0049772138400866438 -0.0012976521218221592 0 0.0050783814169099457 -0.0013212036493517019 0 0.004951425504167245 -0.0015589527513399414 0 0.0049158755016087703 -0.0015703740197718875 0 0.0048774742503667062 -0.0018470519858375895 0 0.0048566036019125521 -0.001953137757719966 0 0.0048774742503667062 -0.0018470519858375895 0 0.0047990777911183823 -0.002107773688083132 0 0.0048566036019125521 -0.001953137757719966 0 0.0049158755016087703 -0.0015703740197718875 0 0.004951425504167245 -0.0015589527513399414 0 0.0048774742503667062 -0.0018470519858375895 0 0.004951425504167245 -0.0015589527513399414 0 0.0048774742503667062 -0.0018470519858375895 0 0.0051246897296919778 -0.0016733352722305605 0 0.0048774742503667062 -0.0018470519858375895 0 0.0047990777911183823 -0.002107773688083132 0 0.0051246897296919778 -0.0016733352722305605 0 0.0047990777911183823 -0.002107773688083132 0 0.0051246897296919778 -0.0016733352722305605 0 0.0052360943813692905 -0.0023242484100691853 0 0.0054277193526974833 -0.0010951530668885867 0 0.0051246897296919778 -0.0016733352722305605 0 0.0054871144773729862 -0.0015368093395188051 0 0.0054277193526974833 -0.0010951530668885867 0 0.0050783814169099457 -0.0013212036493517019 0 0.0051246897296919778 -0.0016733352722305605 0 0.0051246897296919778 -0.0016733352722305605 0 0.0054871144773729862 -0.0015368093395188051 0 0.0056294244995465856 -0.0019214232771280044 0 0.0054277193526974833 -0.0010951530668885867 0 0.0057967385853171073 -0.0014501143393617437 0 0.0054871144773729862 -0.0015368093395188051 0 0.0057967385853171073 -0.0014501143393617437 0 0.0054871144773729862 -0.0015368093395188051 0 0.0056294244995465856 -0.0019214232771280044 0 0.0051246897296919778 -0.0016733352722305605 0 0.0052360943813692905 -0.0023242484100691853 0 0.0056294244995465856 -0.0019214232771280044 0 0.0052360943813692905 -0.0023242484100691853 0 0.0056294244995465856 -0.0019214232771280044 0 0.0058149962074107216 -0.0024951329348618474 0 0.0063661922490162448 -0.0015767304808257919 0 0.0064693377048446656 -0.0029456742786953803 0 0.0058149962074107216 -0.0024951329348618474 0 0.0062182646045019678 -0.0032701479916714916 0 0.0061920628586622055 -0.0040995153648517441 0 0.0056294244995465856 -0.0019214232771280044 0 0.0063661922490162448 -0.0015767304808257919 0 0.0058149962074107216 -0.0024951329348618474 0 0.0057967385853171073 -0.0014501143393617437 0 0.0056294244995465856 -0.0019214232771280044 0 0.0063661922490162448 -0.0015767304808257919 0 0.0057967385853171073 -0.0014501143393617437 0 0.0063661922490162448 -0.0015767304808257919 0 0.006153269535057012 -0.0012143096110016304 0 0.0061920628586622055 -0.0040995153648517441 0 0.0059439005597931652 -0.0052467012788866077 0 0.0064693377048446656 -0.0029456742786953803 0 0.0056077263429847651 -0.004165892508529021 0 0.0059102381023805536 -0.005330932637676809 0 0.0061138782065221558 -0.0052210124541189054 0 0.0062253698871211783 -0.0055599784410606612 0 0.0059102381023805536 -0.005330932637676809 0 0.0061138782065221558 -0.0052210124541189054 0 0.005995384118584233 -0.0051315191834131919 0 0.0059102381023805536 -0.005330932637676809 0 0.0064693377048446656 -0.0029456742786953803 0 0.0058149962074107216 -0.0024951329348618474 0 0.005357656762182637 -0.003265745359835611 0 0.0064693377048446656 -0.0029456742786953803 0 0.005357656762182637 -0.003265745359835611 0 0.0056077263429847651 -0.004165892508529021 0 0.0052360943813692905 -0.0023242484100691853 0 0.0058149962074107216 -0.0024951329348618474 0 0.005357656762182637 -0.003265745359835611 0 0.005357656762182637 -0.003265745359835611 0 0.0051056184154185599 -0.0041902117965272869 0 0.0048272216141610012 -0.0037183620496820708 0 0.005357656762182637 -0.003265745359835611 0 0.0056077263429847651 -0.004165892508529021 0 0.0051056184154185599 -0.0041902117965272869 0 0.0056077263429847651 -0.004165892508529021 0 0.0053439405935712591 -0.0048513456932059214 0 0.0059102381023805536 -0.005330932637676809 0 0.0056077263429847651 -0.004165892508529021 0 0.0051056184154185599 -0.0041902117965272869 0 0.0053439405935712591 -0.0048513456932059214 0 0.0051056184154185599 -0.0041902117965272869 0 0.0047477664034886284 -0.0046774734850417374 0 0.0053439405935712591 -0.0048513456932059214 0 0.0051056184154185599 -0.0041902117965272869 0 0.0047477664034886284 -0.0046774734850417374 0 0.0048272216141610012 -0.0037183620496820708 0 0.0049047453514357089 -0.0047938735188383938 0 0.0074244787747718083 -0.0056006977301013249 0 0.004981761389695619 -0.0054708612858014498 0 0.0048471446275245916 -0.005475128973480228 0 0.0046682826095868967 -0.0050865994361585986 0 0.0048793490948140106 -0.0051251538003112586 0 0.0053294484638983404 -0.0034324082917946133 0 0.0048471446275245916 -0.005475128973480228 0 0.0046682826095868967 -0.0050865994361585986 0 0.0046440612598093942 -0.0052485674466670332 0 0.0053294484638983404 -0.0034324082917946133 0 0.0074244787747718083 -0.0056006977301013249 0 0.0047477664034886284 -0.0046774734850417374 0 0.0041031230868919556 -0.0035430452459301507 0 0.0048272216141610012 -0.0037183620496820708 0 0.0046877015546469341 -0.0020104239623164868 0 0.0053294484638983404 -0.0034324082917946133 0 0.0047990777911183823 -0.002107773688083132 0 0.0041031230868919556 -0.0035430452459301507 0 0.004883007249201785 -0.0029483040564498146 0 0.005357656762182637 -0.003265745359835611 0 0.0048272216141610012 -0.0037183620496820708 0 0.004883007249201785 -0.0029483040564498146 0 0.0047990777911183823 -0.002107773688083132 0 0.0052360943813692905 -0.0023242484100691853 0 0.004883007249201785 -0.0029483040564498146 0 0.0052360943813692905 -0.0023242484100691853 0 0.005357656762182637 -0.003265745359835611 0 0.004883007249201785 -0.0029483040564498146 0 0.0041031230868919556 -0.0035430452459301507 0 0.0048272216141610012 -0.0037183620496820708 0 0.004883007249201785 -0.0029483040564498146 0 0.0074244787747718083 -0.0056006977301013249 0 0.0096115187237612622 -0.0040882462978237867 0 0.0061913123476252628 -0.00299059558212625 0 0.0061472988692459606 -0.0033208520265320179 0 0.0051012906904425144 -0.0021548546216919066 0 0.01415959490107702 -0.0071681819256838889 0 0.013133506610430621 -0.0059161664576390174 0 0.013114430209163875 -0.0065265737612547319 0 0.0053294484638983404 -0.0034324082917946133 0 0.005121885790966397 -0.0019145526661900592 0 0.0061913123476252628 -0.00299059558212625 0 0.0054609135210847547 -0.0021198321924132601 0 0.0051012906904425144 -0.0021548546216919066 0 0.0047990777911183823 -0.002107773688083132 0 0.0048104781440780628 -0.0019870442726961546 0 0.0048566036019125521 -0.001953137757719966 0 0.01415959490107702 -0.0071681819256838889 0 0.013590366725185911 -0.0074800282400020318 0 0.013206050190445903 -0.0070583301998863755 0 0.01415959490107702 -0.0071681819256838889 0 0.013114430209163875 -0.0065265737612547319 0 0.013206050190445903 -0.0070583301998863755 0 0.013590366725185911 -0.0074800282400020318 0 0.013275362672541096 -0.0080143496850893798 0 0.01310589021898931 -0.0074922369021621959 0 0.013590366725185911 -0.0074800282400020318 0 0.013206050190445903 -0.0070583301998863755 0 0.01310589021898931 -0.0074922369021621959 0 0.013275362672541096 -0.0080143496850893798 0 0.013750896337167437 -0.0087466685949570654 0 0.012678424936371092 -0.0092135888888534561 0 0.0074244787747718083 -0.0056006977301013249 0 0.010935002436638599 -0.0088400444210268575 0 0.013590366725185911 -0.0074800282400020318 0 0.013275362672541096 -0.0080143496850893798 0 0.013949218717901432 -0.0086701924747260746 0 0.01415959490107702 -0.0071681819256838889 0 0.013590366725185911 -0.0074800282400020318 0 0.013949218717901432 -0.0086701924747260746 0 0.013619328919070127 -0.0086439053833764438 0 0.010935002436638599 -0.0088400444210268575 0 0.013750896337167437 -0.0087466685949570654 0 0.012678424936371092 -0.0092135888888534561 0 0.013279171520928466 -0.010058299575833799 0 0.010935002436638599 -0.0088400444210268575 0 0.012814229898988505 -0.011947866900094759 0 0.0044858125795200453 -0.0059690409722909224 0 0.0049033442385406694 -0.0059035961674809836 0 0.0051084287808561991 -0.0062289723880308507 0 0.012031039810547338 -0.014255515281722786 0 0.010747788968667392 -0.013187650451651862 0 0.012257135056448945 -0.012922117189840283 0 0.0044858125795200453 -0.0059690409722909224 0 0.0051084287808561991 -0.0062289723880308507 0 0.0049840669088975879 -0.0066740836082917919 0 0.010935002436638599 -0.0088400444210268575 0 0.0074432516483823831 -0.010026620813139295 0 0.0049033442385406694 -0.0059035961674809836 0 0.0049115080505000427 -0.0056934349924036886 0 0.0053957576058821875 -0.0058167262824533588 0 0.0048471446275245916 -0.005475128973480228 0 0.0044858125795200453 -0.0059690409722909224 0 0.0049115080505000427 -0.0056934349924036886 0 0.0048471446275245916 -0.005475128973480228 0 0.0046255060704621124 -0.0052364277963779212 0 0.0044858125795200453 -0.0059690409722909224 0 0.0044858125795200453 -0.0059690409722909224 0 0.0049033442385406694 -0.0059035961674809836 0 0.0049115080505000427 -0.0056934349924036886 0 0.004981761389695619 -0.0054708612858014498 0 0.0048471446275245916 -0.005475128973480228 0 0.0049115080505000427 -0.0056934349924036886 0 0.0048793490948140106 -0.0051251538003112586 0 0.0053687343643076188 -0.005741880263337518 0 0.004981761389695619 -0.0054708612858014498 0 0.0049115080505000427 -0.0056934349924036886 0 0.0053957576058821875 -0.0058167262824533588 0 0.0047477664034886284 -0.0046774734850417374 0 0.0053439405935712591 -0.0048513456932059214 0 0.0053957576058821875 -0.0058167262824533588 0 0.0053439405935712591 -0.0048513456932059214 0 0.0053957576058821875 -0.0058167262824533588 0 0.0059102381023805536 -0.005330932637676809 0 0.0049033442385406694 -0.0059035961674809836 0 0.0053957576058821875 -0.0058167262824533588 0 0.0051084287808561991 -0.0062289723880308507 0 0.0051084287808561991 -0.0062289723880308507 0 0.0055712689782095133 -0.0065040207577261025 0 0.0049840669088975879 -0.0066740836082917919 0 0.0053957576058821875 -0.0058167262824533588 0 0.0051084287808561991 -0.0062289723880308507 0 0.0055712689782095133 -0.0065040207577261025 0 0.0061728862970245628 -0.006318591670579435 0 0.0062253698871211783 -0.0055599784410606612 0 0.0059031736895761517 -0.0058907906907508739 0 0.0053957576058821875 -0.0058167262824533588 0 0.0055712689782095133 -0.0065040207577261025 0 0.0059031736895761517 -0.0058907906907508739 0 0.0061728862970245628 -0.006318591670579435 0 0.0055712689782095133 -0.0065040207577261025 0 0.0059031736895761517 -0.0058907906907508739 0 0.0062253698871211783 -0.0055599784410606612 0 0.0059031736895761517 -0.0058907906907508739 0 0.0059102381023805536 -0.005330932637676809 0 0.0053957576058821875 -0.0058167262824533588 0 0.0059031736895761517 -0.0058907906907508739 0 0.0059102381023805536 -0.005330932637676809 0 0.011450079656887348 -0.0071352795547945458 0 0.010804789992486892 -0.007467485787418229 0 0.011175480535137382 -0.0062849796633014628 0 0.011450079656887348 -0.0071352795547945458 0 0.012040788505919648 -0.0073062605368890603 0 0.011430930221545692 -0.0080867555985821293 0 0.011450079656887348 -0.0071352795547945458 0 0.010804789992486892 -0.007467485787418229 0 0.011430930221545692 -0.0080867555985821293 0 0.0099944732202042769 -0.0081415319926264086 0 0.010108943890910641 -0.0062622534599810729 0 0.010804789992486892 -0.007467485787418229 0 0.010108943890910641 -0.0062622534599810729 0 0.010804789992486892 -0.007467485787418229 0 0.011175480535137382 -0.0062849796633014628 0 0.010108943890910641 -0.0062622534599810729 0 0.01093500864522675 -0.0052289649099994309 0 0.011175480535137382 -0.0062849796633014628 0 0.011175480535137382 -0.0062849796633014628 0 0.012031970181779971 -0.0058241358237702111 0 0.011833026884358706 -0.0066006278277568678 0 0.011594288128595389 -0.0051898268848701891 0 0.011175480535137382 -0.0062849796633014628 0 0.012031970181779971 -0.0058241358237702111 0 0.011450079656887348 -0.0071352795547945458 0 0.011175480535137382 -0.0062849796633014628 0 0.011833026884358706 -0.0066006278277568678 0 0.012031970181779971 -0.0058241358237702111 0 0.012537005104758737 -0.0065982557212312829 0 0.012607850085446083 -0.0058704767332429086 0 0.012031970181779971 -0.0058241358237702111 0 0.012537005104758737 -0.0065982557212312829 0 0.011833026884358706 -0.0066006278277568678 0 0.013133506610430621 -0.0059161664576390174 0 0.012607850085446083 -0.0058704767332429086 0 0.013114430209163875 -0.0065265737612547319 0 0.012537005104758737 -0.0065982557212312829 0 0.012607850085446083 -0.0058704767332429086 0 0.013114430209163875 -0.0065265737612547319 0 0.012537005104758737 -0.0065982557212312829 0 0.013114430209163875 -0.0065265737612547319 0 0.013206050190445903 -0.0070583301998863755 0 0.012537005104758737 -0.0065982557212312829 0 0.013206050190445903 -0.0070583301998863755 0 0.012652421273292046 -0.0073154445476139827 0 0.012652421273292046 -0.0073154445476139827 0 0.01310589021898931 -0.0074922369021621959 0 0.01238326173016452 -0.0081348527185460782 0 0.013206050190445903 -0.0070583301998863755 0 0.012652421273292046 -0.0073154445476139827 0 0.01310589021898931 -0.0074922369021621959 0 0.011450079656887348 -0.0071352795547945458 0 0.011833026884358706 -0.0066006278277568678 0 0.012040788505919648 -0.0073062605368890603 0 0.012537005104758737 -0.0065982557212312829 0 0.011833026884358706 -0.0066006278277568678 0 0.012040788505919648 -0.0073062605368890603 0 0.012537005104758737 -0.0065982557212312829 0 0.012652421273292046 -0.0073154445476139827 0 0.012040788505919648 -0.0073062605368890603 0 0.012652421273292046 -0.0073154445476139827 0 0.012040788505919648 -0.0073062605368890603 0 0.01238326173016452 -0.0081348527185460782 0 0.012040788505919648 -0.0073062605368890603 0 0.01238326173016452 -0.0081348527185460782 0 0.011430930221545692 -0.0080867555985821293 0 0.01238326173016452 -0.0081348527185460782 0 0.011577627966528831 -0.0094761676339871186 0 0.011430930221545692 -0.0080867555985821293 0 0.013275362672541096 -0.0080143496850893798 0 0.01238326173016452 -0.0081348527185460782 0 0.012678424936371092 -0.0092135888888534561 0 0.013275362672541096 -0.0080143496850893798 0 0.01310589021898931 -0.0074922369021621959 0 0.01238326173016452 -0.0081348527185460782 0 0.01238326173016452 -0.0081348527185460782 0 0.012678424936371092 -0.0092135888888534561 0 0.011577627966528831 -0.0094761676339871186 0 0.011577627966528831 -0.0094761676339871186 0 0.010730864666597879 -0.0088299268487260444 0 0.010772990180107692 -0.0099041599152682319 0 0.011577627966528831 -0.0094761676339871186 0 0.011430930221545692 -0.0080867555985821293 0 0.010730864666597879 -0.0088299268487260444 0 0.010804789992486892 -0.007467485787418229 0 0.011430930221545692 -0.0080867555985821293 0 0.010730864666597879 -0.0088299268487260444 0 0.0099944732202042769 -0.0081415319926264086 0 0.010804789992486892 -0.007467485787418229 0 0.010730864666597879 -0.0088299268487260444 0 0.0099944732202042769 -0.0081415319926264086 0 0.0099872519026542005 -0.0096040694290061169 0 0.010730864666597879 -0.0088299268487260444 0 0.0099872519026542005 -0.0096040694290061169 0 0.010730864666597879 -0.0088299268487260444 0 0.010772990180107692 -0.0099041599152682319 0 0.0099872519026542005 -0.0096040694290061169 0 0.01034673910924974 -0.01094756568487136 0 0.010772990180107692 -0.0099041599152682319 0 0.011247589718788486 -0.010580294903320462 0 0.011531350752655616 -0.011213019764288405 0 0.011077087161715541 -0.011492860630739369 0 0.01034673910924974 -0.01094756568487136 0 0.011247589718788486 -0.010580294903320462 0 0.011077087161715541 -0.011492860630739369 0 0.01034673910924974 -0.01094756568487136 0 0.011247589718788486 -0.010580294903320462 0 0.010772990180107692 -0.0099041599152682319 0 0.011577627966528831 -0.0094761676339871186 0 0.011247589718788486 -0.010580294903320462 0 0.010772990180107692 -0.0099041599152682319 0 0.012678424936371092 -0.0092135888888534561 0 0.011577627966528831 -0.0094761676339871186 0 0.012086779933965468 -0.010590060202045325 0 0.011577627966528831 -0.0094761676339871186 0 0.011247589718788486 -0.010580294903320462 0 0.012086779933965468 -0.010590060202045325 0 0.012678424936371092 -0.0092135888888534561 0 0.012086779933965468 -0.010590060202045325 0 0.013279171520928466 -0.010058299575833799 0 0.012086779933965468 -0.010590060202045325 0 0.01188391756668314 -0.011449585443949757 0 0.012467880924841284 -0.011271281318032414 0 0.012086779933965468 -0.010590060202045325 0 0.011531350752655616 -0.011213019764288405 0 0.01188391756668314 -0.011449585443949757 0 0.011247589718788486 -0.010580294903320462 0 0.012086779933965468 -0.010590060202045325 0 0.011531350752655616 -0.011213019764288405 0 0.011531350752655616 -0.011213019764288405 0 0.01188391756668314 -0.011449585443949757 0 0.011165049319858133 -0.012036810214163338 0 0.011531350752655616 -0.011213019764288405 0 0.011165049319858133 -0.012036810214163338 0 0.011077087161715541 -0.011492860630739369 0 0.01188391756668314 -0.011449585443949757 0 0.011479347131947331 -0.012029110077239497 0 0.01190878211378473 -0.011255237028744518 0 0.01188391756668314 -0.011449585443949757 0 0.011479347131947331 -0.012029110077239497 0 0.011165049319858133 -0.012036810214163338 0 0.011479347131947331 -0.012029110077239497 0 0.011165049319858133 -0.012036810214163338 0 0.010958803164721921 -0.012609162645488789 0 0.011165049319858133 -0.012036810214163338 0 0.010571090249390489 -0.012651966925829494 0 0.010958803164721921 -0.012609162645488789 0 0.010792372463368836 -0.012494949364496744 0 0.010985416989531141 -0.013580108754403065 0 0.011165049319858133 -0.012036810214163338 0 0.010796171488167517 -0.012389288131923196 0 0.010571090249390489 -0.012651966925829494 0 0.0099282028688318334 -0.013430860623948247 0 0.010796171488167517 -0.012389288131923196 0 0.011447534960194648 -0.014514114280438247 0 0.0099282028688318334 -0.013430860623948247 0 0.010796171488167517 -0.012389288131923196 0 0.0094912991681603033 -0.012076910448392954 0 0.01034673910924974 -0.01094756568487136 0 0.010796171488167517 -0.012389288131923196 0 0.0094912991681603033 -0.012076910448392954 0 0.01034673910924974 -0.01094756568487136 0 0.011077087161715541 -0.011492860630739369 0 0.010796171488167517 -0.012389288131923196 0 0.011165049319858133 -0.012036810214163338 0 0.011077087161715541 -0.011492860630739369 0 0.010796171488167517 -0.012389288131923196 0 0.0062529316680660823 -0.0087959889820825483 0 0.0061688609063952626 -0.0078548482160925737 0 0.0055373548797208669 -0.0076290148974520779 0 0.0063043107344682029 -0.0088906879644368234 0 0.0072148958850605169 -0.0097110950293502266 0 0.0061688609063952626 -0.0078548482160925737 0 0.0055373548797208669 -0.0076290148974520779 0 0.0060218616612912682 -0.0071277581586328322 0 0.0055712689782095133 -0.0065040207577261025 0 0.0055373548797208669 -0.0076290148974520779 0 0.0060218616612912682 -0.0071277581586328322 0 0.0061728862970245628 -0.006318591670579435 0 0.0055712689782095133 -0.0065040207577261025 0 0.0060218616612912682 -0.0071277581586328322 0 0.0055712689782095133 -0.0065040207577261025 0 0.0055373548797208669 -0.0076290148974520779 0 0.0049840669088975879 -0.0066740836082917919 0 0.0072148958850605169 -0.0097110950293502266 0 0.0074432516483823831 -0.010026620813139295 0 0.0087273072988466802 -0.01187296361491492 0 0.010893303868073859 -0.011409668047023466 0 0.0083234227290764073 -0.0097030829815495535 0 0.0087273072988466802 -0.01187296361491492 0 0.010893303868073859 -0.011409668047023466 0 0.010747788968667392 -0.013187650451651862 0 0.010893303868073859 -0.011409668047023466 0 0.010747788968667392 -0.013187650451651862 0 0.012257135056448945 -0.012922117189840283 0 0.012086779933965468 -0.010590060202045325 0 0.013279171520928466 -0.010058299575833799 0 0.012467880924841284 -0.011271281318032414 0 0.012814229898988505 -0.011947866900094759 0 0.012565630905717906 -0.011074444635570719 0 0.010893303868073859 -0.011409668047023466 0 0.012257135056448945 -0.012922117189840283 0 0.012467880924841284 -0.011271281318032414 0 0.012467880924841284 -0.011271281318032414 0 0.01190878211378473 -0.011255237028744518 0 0.011813756497142294 -0.010455731897219959 0 0.01188391756668314 -0.011449585443949757 0 0.012467880924841284 -0.011271281318032414 0 0.01190878211378473 -0.011255237028744518 0 0.011479347131947331 -0.012029110077239497 0 0.01190878211378473 -0.011255237028744518 0 0.011916711547385491 -0.012369089649547813 0 0.01190878211378473 -0.011255237028744518 0 0.011813756497142294 -0.010455731897219959 0 0.011916711547385491 -0.012369089649547813 0 0.011818120093308541 -0.010412402114872765 0 0.011379501610160906 -0.0098004802283717489 0 0.011813756497142294 -0.010455731897219959 0 0.01316135629352248 -0.012267176257629596 0 0.011916711547385491 -0.012369089649547813 0 0.010893303868073859 -0.011409668047023466 0 0.012467880924841284 -0.011271281318032414 0 0.011813756497142294 -0.010455731897219959 0 0.010893303868073859 -0.011409668047023466 0 0.011813756497142294 -0.010455731897219959 0 0.0094244070461226345 -0.0091381903792144663 0 0.010893303868073859 -0.011409668047023466 0 0.0094244070461226345 -0.0091381903792144663 0 0.0083234227290764073 -0.0097030829815495535 0 0.011813756497142294 -0.010455731897219959 0 0.0094244070461226345 -0.0091381903792144663 0 0.0097092864396485928 -0.0072207496529332711 0 0.0094244070461226345 -0.0091381903792144663 0 0.0078920652292121338 -0.0076656932047417005 0 0.0097092864396485928 -0.0072207496529332711 0 0.0094244070461226345 -0.0091381903792144663 0 0.0078920652292121338 -0.0076656932047417005 0 0.0074925462142863023 -0.0083654900369934237 0 0.0069393505092284124 -0.00765342157923515 0 0.0078920652292121338 -0.0076656932047417005 0 0.0074925462142863023 -0.0083654900369934237 0 0.006597670741424211 -0.0084826901824069569 0 0.0074925462142863023 -0.0083654900369934237 0 0.0083234227290764073 -0.0097030829815495535 0 0.0094244070461226345 -0.0091381903792144663 0 0.0074925462142863023 -0.0083654900369934237 0 0.0083234227290764073 -0.0097030829815495535 0 0.0062529316680660823 -0.0087959889820825483 0 0.0087273072988466802 -0.01187296361491492 0 0.0083234227290764073 -0.0097030829815495535 0 0.0069282889657432106 -0.0056037579884029003 0 0.0071710701000910915 -0.005978256454604672 0 0.0079514739018535976 -0.0059136919911824161 0 0.0071710701000910915 -0.005978256454604672 0 0.0079514739018535976 -0.0059136919911824161 0 0.0071391365614604024 -0.0063948917993460344 0 0.0079514739018535976 -0.0059136919911824161 0 0.0071391365614604024 -0.0063948917993460344 0 0.007880441503657333 -0.0068232816440489561 0 0.0079514739018535976 -0.0059136919911824161 0 0.007880441503657333 -0.0068232816440489561 0 0.0097092864396485928 -0.0072207496529332711 0 0.0069888204925602901 -0.0070865996636978587 0 0.0071391365614604024 -0.0063948917993460344 0 0.007880441503657333 -0.0068232816440489561 0 0.0078920652292121338 -0.0076656932047417005 0 0.007880441503657333 -0.0068232816440489561 0 0.0097092864396485928 -0.0072207496529332711 0 0.0069888204925602901 -0.0070865996636978587 0 0.0069393505092284124 -0.00765342157923515 0 0.0078920652292121338 -0.0076656932047417005 0 0.0069888204925602901 -0.0070865996636978587 0 0.0078920652292121338 -0.0076656932047417005 0 0.007880441503657333 -0.0068232816440489561 0 0.011094892922617021 -0.0099082826083573081 0 0.011379501610160906 -0.0098004802283717489 0 0.013789464988738724 -0.013792990512900965 0 0.01316135629352248 -0.012267176257629596 0 0.012635150564841007 -0.01370667796441352 0 0.013789464988738724 -0.013792990512900965 0 0.012635150564841007 -0.01370667796441352 0 0.013236692238749445 -0.014891562631861664 0 0.012635150564841007 -0.01370667796441352 0 0.011916711547385491 -0.012369089649547813 0 0.011706733265737051 -0.013853145667989229 0 0.01316135629352248 -0.012267176257629596 0 0.012635150564841007 -0.01370667796441352 0 0.011916711547385491 -0.012369089649547813 0 0.011916711547385491 -0.012369089649547813 0 0.011706733265737051 -0.013853145667989229 0 0.011275452750899702 -0.01302192134701868 0 0.011706733265737051 -0.013853145667989229 0 0.012254152915172211 -0.014889453287318319 0 0.011404464700415843 -0.014851493597969605 0 0.01189195747354348 -0.015657576926706749 0 0.012254152915172211 -0.014889453287318319 0 0.011404464700415843 -0.014851493597969605 0 0.01189195747354348 -0.015657576926706749 0 0.012254152915172211 -0.014889453287318319 0 0.012857647999369681 -0.015816615778072245 0 0.012635150564841007 -0.01370667796441352 0 0.012254152915172211 -0.014889453287318319 0 0.013236692238749445 -0.014891562631861664 0 0.012635150564841007 -0.01370667796441352 0 0.011706733265737051 -0.013853145667989229 0 0.012254152915172211 -0.014889453287318319 0 0.013236692238749445 -0.014891562631861664 0 0.012857647999369681 -0.015816615778072245 0 0.013313456058692233 -0.015848092305770591 0 0.012254152915172211 -0.014889453287318319 0 0.013236692238749445 -0.014891562631861664 0 0.012857647999369681 -0.015816615778072245 0 0.012746693411341914 -0.017051433929513225 0 0.013619176972804589 -0.016874623727715549 0 0.013249016370421007 -0.018327185524687754 0 0.012451085702319844 -0.018281502703591239 0 0.013551003028015438 -0.016900339681055275 0 0.012857647999369681 -0.015816615778072245 0 0.013313456058692233 -0.015848092305770591 0 0.013551003028015438 -0.016900339681055275 0 0.013804512826169898 -0.016001944522156711 0 0.013313456058692233 -0.015848092305770591 0 0.013551003028015438 -0.016900339681055275 0 0.013804512826169898 -0.016001944522156711 0 0.013236692238749445 -0.014891562631861664 0 0.013313456058692233 -0.015848092305770591 0 0.0093796964410572427 -0.010384209838763892 0 0.015358369871694887 -0.016177187112521939 0 0.0093796964410572427 -0.010384209838763892 0 0.011094892922617021 -0.0099082826083573081 0 0.0069282889657432106 -0.0056037579884029003 0 0.0069112749411967709 -0.0051280181487122932 0 0.0079514739018535976 -0.0059136919911824161 0 0.014609269547967959 -0.015336527546867222 0 0.013789464988738724 -0.013792990512900965 0 0.013236692238749445 -0.014891562631861664 0 0.011054282620942551 -0.014985898221036957 0 0.010985416989531141 -0.013580108754403065 0 0.011683979805268639 -0.016320452252986437 0 0.010549590218431049 -0.016100809871683899 0 0.011447534960194648 -0.014514114280438247 0 0.010549590218431049 -0.016100809871683899 0 0.0095111369355246334 -0.016700824477730983 0 0.0098028474670032867 -0.014948975527201399 0 0.0099282028688318334 -0.013430860623948247 0 0.011447534960194648 -0.014514114280438247 0 0.0098028474670032867 -0.014948975527201399 0 0.010549590218431049 -0.016100809871683899 0 0.011447534960194648 -0.014514114280438247 0 0.0098028474670032867 -0.014948975527201399 0 0.010404252560511003 -0.013594076567403324 0 0.010571090249390489 -0.012651966925829494 0 0.010958803164721921 -0.012609162645488789 0 0.011479347131947331 -0.012029110077239497 0 0.010958803164721921 -0.012609162645488789 0 0.011275452750899702 -0.01302192134701868 0 0.011479347131947331 -0.012029110077239497 0 0.011916711547385491 -0.012369089649547813 0 0.011275452750899702 -0.01302192134701868 0 0.011706733265737051 -0.013853145667989229 0 0.011275452750899702 -0.01302192134701868 0 0.011114648866563687 -0.014043838794694084 0 0.010404252560511003 -0.013594076567403324 0 0.010958803164721921 -0.012609162645488789 0 0.011275452750899702 -0.01302192134701868 0 0.010404252560511003 -0.013594076567403324 0 0.011275452750899702 -0.01302192134701868 0 0.011114648866563687 -0.014043838794694084 0 0.010404252560511003 -0.013594076567403324 0 0.011114648866563687 -0.014043838794694084 0 0.010516254044618223 -0.014781432188129171 0 0.011054282620942551 -0.014985898221036957 0 0.011113232325317685 -0.016185211446221932 0 0.011706733265737051 -0.013853145667989229 0 0.011114648866563687 -0.014043838794694084 0 0.011404464700415843 -0.014851493597969605 0 0.011114648866563687 -0.014043838794694084 0 0.011404464700415843 -0.014851493597969605 0 0.010516254044618223 -0.014781432188129171 0 0.010813277869980252 -0.01582252665727912 0 0.011404464700415843 -0.014851493597969605 0 0.010516254044618223 -0.014781432188129171 0 0.010938923957986476 -0.018354107932799915 0 0.011113232325317685 -0.016185211446221932 0 0.01085293836592102 -0.019022067288547467 0 0.011712851864690758 -0.017923071909780777 0 0.010569463666595148 -0.01768049244356034 0 0.01085293836592102 -0.019022067288547467 0 0.0099914235844772419 -0.019130053558980415 0 0.010569463666595148 -0.01768049244356034 0 0.011683979805268639 -0.016320452252986437 0 0.010549590218431049 -0.016100809871683899 0 0.010569463666595148 -0.01768049244356034 0 0.011683979805268639 -0.016320452252986437 0 0.011712851864690758 -0.017923071909780777 0 0.010569463666595148 -0.01768049244356034 0 0.010569463666595148 -0.01768049244356034 0 0.009418178458155721 -0.01807709630703936 0 0.0095111369355246334 -0.016700824477730983 0 0.010549590218431049 -0.016100809871683899 0 0.010569463666595148 -0.01768049244356034 0 0.0095111369355246334 -0.016700824477730983 0 0.0099914235844772419 -0.019130053558980415 0 0.010569463666595148 -0.01768049244356034 0 0.009418178458155721 -0.01807709630703936 0 0.0089626015268881639 -0.019308192832876599 0 0.009418178458155721 -0.01807709630703936 0 0.0081876479095492945 -0.018303904721988225 0 0.009418178458155721 -0.01807709630703936 0 0.0081876479095492945 -0.018303904721988225 0 0.0084704102469102312 -0.016879513821680178 0 0.009418178458155721 -0.01807709630703936 0 0.0084704102469102312 -0.016879513821680178 0 0.0095111369355246334 -0.016700824477730983 0 0.0095111369355246334 -0.016700824477730983 0 0.0087087851312263893 -0.015370627695844026 0 0.0098028474670032867 -0.014948975527201399 0 0.0084704102469102312 -0.016879513821680178 0 0.0095111369355246334 -0.016700824477730983 0 0.0087087851312263893 -0.015370627695844026 0 0.0084704102469102312 -0.016879513821680178 0 0.0087087851312263893 -0.015370627695844026 0 0.0077752460599270204 -0.015691618526623513 0 0.0087087851312263893 -0.015370627695844026 0 0.0076988529255154568 -0.014256757850648224 0 0.0088010318489088121 -0.013465779818441454 0 0.0087087851312263893 -0.015370627695844026 0 0.0098028474670032867 -0.014948975527201399 0 0.0088010318489088121 -0.013465779818441454 0 0.0067705562504786713 -0.015040199298122389 0 0.0076988529255154568 -0.014256757850648224 0 0.0065279192796291975 -0.013671075947010003 0 0.0087087851312263893 -0.015370627695844026 0 0.0076988529255154568 -0.014256757850648224 0 0.0077752460599270204 -0.015691618526623513 0 0.0067705562504786713 -0.015040199298122389 0 0.0076988529255154568 -0.014256757850648224 0 0.0077752460599270204 -0.015691618526623513 0 0.0067705562504786713 -0.015040199298122389 0 0.0077752460599270204 -0.015691618526623513 0 0.007147082493916445 -0.016944076077134385 0 0.0067705562504786713 -0.015040199298122389 0 0.007147082493916445 -0.016944076077134385 0 0.0057311029614232154 -0.015993389869291701 0 0.0084704102469102312 -0.016879513821680178 0 0.0077752460599270204 -0.015691618526623513 0 0.007147082493916445 -0.016944076077134385 0 0.0081876479095492945 -0.018303904721988225 0 0.0084704102469102312 -0.016879513821680178 0 0.007147082493916445 -0.016944076077134385 0 0.0070028172763442467 -0.018988307266073728 0 0.0081876479095492945 -0.018303904721988225 0 0.007147082493916445 -0.016944076077134385 0 0.0070028172763442467 -0.018988307266073728 0 0.007147082493916445 -0.016944076077134385 0 0.0060117968370620133 -0.01764554803800366 0 0.0055822859205674012 -0.019028497948260486 0 0.0070028172763442467 -0.018988307266073728 0 0.0060117968370620133 -0.01764554803800366 0 0.0055822859205674012 -0.019028497948260486 0 0.0060117968370620133 -0.01764554803800366 0 0.0046914385389989514 -0.01826593369653191 0 0.0060117968370620133 -0.01764554803800366 0 0.0046914385389989514 -0.01826593369653191 0 0.0048249914234094879 -0.017050357992553056 0 0.0060117968370620133 -0.01764554803800366 0 0.0048249914234094879 -0.017050357992553056 0 0.0057311029614232154 -0.015993389869291701 0 0.007147082493916445 -0.016944076077134385 0 0.0060117968370620133 -0.01764554803800366 0 0.0057311029614232154 -0.015993389869291701 0 0.0032325619323666102 -0.017757616112224664 0 0.002862824937628846 -0.01833415291103439 0 0.0036422045399897435 -0.018590982753218389 0 0.0032325619323666102 -0.017757616112224664 0 0.0038398440226902171 -0.017683228232667058 0 0.0036422045399897435 -0.018590982753218389 0 0.0046914385389989514 -0.01826593369653191 0 0.0048249914234094879 -0.017050357992553056 0 0.0038398440226902171 -0.017683228232667058 0 0.0046914385389989514 -0.01826593369653191 0 0.0038398440226902171 -0.017683228232667058 0 0.0036422045399897435 -0.018590982753218389 0 0.0048249914234094879 -0.017050357992553056 0 0.0038398440226902171 -0.017683228232667058 0 0.0039193355231856341 -0.015825233033580847 0 0.0038398440226902171 -0.017683228232667058 0 0.0038666392869240941 -0.016588335835187474 0 0.0044370553554908647 -0.016024330213208541 0 0.0038572554735782677 -0.017567157954317559 0 0.0041781368351529076 -0.015932575772173163 0 0.0038398440226902171 -0.017683228232667058 0 0.0038666392869240941 -0.016588335835187474 0 0.0036553414216354552 -0.017147560644125929 0 0.0038666392869240941 -0.016588335835187474 0 0.0036553414216354552 -0.017147560644125929 0 0.0034446778743035858 -0.016042274948942139 0 0.001993075766124845 -0.017019703326715017 0 0.0032325619323666102 -0.017757616112224664 0 0.0036553414216354552 -0.017147560644125929 0 0.0028716316184766071 -0.016615923392134881 0 0.0036553414216354552 -0.017147560644125929 0 0.0034446778743035858 -0.016042274948942139 0 0.0032325619323666102 -0.017757616112224664 0 0.0038398440226902171 -0.017683228232667058 0 0.0036553414216354552 -0.017147560644125929 0 0.0038666392869240941 -0.016588335835187474 0 0.0034446778743035858 -0.016042274948942139 0 0.0044370553554908647 -0.016024330213208541 0 0.0034446778743035858 -0.016042274948942139 0 0.0044370553554908647 -0.016024330213208541 0 0.003473701008432846 -0.015314476707194975 0 0.0044370553554908647 -0.016024330213208541 0 0.003473701008432846 -0.015314476707194975 0 0.0048008724640077431 -0.014311543083957164 0 0.0041781368351529076 -0.015932575772173163 0 0.0045404141543951889 -0.014020922990575222 0 0.0034954799503799298 -0.015456583057678672 0 0.0034446778743035858 -0.016042274948942139 0 0.003473701008432846 -0.015314476707194975 0 0.0034954799503799298 -0.015456583057678672 0 0.0037587893785004135 -0.015501179134172496 0 0.003473701008432846 -0.015314476707194975 0 0.0048249914234094879 -0.017050357992553056 0 0.0039193355231856341 -0.015825233033580847 0 0.0057311029614232154 -0.015993389869291701 0 0.0039193355231856341 -0.015825233033580847 0 0.0057311029614232154 -0.015993389869291701 0 0.0054706454104632768 -0.01455101719482829 0 0.0039193355231856341 -0.015825233033580847 0 0.0054706454104632768 -0.01455101719482829 0 0.0042817382363552377 -0.013774437519352766 0 0.0067705562504786713 -0.015040199298122389 0 0.0054706454104632768 -0.01455101719482829 0 0.0065279192796291975 -0.013671075947010003 0 0.0067705562504786713 -0.015040199298122389 0 0.0057311029614232154 -0.015993389869291701 0 0.0054706454104632768 -0.01455101719482829 0 0.0054706454104632768 -0.01455101719482829 0 0.0054796220718175874 -0.012998768403620459 0 0.0065279192796291975 -0.013671075947010003 0 0.0054706454104632768 -0.01455101719482829 0 0.0054796220718175874 -0.012998768403620459 0 0.0042817382363552377 -0.013774437519352766 0 0.0054796220718175874 -0.012998768403620459 0 0.0042817382363552377 -0.013774437519352766 0 0.004918234131251328 -0.01190356007935443 0 0.0045404141543951889 -0.014020922990575222 0 0.0049027222803065601 -0.012048176682306474 0 0.0054796220718175874 -0.012998768403620459 0 0.0065279192796291975 -0.013671075947010003 0 0.0065042342873200777 -0.012032036665240546 0 0.0054796220718175874 -0.012998768403620459 0 0.004918234131251328 -0.01190356007935443 0 0.0065042342873200777 -0.012032036665240546 0 0.0034495227584649167 -0.015289473033820137 0 0.0035049716268312266 -0.014391313547333693 0 0.0037587893785004135 -0.015501179134172496 0 0.003473701008432846 -0.015314476707194975 0 0.0037705899150070848 -0.015773078049167655 0 0.003473701008432846 -0.015314476707194975 0 0.0048008724640077431 -0.014311543083957164 0 0.0031226908204343906 -0.013429956001404415 0 0.004007014624028582 -0.015702025240579922 0 0.0037587893785004135 -0.015501179134172496 0 0.0037705899150070848 -0.015773078049167655 0 0.0048008724640077431 -0.014311543083957164 0 0.0039390550127397939 -0.012509854849219113 0 0.0031226908204343906 -0.013429956001404415 0 0.0048008724640077431 -0.014311543083957164 0 0.0039390550127397939 -0.012509854849219113 0 0.004918234131251328 -0.01190356007935443 0 0.0035049716268312266 -0.014391313547333693 0 0.0033706751445098456 -0.014676840922887393 0 0.0041191751528856157 -0.016070310011755219 0 0.0037705899150070848 -0.015773078049167655 0 0.0041868992880894238 -0.01627504338739736 0 0.0039390550127397939 -0.012509854849219113 0 0.0031226908204343906 -0.013429956001404415 0 0.0030516163274529771 -0.011522515222352422 0 0.0041191751528856157 -0.016070310011755219 0 0.004007014624028582 -0.015702025240579922 0 0.0037705899150070848 -0.015773078049167655 0 0.0040705424595780205 -0.016115998707899204 0 0.0042189050962012954 -0.016258140296732764 0 0.0041868992880894238 -0.01627504338739736 0 0.0042189050962012954 -0.016258140296732764 0 0.0041191751528856157 -0.016070310011755219 0 0.0041868992880894238 -0.01627504338739736 0 0.0039390550127397939 -0.012509854849219113 0 0.0030516163274529771 -0.011522515222352422 0 0.003954332074294342 -0.010721239587810639 0 0.0039390550127397939 -0.012509854849219113 0 0.003954332074294342 -0.010721239587810639 0 0.004918234131251328 -0.01190356007935443 0 0.0042744387146219686 -0.0094764874977711581 0 0.0031554109599239294 -0.0097126140925461457 0 0.003954332074294342 -0.010721239587810639 0 0.0042744387146219686 -0.0094764874977711581 0 0.003954332074294342 -0.010721239587810639 0 0.0050538690932855485 -0.010078815873845298 0 0.007546223777244801 -0.0059804004634715965 0 0.0079218059832494685 -0.0067475299769237081 0 0.0086654556468047095 -0.0057107003755226442 0 0.0040705424595780205 -0.016115998707899204 0 0.0044699537867789437 -0.015495381165019858 0 0.0041868992880894238 -0.01627504338739736 0 0.0060027117586516077 -0.011614093273647963 0 0.0061108682772822538 -0.0087823453358816111 0 0.0061108682772822538 -0.0087823453358816111 0 0.0033706751445098456 -0.014676840922887393 0 0.0031554109599239294 -0.0097126140925461457 0 0.0030516163274529771 -0.011522515222352422 0 0.003954332074294342 -0.010721239587810639 0 0.004918234131251328 -0.01190356007935443 0 0.0060627881133164703 -0.010797001829947781 0 0.0065042342873200777 -0.012032036665240546 0 0.004918234131251328 -0.01190356007935443 0 0.0050538690932855485 -0.010078815873845298 0 0.0060627881133164703 -0.010797001829947781 0 0.003954332074294342 -0.010721239587810639 0 0.004918234131251328 -0.01190356007935443 0 0.0050538690932855485 -0.010078815873845298 0 0.0066588892311087921 -0.0093250872407051166 0 0.0050538690932855485 -0.010078815873845298 0 0.0060627881133164703 -0.010797001829947781 0 0.0066588892311087921 -0.0093250872407051166 0 0.0060627881133164703 -0.010797001829947781 0 0.0071119739796951789 -0.010669660504045839 0 0.0066588892311087921 -0.0093250872407051166 0 0.0071119739796951789 -0.010669660504045839 0 0.0081314656674615383 -0.0097874745416592079 0 0.0071119739796951789 -0.010669660504045839 0 0.0080817941418086913 -0.011587613506722872 0 0.0065042342873200777 -0.012032036665240546 0 0.0060627881133164703 -0.010797001829947781 0 0.0071119739796951789 -0.010669660504045839 0 0.0065042342873200777 -0.012032036665240546 0 0.0071119739796951789 -0.010669660504045839 0 0.0080817941418086913 -0.011587613506722872 0 0.0081314656674615383 -0.0097874745416592079 0 0.009053338538891802 -0.00899294659407914 0 0.0081314656674615383 -0.0097874745416592079 0 0.0091792521395170634 -0.010497404323147415 0 0.0080817941418086913 -0.011587613506722872 0 0.0081314656674615383 -0.0097874745416592079 0 0.0091792521395170634 -0.010497404323147415 0 0.0099872519026542005 -0.0096040694290061169 0 0.01034673910924974 -0.01094756568487136 0 0.0091792521395170634 -0.010497404323147415 0 0.0099872519026542005 -0.0096040694290061169 0 0.009053338538891802 -0.00899294659407914 0 0.0091792521395170634 -0.010497404323147415 0 0.01034673910924974 -0.01094756568487136 0 0.0091792521395170634 -0.010497404323147415 0 0.0094912991681603033 -0.012076910448392954 0 0.0080817941418086913 -0.011587613506722872 0 0.0091792521395170634 -0.010497404323147415 0 0.0094912991681603033 -0.012076910448392954 0 0.0080817941418086913 -0.011587613506722872 0 0.0094912991681603033 -0.012076910448392954 0 0.0088010318489088121 -0.013465779818441454 0 0.0099282028688318334 -0.013430860623948247 0 0.0094912991681603033 -0.012076910448392954 0 0.0088010318489088121 -0.013465779818441454 0 0.0099282028688318334 -0.013430860623948247 0 0.0098028474670032867 -0.014948975527201399 0 0.0088010318489088121 -0.013465779818441454 0 0.0076988529255154568 -0.014256757850648224 0 0.0065279192796291975 -0.013671075947010003 0 0.0075311845657318466 -0.013002268718670431 0 0.0076988529255154568 -0.014256757850648224 0 0.0088010318489088121 -0.013465779818441454 0 0.0075311845657318466 -0.013002268718670431 0 0.0065279192796291975 -0.013671075947010003 0 0.0065042342873200777 -0.012032036665240546 0 0.0075311845657318466 -0.013002268718670431 0 0.0080817941418086913 -0.011587613506722872 0 0.0088010318489088121 -0.013465779818441454 0 0.0075311845657318466 -0.013002268718670431 0 0.0080817941418086913 -0.011587613506722872 0 0.0065042342873200777 -0.012032036665240546 0 0.0075311845657318466 -0.013002268718670431 0 
</DataArray>
</PointData>
<CellData Scalars="region_id,cross_section_updated," Vectors="" Tensors="stress,">
<DataArray type="Float64" Name="region_id" format="ascii">
5 5 5 5 5 6 5 5 5 5 6 5 5 5 5 5 5 6 5 6 5 5 5 5 5 5 5 5 5 5 5 5 5 5 5 5 6 5 5 5 5 5 5 5 5 6 5 5 5 5 5 5 5 5 5 5 6 5 5 5 5 5 5 5 5 5 5 5 5 5 5 5 5 6 6 5 5 5 5 5 6 5 6 5 5 5 5 5 6 5 5 5 6 5 5 6 5 5 5 6 5 6 5 5 5 5 6 5 5 6 5 5 5 5 5 5 5 5 5 5 6 5 5 6 5 5 5 5 6 5 5 5 5 6 5 5 5 5 6 5 5 6 5 5 6 5 5 5 6 5 5 5 5 5 5 6 5 5 5 5 5 5 6 5 5 5 5 5 5 5 5 5 6 5 6 5 5 5 5 5 5 5 6 5 5 5 5 6 5 5 5 5 6 6 5 5 5 5 5 5 5 5 6 5 5 5 5 6 5 6 5 5 5 5 5 6 5 5 5 5 5 5 5 5 5 5 5 5 5 5 5 5 5 5 5 5 6 5 5 5 5 5 6 5 5 5 5 5 5 5 5 5 5 5 5 5 6 5 5 5 6 5 6 5 5 5 6 5 5 5 5 5 5 5 5 6 6 5 5 5 5 5 5 5 5 5 5 5 5 6 5 6 5 5 5 5 5 5 5 5 6 5 5 6 5 5 5 5 6 5 5 5 6 5 5 5 6 5 5 6 5 5 5 5 6 5 5 5 5 5 5 5 5 6 5 5 5 6 5 6 5 5 6 5 5 5 6 5 5 6 5 5 5 5 5 5 5 5 5 5 5 5 5 5 5 5 5 6 5 5 5 5 6 5 5 6 5 5 5 5 5 5 5 5 5 6 5 5 5 6 5 5 5 5 5 5 5 5 5 5 5 5 5 5 5 5 5 5 5 5 5 5 5 5 5 5 5 5 5 5 5 6 5 5 5 5 5 5 5 6 5 5 5 5 6 5 5 5 5 5 5 5 6 5 5 5 5 5 5 5 5 5 5 5 5 5 5 5 5 5 5 5 5 6 5 6 5 5 5 5 5 5 5 5 6 5 6 5 5 5 5 6 5 6 5 5 6 6 5 5 6 6 5 5 5 5 5 5 5 5 5 5 6 5 5 5 5 5 5 5 5 5 5 5 5 5 6 5 6 5 5 5 5 5 5 5 6 5 5 5 5 5 5 5 5 5 5 5 5 6 5 6 5 5 5 5 6 5 5 6 5 5 5 5 5 5 5 5 5 5 6 5 5 5 5 5 6 5 6 5 5 6 6 5 5 5 6 6 5 5 5 5 6 5 5 6 5 5 6 6 6 6 6 5 6 5 6 5 5 6 5 6 5 5 6 6 5 5 5 5 6 5 6 6 5 5 5 6 5 5 5 5 5 6 5 5 5 5 5 5 5 5 5 5 5 6 5 6 5 6 5 5 5 5 5 6 5 5 5 5 5 5 6 5 5 5 5 5 6 5 5 5 5 5 5 5 5 5 5 5 6 5 5 5 5 5 5 5 6 6 5 5 5 5 5 5 5 5 5 5 5 5 6 5 5 5 6 5 5 5 5 5 5 5 5 5 5 5 5 5 5 5 5 5 5 5 5 5 5 5 5 6 6 5 5 5 5 5 5 6 5 5 5 5 5 5 5 5 5 5 5 5 5 5 5 5 5 5 5 5 5 5 5 5 6 5 6 5 5 5 5 5 5 6 5 5 5 5 5 5 5 5 5 5 6 5 5 5 5 5 6 5 5 6 5 5 5 5 5 5 5 5 5 5 5 6 5 5 5 5 5 6 5 5 5 6 5 5 5 6 5 5 5 5 5 5 5 5 5 5 6 5 5 5 5 5 5 5 5 5 5 5 5 5 5 5 5 6 5 5 5 6 5 5 5 5 5 6 5 5 5 5 5 5 5 5 5 5 5 6 5 5 5 5 5 5 5 5 6 5 5 5 5 5 5 5 5 5 5 5 5 5 5 5 5 5 5 5 6 5 5 5 5 5 5 6 5 5 5 5 5 5 5 5 5 5 5 5 5 5 5 5 5 5 5 5 5 5 5 5 5 6 5 5 5 5 5 5 5 5 5 5 5 5 5 5 5 5 5 6 5 6 5 5 5 5 5 6 6 5 5 5 5 5 5 5 5 6 5 5 5 5 5 5 6 5 5 5 5 5 5 5 5 5 5 5 5 5 5 5 5 5 5 5 5 6 5 5 5 5 5 5 6 5 5 6 5 5 5 5 5 5 5 5 6 5 6 5 5 6 5 5 5 6 5 5 5 5 5 5 5 5 5 5 5 5 5 5 5 5 5 5 5 5 5 5 5 5 5 5 5 5 5 5 5 5 5 5 6 5 5 5 6 5 5 5 5 6 5 5 5 5 5 5 6 5 5 5 5 6 5 5 5 5 6 5 5 5 5 6 5 5 6 5 5 5 5 5 5 6 5 6 5 5 6 5 5 5 6 5 5 5 5 5 5 5 5 5 6 5 5 5 5 5 5 5 5 6 5 5 5 5 5 5 5 5 5 5 5 5 5 5 5 5 5 5 5 5 5 5 5 5 5 5 5 5 5 5 5 5 5 5 6 5 5 5 5 6 5 5 5 5 5 5 5 5 5 5 5 5 5 5 5 5 6 5 5 6 6 5 5 5 5 5 6 5 5 5 6 6 6 5 6 5 6 6 5 5 5 5 6 5 5 5 5 5 5 5 5 5 5 6 5 5 5 5 6 5 5 6 5 5 5 5 6 5 5 5 5 5 5 5 5 5 5 5 5 6 5 5 5 5 5 5 5 5 5 5 5 5 6 5 5 5 5 5 5 5 5 5 6 5 6 5 6 5 5 5 5 5 5 5 5 5 5 5 5 5 5 5 5 5 5 5 5 5 5 5 5 5 6 5 5 5 6 5 5 5 5 5 5 5 5 6 5 5 5 5 5 5 5 6 5 6 5 5 5 5 5 5 5 5 5 6 5 5 6 6 5 5 5 5 5 5 5 5 5 5 6 5 5 5 5 5 5 5 5 5 5 5 5 5 5 5 5 6 5 5 5 6 5 5 6 5 6 5 6 5 5 5 5 5 5 5 5 6 5 5 5 5 6 6 5 5 5 5 6 5 5 5 5 5 5 5 5 5 5 5 5 5 5 5 5 5 5 5 5 5 5 5 5 5 5 5 5 6 5 6 5 5 5 5 6 5 5 5 5 5 5 5 5 5 5 5 5 6 6 5 5 5 5 5 5 5 5 5 5 5 5 5 6 5 5 5 5 5 5 5 5 5 5 6 5 5 5 5 5 5 5 5 5 5 6 5 5 5 5 6 5 5 5 5 5 5 5 5 5 6 5 5 5 6 5 5 5 5 5 5 5 5 5 5 5 5 5 5 5 5 5 5 5 5 5 5 5 5 5 5 5 5 5 5 5 5 6 5 5 5 5 5 5 5 5 5 6 5 5 5 6 6 5 6 5 5 6 5 5 5 5 5 5 5 5 6 5 5 6 6 6 6 5 5 5 5 6 6 6 5 5 5 6 5 5 5 5 5 6 5 5 5 5 5 5 5 5 6 5 6 5 5 5 5 5 5 5 5 5 5 6 5 6 5 5 5 5 5 5 5 5 5 5 5 5 5 5 5 5 5 6 5 5 5 5 5 5 5 5 5 5 5 5 5 5 5 5 6 5 5 5 5 5 5 5 5 6 5 5 5 6 5 5 5 5 6 5 5 5 5 5 5 5 5 5 6 5 5 5 6 5 5 6 5 5 5 5 5 5 5 6 5 5 5 5 5 5 5 5 5 5 5 5 5 6 5 5 5 5 5 5 5 5 5 6 5 5 6 5 5 5 5 5 5 5 5 5 6 5 5 5 6 5 5 5 5 5 6 5 5 6 5 5 6 5 5 6 5 5 5 5 5 5 5 5 5 5 5 5 5 5 5 5 5 5 5 5 5 5 5 6 5 5 5 5 5 5 5 5 5 5 6 5 5 6 5 6 5 5 5 5 5 5 6 5 6 5 5 5 5 5 5 5 5 5 5 5 5 5 5 5 5 5 6 5 5 5 5 5 5 6 5 5 5 6 5 5 5 5 5 5 5 5 6 5 5 5 5 5 5 5 5 6 5 5 5 5 5 5 5 5 5 5 5 6 5 5 5 6 5 5 5 5 6 5 5 5 5 5 5 5 5 6 5 5 5 6 5 5 5 6 5 5 5 5 5 5 5 5 5 5 6 5 6 5 5 6 5 5 5 5 5 5 5 5 5 6 5 6 5 5 5 6 6 5 5 5 6 5 5 5 5 5 5 5 5 5 5 5 5 6 5 5 5 6 5 5 5 5 5 5 6 5 5 5 5 5 5 5 5 5 5 6 5 6 5 5 5 5 5 5 6 5 5 5 5 5 5 5 6 5 5 5 5 5 5 5 6 5 5 5 6 5 5 6 5 5 5 5 5 5 6 5 5 5 5 5 6 5 5 5 5 5 5 6 5 5 5 5 5 5 5 5 6 5 6 5 5 5 5 5 5 5 6 5 5 5 6 5 5 5 5 5 5 5 5 5 5 5 5 5 5 5 5 5 5 5 5 5 5 5 5 5 5 5 5 5 5 5 6 5 6 5 5 5 5 5 5 5 5 5 5 5 5 5 5 6 5 5 5 5 5 5 5 5 5 5 5 5 5 5 5 6 5 5 6 5 5 5 5 5 5 5 5 5 5 5 5 6 5 5 5 5 5 5 5 5 5 5 5 5 5 5 5 5 5 5 5 6 5 5 5 5 5 5 5 5 5 5 5 5 5 5 5 5 5 5 5 5 5 5 5 5 5 5 5 5 5 5 5 5 5 5 5 5 5 5 5 5 5 5 5 5 5 5 5 5 5 5 5 5 5 5 6 5 5 5 5 5 5 5 5 5 5 6 5 5 6 5 5 6 5 5 5 5 5 5 5 6 5 5 6 5 5 5 5 5 5 5 5 5 6 5 6 5 5 5 5 5 5 5 6 5 5 6 5 5 5 6 5 5 5 5 6 6 5 5 5 6 5 5 5 6 6 5 5 5 6 5 6 5 6 5 5 5 5 5 5 6 5 5 5 5 5 5 5 5 5 5 5 5 5 5 5 5 5 5 5 6 5 5 5 6 5 5 5 5 5 5 5 5 5 5 5 5 6 5 5 5 5 6 5 6 5 5 5 5 5 5 6 6 5 5 5 5 5 5 5 5 5 5 5 6 5 5 5 5 6 5 5 6 5 5 5 5 5 5 5 5 6 5 5 6 5 5 5 5 5 5 5 5 5 5 5 5 5 5 5 5 5 5 5 5 5 5 5 5 6 5 5 5 5 5 5 5 5 5 5 5 5 5 6 5 5 6 5 5 5 6 5 5 5 6 6 5 5 5 5 5 5 6 5 5 5 5 6 6 6 6 5 5 5 6 5 5 6 5 5 5 6 5 5 5 5 5 5 5 5 6 5 5 6 5 5 5 5 5 5 6 5 5 5 5 5 6 5 5 5 5 5 5 5 5 5 5 5 5 5 5 5 5 5 6 5 5 5 5 5 5 5 6 5 5 5 5 5 5 5 5 5 5 5 5 5 6 5 5 5 5 5 5 5 5 5 5 6 5 5 6 5 5 5 6 5 6 5 6 5 5 5 5 5 5 5 6 5 6 5 6 5 5 6 5 6 5 5 6 6 5 5 6 6 5 5 5 5 5 5 5 5 5 5 5 5 5 5 5 6 6 5 5 5 6 6 6 5 5 5 5 5 5 6 5 6 6 5 5 5 5 6 5 5 5 6 5 5 5 6 5 6 5 5 5 6 5 5 5 5 5 5 5 5 5 5 5 5 5 5 5 6 6 5 5 5 5 6 5 5 6 5 5 6 5 5 5 5 5 5 6 5 5 5 6 5 6 5 5 6 5 5 5 5 6 5 5 6 6 5 5 5 5 5 5 5 5 5 6 5 5 5 5 5 5 5 6 6 5 5 6 5 5 5 5 6 5 5 5 5 5 6 5 5 5 5 6 5 5 5 6 5 5 5 5 5 5 5 6 5 5 5 5 6 5 5 5 5 6 5 5 5 5 5 5 5 5 5 5 5 5 5 5 5 5 5 5 6 5 6 5 5 5 5 5 5 5 5 5 5 5 6 5 5 5 5 5 5 5 5 5 5 5 5 5 5 5 5 6 5 6 5 5 6 6 5 5 5 5 5 5 5 6 5 6 6 5 6 5 5 5 5 6 5 6 5 6 6 6 5 5 6 5 5 5 6 5 5 5 5 5 5 5 5 5 5 5 5 6 5 5 5 5 5 5 5 5 5 5 5 5 5 5 5 5 6 5 6 6 5 5 5 5 6 5 5 5 5 5 5 5 5 5 5 5 5 5 5 5 5 5 5 5 5 5 5 5 5 5 5 5 5 5 5 5 5 5 5 5 5 5 5 5 5 5 5 5 5 6 5 5 5 5 5 6 5 6 5 5 5 6 5 5 5 5 5 6 5 5 5 5 5 6 5 6 5 5 6 5 5 6 5 5 5 5 5 5 5 5 5 5 5 5 5 5 6 5 6 5 5 5 5 5 5 5 5 5 5 6 5 5 5 5 5 5 5 5 5 5 5 5 5 5 5 5 5 5 5 5 5 5 5 5 5 5 5 5 5 5 5 5 5 5 5 5 5 5 5 5 5 5 5 5 5 5 5 5 5 5 5 5 5 5 5 5 5 5 5 5 5 5 5 5 5 5 5 5 5 5 5 5 6 6 6 5 6 5 5 5 5 6 5 5 5 5 5 5 6 5 5 5 5 5 5 5 6 5 5 5 5 6 5 6 5 5 5 5 5 5 5 5 5 5 5 5 5 5 5 5 5 5 5 5 6 5 6 5 6 5 5 5 6 5 6 5 5 5 5 6 5 5 5 6 5 5 5 5 5 5 6 5 5 5 5 5 5 5 5 5 5 5 5 6 5 5 6 5 5 6 5 5 5 5 6 5 5 6 5 5 6 5 6 5 5 5 6 5 6 5 5 6 6 5 5 6 5 5 6 6 5 5 6 5 6 5 5 5 6 5 6 5 5 6 5 5 5 5 5 5 5 5 5 5 5 5 5 5 5 5 5 5 5 5 5 6 5 5 5 5 5 5 5 6 5 5 5 5 5 5 5 5 5 5 5 5 5 5 5 5 5 5 5 5 5 6 5 5 6 5 5 5 5 5 5 5 5 6 5 5 5 5 6 6 5 5 6 5 6 5 5 5 5 6 5 5 5 6 5 5 5 5 6 5 5 5 5 5 6 6 5 6 6 5 5 6 5 6 5 5 5 5 5 6 5 5 5 5 5 6 5 6 5 6 5 5 6 5 6 5 5 5 5 6 5 5 5 5 5 6 5 6 5 5 5 5 5 5 5 5 5 5 5 6 5 6 5 5 5 5 5 5 5 5 5 6 5 5 5 5 5 6 5 5 5 5 6 5 5 6 6 5 5 6 5 5 5 5 5 5 5 5 5 5 5 6 5 5 5 5 5 5 5 5 5 5 5 5 6 5 5 5 5 5 6 5 5 5 5 5 5 5 6 5 5 5 5 5 5 5 5 6 5 5 5 5 6 5 5 5 5 5 5 6 5 5 5 5 6 5 5 5 6 6 6 5 5 5 5 5 5 5 5 5 5 6 5 6 5 5 6 5 5 5 5 5 5 5 6 5 5 6 5 6 5 5 5 5 5 5 5 6 5 5 5 6 5 5 5 5 5 5 5 5 5 5 5 5 6 5 5 5 5 5 5 5 5 5 5 5 5 5 5 5 5 5 5 5 5 5 5 5 5 5 5 5 6 6 5 5 6 5 5 5 5 5 6 5 5 5 6 5 5 5 5 5 5 5 5 5 6 5 5 5 5 5 5 5 5 5 5 5 5 5 5 6 5 5 5 5 5 5 5 5 5 5 5 5 6 5 5 5 5 5 5 5 6 5 5 5 5 5 5 5 5 5 5 5 5 5 5 5 5 5 5 5 5 5 5 5 5 5 5 5 5 5 5 5 5 5 5 5 5 5 5 5 5 5 5 5 5 5 5 5 5 5 5 6 5 5 5 6 5 6 5 5 5 5 5 5 5 5 6 5 5 5 5 5 5 5 5 6 6 5 5 5 5 5 5 5 5 5 5 6 6 6 5 5 5 6 5 5 5 5 6 5 5 5 5 5 5 5 5 5 5 5 5 6 5 5 5 5 5 5 5 5 6 6 5 5 6 5 5 5 5 5 5 5 5 5 5 5 5 5 6 5 5 5 5 5 6 5 5 5 5 6 5 5 5 5 6 5 5 6 5 5 5 6 5 5 5 5 5 5 5 5 6 5 5 5 6 5 5 5 6 6 5 5 6 5 5 6 5 5 6 5 6 5 5 5 5 5 5 5 5 5 5 5 5 6 5 5 5 5 5 5 5 5 6 5 5 6 5 5 5 5 6 5 5 5 5 5 5 5 5 5 6 5 5 5 5 5 5 5 5 6 5 5 5 6 5 5 5 6 5 5 5 6 5 5 5 5 5 5 5 5 5 5 5 6 5 5 5 6 5 5 5 5 5 5 5 6 5 5 5 5 5 6 5 5 5 6 5 5 5 5 5 5 5 5 5 5 5 5 6 5 5 6 5 6 5 5 5 5 5 5 5 5 5 5 6 6 5 5 5 5 5 6 5 6 6 5 6 5 6 5 5 5 5 5 5 5 5 5 5 5 5 5 5 5 5 5 5 5 5 5 5 6 5 5 5 5 5 5 5 5 6 5 5 5 5 6 5 5 5 5 5 5 5 5 5 6 5 6 5 5 5 5 5 5 5 5 5 5 5 5 6 5 5 5 5 5 5 5 5 5 6 5 6 5 5 6 5 5 6 5 5 6 5 5 5 5 6 5 5 5 5 5 5 5 5 5 5 5 5 5 5 5 5 5 5 5 5 5 6 5 5 6 5 5 6 6 5 5 5 5 6 5 5 6 5 5 5 5 5 5 5 6 5 5 5 5 5 5 6 5 5 5 6 5 6 6 5 5 5 5 5 5 5 6 5 5 5 5 5 5 5 6 5 5 5 5 5 5 5 5 5 5 5 5 5 5 5 5 6 5 5 5 5 6 5 5 5 5 5 5 5 5 5 5 5 5 5 5 5 5 5 5 6 6 6 5 6 5 6 5 5 5 5 6 5 5 5 5 5 5 5 6 5 5 5 5 5 5 5 6 5 5 6 5 5 5 5 5 5 5 5 6 5 5 5 6 5 5 5 5 5 6 5 5 6 5 5 5 5 6 5 5 6 5 6 5 5 5 5 5 5 5 5 5 5 5 5 6 5 5 5 5 5 6 5 5 5 5 5 5 5 6 5 5 5 6 5 5 5 5 6 5 5 5 6 5 5 5 5 5 6 5 5 5 5 5 5 5 5 5 5 5 5 6 5 5 5 5 5 5 6 5 5 6 5 6 5 5 6 5 5 5 5 5 5 5 5 5 5 5 5 5 5 6 5 5 6 5 6 5 5 5 5 5 6 5 5 5 5 5 5 5 5 5 5 5 5 5 5 5 5 5 5 5 5 5 5 6 6 5 5 5 5 5 5 6 5 5 6 5 5 5 5 6 5 6 5 6 6 5 5 5 5 5 6 5 5 6 5 5 5 5 5 6 5 6 5 5 6 5 6 5 5 5 5 5 5 5 5 5 5 5 5 5 5 5 5 5 5 5 5 5 5 5 5 5 5 5 5 5 5 5 5 5 5 5 5 5 6 5 6 5 6 5 5 5 6 5 5 5 5 5 5 6 5 5 5 5 5 5 5 5 5 5 5 5 5 5 5 5 5 5 5 5 6 5 5 5 5 5 5 5 5 5 5 5 5 5 6 6 5 5 5 5 5 5 5 5 5 5 5 6 5 5 5 6 5 5 5 5 5 5 5 5 5 5 5 5 5 5 5 5 5 5 5 6 5 6 5 5 5 5 5 5 5 5 5 5 5 5 5 6 5 5 5 5 5 5 5 5 5 5 6 5 5 6 5 5 5 5 5 5 5 5 5 5 5 5 5 5 5 5 5 5 5 5 5 5 5 5 6 5 5 5 5 5 5 5 5 5 5 5 5 5 5 5 5 5 5 5 5 5 5 5 5 5 6 5 5 5 5 6 5 5 5 5 5 5 6 5 5 5 5 5 5 5 5 5 5 6 5 5 5 5 5 6 5 5 6 5 5 5 5 5 5 5 5 5 5 5 5 5 5 6 5 5 5 5 6 5 6 5 5 6 6 5 5 6 5 5 6 5 5 5 5 5 5 5 5 5 5 5 5 5 5 5 5 6 5 5 5 5 6 5 5 5 6 5 5 5 6 5 5 5 5 5 5 5 6 5 5 5 6 5 5 5 5 5 5 5 5 5 5 5 5 5 5 5 5 5 5 5 5 5 5 5 5 5 5 5 5 6 5 5 5 5 5 5 5 5 5 5 5 6 5 5 5 5 6 5 5 5 5 5 5 5 5 5 5 5 6 5 5 5 5 5 5 5 5 5 5 5 5 5 5 5 5 5 5 5 5 5 5 5 5 5 5 5 5 5 5 5 5 5 5 5 5 5 5 5 6 5 6 5 5 5 5 5 6 5 5 5 6 5 5 5 5 5 6 5 5 5 5 5 5 5 5 5 6 5 5 5 6 5 5 5 5 5 5 5 5 5 5 5 5 5 5 5 5 5 5 5 5 5 5 5 5 5 5 5 5 5 5 5 5 5 5 5 5 6 5 5 5 5 5 5 5 5 6 5 5 5 5 5 5 5 5 5 5 5 5 5 6 5 5 5 5 5 5 6 5 5 5 5 5 5 5 5 5 5 5 5 5 6 5 5 5 5 5 5 5 5 5 5 5 5 5 5 5 5 5 5 5 5 5 5 6 5 5 5 5 5 5 5 5 5 5 6 6 5 5 5 5 5 5 5 5 5 5 5 5 5 5 5 5 5 6 6 5 5 5 5 5 5 6 5 5 5 5 5 5 5 5 5 5 5 5 5 6 5 5 5 5 5 5 5 5 5 5 5 5 5 5 5 5 5 5 5 5 5 5 5 5 5 5 5 6 5 5 6 5 5 5 5 5 5 5 5 5 5 5 5 5 5 5 5 5 6 5 6 5 5 5 5 5 5 5 5 5 5 5 6 6 5 5 5 6 6 5 5 5 5 6 5 5 6 5 5 5 5 5 5 5 5 5 5 5 5 5 5 5 5 5 5 5 5 5 5 5 5 5 5 5 5 5 5 5 5 5 5 5 5 5 5 5 5 5 5 5 5 5 5 5 5 5 5 5 5 5 5 5 5 5 5 6 5 5 5 5 5 5 5 5 5 5 5 5 6 5 5 6 5 5 6 5 5 5 5 5 6 5 5 5 5 6 5 5 5 5 5 5 5 5 5 5 5 5 5 5 6 5 5 5 5 5 6 6 5 5 5 5 6 5 5 5 5 5 6 5 5 5 5 5 5 5 5 5 5 5 5 5 5 5 5 5 5 5 5 5 5 5 5 5 5 5 5 5 5 5 5 5 5 5 5 5 5 5 5 5 5 5 5 5 5 5 5 5 5 5 5 5 5 5 5 5 5 5 6 5 5 5 5 5 5 5 5 5 5 5 5 5 5 5 5 5 5 5 6 5 5 5 5 6 5 5 6 6 5 5 5 5 5 5 5 5 5 5 5 5 5 5 5 5 5 5 5 5 5 5 5 6 5 6 5 5 5 5 5 5 5 5 5 5 5 5 5 5 5 6 5 5 5 5 5 5 5 5 5 5 5 6 5 5 5 5 5 5 5 5 5 5 5 5 5 5 5 5 6 5 5 6 5 5 5 5 5 6 5 5 5 6 5 5 6 5 5 5 5 5 5 5 5 5 5 5 5 5 5 5 5 5 5 5 5 6 5 5 5 5 5 6 5 5 5 6 5 5 5 5 6 6 6 5 5 5 5 5 6 5 6 5 5 5 6 6 5 5 5 6 5 5 5 6 5 6 5 5 5 5 5 5 5 5 5 5 5 5 5 5 5 5 5 5 5 5 5 5 5 6 5 6 5 5 5 5 5 5 5 5 5 5 5 5 5 5 5 5 5 5 5 5 5 5 5 5 5 5 5 5 5 5 5 5 5 6 5 6 5 5 5 5 5 5 5 5 5 5 5 5 5 5 5 5 5 5 5 5 5 5 6 5 5 5 5 5 5 6 5 5 5 5 5 5 5 5 6 5 5 5 5 5 5 5 5 5 5 5 5 5 5 6 5 5 5 5 6 5 5 5 5 5 5 5 5 5 5 5 5 5 5 6 5 5 5 5 5 5 5 5 5 6 5 5 5 5 5 6 5 5 5 5 5 5 5 5 5 5 6 5 6 5 5 5 5 6 5 5 5 5 5 5 5 5 5 5 5 5 5 5 5 5 5 5 6 5 5 5 6 5 5 5 5 5 6 6 5 5 6 5 5 5 5 5 6 5 5 5 5 5 6 5 5 5 5 5 5 5 5 5 5 5 5 5 5 5 5 5 5 6 5 5 5 5 5 5 6 5 5 5 5 5 5 5 5 5 5 5 5 5 5 5 5 5 5 5 5 5 5 5 5 5 5 5 5 5 5 5 6 5 5 5 5 5 5 5 5 5 5 5 5 5 5 5 5 5 5 6 5 5 5 5 5 5 5 5 5 5 5 5 5 5 6 5 5 5 5 5 5 5 5 5 5 6 5 5 6 6 5 5 6 5 5 5 5 5 5 6 5 5 5 5 6 5 5 5 6 6 5 5 5 6 6 5 5 6 6 5 6 5 5 6 5 5 6 5 5 6 5 5 6 5 5 5 5 6 6 5 5 5 5 5 6 5 5 5 6 5 6 5 5 6 6 5 5 5 5 5 5 5 6 5 5 5 5 5 5 5 5 5 5 5 5 5 5 6 5 5 5 5 6 5 5 5 5 6 5 5 5 5 6 5 5 5 5 5 5 5 6 5 5 5 6 5 5 5 6 5 5 5 5 5 5 5 6 5 5 6 5 5 6 5 5 5 5 5 5 5 5 6 5 6 5 5 5 6 5 5 5 5 5 5 5 5 5 6 5 5 5 6 5 5 5 6 5 5 6 5 5 5 5 5 6 5 5 5 5 5 5 5 5 5 5 5 5 5 5 5 5 5 5 5 5 5 6 5 5 5 5 6 5 6 5 6 5 5 5 5 5 5 5 5 5 5 5 5 5 5 5 5 5 5 5 5 5 5 5 5 5 5 5 5 5 5 5 5 6 5 5 5 5 5 5 5 5 5 5 5 6 5 5 5 5 5 5 5 5 5 5 5 6 5 5 5 5 5 5 5 5 5 5 5 5 5 5 5 6 5 5 5 5 5 6 5 5 6 5 5 5 5 5 5 5 5 5 5 5 5 5 5 5 5 5 5 5 5 5 5 5 5 5 5 5 5 5 5 5 5 5 5 5 5 5 5 5 5 5 5 5 5 5 5 5 6 5 5 5 5 5 5 5 5 5 5 5 5 5 5 5 5 5 5 5 5 5 5 5 6 5 5 5 5 5 5 5 6 5 5 5 5 5 5 5 5 6 5 5 5 5 5 5 5 6 5 5 6 5 5 5 5 5 6 5 5 5 5 5 5 5 5 5 6 5 5 5 5 5 5 5 5 5 5 5 5 5 5 5 5 5 5 5 5 5 5 5 5 5 5 5 5 5 5 5 6 5 5 6 5 5 6 5 6 5 5 6 5 5 5 6 5 5 6 5 5 5 6 5 5 5 5 5 5 5 5 5 5 5 5 5 5 6 5 6 5 5 5 5 5 5 5 5 5 5 5 5 5 6 5 5 5 5 5 5 6 5 5 5 5 5 5 5 5 5 5 5 5 5 5 5 5 5 6 5 5 5 6 5 5 5 5 5 5 5 5 5 5 5 5 5 5 5 5 5 5 5 5 5 5 5 5 5 5 6 5 5 5 5 5 6 5 6 5 5 6 5 5 5 6 5 6 5 5 6 5 5 5 5 6 5 5 5 6 5 6 5 5 5 6 5 6 5 5 5 5 6 5 5 6 5 6 5 5 6 5 5 5 6 6 5 5 5 5 5 6 6 5 5 5 5 5 6 6 6 5 5 6 5 5 5 6 5 5 5 5 6 5 5 6 5 5 5 5 5 5 5 5 6 5 6 5 5 5 5 5 5 5 5 5 5 5 5 6 5 5 5 5 5 5 5 5 5 5 5 5 5 5 5 5 5 5 5 5 5 5 5 5 5 5 5 6 6 5 5 6 6 6 5 5 5 5 5 6 5 6 5 5 5 5 5 6 5 5 5 5 5 5 5 5 6 5 5 5 5 5 5 5 5 5 5 6 5 5 6 5 5 5 5 5 5 6 5 5 5 6 5 5 6 5 5 6 6 5 5 6 5 5 5 5 5 5 5 5 5 5 5 5 5 5 5 5 5 6 5 5 5 5 5 5 6 5 5 6 5 5 6 5 5 5 5 5 5 5 5 5 5 5 5 5 5 5 5 5 6 6 5 5 5 5 6 5 5 5 5 6 5 5 5 5 6 5 5 5 5 5 5 5 6 5 6 5 5 6 5 5 6 5 5 5 5 5 5 5 5 5 5 5 5 5 5 5 5 5 5 5 5 5 5 5 5 6 5 5 5 5 5 5 5 6 5 5 6 5 6 5 6 5 5 5 5 5 5 5 5 5 5 5 5 5 5 5 5 5 5 5 5 5 5 5 5 6 5 5 5 5 5 5 5 5 5 5 5 5 5 6 5 6 5 5 5 5 5 5 5 5 5 5 5 5 5 5 5 5 5 5 5 6 5 6 6 5 5 5 6 5 5 5 6 5 5 5 6 5 5 5 5 5 5 5 5 5 5 5 5 6 6 6 5 5 5 5 5 5 5 6 5 5 5 5 5 5 6 5 5 5 5 5 5 5 6 5 5 5 5 6 5 5 5 5 5 5 5 6 6 5 5 5 5 5 5 6 5 5 5 5 5 5 5 5 5 5 6 5 5 5 5 5 5 6 5 5 5 5 5 5 5 5 5 5 5 5 5 5 5 5 5 5 5 5 5 5 6 5 5 5 5 6 6 5 5 5 6 5 5 6 5 5 5 5 5 5 5 5 5 5 5 5 5 5 5 5 5 5 5 5 5 5 6 5 5 5 5 6 5 5 5 5 5 5 5 6 5 5 5 5 5 5 5 6 5 5 5 6 5 5 5 5 5 5 5 5 5 5 5 5 5 5 5 5 5 5 5 5 5 5 6 6 5 5 5 6 6 5 5 6 6 6 5 5 5 5 5 5 5 5 5 5 5 5 5 5 5 5 5 5 5 5 6 6 5 5 6 5 5 6 5 5 5 5 5 5 5 6 5 5 5 5 5 5 5 5 5 5 5 5 5 5 5 5 5 5 5 5 5 5 6 5 5 5 6 5 5 5 6 5 5 5 6 5 5 5 5 5 5 5 5 5 5 5 5 5 5 5 5 5 5 5 5 5 6 5 5 5 5 5 5 5 5 5 6 5 6 5 6 5 5 5 5 5 5 5 5 5 5 5 6 5 5 5 5 6 5 6 5 6 5 5 5 6 5 5 5 6 5 5 5 5 5 6 5 5 5 5 6 5 5 5 5 5 5 5 6 5 6 5 5 5 5 6 5 5 5 5 6 5 5 5 5 5 5 5 5 5 6 5 5 5 5 6 5 5 5 5 5 6 6 6 5 5 5 5 5 6 5 6 5 5 5 5 5 6 5 6 5 5 5 6 5 5 5 6 5 5 5 6 5 6 5 5 6 5 6 5 5 5 5 5 5 6 5 5 5 5 6 5 5 5 5 5 5 6 5 6 5 5 6 5 5 5 5 5 5 5 5 6 5 5 6 5 5 5 5 5 6 5 5 5 5 5 5 5 5 5 5 5 5 5 5 6 5 6 5 5 6 5 5 5 5 5 5 5 6 5 5 5 5 6 5 5 5 5 5 5 5 5 5 5 6 5 5 5 6 5 5 5 5 5 5 5 6 5 6 5 5 5 5 5 5 6 5 6 5 5 5 5 6 5 5 6 5 5 5 5 5 5 5 6 5 5 5 5 5 6 5 6 5 5 5 5 5 5 5 5 5 5 5 5 5 5 5 5 5 5 5 5 5 5 6 6 6 5 6 5 5 6 5 5 6 5 5 5 5 5 5 5 6 5 5 5 5 5 5 5 5 5 5 5 6 5 5 6 6 5 5 5 6 5 5 5 5 5 5 5 6 5 5 5 5 5 5 5 5 5 5 5 5 5 5 5 5 5 5 5 5 5 5 5 5 5 5 5 5 5 5 5 5 5 5 5 5 5 5 5 5 5 5 6 5 5 5 5 6 5 5 5 5 5 5 5 5 5 5 5 5 5 5 5 5 5 5 5 6 5 6 5 5 6 5 5 5 5 5 5 5 6 5 5 5 5 5 5 5 5 5 6 6 5 5 6 5 6 5 5 5 5 5 5 5 5 5 5 6 5 5 5 5 5 5 5 5 5 5 5 5 5 5 5 5 5 5 5 5 6 5 5 5 5 5 5 6 5 5 5 6 5 5 5 5 5 5 5 5 5 6 6 5 5 5 5 5 5 5 6 5 5 5 6 5 6 5 5 5 5 5 5 5 5 5 5 5 5 5 5 5 6 5 5 5 6 5 5 5 5 5 5 5 5 5 5 5 5 5 6 5 6 5 5 5 5 5 5 5 5 5 5 5 5 5 5 5 5 5 6 5 5 5 5 5 5 5 5 5 5 5 5 5 5 5 5 5 5 5 5 5 5 5 5 5 5 5 5 5 5 5 5 5 5 5 5 5 5 5 5 5 5 5 5 5 5 5 5 5 5 5 5 5 5 5 5 5 5 5 5 5 6 5 5 6 5 5 5 5 5 5 5 6 5 5 5 5 5 5 5 5 5 5 5 5 5 5 5 5 5 5 6 5 5 5 5 5 5 5 6 5 5 5 5 5 5 6 5 5 5 5 6 5 5 6 6 5 5 5 5 5 5 5 5 5 5 5 6 5 5 5 5 5 5 5 5 6 5 5 5 5 5 5 5 5 5 6 5 5 5 5 5 5 5 6 5 5 5 5 6 5 5 5 5 6 5 5 6 6 5 5 5 5 5 6 5 5 5 6 5 5 5 5 5 6 5 6 5 5 5 5 5 5 6 5 5 5 6 5 5 5 6 5 5 5 5 5 5 5 6 5 5 5 6 5 5 5 5 5 5 5 5 5 5 5 5 5 5 5 5 6 5 5 5 5 6 5 5 5 6 5 6 5 6 5 6 5 5 6 5 6 5 6 5 5 5 5 5 5 5 5 5 5 5 5 5 5 5 5 5 5 5 5 5 5 5 5 5 5 5 6 5 6 5 5 5 6 5 5 5 5 5 5 5 5 5 6 6 6 5 5 6 5 5 6 5 6 5 5 5 5 5 5 5 6 5 5 5 5 5 5 6 6 5 5 6 5 5 6 5 6 5 6 6 5 5 5 5 5 6 6 5 5 5 6 5 5 5 5 5 6 5 5 5 5 5 5 5 5 5 5 5 5 5 5 6 5 5 6 5 5 6 5 5 6 5 5 5 5 5 6 5 5 5 6 5 5 5 6 5 5 5 6 6 5 5 6 5 5 5 5 5 5 6 5 5 5 5 5 6 5 5 5 5 5 5 5 5 5 5 5 5 5 5 5 5 5 5 5 5 5 6 5 5 5 5 5 5 6 6 6 5 6 5 6 5 5 5 5 5 5 5 5 5 6 5 5 5 5 5 6 5 5 5 6 5 5 5 5 6 5 5 6 5 5 5 5 5 5 5 5 5 5 5 5 5 5 5 5 5 5 5 5 5 5 5 5 5 5 5 5 5 5 5 5 5 6 6 6 5 6 5 5 5 6 5 5 5 5 5 5 5 6 5 5 5 5 5 5 5 5 5 5 5 5 5 5 5 5 5 5 5 5 5 5 5 5 5 5 5 5 5 5 5 5 5 5 5 6 5 5 5 6 5 5 5 5 5 5 5 5 5 5 5 5 6 5 5 5 5 6 5 5 5 5 5 6 5 5 5 5 5 6 5 5 5 6 5 6 5 5 5 6 6 5 6 6 5 6 5 5 5 5 5 6 5 6 5 5 5 5 5 5 6 5 5 5 5 6 5 5 5 6 5 5 5 5 5 6 5 5 5 6 5 5 5 5 5 6 5 5 5 5 5 6 5 5 5 5 5 5 5 5 5 5 6 6 5 5 5 5 5 5 5 5 5 6 5 5 5 5 5 5 5 5 5 5 5 5 5 6 5 6 5 5 5 5 5 5 5 5 5 5 5 5 5 5 6 5 5 5 5 5 6 5 5 5 5 5 5 5 5 5 5 5 5 5 5 5 5 5 6 5 5 5 5 5 5 5 5 5 5 5 6 5 5 5 5 5 5 6 5 5 6 5 5 5 5 5 5 5 5 5 5 5 6 5 5 5 5 5 6 5 5 5 5 5 5 5 5 5 5 5 5 5 5 5 5 5 5 5 5 5 5 5 5 5 5 5 5 5 5 5 5 5 5 5 5 5 5 5 5 5 5 5 5 5 5 5 5 5 5 5 5 5 5 5 5 5 5 5 5 5 5 5 5 5 5 5 5 5 5 5 5 5 6 5 5 6 5 5 5 6 5 5 5 5 5 5 5 5 5 5 5 5 5 5 5 5 5 5 6 5 6 5 6 5 5 5 6 5 5 5 6 5 6 6 5 5 5 6 5 5 6 5 5 5 5 5 5 5 5 5 5 6 5 5 5 5 5 5 5 5 5 5 5 5 6 5 5 6 5 5 5 5 5 5 5 5 6 5 5 5 5 5 5 5 6 5 5 6 5 5 5 5 5 5 5 5 5 5 5 5 5 5 6 5 5 5 5 5 5 5 5 6 5 5 5 5 5 5 6 5 5 5 6 5 5 5 5 5 5 6 5 5 5 5 5 5 5 5 6 5 5 5 5 5 5 5 5 5 5 5 5 5 5 5 5 5 6 5 5 6 5 5 5 5 5 5 5 5 6 5 5 5 5 6 5 5 5 5 5 6 5 5 5 5 5 5 5 5 5 5 5 5 6 5 5 5 5 5 5 5 5 5 6 5 5 5 5 5 5 5 5 5 5 5 5 5 5 5 5 5 5 5 5 5 5 5 5 5 5 5 5 5 6 5 5 5 5 5 5 6 6 6 5 5 5 5 6 5 5 5 6 5 5 5 5 5 5 5 5 5 5 5 5 5 5 5 5 5 5 5 5 5 5 5 6 5 5 5 6 5 5 5 5 5 5 5 5 5 5 5 5 5 5 6 5 5 5 5 5 5 6 5 6 5 5 5 5 6 5 5 6 5 5 6 5 5 5 5 5 5 5 5 6 5 6 6 5 5 5 5 5 5 5 5 5 5 5 6 5 5 5 5 5 5 5 5 5 5 5 5 6 5 5 5 6 5 5 5 5 5 5 5 5 5 5 5 5 5 5 5 5 5 5 6 5 5 5 5 6 6 6 5 5 5 5 5 5 5 6 5 5 5 5 5 5 5 5 5 5 5 5 5 6 5 5 5 5 5 5 5 5 5 5 5 5 5 5 6 5 5 5 5 5 5 5 5 5 5 5 5 5 6 5 5 5 6 5 5 6 5 5 5 6 5 5 5 5 5 5 5 5 5 5 5 5 5 5 5 6 5 5 6 5 5 5 5 5 5 5 5 5 5 5 5 5 5 5 5 5 5 6 5 5 5 5 5 5 5 5 5 5 6 5 5 5 5 5 5 5 5 6 5 5 5 5 5 5 5 5 6 5 5 6 5 6 5 6 5 5 5 5 5 5 6 5 5 5 5 5 5 5 5 5 5 5 5 5 5 5 5 5 5 5 5 5 6 5 5 5 5 6 5 5 5 5 5 5 5 5 5 5 6 5 5 5 5 5 5 5 5 5 5 5 5 5 5 5 5 5 5 5 5 5 5 5 6 5 5 5 5 5 6 5 5 5 5 5 6 5 6 5 5 5 5 5 5 5 5 6 5 5 5 5 6 5 5 5 6 5 5 5 5 6 5 5 6 5 5 5 5 5 5 5 5 5 5 5 5 5 5 5 5 5 5 5 6 5 6 5 5 5 6 5 5 5 5 5 5 5 5 6 5 5 5 5 6 5 5 5 5 6 5 5 5 6 6 5 5 5 5 5 5 5 5 5 6 5 5 5 5 5 5 5 5 5 5 5 5 5 5 5 5 5 5 5 5 5 5 5 5 5 5 5 5 5 5 5 5 5 5 5 5 5 5 5 5 5 5 5 5 5 5 5 5 6 5 5 5 5 6 6 5 5 5 5 5 6 5 5 5 5 5 5 6 5 6 5 5 5 5 5 5 6 5 6 5 5 6 6 5 6 5 5 5 6 5 5 6 5 5 5 5 5 5 5 6 5 5 5 5 5 5 5 5 5 5 5 5 5 5 6 5 5 5 5 6 5 5 5 5 5 5 5 5 5 5 6 5 5 5 5 6 6 5 6 5 5 5 5 6 6 5 5 5 5 5 5 6 5 6 5 5 6 5 6 5 6 5 5 5 5 5 6 6 5 5 6 5 6 6 5 6 5 5 6 6 6 5 6 5 5 6 5 5 5 5 5 6 5 5 5 5 5 5 5 5 5 5 5 5 5 5 5 5 5 6 5 5 5 5 5 6 5 5 5 5 5 5 5 5 5 5 5 5 5 5 5 5 6 5 5 5 5 5 6 5 5 5 5 5 5 5 6 6 5 5 5 5 5 5 6 6 6 5 5 5 5 5 5 5 5 6 5 5 6 5 5 5 5 5 5 5 5 5 6 5 5 5 5 5 5 5 5 5 5 6 5 6 5 5 5 5 5 5 5 5 5 5 6 5 5 5 5 5 5 5 5 5 5 5 6 5 5 5 5 5 5 5 5 5 5 5 5 5 5 5 5 5 5 5 5 5 6 5 5 6 6 5 5 5 5 5 5 5 5 6 5 5 5 6 5 5 5 5 5 5 6 5 6 5 5 5 5 5 5 5 5 6 5 5 5 5 5 5 5 5 5 5 5 5 6 5 5 5 6 5 6 5 5 5 5 5 5 5 5 5 5 6 5 5 5 5 6 5 5 5 5 5 5 5 5 6 5 5 6 5 5 5 6 5 5 6 5 6 5 5 5 5 5 5 5 5 5 5 6 5 5 5 5 5 6 5 6 5 5 5 5 6 5 5 5 5 6 5 5 5 5 6 5 5 5 5 5 5 5 5 5 5 5 5 5 5 5 5 6 5 5 6 5 5 5 5 6 5 5 5 5 6 5 5 5 5 6 5 5 5 5 5 6 5 5 6 6 5 5 6 5 5 5 5 5 5 5 6 5 5 5 5 5 5 5 5 5 5 5 5 5 5 5 6 5 5 5 5 5 6 5 5 5 5 6 5 5 5 6 5 5 5 5 5 6 5 5 5 6 5 5 6 5 5 6 5 6 5 6 5 5 5 5 5 5 5 5 5 5 5 5 5 5 5 5 5 5 5 5 5 5 5 5 5 5 5 5 5 5 5 5 5 5 5 5 6 5 6 5 5 5 5 5 6 5 5 5 6 5 5 5 5 5 5 5 5 5 5 5 5 5 5 5 5 5 5 5 5 5 5 5 5 5 6 5 5 5 6 5 5 5 5 5 5 5 6 5 5 5 5 5 5 5 5 6 5 5 5 5 5 5 5 5 6 5 5 5 5 6 5 5 5 5 5 6 5 6 5 5 5 5 5 5 5 5 5 5 5 5 5 6 5 5 6 6 5 6 5 5 5 5 5 5 5 5 5 5 5 5 5 5 5 6 5 5 5 5 5 5 5 5 5 5 5 5 5 5 5 6 5 5 5 5 6 5 5 5 6 5 6 5 5 5 5 5 5 5 5 5 5 5 5 5 5 5 5 5 5 5 5 5 5 5 5 5 5 5 5 5 6 5 5 5 5 5 6 5 5 5 5 5 6 6 6 5 5 5 5 5 6 5 5 6 5 5 5 5 5 5 5 6 5 5 5 5 5 5 5 5 6 5 5 6 5 6 5 5 5 5 5 5 6 5 5 5 5 6 5 5 5 5 5 5 5 5 5 5 5 5 5 5 5 5 5 6 6 5 5 5 5 5 5 5 5 5 5 5 5 6 5 6 5 5 6 5 5 5 5 6 5 5 6 5 5 5 6 5 5 6 6 5 5 5 5 5 5 5 5 5 5 6 5 5 5 5 5 5 5 6 5 5 5 5 6 5 6 5 5 6 5 5 5 5 5 5 6 5 5 5 5 5 6 5 5 6 5 5 5 5 5 5 5 5 5 5 5 5 5 5 5 5 5 5 5 5 5 5 5 5 5 5 5 6 5 6 5 5 5 5 5 5 5 5 5 6 5 5 6 5 5 5 5 5 5 5 5 6 5 5 5 5 5 5 6 5 5 5 6 5 5 5 5 5 5 5 5 6 6 5 5 5 5 5 5 5 5 5 5 5 5 5 5 6 5 5 5 5 5 5 5 5 5 5 5 5 5 5 5 5 5 5 5 5 5 5 5 5 5 5 6 5 5 5 5 5 6 5 5 6 5 5 5 5 5 5 5 5 6 5 5 6 5 5 5 5 5 5 5 5 6 5 5 5 5 5 5 5 5 5 6 5 6 5 5 5 5 5 5 5 5 5 5 5 5 5 5 5 5 5 5 5 6 5 5 5 6 5 5 5 5 5 5 5 5 5 5 5 5 6 5 6 5 6 5 6 5 5 5 5 5 6 5 5 6 5 5 5 5 5 5 5 6 5 5 6 5 6 5 5 5 6 5 5 5 5 5 6 5 5 5 5 5 5 5 5 5 5 5 5 5 5 5 5 5 5 5 5 5 5 5 5 5 5 5 5 5 5 5 5 5 5 5 5 5 5 5 5 5 5 5 5 5 5 5 5 5 5 5 5 5 5 5 5 5 5 5 5 6 5 5 5 5 5 5 5 6 5 5 5 5 6 5 5 5 5 6 5 5 5 5 5 6 5 5 5 5 5 5 5 5 5 5 5 5 5 5 5 5 5 5 5 6 5 5 5 5 5 5 5 5 5 5 5 5 6 5 5 5 5 6 6 5 5 6 5 5 5 5 5 5 5 5 5 5 5 6 5 5 5 6 5 5 5 5 5 5 5 5 5 5 5 5 5 5 5 5 5 5 5 5 5 5 5 5 5 5 5 5 5 5 5 5 5 5 5 6 5 5 5 5 5 5 5 5 6 5 5 5 5 5 5 5 5 5 5 6 5 5 6 5 5 5 5 5 6 5 5 5 5 5 5 5 5 5 5 5 6 6 5 5 5 5 5 5 5 5 5 5 5 5 5 5 5 5 5 5 5 5 5 5 5 5 
</DataArray>
<DataArray type="Float64" Name="stress" NumberOfComponents="9" format="ascii">
694.93161606725698 -2026.0900525959642 0 -2026.0900525959642 523.03560946139623 0 0 0 0 1722.5612114332544 -1561.7074872298781 0 -1561.7074872298781 -0.29613631511892891 0 0 0 0 -0.94502052977622952 -1821.5322812387258 0 -1821.5322812387258 1254.4876420909022 0 0 0 0 583.31813916776446 -1393.5617667057704 0 -1393.5617667057704 1338.0596390732499 0 0 0 0 1176.2173658168649 -1930.5233054891596 0 -1930.5233054891596 1261.2382841483268 0 0 0 0 -6.854115232618426 -13.914012142052769 0 -13.914012142052769 -8.8893727812799455 0 0 0 0 1659.306766687565 -1475.2964107463122 0 -1475.2964107463122 1097.6697239000882 0 0 0 0 1963.3004190165957 -1806.097689528604 0 -1806.097689528604 682.16288229000929 0 0 0 0 1664.0079733386156 -1406.5363798466642 0 -1406.5363798466642 898.61037354535074 0 0 0 0 1777.7333691367821 -966.51780179494381 0 -966.51780179494381 534.59859029499785 0 0 0 0 -0.24935586247141828 -5.5848192870569733 0 -5.5848192870569733 -3.7958478829594071 0 0 0 0 847.22997079541892 -1374.9376300542444 0 -1374.9376300542444 1175.0276477184671 0 0 0 0 1148.715764828019 -1576.9886270612296 0 -1576.9886270612296 1168.0457846619865 0 0 0 0 1399.7336412081963 -1864.1325841816624 0 -1864.1325841816624 1001.8825512119583 0 0 0 0 1409.9123263954389 -1982.9663223956741 0 -1982.9663223956741 -4.0155761241352241 0 0 0 0 1673.3823795812827 -2391.4512105085801 0 -2391.4512105085801 2156.4092312432695 0 0 0 0 675.61070598696097 93.038764311648265 0 93.038764311648265 -1905.5834045192678 0 0 0 0 9.0221025231847136 -4.7261332603966366 0 -4.7261332603966366 -3.5709144677212521 0 0 0 0 1522.7445185575525 -1437.4546081936387 0 -1437.4546081936387 1146.6343097320496 0 0 0 0 -4.5601582345889256 -12.629961083246542 0 -12.629961083246542 -9.1977833849209389 0 0 0 0 1756.4415829733384 -1461.4190160978885 0 -1461.4190160978885 950.61456998603535 0 0 0 0 1532.6849899801746 -1463.9060533202646 0 -1463.9060533202646 1178.2571437824681 0 0 0 0 1508.0599401129512 -1239.171690109597 0 -1239.171690109597 809.53500326354333 0 0 0 0 1607.5036452763652 -1281.1394841015103 0 -1281.1394841015103 1042.989219436713 0 0 0 0 1557.2336504399864 -1318.7685949396109 0 -1318.7685949396109 1015.7826040011059 0 0 0 0 1601.3755154762039 -1298.7185326647013 0 -1298.7185326647013 655.44253096361354 0 0 0 0 1567.6637782888065 -1035.4430382571445 0 -1035.4430382571445 596.52622469944163 0 0 0 0 1392.1879854220751 -993.65519856493484 0 -993.65519856493484 1002.0120254454232 0 0 0 0 1398.3815733495285 -1146.0168514420402 0 -1146.0168514420402 813.04473450641308 0 0 0 0 1598.435484032816 -1109.5848135653505 0 -1109.5848135653505 723.76120735477889 0 0 0 0 964.4672168577672 -339.64740859174344 0 -339.64740859174344 3.3521805644022606 0 0 0 0 1645.4642381178855 -1294.7092602430766 0 -1294.7092602430766 -139.23451881382061 0 0 0 0 37.536296023641626 -294.40065375983249 0 -294.40065375983249 -46.41106054802367 0 0 0 0 141.0636536228667 -580.94488338898555 0 -580.94488338898555 735.61765286396258 0 0 0 0 -258.66415552601393 8.3736003655067179 0 8.3736003655067179 304.36069664867682 0 0 0 0 46.304850475586136 -152.94259598285862 0 -152.94259598285862 171.07372627265613 0 0 0 0 -1.0001374308782403 -1.3408603058277322 0 -1.3408603058277322 6.4854882944921144 0 0 0 0 -394.19101352370126 235.37631011463782 0 235.37631011463782 113.51715638281894 0 0 0 0 -50.080926864608045 -5.083927118088468 0 -5.083927118088468 -36.014176278549712 0 0 0 0 -79.844162036200942 -87.620481542744528 0 -87.620481542744528 234.339740744952 0 0 0 0 1393.1139193538002 -1236.1904981005164 0 -1236.1904981005164 735.51569660618406 0 0 0 0 1956.5571229498746 -1387.6417658490936 0 -1387.6417658490936 931.92612101455416 0 0 0 0 1509.9732486626745 -1033.2681022521465 0 -1033.2681022521465 752.55154191322072 0 0 0 0 1404.8128978166205 -1160.019818013141 0 -1160.019818013141 722.6620159177055 0 0 0 0 -229.76338127376948 -17.876852608333138 0 -17.876852608333138 130.55470734550181 0 0 0 0 -2.9821004418077166 -0.46699296354196917 0 -0.46699296354196917 15.00897394490687 0 0 0 0 1318.7452660305789 -1082.8922691530715 0 -1082.8922691530715 733.53659395920113 0 0 0 0 974.52223647008941 -1203.0868341954192 0 -1203.0868341954192 816.5834957252664 0 0 0 0 474.73611260411417 -1386.4640959697754 0 -1386.4640959697754 1060.2590884581186 0 0 0 0 918.85673636441061 -1494.7895617073882 0 -1494.7895617073882 837.66721204367059 0 0 0 0 999.59044209788408 -1426.7145409287275 0 -1426.7145409287275 866.87859499439946 0 0 0 0 488.47599564863049 -1319.5419878236826 0 -1319.5419878236826 1174.1661843191378 0 0 0 0 -68.354265891022806 -1415.2992532467979 0 -1415.2992532467979 1158.1859107546743 0 0 0 0 -282.41029070058721 -1815.7898615107006 0 -1815.7898615107006 1313.3546272138958 0 0 0 0 0.90419634355347256 -1560.398182604943 0 -1560.398182604943 671.43867718239926 0 0 0 0 370.6722609411263 -2064.7664467892009 0 -2064.7664467892009 636.09029914946586 0 0 0 0 -2.9633140986154842 -7.0462143103726191 0 -7.0462143103726191 -2.9086311199226316 0 0 0 0 1531.5284064336374 -1135.8186623698311 0 -1135.8186623698311 766.20265414131427 0 0 0 0 1559.7381856512147 -1677.7886692581633 0 -1677.7886692581633 281.99140725934558 0 0 0 0 1482.514959626933 -1274.8811591310659 0 -1274.8811591310659 1119.8720445142126 0 0 0 0 1544.036226172364 -1122.8655874917167 0 -1122.8655874917167 724.26753715794621 0 0 0 0 1365.3537222610285 -1474.4650012599025 0 -1474.4650012599025 458.3150306144671 0 0 0 0 44.80128206757945 -68.974072732493369 0 -68.974072732493369 8.9098263787782344 0 0 0 0 29.59536092174676 -36.424239858810324 0 -36.424239858810324 0.70606163131196809 0 0 0 0 -166.73053252706723 -154.15958204678373 0 -154.15958204678373 213.51499549319851 0 0 0 0 -206.66669557243586 -413.24870685622591 0 -413.24870685622591 23.187849243884557 0 0 0 0 -8.2757246607361594 -82.761745955933293 0 -82.761745955933293 -48.179530320790946 0 0 0 0 -158.31470768768668 -133.62790961224982 0 -133.62790961224982 53.153036621326464 0 0 0 0 -71.854787339925679 -51.539208965685248 0 -51.539208965685248 99.438737284181116 0 0 0 0 -155.19846011554182 -141.07061475677619 0 -141.07061475677619 188.44737487039674 0 0 0 0 -217.62596879121156 19.075261194937411 0 19.075261194937411 81.757040912605589 0 0 0 0 -275.17109534184692 -97.46197583977937 0 -97.46197583977937 240.81721341585217 0 0 0 0 -317.63449660949118 217.95106822808157 0 217.95106822808157 -60.949793344945647 0 0 0 0 -3.3165768426069775 -2.5045330913297335 0 -2.5045330913297335 -1.5051076225593931 0 0 0 0 -11.377927159004344 -4.3234153240888702 0 -4.3234153240888702 -2.2336037038262475 0 0 0 0 -30.673408002239739 -8.0159366864463664 0 -8.0159366864463664 42.559677805642423 0 0 0 0 -62.229074109729481 -38.223434202976932 0 -38.223434202976932 101.27478312791209 0 0 0 0 5.9119181787536945 -26.143694148864597 0 -26.143694148864597 49.53749765350949 0 0 0 0 4.397787121226429 -12.609764947548683 0 -12.609764947548683 23.408619053359871 0 0 0 0 -4.5852018741024949 -69.89994761966318 0 -69.89994761966318 45.322627226174518 0 0 0 0 -13.640021361993576 -12.552170875086944 0 -12.552170875086944 0.41881618962024447 0 0 0 0 -7.8300421340609319 -55.03598091423919 0 -55.03598091423919 34.959657640305522 0 0 0 0 29.845704134357689 -36.646557234346723 0 -36.646557234346723 23.528527772286225 0 0 0 0 -59.720141353587678 -45.425077796011465 0 -45.425077796011465 43.887702000032732 0 0 0 0 -8.0040933998971013 -66.793187142091483 0 -66.793187142091483 11.201444152597105 0 0 0 0 -16.608631555816828 -66.162179707083851 0 -66.162179707083851 28.90188680018764 0 0 0 0 4.3848743029375328 -58.657106390477566 0 -58.657106390477566 9.292596193823556 0 0 0 0 3.5607679652384832 -150.30413282064001 0 -150.30413282064001 3.3816613744420465 0 0 0 0 31.185610123223398 -37.582662206915174 0 -37.582662206915174 30.411872065814151 0 0 0 0 1985.4949253426821 -1043.4246643286169 0 -1043.4246643286169 0.31429059063632681 0 0 0 0 100.69493924070412 -37.49143459390325 0 -37.49143459390325 -20.122470460324621 0 0 0 0 66.811880643479526 -10.609363641993696 0 -10.609363641993696 1.6821073651008192 0 0 0 0 11.45234562241221 -11.226679031716397 0 -11.226679031716397 4.0479457382817259 0 0 0 0 59.477247255428665 -20.301735360983002 0 -20.301735360983002 -11.118780371776666 0 0 0 0 35.652937829403527 -11.776704248328315 0 -11.776704248328315 -14.114298630789563 0 0 0 0 22.765438830358136 -18.481438274822921 0 -18.481438274822921 -8.5258793577022516 0 0 0 0 63.215222537743102 -35.139599372874727 0 -35.139599372874727 -8.52019391671638 0 0 0 0 51.447338199635851 -53.473386979716452 0 -53.473386979716452 -24.704994079629614 0 0 0 0 166.14509009600079 -318.00409692095127 0 -318.00409692095127 322.14444976094819 0 0 0 0 3.2517689694681451 -1.6631942294639472 0 -1.6631942294639472 -2.0657448688159832 0 0 0 0 -9.2193239095213357 74.884075741661945 0 74.884075741661945 29.751435768001102 0 0 0 0 35.787859818665851 -14.334911720656237 0 -14.334911720656237 -10.483404122600248 0 0 0 0 174.60584541904973 -245.95922264685214 0 -245.95922264685214 131.03007678073482 0 0 0 0 198.6406463999574 -724.95608257916911 0 -724.95608257916911 867.5117821568856 0 0 0 0 17.274075255277467 -351.29141547713584 0 -351.29141547713584 912.02097533153574 0 0 0 0 276.9128842241189 -344.95941768930788 0 -344.95941768930788 226.17778106444894 0 0 0 0 8.5589197632745737 -8.7233086892979088 0 -8.7233086892979088 3.0579148283048312 0 0 0 0 94.039210952658323 157.48694018595415 0 157.48694018595415 504.8591760720301 0 0 0 0 1923.4342455202604 -730.94095057629602 0 -730.94095057629602 258.41801838557876 0 0 0 0 18.497460637028325 -12.98846224653289 0 -12.98846224653289 -7.0533841428112538 0 0 0 0 -75.673357916508394 -272.16483585720562 0 -272.16483585720562 -314.11910357005399 0 0 0 0 18.01477381193763 -432.7349141163977 0 -432.7349141163977 -313.88646120736666 0 0 0 0 10.428950759589497 -182.38955579196409 0 -182.38955579196409 -635.74445342208128 0 0 0 0 -11.727721951014246 -205.72409157586662 0 -205.72409157586662 -113.83687184799419 0 0 0 0 -155.59655319665762 -216.6479872097334 0 -216.6479872097334 -326.22718971696759 0 0 0 0 -126.1606876991209 -339.38830618261818 0 -339.38830618261818 -56.382246056680742 0 0 0 0 27.362251148086216 -235.02476682327688 0 -235.02476682327688 -66.045032890659058 0 0 0 0 -71.365017517924571 -304.58307768810846 0 -304.58307768810846 191.05013380086166 0 0 0 0 18.928993007742974 -134.04150449550434 0 -134.04150449550434 244.28910734655074 0 0 0 0 35.296754846905969 -202.9221386338445 0 -202.9221386338445 328.36572715658258 0 0 0 0 -23.106672037548947 -73.12135204870691 0 -73.12135204870691 -57.603456804098997 0 0 0 0 4.2199783464020584 -318.3768977348318 0 -318.3768977348318 34.908890538403284 0 0 0 0 -40.194606785761607 -373.30965811944179 0 -373.30965811944179 270.50079874444054 0 0 0 0 -33.32307210056382 -76.950836807346874 0 -76.950836807346874 -62.106181025320744 0 0 0 0 -178.60064275842888 -297.54895959932037 0 -297.54895959932037 193.34331426863992 0 0 0 0 -181.16429163922658 -74.280458530822216 0 -74.280458530822216 -40.571680884137095 0 0 0 0 -211.88911998440744 -231.57292479154603 0 -231.57292479154603 205.59263055425345 0 0 0 0 -328.72483956813812 -285.18618217046605 0 -285.18618217046605 38.751195997552713 0 0 0 0 -36.357277200357572 -86.009552595479576 0 -86.009552595479576 -43.3185510565012 0 0 0 0 218.71032553054101 -356.21158004700555 0 -356.21158004700555 -252.58123674843227 0 0 0 0 -239.00431668404053 -253.91948102534661 0 -253.91948102534661 210.11495857724003 0 0 0 0 -4.5526586857740767 -408.56810594454146 0 -408.56810594454146 -84.016608155834547 0 0 0 0 -423.96430822282127 -512.58509142251569 0 -512.58509142251569 -21.856181208182534 0 0 0 0 2.155709365407489 -3.1775010727340174 0 -3.1775010727340174 4.1314282804040658 0 0 0 0 224.4315706428788 -412.15731214519656 0 -412.15731214519656 186.16541064836201 0 0 0 0 386.25327926820319 34.119170967340324 0 34.119170967340324 -16.602820435560716 0 0 0 0 78.559138173324754 -121.70178410530207 0 -121.70178410530207 46.672096386406338 0 0 0 0 -60.129470554675208 -57.084285111392091 0 -57.084285111392091 36.459189540408261 0 0 0 0 19.835410768651236 -41.738909420308147 0 -41.738909420308147 36.476723505114194 0 0 0 0 -102.79674037798395 -124.80786515485852 0 -124.80786515485852 83.092478164646309 0 0 0 0 16.733085655610921 -28.673894299685344 0 -28.673894299685344 5.0150257876521209 0 0 0 0 -76.449429652239033 -18.670074084141959 0 -18.670074084141959 30.881938812882623 0 0 0 0 87.351277403280619 -249.63745618581379 0 -249.63745618581379 135.04754663050699 0 0 0 0 -96.888986103134812 -39.380779672166682 0 -39.380779672166682 38.917995172476367 0 0 0 0 32.900122245537332 -97.327734717161448 0 -97.327734717161448 0.31466035627257405 0 0 0 0 -142.48912113868573 -42.926830788288498 0 -42.926830788288498 203.65525401075865 0 0 0 0 -216.61402137402183 146.66115535064455 0 146.66115535064455 -192.8846003030194 0 0 0 0 -750.54680401668884 -245.81387180621095 0 -245.81387180621095 531.67523306192015 0 0 0 0 -5.4603645633904705 -22.651137722910377 0 -22.651137722910377 -12.510646916745582 0 0 0 0 -188.5057625434456 -75.239357250637568 0 -75.239357250637568 38.402079242914624 0 0 0 0 -125.86297320162339 -138.96464669115448 0 -138.96464669115448 42.080377009793665 0 0 0 0 -123.84467675174164 -222.68049117252849 0 -222.68049117252849 -99.722349883725656 0 0 0 0 -102.3738432533064 -156.27879335621583 0 -156.27879335621583 102.91456553596845 0 0 0 0 33.554265133756417 -48.8656459966287 0 -48.8656459966287 -10.21169988244219 0 0 0 0 21.387053227226716 -53.655984810597602 0 -53.655984810597602 69.492337608451635 0 0 0 0 21.264752690192381 -88.526457872885643 0 -88.526457872885643 13.21895087160518 0 0 0 0 30.322900411694718 -67.975096852609568 0 -67.975096852609568 8.8851069725405978 0 0 0 0 -37.616784384591028 -73.927595178446609 0 -73.927595178446609 162.45644416063442 0 0 0 0 112.91876402973503 67.791972899762186 0 67.791972899762186 218.82117086370999 0 0 0 0 294.99902546800149 -136.54468137260119 0 -136.54468137260119 160.42774145568364 0 0 0 0 -47.587885157678556 -214.11574628404742 0 -214.11574628404742 -220.15753739426145 0 0 0 0 -116.86546080338303 -92.140140981064178 0 -92.140140981064178 155.81308692332459 0 0 0 0 22.359265824436207 -18.519065866528948 0 -18.519065866528948 -57.086600209490854 0 0 0 0 -52.802909790436388 -403.81785908945312 0 -403.81785908945312 551.97957763036175 0 0 0 0 36.918289686524076 -137.62575650878716 0 -137.62575650878716 -195.99201931185235 0 0 0 0 173.87820078010554 -179.51743679458741 0 -179.51743679458741 -212.24291434923362 0 0 0 0 21.768915950462542 -372.91183620497759 0 -372.91183620497759 -47.398500278126448 0 0 0 0 99.851642045163317 -122.15507483822876 0 -122.15507483822876 -136.84551884658867 0 0 0 0 -58.304277711768009 38.611813699628328 0 38.611813699628328 373.94206899202254 0 0 0 0 200.20296956644597 -396.69494109399238 0 -396.69494109399238 265.19988057981391 0 0 0 0 50.607080227695405 -149.619362324549 0 -149.619362324549 252.23410571276327 0 0 0 0 -2.643540031160228 -52.196998941186393 0 -52.196998941186393 4.3787419144500745 0 0 0 0 -11.992820322102105 -15.819621638946614 0 -15.819621638946614 -0.9515613692261411 0 0 0 0 -14.727815937993 -49.797278669961088 0 -49.797278669961088 4.2797136224035057 0 0 0 0 -7.1124409740365024 -2.9526058531268973 0 -2.9526058531268973 -1.8301155490202774 0 0 0 0 -6.0001129532247433 -69.794198348485224 0 -69.794198348485224 -304.74803425735445 0 0 0 0 20.273547309850983 -163.75209991207885 0 -163.75209991207885 -626.66627787495963 0 0 0 0 -96.397851103633002 -89.944762731800438 0 -89.944762731800438 543.86151832944779 0 0 0 0 -13.394892768876161 -101.40652587866498 0 -101.40652587866498 -37.727927922129311 0 0 0 0 45.256454351347202 -41.086275114512318 0 -41.086275114512318 -12.631596137493034 0 0 0 0 -80.192750588594208 64.646102634189901 0 64.646102634189901 -313.45579476645071 0 0 0 0 -252.05997566130827 -410.45040219779912 0 -410.45040219779912 -327.63806341163763 0 0 0 0 2.0810427250071371 -1.3472109194439028 0 -1.3472109194439028 0.83935852667413968 0 0 0 0 27.900521023242618 -216.10107183182481 0 -216.10107183182481 -829.31961076899461 0 0 0 0 -107.97661639797116 -92.314010865491582 0 -92.314010865491582 -306.80708298657919 0 0 0 0 -216.7427126603543 -488.11641501659142 0 -488.11641501659142 -559.62042986656161 0 0 0 0 141.45350839817547 176.21172160316928 0 176.21172160316928 -398.13715767081885 0 0 0 0 -1.6742066314674986 2.3515531179250644 0 2.3515531179250644 -1.7887533061864502 0 0 0 0 29.335675942958915 -146.35004288621349 0 -146.35004288621349 -809.75460414460838 0 0 0 0 -124.05292843103416 -94.439776912157868 0 -94.439776912157868 -807.56045576764882 0 0 0 0 -2.504086590535735 -70.113240423934258 0 -70.113240423934258 18.92176481331262 0 0 0 0 -8.0459080956061371 -49.53550695479953 0 -49.53550695479953 87.456964337463432 0 0 0 0 -4.6783012809774505 -7.1693591612248966 0 -7.1693591612248966 -1.1750238483434716 0 0 0 0 -1.4410124706594445 -4.2930854339603144 0 -4.2930854339603144 -0.92352750146631024 0 0 0 0 -29.375012151916053 -33.736228387517258 0 -33.736228387517258 153.08482444740002 0 0 0 0 108.78859720117362 -166.26869730236922 0 -166.26869730236922 -1298.7229056165052 0 0 0 0 -54.861317130826137 -185.99392978130072 0 -185.99392978130072 -840.24252355393401 0 0 0 0 -80.939308863340557 -181.45770823847488 0 -181.45770823847488 -876.53594441628411 0 0 0 0 -48.971890420114505 -337.2092982836366 0 -337.2092982836366 -827.23622956182226 0 0 0 0 -117.7328914559439 -79.664424998043614 0 -79.664424998043614 -458.26451304290094 0 0 0 0 -255.32896237310342 9.4372086066723568 0 9.4372086066723568 -477.34080191437533 0 0 0 0 -761.49912710224453 -236.93129419744582 0 -236.93129419744582 -197.64187602234233 0 0 0 0 -1.8599046904121366 -0.25824932385820887 0 -0.25824932385820887 0.26264710363150101 0 0 0 0 -146.46836738481943 153.78466592331461 0 153.78466592331461 -235.73193232504855 0 0 0 0 -167.16427856804512 -552.88852800920222 0 -552.88852800920222 -734.49383381805092 0 0 0 0 72.208146254572057 23.230693266765229 0 23.230693266765229 -182.75880048986073 0 0 0 0 -974.1940478234028 -614.890911630544 0 -614.890911630544 -455.3152675959318 0 0 0 0 -4.2500008519282417 2.5949263686505475 0 2.5949263686505475 -3.4528402223091348 0 0 0 0 -244.82666394487023 -492.59716596761427 0 -492.59716596761427 -804.35637311244682 0 0 0 0 -7.4793537767461231 2.3527454487396184 0 2.3527454487396184 -8.2768703788607212 0 0 0 0 109.53348263830321 66.241091651600755 0 66.241091651600755 -30.401074594970851 0 0 0 0 -69.505783871092717 -219.4276438130546 0 -219.4276438130546 -944.16526379681818 0 0 0 0 97.79069878323935 -53.155491207817249 0 -53.155491207817249 -126.80539671206861 0 0 0 0 81.052560494390491 217.71917511799984 0 217.71917511799984 92.140290296751118 0 0 0 0 -279.01351552363485 -589.01505027542589 0 -589.01505027542589 -1228.706535664016 0 0 0 0 -3.4825205527467489 1.3641394884267619 0 1.3641394884267619 -0.67142993413662566 0 0 0 0 -229.89049378423078 -399.70920179444875 0 -399.70920179444875 -691.73920789402473 0 0 0 0 -400.65825370404127 -248.67034264450012 0 -248.67034264450012 -757.30634372145141 0 0 0 0 -251.63081726877135 -30.461998143192432 0 -30.461998143192432 -355.27306956480243 0 0 0 0 -187.45006116105833 -98.137414534483469 0 -98.137414534483469 -753.83340338996641 0 0 0 0 -206.7591844476101 -246.56417704435717 0 -246.56417704435717 -245.1326267210643 0 0 0 0 -104.62217864658305 -112.03963020573428 0 -112.03963020573428 -936.84939446442968 0 0 0 0 53.127989569897181 -216.26005659165639 0 -216.26005659165639 -758.73563109626411 0 0 0 0 -239.07173629328099 -131.68321474307595 0 -131.68321474307595 -337.89831517386483 0 0 0 0 67.332852984683996 -72.863581151203107 0 -72.863581151203107 -326.83140559721323 0 0 0 0 59.160648668708745 -50.587407459759561 0 -50.587407459759561 -329.78235823838622 0 0 0 0 22.520596061127435 -175.00662604959689 0 -175.00662604959689 -356.66364545364922 0 0 0 0 72.910905435257519 -103.66329813500579 0 -103.66329813500579 -669.70313068044925 0 0 0 0 -204.09804342487769 -105.11568340624945 0 -105.11568340624945 -616.23577176889376 0 0 0 0 95.450591347806039 1.191828259678914 0 1.191828259678914 -658.74747040264629 0 0 0 0 100.73155375620263 187.74907209181447 0 187.74907209181447 -566.63523540474125 0 0 0 0 172.61052958272921 11.900320107004518 0 11.900320107004518 -882.59923120882195 0 0 0 0 -26.847357009377447 -98.018742046435364 0 -98.018742046435364 -157.14652213650697 0 0 0 0 6.6272077573812567 -51.639559262403054 0 -51.639559262403054 -162.86546044026818 0 0 0 0 7.2647276535099081 -86.366255410321173 0 -86.366255410321173 -649.44393574891001 0 0 0 0 -204.82776188937714 -201.22995896349676 0 -201.22995896349676 -152.90235576390114 0 0 0 0 0.093078465497370644 -20.416540049870566 0 -20.416540049870566 16.624358164783878 0 0 0 0 3.5684882424102398 -89.386477649517474 0 -89.386477649517474 -595.72512970335993 0 0 0 0 17.479559035040438 -60.94800861182739 0 -60.94800861182739 -161.60142591503245 0 0 0 0 21.94661892955628 -71.660384479419008 0 -71.660384479419008 -177.98051401368139 0 0 0 0 28.933386133547174 -71.511060509868912 0 -71.511060509868912 -197.67038855153078 0 0 0 0 -22.251322820408859 -173.54612837369086 0 -173.54612837369086 -137.6666386078432 0 0 0 0 4.2208618216562002 -21.269667291691562 0 -21.269667291691562 22.819283900014703 0 0 0 0 -4.0287692579149734 -120.77102859166553 0 -120.77102859166553 -180.26463575854177 0 0 0 0 78.644825433832011 -195.62951206370735 0 -195.62951206370735 -188.19759901670477 0 0 0 0 51.8840388267854 -198.19432742233857 0 -198.19432742233857 -151.62954524419547 0 0 0 0 85.982301033152908 -84.453900005924879 0 -84.453900005924879 -197.03830459813253 0 0 0 0 108.84336621494003 -95.986035399440425 0 -95.986035399440425 -222.59170056886069 0 0 0 0 166.15550608999365 -208.83828528090544 0 -208.83828528090544 -186.55556488485308 0 0 0 0 204.83091525631608 -112.90973079808145 0 -112.90973079808145 -219.71568299683713 0 0 0 0 157.09138506025556 -281.67071275706621 0 -281.67071275706621 100.3346773269659 0 0 0 0 96.939989869380952 -107.23283689666277 0 -107.23283689666277 -12.648135636236475 0 0 0 0 112.94259132125626 -148.05366819936853 0 -148.05366819936853 -433.96042838407811 0 0 0 0 -127.1713546449464 -477.99248056617944 0 -477.99248056617944 -277.87936458905642 0 0 0 0 -123.40735914239485 37.91259206673567 0 37.91259206673567 121.45551219487402 0 0 0 0 -753.73208678364608 -109.21699645910485 0 -109.21699645910485 117.23326062374792 0 0 0 0 -6.3271026906249972 -5.3232200901394151 0 -5.3232200901394151 -5.1513211488166064 0 0 0 0 -793.87404217498988 -460.97374356131877 0 -460.97374356131877 180.40571004906815 0 0 0 0 -816.42820693415706 -113.72036904662673 0 -113.72036904662673 743.31472076937644 0 0 0 0 372.06786016055048 -172.18334074113045 0 -172.18334074113045 -486.65476725880217 0 0 0 0 -0.58685263414914601 -1.0005871362396306 0 -1.0005871362396306 -8.9869572550806254 0 0 0 0 232.65078517848087 -347.37667377795697 0 -347.37667377795697 -292.04468848754914 0 0 0 0 4.2852992299695245 -8.3709127452295604 0 -8.3709127452295604 -17.046002069205827 0 0 0 0 59.307276246068795 -91.520148276977125 0 -91.520148276977125 153.88893849882879 0 0 0 0 -232.84745806004503 549.56079208134179 0 549.56079208134179 -1361.5359139656648 0 0 0 0 -477.99029257663824 -434.8077363779812 0 -434.8077363779812 149.53561063155212 0 0 0 0 8.0371423763023984 -26.243042457856646 0 -26.243042457856646 16.357976568616074 0 0 0 0 -409.89710694862879 48.296644495594592 0 48.296644495594592 241.29063538380069 0 0 0 0 44.026176863830187 -61.555134138368885 0 -61.555134138368885 -123.4712495501808 0 0 0 0 -17.555178044371132 -257.92384837150166 0 -257.92384837150166 -138.8881969106551 0 0 0 0 -94.838917705557833 -100.43127737545728 0 -100.43127737545728 93.631013563592205 0 0 0 0 -27.455016925088785 -60.352360318239334 0 -60.352360318239334 -74.516729990951717 0 0 0 0 25.306262302681716 -19.961530856631725 0 -19.961530856631725 -35.040694701936445 0 0 0 0 56.738323225552449 -26.324059504080651 0 -26.324059504080651 -114.04945035009405 0 0 0 0 18.965785398973821 -46.310931828087632 0 -46.310931828087632 -76.624484587140614 0 0 0 0 0.40131749829446761 -15.913037167206951 0 -15.913037167206951 -38.417958250609445 0 0 0 0 -13.782785314972443 -0.62025705035941314 0 -0.62025705035941314 0.60397456952932771 0 0 0 0 -25.495388256495062 -25.826986258645775 0 -25.826986258645775 -9.3572470721337595 0 0 0 0 -17.526582428621623 -34.57878961609731 0 -34.57878961609731 -25.20281676112063 0 0 0 0 -431.30621606391651 -641.40799259131381 0 -641.40799259131381 -462.04887914504525 0 0 0 0 -535.99281884359698 -331.61642954617901 0 -331.61642954617901 -340.07478629282559 0 0 0 0 -38.963809742915146 19.955522560908548 0 19.955522560908548 38.587545508791663 0 0 0 0 -28.217320408156411 -48.047329979743154 0 -48.047329979743154 -36.715016711401404 0 0 0 0 -32.528990449209232 -38.979158474856376 0 -38.979158474856376 -13.326714540329704 0 0 0 0 -23.905061412820942 -33.398587610670802 0 -33.398587610670802 -48.649563877155742 0 0 0 0 -33.833138177462388 -40.213904033487779 0 -40.213904033487779 -36.722990302449489 0 0 0 0 -22.312364735116716 -40.699643822204962 0 -40.699643822204962 -36.702944659860805 0 0 0 0 -25.971859092227533 -45.909236513420183 0 -45.909236513420183 -36.75948132519261 0 0 0 0 -28.699021164604346 -45.718458868075686 0 -45.718458868075686 -36.718855561586679 0 0 0 0 20.48622918080396 -20.5242298038375 0 -20.5242298038375 -7.3067549710561082 0 0 0 0 35.103155626828084 -22.749593388569338 0 -22.749593388569338 -41.132332779165154 0 0 0 0 7.985958454306413 -10.692490818973162 0 -10.692490818973162 -5.3253258795489273 0 0 0 0 72.298545712605119 59.404789449256896 0 59.404789449256896 140.32251933081716 0 0 0 0 -183.60367232584395 -32.412531381272856 0 -32.412531381272856 206.17541182875539 0 0 0 0 -103.09396750494125 156.89785989983193 0 156.89785989983193 124.0449618849234 0 0 0 0 -295.94732343259966 -318.84341991270776 0 -318.84341991270776 -80.351623126149207 0 0 0 0 -1.3241958780854475 9.4824807035565755 0 9.4824807035565755 -9.9334078791107459 0 0 0 0 35.668344026656996 -9.8704161900641338 0 -9.8704161900641338 -12.788512759411788 0 0 0 0 -54.709855184497428 -112.35146901479311 0 -112.35146901479311 -81.894232649017795 0 0 0 0 -28.07305887775874 -2.2865374629000144 0 -2.2865374629000144 -5.4760696190860472 0 0 0 0 -0.25293219643147324 -4.7458938291097859 0 -4.7458938291097859 3.9618633293168486 0 0 0 0 -114.17514284117715 -59.166974694814598 0 -59.166974694814598 57.102058683685755 0 0 0 0 -5.1019173153690645 -156.45865994622181 0 -156.45865994622181 -168.98716412421527 0 0 0 0 3.5642207087960287 -2.8574551370638623 0 -2.8574551370638623 1.7552304925224078 0 0 0 0 19.062638596808029 -29.781197263573631 0 -29.781197263573631 3.8904220589756733 0 0 0 0 -26.544257261452003 -39.008167960730134 0 -39.008167960730134 178.71866429928195 0 0 0 0 58.095866351512086 -47.568435297460383 0 -47.568435297460383 -1.7373502478412775 0 0 0 0 42.557540801659343 -441.31863759612133 0 -441.31863759612133 -325.28324069571136 0 0 0 0 2.0669187486320482 -1.3050434471562173 0 -1.3050434471562173 0.53288852364315886 0 0 0 0 14.128383986191693 -170.06348074292237 0 -170.06348074292237 599.35217628244936 0 0 0 0 -473.8534365622636 -751.81124214502483 0 -751.81124214502483 -640.89619758259505 0 0 0 0 -155.24883499147472 131.99298704928515 0 131.99298704928515 134.65571960269153 0 0 0 0 -1.4536723335571509 -0.4346365503805103 0 -0.4346365503805103 0.049109782459396456 0 0 0 0 -215.01034230676396 -468.28290568886177 0 -468.28290568886177 -720.62972716546938 0 0 0 0 -235.0465634504144 -189.3585022644329 0 -189.3585022644329 -408.32721254276839 0 0 0 0 -479.87255233159522 -619.78986970867118 0 -619.78986970867118 -572.92095878949476 0 0 0 0 -6.6314325248668808 -0.29691067174928065 0 -0.29691067174928065 3.492539163553289 0 0 0 0 -198.31676662258542 -275.07463485896187 0 -275.07463485896187 -505.48319596849979 0 0 0 0 42.255241174068942 -348.13178184876779 0 -348.13178184876779 -499.10964516144668 0 0 0 0 10.803388348042006 -8.2690265327467642 0 -8.2690265327467642 2.0996442625101963 0 0 0 0 -83.104216816406733 71.183958392893601 0 71.183958392893601 -37.29771119418001 0 0 0 0 -180.80665483927442 -330.46149466304269 0 -330.46149466304269 -233.36903365369653 0 0 0 0 0.28353815414279671 -1296.2041226775771 0 -1296.2041226775771 1707.8873335367243 0 0 0 0 266.89237190999847 229.78237609703137 0 229.78237609703137 -1501.2929920434726 0 0 0 0 2.31508590354278 -18.158119621532506 0 -18.158119621532506 -15.168108121001659 0 0 0 0 279.63056042171957 253.6463109603792 0 253.6463109603792 -1657.0926069566231 0 0 0 0 -317.34034310918651 676.797554578774 0 676.797554578774 -1259.1415609458945 0 0 0 0 -73.987907134163834 103.94067891268787 0 103.94067891268787 -472.37194235225252 0 0 0 0 79.043104607066198 126.50314568405884 0 126.50314568405884 -1426.0310695135777 0 0 0 0 298.96261928870808 -913.11574336220292 0 -913.11574336220292 2197.3219264525796 0 0 0 0 -182.52136612169124 258.73502790832208 0 258.73502790832208 -1256.458258521478 0 0 0 0 69.48979471653729 408.26744476695058 0 408.26744476695058 -3091.3995948416232 0 0 0 0 -0.75564335680246586 -824.98050295310168 0 -824.98050295310168 -1750.6013131903383 0 0 0 0 1.2487538989655604 -6.4026336290558419 0 -6.4026336290558419 -5.9547649704864511 0 0 0 0 616.38977478325978 -1074.7252647814021 0 -1074.7252647814021 1334.2095071845106 0 0 0 0 228.63184637734594 -1286.7635425205744 0 -1286.7635425205744 1842.3019168335595 0 0 0 0 -262.73096542475105 -351.9168763416219 0 -351.9168763416219 -281.18913233644344 0 0 0 0 5.3980991447433837 -26.87705752807004 0 -26.87705752807004 -19.739526501834376 0 0 0 0 739.59769255470019 -919.75357263469232 0 -919.75357263469232 959.50473702992895 0 0 0 0 -6.0846653027412856 -12.24034662104981 0 -12.24034662104981 35.580197519883285 0 0 0 0 779.59866883407813 -854.79167517161841 0 -854.79167517161841 713.05853364616087 0 0 0 0 134.98200042865938 -67.441455538726586 0 -67.441455538726586 62.928801220536116 0 0 0 0 8.6865160013487355 -57.227211962788033 0 -57.227211962788033 -50.321916177398663 0 0 0 0 -73.36064937539777 -127.46232072792918 0 -127.46232072792918 190.5885686949041 0 0 0 0 -137.13078965251043 265.35186954618621 0 265.35186954618621 -611.09495272974164 0 0 0 0 73.532832988195878 91.90677214925563 0 91.90677214925563 -526.97049070661706 0 0 0 0 1.261709446345165 -14.88881240762413 0 -14.88881240762413 -1.4434194752917904 0 0 0 0 128.18579365151163 -167.2980023385112 0 -167.2980023385112 -351.89905132373678 0 0 0 0 -114.03967170298711 -235.2041382466341 0 -235.2041382466341 318.626916521167 0 0 0 0 -9.0033624233190608 -65.582346036437386 0 -65.582346036437386 -54.742706061700332 0 0 0 0 60.924663475947455 50.602929487003166 0 50.602929487003166 -654.65709181453349 0 0 0 0 344.52753115666565 -72.864146373874974 0 -72.864146373874974 -649.14745382068907 0 0 0 0 127.24997111839184 -180.20569965390496 0 -180.20569965390496 -593.56091994577582 0 0 0 0 63.479388330815709 -97.489584316415858 0 -97.489584316415858 -374.54456050949921 0 0 0 0 -37.173311456586816 -113.63471102542098 0 -113.63471102542098 -613.64310068222767 0 0 0 0 -26.33132410782855 -160.12254839128582 0 -160.12254839128582 -718.56658582206728 0 0 0 0 -189.34144222339091 -395.26783246218838 0 -395.26783246218838 -1020.9642583940331 0 0 0 0 171.14716423736536 -175.66557482726057 0 -175.66557482726057 -718.70628394078813 0 0 0 0 195.70992323839891 -237.19211269187963 0 -237.19211269187963 -741.44515553450037 0 0 0 0 282.510641761226 -147.17584188115143 0 -147.17584188115143 -699.95523101047729 0 0 0 0 162.05425637465669 -323.74740037632 0 -323.74740037632 -854.29583679670759 0 0 0 0 198.41528125174227 87.287861319753574 0 87.287861319753574 -846.14563383544692 0 0 0 0 263.07111903684563 -136.07912897867755 0 -136.07912897867755 -698.17817678247229 0 0 0 0 360.65895768904011 -212.49192117700295 0 -212.49192117700295 -645.41559684512322 0 0 0 0 368.35587124919402 -99.496643670681806 0 -99.496643670681806 -697.65733637792709 0 0 0 0 465.29917159237084 -323.70535649827434 0 -323.70535649827434 -420.21380499835141 0 0 0 0 -4.5123648708649853 -23.842234023469246 0 -23.842234023469246 -138.01555469274899 0 0 0 0 -1.4781826284819317 -22.56008132338674 0 -22.56008132338674 -21.431987182977799 0 0 0 0 190.69863106428238 -322.93188225464837 0 -322.93188225464837 -8.8306527578597525 0 0 0 0 216.46248778060544 372.30526342065423 0 372.30526342065423 -106.55410386102449 0 0 0 0 177.50173919927329 -62.560265056621574 0 -62.560265056621574 -162.2044711162016 0 0 0 0 7.0960184134310111 -34.698393197832047 0 -34.698393197832047 -733.5168482347799 0 0 0 0 0.64733817169727104 -0.35739641075624817 0 -0.35739641075624817 -3.5402934939969057 0 0 0 0 -7.7882202939945273 -33.541106960603429 0 -33.541106960603429 -166.7284328257083 0 0 0 0 67.51167446852196 161.73492107191851 0 161.73492107191851 -1363.0821094709754 0 0 0 0 0.2874132910827143 -2.978002027308392 0 -2.978002027308392 3.156865486075759 0 0 0 0 305.74801779676636 80.765487749093154 0 80.765487749093154 -1651.1758480752796 0 0 0 0 -437.28061447740038 796.3775862020284 0 796.3775862020284 -1241.0724741473023 0 0 0 0 324.1384810807067 -303.12097752744012 0 -303.12097752744012 -772.51312346711711 0 0 0 0 208.78609806823442 191.59030726555557 0 191.59030726555557 -1014.2971755613398 0 0 0 0 403.73131537764129 -37.065698423899448 0 -37.065698423899448 -413.85291391650389 0 0 0 0 427.66759727043973 -210.60982716528088 0 -210.60982716528088 -492.19620341581685 0 0 0 0 -352.05218827237331 -403.33832425599212 0 -403.33832425599212 -537.90257473322708 0 0 0 0 121.04423484748986 -797.28227194463398 0 -797.28227194463398 1027.8613048381339 0 0 0 0 339.92623352021019 -874.10984956371476 0 -874.10984956371476 422.1514502292921 0 0 0 0 -8.3228968628341704 -23.176802352113796 0 -23.176802352113796 -23.517686042016109 0 0 0 0 -16.477694930865255 29.151048521996927 0 29.151048521996927 -260.09668342750774 0 0 0 0 -58.26616408652626 79.351871964143356 0 79.351871964143356 -309.67206161883587 0 0 0 0 -74.69331183570921 -2.8640567748132071 0 -2.8640567748132071 -545.13461834981717 0 0 0 0 -10.794223585034473 -19.701115021387579 0 -19.701115021387579 -18.109291697560806 0 0 0 0 26.580503037126618 -55.76266319728893 0 -55.76266319728893 -182.84759859246697 0 0 0 0 33.680679914121356 -24.675761091769346 0 -24.675761091769346 -165.78539286783052 0 0 0 0 16.422559523984091 5.4495530618278281 0 5.4495530618278281 -211.48246588181792 0 0 0 0 5.5512144619278843 5.6571757734745916 0 5.6571757734745916 -147.02383232314514 0 0 0 0 -15.705977354024071 37.6312210160213 0 37.6312210160213 -194.25834142712847 0 0 0 0 63.172474666193011 21.815913744716454 0 21.815913744716454 -288.9938410496834 0 0 0 0 100.14545354263828 -25.777297516482577 0 -25.777297516482577 -229.25307732471538 0 0 0 0 149.91849750742404 -113.66048701959517 0 -113.66048701959517 -119.14721452254162 0 0 0 0 190.88462726598664 -57.446109961681941 0 -57.446109961681941 -279.70325620005679 0 0 0 0 91.273444951497368 -66.021927301328105 0 -66.021927301328105 -254.40677443005734 0 0 0 0 6.4897788346497691 -20.707731854074154 0 -20.707731854074154 -223.4216022278124 0 0 0 0 102.16691337560042 -4.5279242085671285 0 -4.5279242085671285 -252.19378654425236 0 0 0 0 -93.108441581047373 -252.27709279919509 0 -252.27709279919509 -187.18106442669796 0 0 0 0 -153.57816232066398 -229.26660734496363 0 -229.26660734496363 -132.40937391119223 0 0 0 0 245.26632235238503 28.289408759326761 0 28.289408759326761 9.2344073972853948 0 0 0 0 237.18458080660639 -131.28586199447 0 -131.28586199447 -125.36104256416729 0 0 0 0 464.44441452717001 -395.80992521885491 0 -395.80992521885491 110.74115699209869 0 0 0 0 -11.106117197297863 -109.29287106647644 0 -109.29287106647644 -526.50001479036655 0 0 0 0 -233.77989352353325 -417.46020420852801 0 -417.46020420852801 -435.83464754154193 0 0 0 0 -145.0934154879651 -276.31008977724923 0 -276.31008977724923 -319.83656217974203 0 0 0 0 -78.91591174028872 -355.96517129423501 0 -355.96517129423501 -573.97242822023691 0 0 0 0 -164.78825858210621 -535.01019889970121 0 -535.01019889970121 -620.24233995188024 0 0 0 0 -320.73253555792326 -634.50846285191801 0 -634.50846285191801 -594.21966397735196 0 0 0 0 -270.49678191947169 -488.00580735395488 0 -488.00580735395488 -659.70342466045804 0 0 0 0 -296.17244032183953 -17.152067547969637 0 -17.152067547969637 -308.25203081865584 0 0 0 0 -637.11877844233823 -429.75479313278629 0 -429.75479313278629 -42.409445929326466 0 0 0 0 -303.3805346630179 -984.01153413691281 0 -984.01153413691281 -1648.1552382707232 0 0 0 0 -114.38492110613151 -526.90829311990638 0 -526.90829311990638 -1036.7443650926944 0 0 0 0 0.3562818413192872 90.996743331477774 0 90.996743331477774 -2285.4610639080274 0 0 0 0 -20.754901228370727 128.74311873357146 0 128.74311873357146 -771.92087385668856 0 0 0 0 -655.87132085634948 -1247.7939199680641 0 -1247.7939199680641 998.90494484236115 0 0 0 0 -5.0729209171205696 -8.2211781957112322 0 -8.2211781957112322 -7.8189528545601021 0 0 0 0 -142.45619391349464 -54.989589830576733 0 -54.989589830576733 278.46958561697102 0 0 0 0 362.04388630545873 -182.51713821478916 0 -182.51713821478916 -565.94523959471599 0 0 0 0 -428.81009825895308 -361.87229601265426 0 -361.87229601265426 -800.38863926924751 0 0 0 0 -192.01485359134676 -578.45641428873932 0 -578.45641428873932 -1092.8832666008093 0 0 0 0 -565.71526081989214 -1096.6167663351443 0 -1096.6167663351443 -369.20164309210668 0 0 0 0 -146.65775466857303 -920.08237681703395 0 -920.08237681703395 -555.97108214982472 0 0 0 0 -0.84679980451619485 -1115.6902922570825 0 -1115.6902922570825 -294.13304244602477 0 0 0 0 3.6606856520705549 -2.9218586358485084 0 -2.9218586358485084 1.0276705183329824 0 0 0 0 -110.54232211751514 -268.71485761706208 0 -268.71485761706208 123.99357664651507 0 0 0 0 -103.27973107657454 -495.88089436213522 0 -495.88089436213522 -892.87604430176361 0 0 0 0 213.31378741574008 -311.08124545693136 0 -311.08124545693136 235.64073397367611 0 0 0 0 -1081.5124492936484 -459.93857777457379 0 -459.93857777457379 -240.76222197294555 0 0 0 0 8.3626476958470732 -8.6074250332050894 0 -8.6074250332050894 8.4310845721450534 0 0 0 0 11.010886128395214 -136.01663074240423 0 -136.01663074240423 -267.95511152716062 0 0 0 0 -169.80050194016076 9.7082838999795058 0 9.7082838999795058 211.18443162334006 0 0 0 0 0.17188542210351443 -0.095750027418034733 0 -0.095750027418034733 -104.32752689948393 0 0 0 0 -126.82049549816293 64.856023732837457 0 64.856023732837457 49.002331449562917 0 0 0 0 -0.7039750868207193 -77.798635162378559 0 -77.798635162378559 -0.080661644946303568 0 0 0 0 -85.203821218776284 -74.292477574716031 0 -74.292477574716031 45.57560772251793 0 0 0 0 107.53671289424528 -170.05264304854791 0 -170.05264304854791 95.998011935058457 0 0 0 0 4.197504909953409 -1.7123188856880915 0 -1.7123188856880915 -1.1395044295990715 0 0 0 0 192.057087600464 -47.544365216343067 0 -47.544365216343067 0.68191192836093251 0 0 0 0 -96.273376933262625 -149.50024864241686 0 -149.50024864241686 245.86791433714097 0 0 0 0 144.52568390915985 66.322771349452523 0 66.322771349452523 -12.01393722625653 0 0 0 0 -203.34595250475104 149.14537318528892 0 149.14537318528892 -222.66637998173246 0 0 0 0 -84.207991245319135 -112.35219974636129 0 -112.35219974636129 79.148747899558657 0 0 0 0 53.887800876167603 -9.3428227293225063 0 -9.3428227293225063 -80.051495454601536 0 0 0 0 13.737025648122653 38.984478276890513 0 38.984478276890513 -31.52971915557282 0 0 0 0 42.672451992415517 36.006272833378262 0 36.006272833378262 4.3129739656797028 0 0 0 0 -119.73616089220741 12.113583145135635 0 12.113583145135635 -37.115811176841817 0 0 0 0 -17.867622072557424 -138.50242400239131 0 -138.50242400239131 -154.07133066693495 0 0 0 0 -197.06495516703581 -355.96664900266114 0 -355.96664900266114 -325.42617925868035 0 0 0 0 -253.83389548650302 -463.26441442396117 0 -463.26441442396117 -330.84511036718322 0 0 0 0 -120.42024457335356 -409.16129091024777 0 -409.16129091024777 -397.67620261889533 0 0 0 0 -259.90680154189613 -308.01134671534237 0 -308.01134671534237 -157.7949888730509 0 0 0 0 -221.53302659723704 -198.50810095279485 0 -198.50810095279485 -136.67034776907531 0 0 0 0 -206.53312438030844 -198.43925415826379 0 -198.43925415826379 -150.16794630734148 0 0 0 0 -295.87923004226468 -321.73607874800655 0 -321.73607874800655 -238.36287575182723 0 0 0 0 -511.22491432944662 -165.25096863564249 0 -165.25096863564249 97.684102517632709 0 0 0 0 -266.93993155829958 -16.332851564598968 0 -16.332851564598968 16.76135726548091 0 0 0 0 -107.5610440238961 -5.3784630628142622 0 -5.3784630628142622 -72.102593784773489 0 0 0 0 12.903593504200984 -17.105767895951786 0 -17.105767895951786 16.79211670583399 0 0 0 0 38.045599594813666 -44.421708284765657 0 -44.421708284765657 19.030862450541463 0 0 0 0 -0.34654947197844876 -6.7274452700273031 0 -6.7274452700273031 2.6352343247542365 0 0 0 0 -70.199408391257748 -20.380912642802286 0 -20.380912642802286 -61.34507240766834 0 0 0 0 13.32282707770355 -143.32516642617702 0 -143.32516642617702 64.779814080902725 0 0 0 0 40.422763764727279 1.5198689812059456 0 1.5198689812059456 -55.789106835953135 0 0 0 0 34.695720243267715 -193.13061139292404 0 -193.13061139292404 -151.68881435896037 0 0 0 0 -96.744785823364509 -133.09869021568738 0 -133.09869021568738 -135.96005991241327 0 0 0 0 -41.593941960309166 -282.29728210841131 0 -282.29728210841131 -227.19713614859938 0 0 0 0 -66.952048899489455 -192.044095358302 0 -192.044095358302 -111.0214116385614 0 0 0 0 -65.299339562072419 -256.35689220314089 0 -256.35689220314089 -17.106933443908929 0 0 0 0 -3.0681198563218857 -13.999360966818713 0 -13.999360966818713 17.429320608849693 0 0 0 0 -36.655395131951082 -9.4078649445291376 0 -9.4078649445291376 23.408747426988157 0 0 0 0 8.3737158256400335 -17.159427090658596 0 -17.159427090658596 5.3959718872312692 0 0 0 0 -5.0165513761166949 -81.460055559880857 0 -81.460055559880857 -187.25012663799589 0 0 0 0 -99.080417192482855 -285.78595041096196 0 -285.78595041096196 -240.14599768895278 0 0 0 0 -86.118479123766519 -293.07791309362619 0 -293.07791309362619 -236.21770183334593 0 0 0 0 -44.004307047071052 -45.450966543696268 0 -45.450966543696268 -11.731876182602718 0 0 0 0 0.8043185091637497 -14.90446086701732 0 -14.90446086701732 23.855432275798307 0 0 0 0 -40.412539594777627 -52.591603385304552 0 -52.591603385304552 -7.6883772838045843 0 0 0 0 4.9781153452882876 -14.984311375802847 0 -14.984311375802847 -1.2169635956526719 0 0 0 0 -50.052183016261552 -58.745394091951312 0 -58.745394091951312 -4.6076457253075205 0 0 0 0 -22.095768846280407 -25.933452084078453 0 -25.933452084078453 -5.7669225962599739 0 0 0 0 -13.886111646638085 -32.253128750053946 0 -32.253128750053946 34.765451199465858 0 0 0 0 -9.4599342375467756 -33.366424379908317 0 -33.366424379908317 41.646012384745752 0 0 0 0 51.722040433211077 492.70292360648637 0 492.70292360648637 219.74403543755398 0 0 0 0 -34.014212546753697 -32.062501414009603 0 -32.062501414009603 -14.409206680109492 0 0 0 0 -7.9396295720018202 -11.936751046339978 0 -11.936751046339978 10.257252380911311 0 0 0 0 -24.262515204510237 -8.7652111592351361 0 -8.7652111592351361 3.882129666165568 0 0 0 0 -529.32228832326291 -376.68769011268341 0 -376.68769011268341 226.00696996401894 0 0 0 0 46.190816176895169 -80.753639174487034 0 -80.753639174487034 47.595503999207722 0 0 0 0 89.700206059031188 -59.478489632700075 0 -59.478489632700075 -15.634470032578974 0 0 0 0 -1671.7586603382078 -2069.5304764769116 0 -2069.5304764769116 -1463.6954239360339 0 0 0 0 -589.27219776368293 98.120907336304299 0 98.120907336304299 -463.66074251448481 0 0 0 0 -1453.8198351884494 -452.21892805396419 0 -452.21892805396419 208.2457225460239 0 0 0 0 414.13963568152394 272.21037532459923 0 272.21037532459923 -256.71519044891465 0 0 0 0 -43.051756472224952 -578.79742356672796 0 -578.79742356672796 -586.30801530983081 0 0 0 0 0.14371495194791351 -595.96027917783977 0 -595.96027917783977 -1802.9631583708324 0 0 0 0 -766.58879700454418 -679.29931876566479 0 -679.29931876566479 -159.39499275634444 0 0 0 0 -10.078718297115245 -2.8291342187403217 0 -2.8291342187403217 -1.8161852392464297 0 0 0 0 -440.58863974137421 -148.78556308236057 0 -148.78556308236057 226.05796408787501 0 0 0 0 457.90089879109291 -1221.7030789806995 0 -1221.7030789806995 -2319.6251523302262 0 0 0 0 59.420004351617536 3.6651572384980682 0 3.6651572384980682 -77.888455882404742 0 0 0 0 -131.61286812499566 -1140.8012721081163 0 -1140.8012721081163 -1202.0607756550962 0 0 0 0 475.59984686982352 -1768.9418391761792 0 -1768.9418391761792 -1230.5402430111058 0 0 0 0 737.21384294454765 -358.28665454692236 0 -358.28665454692236 -901.7138666969031 0 0 0 0 -914.42219299823773 -812.32857274169692 0 -812.32857274169692 -1002.4259266275585 0 0 0 0 -0.1044632950920696 -783.43703799895002 0 -783.43703799895002 -68.386747673870559 0 0 0 0 470.33856913652562 -366.43522411024605 0 -366.43522411024605 297.33944351988612 0 0 0 0 411.31080388656119 -520.36211176997313 0 -520.36211176997313 265.11299444519318 0 0 0 0 480.45024800988358 -282.55175623513094 0 -282.55175623513094 454.85674799357366 0 0 0 0 408.29398374799348 -440.90174725821635 0 -440.90174725821635 447.60727457077417 0 0 0 0 2414.4310366534119 -661.29352817522522 0 -661.29352817522522 -878.77272656456807 0 0 0 0 -1.14371679481913 -11.61081095141877 0 -11.61081095141877 -12.351631171857804 0 0 0 0 -3411.0059182713521 -1245.807280419881 0 -1245.807280419881 -231.66203381888226 0 0 0 0 -7.6110885346803911 -3.1872868610245888 0 -3.1872868610245888 2.2071323214439644 0 0 0 0 -578.82917463676858 6.698355882163014 0 6.698355882163014 231.4875542543341 0 0 0 0 -1754.3178439573385 -1416.5948976080444 0 -1416.5948976080444 -467.96447119686491 0 0 0 0 -52.342441571847303 -347.84249166112568 0 -347.84249166112568 -1179.7889533721282 0 0 0 0 -875.0382545764005 -1007.6532356913485 0 -1007.6532356913485 -284.25284641270082 0 0 0 0 -1838.1745594313688 -950.44083534294077 0 -950.44083534294077 308.75025968969203 0 0 0 0 -1787.066825271264 -564.55992773741309 0 -564.55992773741309 239.91557706680464 0 0 0 0 -2674.1138672901325 -594.13097789893254 0 -594.13097789893254 244.42480846912076 0 0 0 0 -0.49712963774806251 -22.483293081916131 0 -22.483293081916131 -28.220250464305956 0 0 0 0 -1750.2824281940229 -1729.5979158261121 0 -1729.5979158261121 -478.00916955817411 0 0 0 0 -116.27928019545652 -855.25920875391648 0 -855.25920875391648 -353.97219163337559 0 0 0 0 -3044.5135262960684 -582.08541878234701 0 -582.08541878234701 515.81517128733549 0 0 0 0 -1447.1592465295871 -672.65911788562744 0 -672.65911788562744 501.72015048177127 0 0 0 0 -1600.8164860318284 977.30375626946488 0 977.30375626946488 -693.08902349099708 0 0 0 0 -2298.4034064854859 -1717.9590918100212 0 -1717.9590918100212 -876.03736045856886 0 0 0 0 297.26000229100464 -97.932717057169612 0 -97.932717057169612 10.453585844565168 0 0 0 0 284.17118889173435 -341.05567084850645 0 -341.05567084850645 190.90905049726825 0 0 0 0 0.2606068351424215 -409.08972545302026 0 -409.08972545302026 319.84438549941842 0 0 0 0 799.25339789499503 -419.89134471336888 0 -419.89134471336888 133.96325428874115 0 0 0 0 -64.657951712288195 -31.018420337079078 0 -31.018420337079078 29.466950768617608 0 0 0 0 -44.372233965201303 -53.172629278668865 0 -53.172629278668865 -17.81785890646097 0 0 0 0 4.8616648388062345 -19.269125953954337 0 -19.269125953954337 12.584331895779449 0 0 0 0 -27.598472088619019 -120.85594718469474 0 -120.85594718469474 -69.467987641221043 0 0 0 0 -4.7831990210170829 -4.3691039175551367 0 -4.3691039175551367 -3.1514555812688307 0 0 0 0 53.287162939683185 -101.23360439449334 0 -101.23360439449334 -116.83242779700868 0 0 0 0 44.062211233183916 75.830579408769609 0 75.830579408769609 52.740591005289389 0 0 0 0 67.429561354991165 -8.9193392328661503 0 -8.9193392328661503 -122.05240955040063 0 0 0 0 -165.62552124666399 -236.10310001258404 0 -236.10310001258404 -255.97001546893807 0 0 0 0 6.8223889004157741 -9.5525569981936513 0 -9.5525569981936513 13.95959485866068 0 0 0 0 -140.92411996841838 16.507275659496372 0 16.507275659496372 185.70098213100209 0 0 0 0 146.82572627498303 1.4032275539138936 0 1.4032275539138936 91.425532933401882 0 0 0 0 -1.3824387741294117 0.65332727206126862 0 0.65332727206126862 2.1016214684424597 0 0 0 0 -59.782295018019795 -92.120299612451163 0 -92.120299612451163 -53.100182098406549 0 0 0 0 -152.9548646449457 -166.06533764020173 0 -166.06533764020173 -184.52997066193711 0 0 0 0 47.669966230445425 -92.207837947286862 0 -92.207837947286862 -277.36715823803024 0 0 0 0 -124.15904521368793 -118.18934172883746 0 -118.18934172883746 -108.15041744705559 0 0 0 0 -18.994063321646536 -179.65229504640138 0 -179.65229504640138 -388.00766439028666 0 0 0 0 24.440470149264002 -285.8880347420677 0 -285.8880347420677 -530.28890506374228 0 0 0 0 -41.59517707341729 -401.32700417650949 0 -401.32700417650949 -1204.9798971612918 0 0 0 0 -64.002766148383671 -226.13719277967721 0 -226.13719277967721 -237.75269470321655 0 0 0 0 -12.412999800062607 34.066340972708701 0 34.066340972708701 -365.02752666703782 0 0 0 0 -81.077934084765729 -478.47250680418665 0 -478.47250680418665 -2335.5562547443301 0 0 0 0 -16.353060272232028 -9.7594281199266391 0 -9.7594281199266391 -7.4963784845780399 0 0 0 0 -2371.3759628385815 710.14408485917102 0 710.14408485917102 -34.494990538165439 0 0 0 0 -296.12684490297397 206.50377808870508 0 206.50377808870508 -167.04925541958619 0 0 0 0 -251.03902543864388 -192.22672805562433 0 -192.22672805562433 72.528031694497258 0 0 0 0 56.423023995019776 -23.079777215955197 0 -23.079777215955197 -70.079309688802823 0 0 0 0 -31.075373377956566 -40.490429294132355 0 -40.490429294132355 -324.40378344145097 0 0 0 0 -10.919796714609333 -7.8014328170236524 0 -7.8014328170236524 -3.500602375273937 0 0 0 0 -108.68749108295015 -197.92790273171113 0 -197.92790273171113 -219.45473479297175 0 0 0 0 -35.629757906134159 -32.411748936517256 0 -32.411748936517256 -19.371391070740476 0 0 0 0 -62.427767381901504 -33.828305787684485 0 -33.828305787684485 -8.5504461892246582 0 0 0 0 -22.134852237555606 -41.761956592493334 0 -41.761956592493334 -22.567567301877716 0 0 0 0 13.362529086896117 -23.896179098948963 0 -23.896179098948963 -16.302238824188187 0 0 0 0 4.766428326105455 -18.218166597796227 0 -18.218166597796227 -6.1230555391941976 0 0 0 0 -23.70138947241503 -41.695297121428666 0 -41.695297121428666 -22.704262323823059 0 0 0 0 -22.083041627382045 -41.67531061102909 0 -41.67531061102909 -23.5542247761623 0 0 0 0 -24.197958956210641 -40.872779958648607 0 -40.872779958648607 -22.588413582117937 0 0 0 0 -4.8514150603689075 -32.952301656931297 0 -32.952301656931297 -19.246208532542244 0 0 0 0 2.0941191249807503 -22.444325437290246 0 -22.444325437290246 -1.8018492250761255 0 0 0 0 -239.41951260373025 -320.37054501713556 0 -320.37054501713556 -40.273597387906193 0 0 0 0 -99.734640791983111 61.712870828725499 0 61.712870828725499 -157.54735696751595 0 0 0 0 -1556.5827636647809 -411.9053244420752 0 -411.9053244420752 -6.1037705941380409 0 0 0 0 -376.81802321590658 -196.80811940827334 0 -196.80811940827334 1.5369573692353811 0 0 0 0 3.825521088427621 -4.713887197602098 0 -4.713887197602098 -1.6225106231816753 0 0 0 0 -76.054448148497613 24.404408661197522 0 24.404408661197522 -19.866428222485411 0 0 0 0 -7.2770274574531868 -33.102247373628757 0 -33.102247373628757 -14.078373804819421 0 0 0 0 -12.963973965992551 -30.241079671184877 0 -30.241079671184877 0.89403892688972419 0 0 0 0 -7.4151027753314338 -29.787706043909793 0 -29.787706043909793 -11.377983966100146 0 0 0 0 -8.6919861872156616 -30.630485152920301 0 -30.630485152920301 -9.5996843563116272 0 0 0 0 -1.860010452892368 -22.668597733259688 0 -22.668597733259688 -6.9833686085643478 0 0 0 0 -13.523548516063443 -25.701059647967014 0 -25.701059647967014 20.872838397013545 0 0 0 0 -7.6051145174634769 -29.314165200085334 0 -29.314165200085334 23.371786163328352 0 0 0 0 0.55123471226745835 -18.175906765788113 0 -18.175906765788113 -2.4989525101197643 0 0 0 0 -20.183888797564151 -35.797222301281181 0 -35.797222301281181 -4.6146671423766286 0 0 0 0 -10.212335734795488 -31.852192761997685 0 -31.852192761997685 -8.4306419219974487 0 0 0 0 -14.433977630990086 -26.660540617160855 0 -26.660540617160855 5.6024893977009658 0 0 0 0 -8.9361976874643005 -31.690263066331681 0 -31.690263066331681 -13.646333656790375 0 0 0 0 -8.2022769053231457 -25.73267193361453 0 -25.73267193361453 -11.75047869200845 0 0 0 0 -20.809491935826372 -33.258782708046056 0 -33.258782708046056 -6.6889109542698861 0 0 0 0 2.0548624732473399 -37.188051850975171 0 -37.188051850975171 4.4788423147547292 0 0 0 0 -10.161580033946933 -30.977090447933946 0 -30.977090447933946 -3.0803370715354141 0 0 0 0 0.21873375839277287 -42.264967931922911 0 -42.264967931922911 -5.9309960001373838 0 0 0 0 -19.91371547478802 -33.572132973571001 0 -33.572132973571001 -18.907021444775566 0 0 0 0 16.639450113463681 -36.613386229193111 0 -36.613386229193111 -14.605457725956285 0 0 0 0 65.334371753117011 19.115181732160636 0 19.115181732160636 -44.234914410017154 0 0 0 0 7.9125009064256915 -27.505048054428933 0 -27.505048054428933 -18.1319134133938 0 0 0 0 -10.86793205444431 -32.323519255123252 0 -32.323519255123252 -6.3741113146265391 0 0 0 0 44.233500178574104 -122.40407781249746 0 -122.40407781249746 -177.07113331217442 0 0 0 0 6.3130650454404531 -60.740836406208018 0 -60.740836406208018 -50.928748952762817 0 0 0 0 -192.93976006744197 -43.382200557105534 0 -43.382200557105534 51.058470155772739 0 0 0 0 -412.03099544961879 17.583351704226516 0 17.583351704226516 -27.871730489030597 0 0 0 0 -43.759202782333091 -19.410493255916634 0 -19.410493255916634 -0.20182220728682765 0 0 0 0 67.035101132132695 -114.46727429196471 0 -114.46727429196471 -128.50364509099381 0 0 0 0 15.407564876015897 -11.224905508052622 0 -11.224905508052622 0.23949298745023384 0 0 0 0 23.353002454610021 -44.513792710707058 0 -44.513792710707058 -8.6609017927240899 0 0 0 0 73.245056042374927 -23.393529847991886 0 -23.393529847991886 38.610522170827608 0 0 0 0 -238.03618723647378 -112.81196850951528 0 -112.81196850951528 134.63301206281176 0 0 0 0 -59.628283274534624 -43.03066482291888 0 -43.03066482291888 3.5947625197222806 0 0 0 0 -48.690448799821922 -31.914254390873076 0 -31.914254390873076 -5.3094171152866068 0 0 0 0 -125.7470059365296 -123.46513950558438 0 -123.46513950558438 -175.89914333124034 0 0 0 0 -255.63963476225035 -279.37251785776607 0 -279.37251785776607 -52.958066693250657 0 0 0 0 -120.46164139779285 -214.17246428012731 0 -214.17246428012731 -40.356516547853971 0 0 0 0 -16.456256551027764 -100.04414771804295 0 -100.04414771804295 142.02151534887162 0 0 0 0 118.74451843381394 108.01158130419208 0 108.01158130419208 386.03657565946924 0 0 0 0 -4.781733683607797 -8.1911850209002637 0 -8.1911850209002637 -9.9344403934528174 0 0 0 0 -280.3470519031107 -100.99587411873654 0 -100.99587411873654 -54.912616480512952 0 0 0 0 149.48169805161888 63.602498883963563 0 63.602498883963563 -8.3532088691717945 0 0 0 0 -2.0368111148127355 -302.6478690820295 0 -302.6478690820295 -55.075473075659829 0 0 0 0 -307.0998316086916 -206.82179854669448 0 -206.82179854669448 -409.15190086214716 0 0 0 0 -8.32315365546674 -275.35174645948427 0 -275.35174645948427 -395.15713638865418 0 0 0 0 -21.873402872399311 -406.57210752748142 0 -406.57210752748142 -1033.9041100950562 0 0 0 0 -39.764490627130726 -346.61473654764268 0 -346.61473654764268 -863.09771410944768 0 0 0 0 -37.565221411467064 -222.23702206923917 0 -222.23702206923917 -511.5804947092256 0 0 0 0 -231.64380510185583 -308.91472560869806 0 -308.91472560869806 -514.34550643304829 0 0 0 0 -35.005264990148135 -38.263885978994949 0 -38.263885978994949 -16.377220401045633 0 0 0 0 -34.189328435895732 -50.152301224326948 0 -50.152301224326948 -10.401927420549328 0 0 0 0 0.65439744737199135 -13.519790259742685 0 -13.519790259742685 11.215487036247879 0 0 0 0 13.911044740198122 39.14305158303614 0 39.14305158303614 12.628646168421255 0 0 0 0 8.5327534931499969 -14.327990551463671 0 -14.327990551463671 3.0580883653285582 0 0 0 0 -33.733559383254033 -50.36647334726149 0 -50.36647334726149 -12.903249097138541 0 0 0 0 4.1297055425104929 -21.988830599800604 0 -21.988830599800604 18.592601409416091 0 0 0 0 -32.451885875838343 -46.895789147554751 0 -46.895789147554751 52.981126069724269 0 0 0 0 -127.78530336919357 1.6728209805369261 0 1.6728209805369261 217.22382583205035 0 0 0 0 -320.54408347478602 -344.94711124165406 0 -344.94711124165406 -262.00006429569657 0 0 0 0 -134.8769589235817 -44.004993208851374 0 -44.004993208851374 159.33354183990741 0 0 0 0 -60.372562894044677 73.708067095409206 0 73.708067095409206 -113.22839936463424 0 0 0 0 -9.4696327977576402 -9.1554555376725375 0 -9.1554555376725375 6.539422982529107 0 0 0 0 35.968825642223237 -51.878382510964002 0 -51.878382510964002 -45.076540381134691 0 0 0 0 28.196289825355052 -47.27693773334795 0 -47.27693773334795 47.67966296078157 0 0 0 0 -92.928679678858316 -176.05766897352623 0 -176.05766897352623 -259.92192994077777 0 0 0 0 -100.87216088669652 -423.97064839984159 0 -423.97064839984159 -575.79799432893924 0 0 0 0 23.945593093449133 -133.36517742725118 0 -133.36517742725118 -384.50191472934966 0 0 0 0 -9.6721664048727689 -311.55637030738717 0 -311.55637030738717 -1325.4004940709128 0 0 0 0 -3.3665003801626767 -3.3247400743982354 0 -3.3247400743982354 -2.0604943477979951 0 0 0 0 -261.89781308227975 -684.61479383682672 0 -684.61479383682672 -779.33340759908606 0 0 0 0 -139.71565221128549 -473.8757882192549 0 -473.8757882192549 -471.34010649263655 0 0 0 0 -226.37005839381891 -530.70968725826606 0 -530.70968725826606 -460.36422766566102 0 0 0 0 -226.82301875106532 -585.57378554376555 0 -585.57378554376555 -497.09908122976049 0 0 0 0 -221.71766094020859 -542.01702739033863 0 -542.01702739033863 -440.04853608171834 0 0 0 0 0.38990388765176931 -7.2283472592246767 0 -7.2283472592246767 -7.3184293708675057 0 0 0 0 31.581849415852048 -545.52014712247183 0 -545.52014712247183 -1511.7517932521005 0 0 0 0 -561.59735523308336 -486.77027937061939 0 -486.77027937061939 -871.7822505320014 0 0 0 0 -395.471501562708 -451.49187671102209 0 -451.49187671102209 -609.91752487930353 0 0 0 0 39.825690856909205 -407.82912269029475 0 -407.82912269029475 -1040.219489567573 0 0 0 0 2.1458830385308829 -259.81617527408162 0 -259.81617527408162 -1617.2958820039203 0 0 0 0 -253.28601842648641 -652.56239826176898 0 -652.56239826176898 -426.63011760716836 0 0 0 0 -286.19100711525971 -411.87781350184332 0 -411.87781350184332 390.56065149943606 0 0 0 0 255.13429706741772 -75.160290121301841 0 -75.160290121301841 -5.3372775976386038 0 0 0 0 -29.065354623584426 -994.77271954590833 0 -994.77271954590833 -580.40969394641797 0 0 0 0 63.435343212513544 -225.45720011758749 0 -225.45720011758749 562.64039475602476 0 0 0 0 45.873953806687496 -132.17225537591003 0 -132.17225537591003 152.44507136367065 0 0 0 0 1.8834700955717381 -7.2994590276839588 0 -7.2994590276839588 -3.5333064900306042 0 0 0 0 63.809907914168434 98.490017973686918 0 98.490017973686918 -1647.9774655288929 0 0 0 0 37.789772758656909 59.60590440328042 0 59.60590440328042 -966.89911262733222 0 0 0 0 86.685893726054928 -382.86759631043242 0 -382.86759631043242 -1050.3749760490527 0 0 0 0 -18.000180522612936 -341.10618120709114 0 -341.10618120709114 -1005.3003803273605 0 0 0 0 -40.113519267113588 -76.785113117350193 0 -76.785113117350193 -415.90648127708846 0 0 0 0 132.6387577244459 -291.89399563545885 0 -291.89399563545885 -893.51025062833287 0 0 0 0 29.517727777478285 -314.17297923387741 0 -314.17297923387741 -859.07158965214694 0 0 0 0 18.092091218017003 -6.6407049709959978 0 -6.6407049709959978 -4.5216206609589094 0 0 0 0 -14.477574202174281 -16.322176259658406 0 -16.322176259658406 -11.88871770094579 0 0 0 0 155.43414728238713 -77.197370998816041 0 -77.197370998816041 -23.704857053769956 0 0 0 0 -79.969759543426335 12.734894513410836 0 12.734894513410836 48.706155792497157 0 0 0 0 162.05474626667637 -19.77011302096389 0 -19.77011302096389 -229.55702772827499 0 0 0 0 -516.52799615510594 -497.33339406521372 0 -497.33339406521372 -551.98087577745173 0 0 0 0 -10.795572181566968 255.04900259054921 0 255.04900259054921 -552.42033595812245 0 0 0 0 -340.5107889300416 -595.43034455940506 0 -595.43034455940506 -708.2916255799646 0 0 0 0 -5.7521324628032744 -7.5038546647992916 0 -7.5038546647992916 133.25283253268753 0 0 0 0 -475.36617328455031 489.91811254608911 0 489.91811254608911 92.050579927774379 0 0 0 0 1701.5188411876297 -67.314359240506747 0 -67.314359240506747 -462.64302234459319 0 0 0 0 345.97372940267087 -885.84995831183915 0 -885.84995831183915 -677.77996766314936 0 0 0 0 -372.07948043348006 20.48588613186439 0 20.48588613186439 -33.849612694881216 0 0 0 0 968.12992871855386 546.45432508370141 0 546.45432508370141 716.1805836505464 0 0 0 0 1.9413105490016846 -0.29301437191654855 0 -0.29301437191654855 0.56528382688777157 0 0 0 0 109.59026176873886 250.00887986725502 0 250.00887986725502 621.30150423857413 0 0 0 0 224.88631485418591 -0.80145588869345374 0 -0.80145588869345374 -689.89485475361289 0 0 0 0 -61.562840845370374 -137.40210265867154 0 -137.40210265867154 -412.3087500316251 0 0 0 0 8.9869610469646659 -0.77000102738639953 0 -0.77000102738639953 -0.0044705816638739293 0 0 0 0 -78.179116287472425 -464.40535962155263 0 -464.40535962155263 -713.84770981527981 0 0 0 0 -189.87872186969616 208.38113969436381 0 208.38113969436381 134.11848229833777 0 0 0 0 -202.18521987900021 -288.96400830991115 0 -288.96400830991115 -763.95593494155764 0 0 0 0 71.098580718404264 -374.90433959530492 0 -374.90433959530492 -1182.7585759434078 0 0 0 0 -356.90303798400419 -270.25786977380994 0 -270.25786977380994 -1174.6057537007655 0 0 0 0 -58.027859411624377 -241.1180094227384 0 -241.1180094227384 -1086.776930199645 0 0 0 0 76.840241640798922 -369.36247697145518 0 -369.36247697145518 -1541.8552601803749 0 0 0 0 479.66222656291211 408.43237168524502 0 408.43237168524502 -3066.3890111468208 0 0 0 0 291.33771098319266 -813.59934739473829 0 -813.59934739473829 -1162.8431555505595 0 0 0 0 -198.78968207456182 -70.093213206404471 0 -70.093213206404471 -637.52143824116501 0 0 0 0 -446.68054282272351 -273.00708978697367 0 -273.00708978697367 -715.066158686569 0 0 0 0 -166.31804306405866 -360.03499550596962 0 -360.03499550596962 -1165.1666413856437 0 0 0 0 -935.48930743636447 -259.37011968832667 0 -259.37011968832667 -1458.7423849367187 0 0 0 0 -140.21147697765264 -310.35562506730639 0 -310.35562506730639 -1532.9183637367532 0 0 0 0 -609.18431084242184 -147.838333409396 0 -147.838333409396 -1132.358544069737 0 0 0 0 59.026894887720118 -26.995196674663021 0 -26.995196674663021 -2172.8996625993896 0 0 0 0 -573.63646547374083 513.09918586960703 0 513.09918586960703 -1890.2491033674851 0 0 0 0 -188.46376898243034 304.80769008917196 0 304.80769008917196 1608.0076069885108 0 0 0 0 452.64489640471947 -1229.7128779815628 0 -1229.7128779815628 -453.02394865670794 0 0 0 0 165.54184655187419 454.21635398645049 0 454.21635398645049 908.51065294764703 0 0 0 0 4.0231372571070096 -272.24028116533736 0 -272.24028116533736 1150.8027566047822 0 0 0 0 197.4316677012248 -275.56054925985518 0 -275.56054925985518 222.29040109822745 0 0 0 0 -18.269230767742556 -219.2218069287519 0 -219.2218069287519 -1867.803610016239 0 0 0 0 -348.21853651676793 -401.25469272353803 0 -401.25469272353803 580.72709136208141 0 0 0 0 -6.4327472667874304 -1.6984206766364807 0 -1.6984206766364807 0.14125923936172846 0 0 0 0 -31.290784613719154 -22.736861437755891 0 -22.736861437755891 -7.2143723808214979 0 0 0 0 316.99649006815162 -94.898530280996056 0 -94.898530280996056 -869.01108322530126 0 0 0 0 -163.38438774977112 -696.17508356444887 0 -696.17508356444887 1359.0245502272164 0 0 0 0 13.607824917780817 91.543612749512249 0 91.543612749512249 -1526.075827619771 0 0 0 0 -448.76074129035987 715.94978010965497 0 715.94978010965497 221.85413358935693 0 0 0 0 -47.228906804608414 -182.49832138308557 0 -182.49832138308557 -614.84804170413008 0 0 0 0 300.2704588106335 -296.37771550954449 0 -296.37771550954449 -358.33293497329214 0 0 0 0 -44.003150214316463 -29.958275696999152 0 -29.958275696999152 -8.6153582754076758 0 0 0 0 -87.92896528752317 72.794977640958678 0 72.794977640958678 -983.13274144539901 0 0 0 0 -59.823103390364849 -21.93847948270195 0 -21.93847948270195 -741.71776756348845 0 0 0 0 -186.94615556570352 12.990348439423542 0 12.990348439423542 136.89040328390365 0 0 0 0 -72.758950862829806 -145.58017756316985 0 -145.58017756316985 -337.15000586927636 0 0 0 0 7.8560305999126285 -350.87953944378387 0 -350.87953944378387 -703.42853180981911 0 0 0 0 102.25626012476278 104.20284480701957 0 104.20284480701957 -274.383835376364 0 0 0 0 87.330018447048133 -142.99207786017905 0 -142.99207786017905 -637.95263019479171 0 0 0 0 42.440132744770381 -314.11370989710849 0 -314.11370989710849 -738.74505925362973 0 0 0 0 27.089499136935046 -460.12204386999838 0 -460.12204386999838 -980.90688134818629 0 0 0 0 31.512762244936312 -357.56306455747836 0 -357.56306455747836 -925.17749304790414 0 0 0 0 102.4218700867641 -331.63634455671126 0 -331.63634455671126 -1131.5304864111022 0 0 0 0 34.99480880444753 -213.78608539459674 0 -213.78608539459674 -1173.2463339054375 0 0 0 0 24.108707835956011 -224.38730398364714 0 -224.38730398364714 -792.96328783705576 0 0 0 0 47.573520666244804 -325.94084397420784 0 -325.94084397420784 -961.53289127437165 0 0 0 0 167.7377201663403 -360.48568633871037 0 -360.48568633871037 69.030638426254882 0 0 0 0 258.66050952471414 -332.78764253357622 0 -332.78764253357622 -63.311397789082548 0 0 0 0 243.93872747958812 -475.49457595633248 0 -475.49457595633248 329.29256905362126 0 0 0 0 167.66768047893129 -304.08291485997779 0 -304.08291485997779 99.304177222409635 0 0 0 0 173.77940362149411 -62.614670384301803 0 -62.614670384301803 -55.698580757431046 0 0 0 0 160.58216316933249 -241.36190840367635 0 -241.36190840367635 62.252452657568938 0 0 0 0 162.71859814605887 -297.14028214228165 0 -297.14028214228165 186.63118150900118 0 0 0 0 283.76812170106859 -263.69784240194349 0 -263.69784240194349 28.521159850835829 0 0 0 0 449.19754658508828 -145.8777880545058 0 -145.8777880545058 -37.428894019934887 0 0 0 0 -665.94414497688922 -683.84130836455643 0 -683.84130836455643 -745.11727109962158 0 0 0 0 4.6960201160980262 -8.3155817227607614 0 -8.3155817227607614 -20.001995934478671 0 0 0 0 -1594.9672070299857 -941.07013189895224 0 -941.07013189895224 268.64183829457761 0 0 0 0 5.1610523913594442 -8.4938097304877971 0 -8.4938097304877971 -17.345102080047454 0 0 0 0 -11.388053701906756 -59.890628741111868 0 -59.890628741111868 63.655483732154607 0 0 0 0 183.70094085755409 -17.178209592636449 0 -17.178209592636449 -633.84132279858022 0 0 0 0 -995.0710174437263 -203.68206339113385 0 -203.68206339113385 383.29485674182069 0 0 0 0 140.54894733340188 -186.67402717548975 0 -186.67402717548975 -1309.8128806001987 0 0 0 0 -528.88599795932532 -1267.228533593825 0 -1267.228533593825 -1406.1113410306302 0 0 0 0 1759.485651655571 484.29937757545031 0 484.29937757545031 18.694165658642305 0 0 0 0 3.8064657419339483 -2.4056751437422506 0 -2.4056751437422506 -8.5398783489923318 0 0 0 0 1200.2809512893582 1126.5789388961275 0 1126.5789388961275 543.27571734474623 0 0 0 0 -1874.1891116251427 -1543.9926828565513 0 -1543.9926828565513 -229.63453180242504 0 0 0 0 -1886.1887016804612 -641.10952579522927 0 -641.10952579522927 -4.9829456041406957 0 0 0 0 770.35031382173474 863.82022690595477 0 863.82022690595477 1257.3447163468081 0 0 0 0 -27.22783987908042 -388.85169883925846 0 -388.85169883925846 -359.44525871405494 0 0 0 0 1427.2877349954506 -672.51754265400814 0 -672.51754265400814 -4310.6787770490464 0 0 0 0 777.16693775904423 -711.88317927050957 0 -711.88317927050957 -2792.3544923164445 0 0 0 0 429.71841542996117 -1541.3075088603364 0 -1541.3075088603364 -129.03949445888793 0 0 0 0 734.02721168850621 -1636.1246794120898 0 -1636.1246794120898 -2021.4205523638229 0 0 0 0 -413.66389712478849 -355.02379477868089 0 -355.02379477868089 1920.1020272364003 0 0 0 0 -11.873432481881053 -6.4424131502247803 0 -6.4424131502247803 -3.1264748408317438 0 0 0 0 -109.16107915315661 -296.68956696600799 0 -296.68956696600799 909.64222709331079 0 0 0 0 10.693212059755751 -374.64961950094948 0 -374.64961950094948 724.28595958623919 0 0 0 0 -3.4572376664582407 -775.90392241882 0 -775.90392241882 1307.5924465945136 0 0 0 0 1.0927608090787544 -515.91741690626975 0 -515.91741690626975 567.34328129726055 0 0 0 0 -2289.9129779356517 -1550.718360195986 0 -1550.718360195986 314.19546883363364 0 0 0 0 1.6106227512568765 -4.489766627005622 0 -4.489766627005622 -8.9679930661175007 0 0 0 0 -118.8863076257403 -186.33842646610719 0 -186.33842646610719 579.61110112343579 0 0 0 0 -2121.8365995702552 -983.23633845816767 0 -983.23633845816767 -321.46799577521597 0 0 0 0 18.20714834356977 -12.577128526893468 0 -12.577128526893468 -18.42334032772122 0 0 0 0 342.00562960103798 499.23504032955884 0 499.23504032955884 -1462.8954794612437 0 0 0 0 -1064.1784255967796 -276.33696373653675 0 -276.33696373653675 -1123.8080332310346 0 0 0 0 332.85561648515795 -271.53591365546708 0 -271.53591365546708 -34.062924404213845 0 0 0 0 492.37550905502576 -51.836803289572345 0 -51.836803289572345 96.913413131040215 0 0 0 0 1286.524533220274 132.46289083955071 0 132.46289083955071 -465.17236208019312 0 0 0 0 823.47683163335023 -381.41086052442097 0 -381.41086052442097 -790.48724160551501 0 0 0 0 310.16406966616705 -118.88600342531754 0 -118.88600342531754 -228.28218554057094 0 0 0 0 265.43816666745261 -292.81768397538053 0 -292.81768397538053 -766.11599083775945 0 0 0 0 78.534702161967289 -302.72345432102884 0 -302.72345432102884 -39.909534516460553 0 0 0 0 397.86079460760448 -333.27051264768397 0 -333.27051264768397 -318.80901313257345 0 0 0 0 808.39380570365756 -780.467065167697 0 -780.467065167697 577.56519513259445 0 0 0 0 -9.5252419373687616 -14.495954998333566 0 -14.495954998333566 -3.297364449755392 0 0 0 0 270.80241868807025 -259.23001713190592 0 -259.23001713190592 243.15509889284294 0 0 0 0 295.67898186645834 -441.28432891502746 0 -441.28432891502746 508.92696732371769 0 0 0 0 307.40534763551841 -195.53454376943591 0 -195.53454376943591 -583.74524490573094 0 0 0 0 148.70892243619892 -2.9780416047224207 0 -2.9780416047224207 -649.82221560604739 0 0 0 0 -143.97190776331263 -343.4637133552078 0 -343.4637133552078 -350.9735363533473 0 0 0 0 19.234522289509016 -28.659379011397519 0 -28.659379011397519 -5.941984893832057 0 0 0 0 -319.30358968476503 -410.42642070928196 0 -410.42642070928196 -1549.1439603113577 0 0 0 0 -306.43053736909496 -577.44025486062492 0 -577.44025486062492 -469.51273016858613 0 0 0 0 95.575919019713183 -498.60281378088257 0 -498.60281378088257 -809.24951884458733 0 0 0 0 -9.2439604523436003 -11.077435890571714 0 -11.077435890571714 2.8076212432287022 0 0 0 0 -33.805852590488939 143.58835238827669 0 143.58835238827669 1342.1939281546111 0 0 0 0 -33.177981209984864 -4.9252013351251662 0 -4.9252013351251662 713.80861651308987 0 0 0 0 -110.90561183826503 -31.750541257943951 0 -31.750541257943951 130.99177074584895 0 0 0 0 -49.704191818365899 -23.680443857696055 0 -23.680443857696055 -2.2071492906181334 0 0 0 0 -43.459832309454214 25.129429568187334 0 25.129429568187334 -97.50635358324871 0 0 0 0 -81.140413931039802 -190.9417529886141 0 -190.9417529886141 106.12585457092064 0 0 0 0 -100.50589954583847 -226.19600079864904 0 -226.19600079864904 483.97400985133572 0 0 0 0 -50.16586053372157 -118.66516059442802 0 -118.66516059442802 90.503108158784016 0 0 0 0 2.9193171124497894 -337.87446629810438 0 -337.87446629810438 550.41188915871317 0 0 0 0 -180.59942989879346 -124.56709958566353 0 -124.56709958566353 486.47932966015651 0 0 0 0 -161.05615687901445 -236.65261459017893 0 -236.65261459017893 651.02804178623046 0 0 0 0 -129.84601041311362 -303.68424646769472 0 -303.68424646769472 511.27992220417946 0 0 0 0 -568.80507290249079 3.0799562535994482 0 3.0799562535994482 337.89496561886335 0 0 0 0 -112.45504098283709 2.4704474015343294 0 2.4704474015343294 -24.165940402597698 0 0 0 0 -20.4650106537227 -5.3779645302919761 0 -5.3779645302919761 -1.3910417193839777 0 0 0 0 -423.17333022206003 -1205.8133344291518 0 -1205.8133344291518 -273.90361489652423 0 0 0 0 -711.36772406541058 350.56877891817385 0 350.56877891817385 -218.38679607370977 0 0 0 0 -309.32280697612441 -791.84939900332756 0 -791.84939900332756 3.6549177940623849 0 0 0 0 -81.642093739654229 -488.29860699994606 0 -488.29860699994606 230.42037279442729 0 0 0 0 -481.77924352598347 -327.624289485193 0 -327.624289485193 143.66751871947417 0 0 0 0 -144.94391842038021 -476.59539206306908 0 -476.59539206306908 741.15268804236564 0 0 0 0 -216.15568106650971 -430.44171344404322 0 -430.44171344404322 711.23969050552478 0 0 0 0 -144.11254813594633 -441.92996351047941 0 -441.92996351047941 1508.6622648159209 0 0 0 0 384.94374067876197 -845.04561724354153 0 -845.04561724354153 793.49488103947078 0 0 0 0 919.82391118251689 -324.47591256200758 0 -324.47591256200758 323.25064307644607 0 0 0 0 66.532939934229944 -437.16624969848453 0 -437.16624969848453 200.159290229014 0 0 0 0 18.149186292139348 -464.81408566852951 0 -464.81408566852951 514.21350867761066 0 0 0 0 -319.41847256002075 -429.90726091636316 0 -429.90726091636316 200.60155831381712 0 0 0 0 -306.88743897498352 -168.34845022151785 0 -168.34845022151785 -33.066977751381273 0 0 0 0 65.424000607716152 -21.449008000068716 0 -21.449008000068716 -82.479486132738657 0 0 0 0 99.769527254349669 -198.61693954990915 0 -198.61693954990915 105.08493410159645 0 0 0 0 1.3878631473871508 -3.9167237128710219 0 -3.9167237128710219 -14.565712218636442 0 0 0 0 7.2526243167885696 -410.83852870283044 0 -410.83852870283044 372.90610534211737 0 0 0 0 209.64585089397588 -345.59327050847332 0 -345.59327050847332 -133.25233362471045 0 0 0 0 151.43209151095652 196.01784866876551 0 196.01784866876551 206.78839623000204 0 0 0 0 -24.712186851882763 -33.727988374482067 0 -33.727988374482067 -12.635566499958392 0 0 0 0 284.60680758245871 117.49189353562724 0 117.49189353562724 -47.253887470240443 0 0 0 0 144.49990031850757 0.25567276502442837 0 0.25567276502442837 -206.78404082902307 0 0 0 0 -46.693013533040357 -118.81744226718547 0 -118.81744226718547 162.97306600794582 0 0 0 0 93.621666699909838 23.1808526756231 0 23.1808526756231 132.00240553611366 0 0 0 0 245.83799313535565 -27.470565384293877 0 -27.470565384293877 -241.22034939023433 0 0 0 0 -1.1411429087770166 -13.095522235077595 0 -13.095522235077595 -6.273296806340845 0 0 0 0 -286.76410902154748 -219.61537203909029 0 -219.61537203909029 -228.81279209223794 0 0 0 0 -82.609357900088071 -186.35129540588423 0 -186.35129540588423 66.445604719303446 0 0 0 0 188.05452246377536 -37.157017602197811 0 -37.157017602197811 -184.94207535915666 0 0 0 0 111.12512093974874 182.97435323038462 0 182.97435323038462 387.63508856575936 0 0 0 0 -131.47510373758269 -60.145444603829674 0 -60.145444603829674 833.53537746237362 0 0 0 0 183.71906837683491 -53.362182901838423 0 -53.362182901838423 444.30363185336682 0 0 0 0 657.06238170419238 329.19721142215349 0 329.19721142215349 731.6727036269458 0 0 0 0 -63.479361268874527 -193.4751914895362 0 -193.4751914895362 1671.8837116021932 0 0 0 0 -71.10906267518294 -277.79531798881999 0 -277.79531798881999 747.74532227762757 0 0 0 0 334.25668771057462 -135.50290200326617 0 -135.50290200326617 -232.37969061089098 0 0 0 0 639.6936463446109 -415.16823210390885 0 -415.16823210390885 13.858519609129871 0 0 0 0 29.167369200375461 -33.043111613290122 0 -33.043111613290122 24.830341333633896 0 0 0 0 52.292078471909917 -237.72779500572869 0 -237.72779500572869 26.093982710514865 0 0 0 0 67.115148983313702 -281.80986412809762 0 -281.80986412809762 124.58856366984037 0 0 0 0 -42.255639074588544 -96.40013761271257 0 -96.40013761271257 -63.534337219462031 0 0 0 0 132.13652815733803 -200.88495842736666 0 -200.88495842736666 103.78571461739921 0 0 0 0 65.395512304916338 -242.07314232334102 0 -242.07314232334102 110.4492117569971 0 0 0 0 49.738156882791372 -76.28259953953966 0 -76.28259953953966 -15.70637795301991 0 0 0 0 66.804962212441751 -114.51234773315264 0 -114.51234773315264 290.73923619120615 0 0 0 0 52.885257943446049 -47.359902631556906 0 -47.359902631556906 57.638282399335367 0 0 0 0 -23.16988338604024 -7.1456106676952942 0 -7.1456106676952942 -1.6938397366351818 0 0 0 0 123.08176238238229 -254.62320041241401 0 -254.62320041241401 409.26386201232981 0 0 0 0 201.4571820402125 -273.91821161719054 0 -273.91821161719054 180.59044496806746 0 0 0 0 215.43859548449473 -226.95332220898626 0 -226.95332220898626 193.07480087421209 0 0 0 0 269.36261365457176 -283.90683525410532 0 -283.90683525410532 236.97445699760647 0 0 0 0 272.52743067138363 -328.71098904380779 0 -328.71098904380779 816.47948724068192 0 0 0 0 71.946709313458996 -799.72179222857267 0 -799.72179222857267 225.98929402603608 0 0 0 0 135.18558492245211 -560.38747992949357 0 -560.38747992949357 538.74495842343458 0 0 0 0 -129.78004593768856 -573.37493445479595 0 -573.37493445479595 680.185101795425 0 0 0 0 114.39111869920453 -844.45056910029598 0 -844.45056910029598 768.39008534303866 0 0 0 0 -46.716999402822694 -453.58251134378952 0 -453.58251134378952 464.50983258235283 0 0 0 0 -157.1903992878797 -553.9707717628753 0 -553.9707717628753 767.12767446692953 0 0 0 0 -1273.4885030731384 -277.73302643042371 0 -277.73302643042371 354.69911368363319 0 0 0 0 -367.95822262795809 -563.51386698581291 0 -563.51386698581291 443.31910446514667 0 0 0 0 -490.44234993985447 -1308.4078453889706 0 -1308.4078453889706 -180.83873182197021 0 0 0 0 632.64657912349503 -695.64475641293666 0 -695.64475641293666 72.030285686341813 0 0 0 0 1442.7829508379364 -1141.9579044929906 0 -1141.9579044929906 -802.05460674365804 0 0 0 0 -1240.4284705438549 -1008.5554681023623 0 -1008.5554681023623 307.53880832675895 0 0 0 0 -786.15287794078904 68.438609954335561 0 68.438609954335561 691.39512442771593 0 0 0 0 632.65661376131902 -769.71669782129902 0 -769.71669782129902 547.40396996342224 0 0 0 0 12.977456114614597 -10.327253984094668 0 -10.327253984094668 10.142875218172421 0 0 0 0 1563.4428718456807 270.65132611871223 0 270.65132611871223 -203.66689609008972 0 0 0 0 -115.38708502360532 -285.62592055948153 0 -285.62592055948153 318.95846661290489 0 0 0 0 117.76563646876457 111.88759119924453 0 111.88759119924453 -193.96619156176502 0 0 0 0 78.055062533807359 -83.215351142657255 0 -83.215351142657255 8.9554621606275759 0 0 0 0 951.23889073629834 -671.52124585330876 0 -671.52124585330876 357.23367329712346 0 0 0 0 665.97635899122542 -2.7406045149937199 0 -2.7406045149937199 -146.70278964638237 0 0 0 0 1.5524179122450477 -3.686632225378915 0 -3.686632225378915 6.4615166346234467 0 0 0 0 978.17865493093996 -284.96810087848917 0 -284.96810087848917 0.29568623371415015 0 0 0 0 546.89589581706969 -1072.529121179693 0 -1072.529121179693 425.64574833455845 0 0 0 0 665.60961304396187 -321.33329826032696 0 -321.33329826032696 65.884668467626398 0 0 0 0 583.5947292244964 -236.89683063272605 0 -236.89683063272605 388.5305120449575 0 0 0 0 1186.5081915985538 -860.48451674195439 0 -860.48451674195439 266.50186429104997 0 0 0 0 891.53446876058297 -739.80587544596347 0 -739.80587544596347 314.68303303710491 0 0 0 0 -168.0372916153392 -298.26506996981516 0 -298.26506996981516 132.57621811796525 0 0 0 0 1247.7139268844039 262.428459749186 0 262.428459749186 222.13296862531661 0 0 0 0 -143.24931652314262 -409.91588398406293 0 -409.91588398406293 393.53138072551883 0 0 0 0 579.90559731196117 61.675436688517038 0 61.675436688517038 -14.145296841511936 0 0 0 0 514.51547160650807 -99.43847845626442 0 -99.43847845626442 4.2060809351560238 0 0 0 0 94.582230550440727 -115.24658074572926 0 -115.24658074572926 41.238240090719046 0 0 0 0 82.914452538974729 -56.697319132980738 0 -56.697319132980738 34.32304594296329 0 0 0 0 81.797376925388562 -165.51342353468385 0 -165.51342353468385 -2.7386361316985131 0 0 0 0 150.61653407603808 -97.863331508252486 0 -97.863331508252486 -17.061604153383087 0 0 0 0 110.37352947268846 -161.52579926836643 0 -161.52579926836643 83.141646032956487 0 0 0 0 834.06821155066427 -406.07178664498861 0 -406.07178664498861 -264.03915151115052 0 0 0 0 366.78964981801255 -220.09490650326006 0 -220.09490650326006 -150.6524110294049 0 0 0 0 148.49374260267177 -546.56792412545974 0 -546.56792412545974 -181.5273231106039 0 0 0 0 427.52414192608376 -488.68374992328745 0 -488.68374992328745 -59.489740006189095 0 0 0 0 361.62315006571589 -417.07532704363803 0 -417.07532704363803 -136.37159310283641 0 0 0 0 622.85307451846893 -157.20786556643452 0 -157.20786556643452 -106.99670597499789 0 0 0 0 464.51313534200563 -248.91564197334037 0 -248.91564197334037 -155.50110721188867 0 0 0 0 -83.532312889139575 -13.418365837518877 0 -13.418365837518877 105.8571129068464 0 0 0 0 156.44272974789783 -184.85048318945337 0 -184.85048318945337 -302.98054097103795 0 0 0 0 3.7664631695326207 -5.7687022283724332 0 -5.7687022283724332 -59.771175409347492 0 0 0 0 254.47597140891412 -40.851169556505283 0 -40.851169556505283 -245.47226194862196 0 0 0 0 -218.18603506323052 -212.60041203778019 0 -212.60041203778019 -348.55866662161134 0 0 0 0 -19.510948627837934 -22.426478529429914 0 -22.426478529429914 -291.88098273483411 0 0 0 0 18.119049403958797 -68.481995481272065 0 -68.481995481272065 -17.414424048569344 0 0 0 0 19.46320028599439 -46.41958461492959 0 -46.41958461492959 96.639061342104469 0 0 0 0 -147.46792405043379 -287.49734592180448 0 -287.49734592180448 -295.20385835451452 0 0 0 0 -262.85408619441296 -231.3681982199696 0 -231.3681982199696 -152.26476834198547 0 0 0 0 -189.30868772143003 -274.9399507983735 0 -274.9399507983735 -426.82800987951123 0 0 0 0 -164.59501035918947 -120.87151644154801 0 -120.87151644154801 -283.74543857997014 0 0 0 0 -462.10741735830015 -344.19356752406566 0 -344.19356752406566 -381.89054004560421 0 0 0 0 -596.76906918147142 -557.57461053759835 0 -557.57461053759835 -324.41682511319658 0 0 0 0 -262.53612388062174 -188.2753938626829 0 -188.2753938626829 -351.46535769224101 0 0 0 0 -305.24667710201174 -406.68436340480366 0 -406.68436340480366 -875.64793033210026 0 0 0 0 -640.62716821592039 -871.54342544656447 0 -871.54342544656447 -723.37233988724074 0 0 0 0 -1120.5140228677556 -479.70336429984854 0 -479.70336429984854 -103.49676660394107 0 0 0 0 -609.75205759991513 -1007.0686762110863 0 -1007.0686762110863 -366.78352631731286 0 0 0 0 180.51807914836536 -54.774051544580288 0 -54.774051544580288 -409.38466284363318 0 0 0 0 -2.8973978852822526 -4.5644918712187277 0 -4.5644918712187277 -7.4811716197017972 0 0 0 0 -64.824274167916883 -297.66144742571214 0 -297.66144742571214 -90.490601145877918 0 0 0 0 -6.2533015514124699 -10.838749700998648 0 -10.838749700998648 -21.044586433607776 0 0 0 0 -683.94531250341606 -530.23795770720153 0 -530.23795770720153 -260.45495359137931 0 0 0 0 -264.24313944322239 -134.92162724909304 0 -134.92162724909304 -82.944552730794385 0 0 0 0 -1319.544293922967 -704.99287511124066 0 -704.99287511124066 -77.664647857664932 0 0 0 0 -670.47063149179212 -532.72507915257256 0 -532.72507915257256 -577.4238216591275 0 0 0 0 -1097.6840224506668 -385.48233299911726 0 -385.48233299911726 -307.68357741877571 0 0 0 0 -0.23684113422859099 -1.315650815822849 0 -1.315650815822849 -13.266812956062241 0 0 0 0 2.2474249316085277 -3.7470561806027263 0 -3.7470561806027263 -39.023930239117625 0 0 0 0 434.06481757823531 84.195120283184394 0 84.195120283184394 -13.888718050192438 0 0 0 0 -1031.8718746099585 -748.30472258646569 0 -748.30472258646569 -344.16813400029423 0 0 0 0 -102.60371017285433 -512.91748510818161 0 -512.91748510818161 37.208922110346975 0 0 0 0 -731.70909134304748 52.059033582624579 0 52.059033582624579 709.24349193895432 0 0 0 0 -2157.4356704109214 -1790.6938074699196 0 -1790.6938074699196 -1132.545894318042 0 0 0 0 -138.84876864509715 17.541986190378793 0 17.541986190378793 -1096.672758744583 0 0 0 0 -594.68275381076091 -719.61499817780941 0 -719.61499817780941 -582.62113629272972 0 0 0 0 348.35232833488408 157.37789616097871 0 157.37789616097871 -733.04845522073515 0 0 0 0 -40.204524943925037 -19.052859776574508 0 -19.052859776574508 14.549966305377852 0 0 0 0 -364.11086818411422 -37.820470253090093 0 -37.820470253090093 107.70448133257852 0 0 0 0 -181.70472102534768 288.47362777545891 0 288.47362777545891 408.17452084299566 0 0 0 0 -25.560485618952953 -208.86603034908876 0 -208.86603034908876 -219.41508371023247 0 0 0 0 -190.01551755290711 -96.469700699124587 0 -96.469700699124587 -253.98465688974858 0 0 0 0 97.622980559142889 64.267386747283581 0 64.267386747283581 -150.07273865539116 0 0 0 0 95.134583420847775 12.535262411260192 0 12.535262411260192 12.677488894000817 0 0 0 0 0.47025885025760772 -33.259552384960188 0 -33.259552384960188 3.4122921369764727 0 0 0 0 449.64916883843762 -457.23572545215296 0 -457.23572545215296 -1256.3954699218039 0 0 0 0 346.20366755093346 -603.57284192330474 0 -603.57284192330474 -1461.7099382616843 0 0 0 0 656.57049294107856 -342.357462676914 0 -342.357462676914 -1389.5188868579867 0 0 0 0 387.99530950524786 -459.91727301360788 0 -459.91727301360788 -917.61233935501696 0 0 0 0 380.22802768622932 -617.58200339897485 0 -617.58200339897485 -895.76093639430815 0 0 0 0 292.82789093590691 -390.44314039585879 0 -390.44314039585879 -529.25943706934049 0 0 0 0 75.590428102186706 -490.19371592031257 0 -490.19371592031257 -14.213843988960434 0 0 0 0 103.55934488342791 -508.07737281038862 0 -508.07737281038862 -458.62607772727642 0 0 0 0 116.88704634993337 -188.53650410984483 0 -188.53650410984483 -502.32811804230732 0 0 0 0 115.40012980909523 -269.17669139863756 0 -269.17669139863756 1.7860198199996375 0 0 0 0 313.44924975488721 -335.52611330271156 0 -335.52611330271156 -638.7292774322741 0 0 0 0 381.37891035252505 221.42519184397406 0 221.42519184397406 -748.61263094734932 0 0 0 0 168.09737454834976 24.880275704431369 0 24.880275704431369 55.389815458796875 0 0 0 0 719.77199609565969 33.158988738752207 0 33.158988738752207 -1516.2220475301974 0 0 0 0 727.28255079900919 -140.72511365126377 0 -140.72511365126377 -988.68112156809411 0 0 0 0 1254.9647318419957 -1262.5707786767139 0 -1262.5707786767139 -3762.4867985633364 0 0 0 0 -3063.951579340086 -2111.0732289781736 0 -2111.0732289781736 -854.47355148338647 0 0 0 0 -1255.0401255050492 -629.4097292542815 0 -629.4097292542815 -367.90118074869451 0 0 0 0 -2394.1361202300177 -1478.2031216502041 0 -1478.2031216502041 -458.80547282892167 0 0 0 0 -375.46670032840848 -308.46312035283381 0 -308.46312035283381 -251.39584513678074 0 0 0 0 -3.4463786496101054 -1.8958138064185306 0 -1.8958138064185306 -33.718222146519039 0 0 0 0 -250.5246201221089 -691.01672064232298 0 -691.01672064232298 -620.00654701814892 0 0 0 0 219.62955481350855 -370.19016146610659 0 -370.19016146610659 -655.52439231776634 0 0 0 0 -4.7424518492152856 -891.20417493243713 0 -891.20417493243713 -1392.9915940835915 0 0 0 0 -530.28434351326905 -588.37662609989843 0 -588.37662609989843 -388.27223590791982 0 0 0 0 920.53064945984124 394.50325985605451 0 394.50325985605451 -1165.5374480324676 0 0 0 0 123.21865413089836 307.58945946554581 0 307.58945946554581 126.45413457990048 0 0 0 0 -44.920597138773473 -16.977462527868418 0 -16.977462527868418 12.493396556444925 0 0 0 0 1253.0147294517483 -435.52365266248808 0 -435.52365266248808 -4584.7326063133933 0 0 0 0 -282.99537423585571 -291.50921922705493 0 -291.50921922705493 1876.1348137580869 0 0 0 0 5.8046934991032799 -8.2831985978774405 0 -8.2831985978774405 -0.9301905564668953 0 0 0 0 -51.757262815735885 -121.90888378469572 0 -121.90888378469572 743.79724935616423 0 0 0 0 210.54438774311711 -1209.061997352379 0 -1209.061997352379 -2398.1062752312464 0 0 0 0 -1098.7338044160424 77.433376659444548 0 77.433376659444548 -1925.8915453853424 0 0 0 0 -355.66975889260721 -959.9606998394969 0 -959.9606998394969 -714.72439850693991 0 0 0 0 -257.0859941224071 -199.59947213607722 0 -199.59947213607722 174.97162197665239 0 0 0 0 260.19518514229276 -466.33444108184722 0 -466.33444108184722 529.71288933112373 0 0 0 0 -217.41668674173343 146.99347356421731 0 146.99347356421731 -998.57066500722431 0 0 0 0 1138.4916158924607 -1300.3850043155362 0 -1300.3850043155362 -1346.8992030335521 0 0 0 0 8.3431974568647433 -2.6712231099301285 0 -2.6712231099301285 -0.12331654420109217 0 0 0 0 73.519333576805366 -111.35416181471919 0 -111.35416181471919 22.83508654162506 0 0 0 0 24.91072447390809 -16.280520929163941 0 -16.280520929163941 -15.186470247732963 0 0 0 0 87.847634765967086 -98.681636676114067 0 -98.681636676114067 33.945405956617833 0 0 0 0 34.837497524436912 -49.724498894669523 0 -49.724498894669523 22.330211720973239 0 0 0 0 -2.7515603720859119 -21.946432009129303 0 -21.946432009129303 -25.266766236795888 0 0 0 0 -191.65776610651665 382.21150665013613 0 382.21150665013613 -608.45975147663808 0 0 0 0 -656.25071476423909 -804.90995479818412 0 -804.90995479818412 -580.62752591159733 0 0 0 0 848.38930120831355 491.178688105314 0 491.178688105314 204.58567947044503 0 0 0 0 1.5798603082950535 -21.363043415605205 0 -21.363043415605205 -32.162319938398952 0 0 0 0 202.23259604071791 -1511.4047271534855 0 -1511.4047271534855 -2903.0019186314594 0 0 0 0 -223.28559257640882 614.66625968858602 0 614.66625968858602 -2176.8284483548105 0 0 0 0 -1129.7923165050888 -3556.5688880547468 0 -3556.5688880547468 -2186.6203081936874 0 0 0 0 207.03912765670975 -186.17366887207572 0 -186.17366887207572 -3156.2924260242953 0 0 0 0 -564.06454301042686 -1701.5006013303328 0 -1701.5006013303328 -2761.8534930423602 0 0 0 0 -2804.8827795218822 -1443.3811103397338 0 -1443.3811103397338 -9.6672184628041578 0 0 0 0 185.9444239083823 -166.55858461156186 0 -166.55858461156186 -1492.3134329942395 0 0 0 0 -199.10718564564013 -739.7422219050477 0 -739.7422219050477 -916.94422051095535 0 0 0 0 387.48984383864445 -778.12307211439293 0 -778.12307211439293 -1658.9345929016918 0 0 0 0 387.83608269990964 -466.0032355175523 0 -466.0032355175523 -1083.2644813138359 0 0 0 0 72.433821854858252 -870.15483893620149 0 -870.15483893620149 -430.06414980777663 0 0 0 0 379.99887257629234 -625.67510306420047 0 -625.67510306420047 -1099.9660530813908 0 0 0 0 124.60475765829324 -673.30984197391808 0 -673.30984197391808 -909.64967951486096 0 0 0 0 -969.58304374922591 -831.31502740986616 0 -831.31502740986616 234.69678071855924 0 0 0 0 292.19571159549741 59.214746881334577 0 59.214746881334577 462.42301176525507 0 0 0 0 -16.344833476970962 -345.32462053665404 0 -345.32462053665404 625.5651436406697 0 0 0 0 187.21263827416988 -466.11233203086431 0 -466.11233203086431 -229.228258312658 0 0 0 0 103.89878774440149 -630.39385103296445 0 -630.39385103296445 131.75773614313584 0 0 0 0 199.39054998061329 -591.91582869266131 0 -591.91582869266131 -92.031842328426137 0 0 0 0 -1198.6131684328138 -647.38081723906816 0 -647.38081723906816 1564.054679794679 0 0 0 0 -659.78876432911784 494.36382441793103 0 494.36382441793103 1472.6408527653418 0 0 0 0 -836.07759279651509 -96.561901356884846 0 -96.561901356884846 208.61206227116031 0 0 0 0 581.83416936104913 544.73670840030445 0 544.73670840030445 744.17508898207598 0 0 0 0 1028.7447117648117 413.52354243560603 0 413.52354243560603 -604.61451781293908 0 0 0 0 -832.60075898460127 914.92187907053631 0 914.92187907053631 -631.02086738629805 0 0 0 0 324.26892127988322 -477.97346616106074 0 -477.97346616106074 -65.269016605263459 0 0 0 0 328.72531789974892 -75.896346187179006 0 -75.896346187179006 -267.80385445338743 0 0 0 0 124.7290199807685 33.298876424429181 0 33.298876424429181 267.87043865731721 0 0 0 0 322.32967963739065 14.368746280003506 0 14.368746280003506 -180.27483102201222 0 0 0 0 49.885760729230242 -78.847054387664684 0 -78.847054387664684 -3.3973406446216359 0 0 0 0 53.360006656621408 -114.43989867885193 0 -114.43989867885193 -15.678684271088969 0 0 0 0 -33.547882041042612 -6.2718190425662215 0 -6.2718190425662215 5.2999355368515353 0 0 0 0 -298.9682959656493 20.182670572220104 0 20.182670572220104 83.568984070576789 0 0 0 0 148.47166684654439 -136.54769695485356 0 -136.54769695485356 58.295849546739191 0 0 0 0 -1.8243911453874375 -0.092766668285946707 0 -0.092766668285946707 -6.8444854125038717 0 0 0 0 15.790159678770578 -273.4134996902867 0 -273.4134996902867 48.596053249646502 0 0 0 0 -199.40255584733313 -221.48372793658245 0 -221.48372793658245 122.66948801319813 0 0 0 0 346.78595127371227 -138.49522120143092 0 -138.49522120143092 -53.640227682055411 0 0 0 0 7.5801134165908763 -24.561588598203738 0 -24.561588598203738 1.8372176306170309 0 0 0 0 108.75109837250784 260.40464529133897 0 260.40464529133897 -68.125802376232969 0 0 0 0 -120.01369489919034 -305.24028683170371 0 -305.24028683170371 339.4512957192419 0 0 0 0 -171.58999756252524 -568.24187150630178 0 -568.24187150630178 -835.15197329271359 0 0 0 0 81.726078818515816 -106.71919496315513 0 -106.71919496315513 81.630368472476221 0 0 0 0 1.1679660285984994 -31.7835756263311 0 -31.7835756263311 4.2862180276303548 0 0 0 0 -334.5591799526228 -395.42656263289382 0 -395.42656263289382 -628.54103147496789 0 0 0 0 -84.759074625297217 -357.93096956035151 0 -357.93096956035151 -1481.7743535509562 0 0 0 0 -200.50950274850766 -244.88194063171886 0 -244.88194063171886 -85.189030327185151 0 0 0 0 -97.065934248927078 -308.52412473067488 0 -308.52412473067488 -300.8436351411292 0 0 0 0 -102.52393679598026 -348.03371491582948 0 -348.03371491582948 -535.04198031985879 0 0 0 0 17.203675504042621 -67.259557074762824 0 -67.259557074762824 65.777509730938618 0 0 0 0 -3.2187387441097428 -32.117476112134014 0 -32.117476112134014 4.4582026907450496 0 0 0 0 29.732931383961841 -60.017148297865788 0 -60.017148297865788 51.994604145635094 0 0 0 0 47.411404074264283 -47.390230582527238 0 -47.390230582527238 55.19364658746963 0 0 0 0 123.27930223242583 -82.164887825452752 0 -82.164887825452752 40.27109309995376 0 0 0 0 13.673319512301532 -97.738026151586382 0 -97.738026151586382 18.274542721773287 0 0 0 0 32.824390810604996 -42.244690629412972 0 -42.244690629412972 51.246512718549312 0 0 0 0 100.15171403421846 -153.19858391702564 0 -153.19858391702564 -3.6286502506450233 0 0 0 0 -93.053101713245269 -116.73647510591218 0 -116.73647510591218 53.815816207020362 0 0 0 0 -13.428003055162662 -65.765576545545343 0 -65.765576545545343 21.011143292793349 0 0 0 0 -13.764960312648327 -47.330425852383996 0 -47.330425852383996 24.920477605925498 0 0 0 0 22.703585435550252 -39.967264339015991 0 -39.967264339015991 43.281242930327032 0 0 0 0 -13.67645817551238 -65.684167387763864 0 -65.684167387763864 54.611171449052563 0 0 0 0 -3.0263109652441926 -40.769767372531533 0 -40.769767372531533 38.378070736710015 0 0 0 0 -3.9671179875585949 -273.28802188477624 0 -273.28802188477624 -766.16153474311807 0 0 0 0 -369.30039593941183 -336.55102599691588 0 -336.55102599691588 -145.4973020214984 0 0 0 0 5.0451920635164136 -11.105731555658082 0 -11.105731555658082 -36.138157855076706 0 0 0 0 -91.611277767631691 45.526290906165514 0 45.526290906165514 -387.73474769616098 0 0 0 0 56.824730602072577 -122.03550545769443 0 -122.03550545769443 -204.77048823149062 0 0 0 0 -5.9469810377250667 -4.9818580924328586 0 -4.9818580924328586 -2.6887957384613621 0 0 0 0 -144.1960526154071 -154.87488182475317 0 -154.87488182475317 11.783533160415573 0 0 0 0 83.811082810061635 123.39172653781338 0 123.39172653781338 49.110580923667385 0 0 0 0 -38.425145966582932 -169.93522107040735 0 -169.93522107040735 -196.52032232968975 0 0 0 0 -70.124168654874666 -22.528655408049872 0 -22.528655408049872 63.819946664892996 0 0 0 0 0.72370759479963453 -67.903045020058926 0 -67.903045020058926 -51.111266941396934 0 0 0 0 2.8384943254568498 -46.044389240047622 0 -46.044389240047622 19.383872509327375 0 0 0 0 1.8900517425065955 -28.669687268906671 0 -28.669687268906671 5.6111360375497057 0 0 0 0 37.120524783604196 -18.46567939665988 0 -18.46567939665988 -10.703182407524309 0 0 0 0 -2.1620794431226411 -20.360323622244564 0 -20.360323622244564 37.153524037595702 0 0 0 0 -23.083636970906809 -26.323749276387844 0 -26.323749276387844 62.831965684405077 0 0 0 0 -20.056176372643677 -39.359550392224264 0 -39.359550392224264 88.171498339753271 0 0 0 0 -0.040466590195478602 -1.2501584161973409 0 -1.2501584161973409 4.3967904056420881 0 0 0 0 -0.0097088809707202017 -53.78972808178105 0 -53.78972808178105 51.100732726275965 0 0 0 0 -5.4375640731232124 -49.011114129838461 0 -49.011114129838461 15.46608237507462 0 0 0 0 -9.1028911629982758 -51.818016733146578 0 -51.818016733146578 13.486794414817155 0 0 0 0 -6.744609537215382 -36.621565608931618 0 -36.621565608931618 9.2381008833245346 0 0 0 0 -18.069118815202728 -51.367213573165557 0 -51.367213573165557 21.135091413261762 0 0 0 0 65.690111806332425 -17.968429372886931 0 -17.968429372886931 11.679373923921958 0 0 0 0 -104.83671310132195 -55.42051851528413 0 -55.42051851528413 104.60829731511149 0 0 0 0 -38.964598681577627 -81.809423536957183 0 -81.809423536957183 31.342731301045205 0 0 0 0 -285.8140391076613 -237.40238863291529 0 -237.40238863291529 -27.460106860755332 0 0 0 0 -184.8162018300136 57.763994378694861 0 57.763994378694861 98.273990665617021 0 0 0 0 159.46175355664309 24.359273326849234 0 24.359273326849234 -49.328588123878944 0 0 0 0 17.467772924916062 -54.60474364226684 0 -54.60474364226684 35.455818393081245 0 0 0 0 17.030423853175307 -31.989559523037769 0 -31.989559523037769 10.16334720951545 0 0 0 0 -0.50146477915874499 -18.362495002149416 0 -18.362495002149416 5.4843714298652131 0 0 0 0 37.503118247856037 -48.342830807307109 0 -48.342830807307109 22.050006728070002 0 0 0 0 0.044401824874512386 -70.490065011313163 0 -70.490065011313163 20.973729643072147 0 0 0 0 90.908476906537544 -128.66162806291595 0 -128.66162806291595 49.930655030813796 0 0 0 0 95.409913683055493 -39.466827542475585 0 -39.466827542475585 -13.13381506220685 0 0 0 0 195.87819865252459 -123.50243183670787 0 -123.50243183670787 52.87282361986945 0 0 0 0 0.19837686400840299 -155.6452802732525 0 -155.6452802732525 78.595077448033408 0 0 0 0 -1001.3407358458026 -458.95406450174232 0 -458.95406450174232 125.08287564847888 0 0 0 0 -713.61393242781196 371.57447390291827 0 371.57447390291827 139.58990033407372 0 0 0 0 -0.41055246403750534 -21.149202570186844 0 -21.149202570186844 -20.751015153793375 0 0 0 0 423.51476814824559 -90.313887904626739 0 -90.313887904626739 -405.30988699519912 0 0 0 0 -1027.7056893170375 -658.6781377968473 0 -658.6781377968473 -2.8090695455048262 0 0 0 0 -920.25271613524819 -1115.0549554526151 0 -1115.0549554526151 -627.73008690095412 0 0 0 0 -803.15233844927297 -708.89333355745555 0 -708.89333355745555 -36.315428593656179 0 0 0 0 -774.06987841179944 -543.59484309510208 0 -543.59484309510208 -8.1956072144441237 0 0 0 0 -320.67698485845176 -537.52307178029241 0 -537.52307178029241 -126.59458091949091 0 0 0 0 -529.69112366894115 -578.00534753363445 0 -578.00534753363445 11.451658038151436 0 0 0 0 -493.83312258516526 -687.79411735251597 0 -687.79411735251597 18.496391060332826 0 0 0 0 -445.10152898390515 -677.16612137075845 0 -677.16612137075845 -225.08992671347914 0 0 0 0 -446.57359980753426 -664.61099505433367 0 -664.61099505433367 -253.72387512517525 0 0 0 0 -78.316705185497995 -498.3415406227241 0 -498.3415406227241 -649.92049530353142 0 0 0 0 -316.33347826666432 -552.53512277049504 0 -552.53512277049504 -78.355575607542505 0 0 0 0 -132.5431117645785 -353.12482246862601 0 -353.12482246862601 -380.8887128531598 0 0 0 0 -143.42030747265744 -273.98568506642141 0 -273.98568506642141 -165.52150747920859 0 0 0 0 -293.84310069924686 -211.28770463556066 0 -211.28770463556066 -52.327445956709198 0 0 0 0 -277.17885190851666 -460.54102128050363 0 -460.54102128050363 551.58730972836383 0 0 0 0 -165.68683252009214 -227.23561210250591 0 -227.23561210250591 -258.69372937077333 0 0 0 0 -238.46775578497181 -635.99517454617217 0 -635.99517454617217 527.6955503193567 0 0 0 0 58.08644069336151 -554.07400531945223 0 -554.07400531945223 62.356003511198651 0 0 0 0 -308.26517506241362 -747.29581118877286 0 -747.29581118877286 199.00809751280667 0 0 0 0 -275.57728024809694 -486.77419136531557 0 -486.77419136531557 23.940564064065256 0 0 0 0 -373.66774235558842 -673.95804015294925 0 -673.95804015294925 13.306884316820287 0 0 0 0 -370.278666328697 -626.66003712774045 0 -626.66003712774045 -4.0093677307486359 0 0 0 0 -125.32154036203792 -693.32731076539585 0 -693.32731076539585 -88.004372954585051 0 0 0 0 -124.30318681125209 -723.36830053668564 0 -723.36830053668564 151.01665373892229 0 0 0 0 -156.78737978635036 -750.20676055990225 0 -750.20676055990225 -615.89649054753704 0 0 0 0 -261.08588945930387 -429.33611012425899 0 -429.33611012425899 -155.95966220425908 0 0 0 0 -337.11785241242615 -703.36968483187229 0 -703.36968483187229 -141.01308140053334 0 0 0 0 -218.76545616344083 -633.47364462786754 0 -633.47364462786754 -125.4903631952493 0 0 0 0 -281.2605304700046 -660.24214628456684 0 -660.24214628456684 -450.22440409446881 0 0 0 0 -434.25217696283653 -592.5735778458602 0 -592.5735778458602 -79.819100818468996 0 0 0 0 -242.41389041297225 -517.69682658419242 0 -517.69682658419242 -56.323125586137394 0 0 0 0 -530.38742698568967 -265.97855706507289 0 -265.97855706507289 202.03172170259859 0 0 0 0 -480.67297189962028 -589.15565687594903 0 -589.15565687594903 10.309498208363948 0 0 0 0 1.0709864207529236 -2.0349062840698702 0 -2.0349062840698702 1.7519116486659079 0 0 0 0 -82.109881269974267 -22.873680276361355 0 -22.873680276361355 166.45777794643072 0 0 0 0 119.40761331694739 -84.621089689011569 0 -84.621089689011569 -3.487842368602287 0 0 0 0 57.788773150879933 47.29267559069342 0 47.29267559069342 152.09192305768602 0 0 0 0 -52.950616337535621 124.5008340045555 0 124.5008340045555 104.92482996062154 0 0 0 0 0.75859260127243289 -0.82214534648751858 0 -0.82214534648751858 0.80298836337525659 0 0 0 0 -240.46763361157355 93.823377599267815 0 93.823377599267815 338.87618681442405 0 0 0 0 78.664993730615606 -75.096292784468233 0 -75.096292784468233 -45.858458370555695 0 0 0 0 20.067571311502434 -3.9538824440663802 0 -3.9538824440663802 171.72771256292481 0 0 0 0 -40.151397129597171 -11.957222671177931 0 -11.957222671177931 98.130069251805082 0 0 0 0 58.963502428057836 -11.843336776496358 0 -11.843336776496358 96.118784680690482 0 0 0 0 -238.9877394015266 -113.51381289420729 0 -113.51381289420729 124.05483646347795 0 0 0 0 -164.04707249332387 -18.972010913795145 0 -18.972010913795145 241.85095543041302 0 0 0 0 -155.91742768183212 -44.160208311485633 0 -44.160208311485633 75.331431718327281 0 0 0 0 -62.496663158697629 -68.970574200029318 0 -68.970574200029318 -47.287141530361623 0 0 0 0 -125.25587735199952 -147.76705722159699 0 -147.76705722159699 -79.141605275264737 0 0 0 0 -12.751262030456928 115.27690607215141 0 115.27690607215141 141.08729855065667 0 0 0 0 115.58461446607907 -6.8212292053306101 0 -6.8212292053306101 239.1152049184675 0 0 0 0 -55.91435431386526 28.469634795317774 0 28.469634795317774 286.51127146584531 0 0 0 0 -58.349675205220592 69.897825206550039 0 69.897825206550039 375.03846892738875 0 0 0 0 -55.527838765750857 56.67602951287337 0 56.67602951287337 260.46571967838463 0 0 0 0 154.02859826011991 259.60482638409985 0 259.60482638409985 131.1804876279312 0 0 0 0 -0.59532121976733521 -1.9153735214251348 0 -1.9153735214251348 3.0452499243409505 0 0 0 0 -78.599489329261814 34.251758361740144 0 34.251758361740144 345.67516742670443 0 0 0 0 -72.629519260368397 -48.059556904538738 0 -48.059556904538738 319.4862741094247 0 0 0 0 0.20438542912985724 -1.2609024648363594 0 -1.2609024648363594 1.2266505384490074 0 0 0 0 -17.28404263240914 -4.6685209750086916 0 -4.6685209750086916 9.06224654197087 0 0 0 0 18.347376371719292 -94.039373408790198 0 -94.039373408790198 154.51803260045995 0 0 0 0 -33.278264108395888 21.970218951251979 0 21.970218951251979 185.35581507295399 0 0 0 0 14.658842602266304 -14.780109136837439 0 -14.780109136837439 73.418226752428666 0 0 0 0 -33.862252428067222 20.843454264236755 0 20.843454264236755 237.59533161897923 0 0 0 0 -2.7366954115204862 -8.7741784232130158 0 -8.7741784232130158 12.602552915263004 0 0 0 0 -8.0731149734896093 -12.167072046187279 0 -12.167072046187279 48.027353647896625 0 0 0 0 -10.066210740260431 -25.363760793541587 0 -25.363760793541587 -3.6904646622642758 0 0 0 0 -7.1971002297796076 -27.598678567098432 0 -27.598678567098432 -2.5344270146706549 0 0 0 0 -4.5798332932590711 -23.688060520918953 0 -23.688060520918953 6.4076363362300981 0 0 0 0 -4.7318655999141441 -13.303711933901319 0 -13.303711933901319 11.498536435954088 0 0 0 0 -13.552709047421338 -32.860653928740376 0 -32.860653928740376 -3.075257580598997 0 0 0 0 -3.5514154586479165 -19.774482001466168 0 -19.774482001466168 0.98747024905987502 0 0 0 0 9.111415541574388 11.503322350438566 0 11.503322350438566 138.82703153957567 0 0 0 0 -15.494266853108879 -26.365808818686332 0 -26.365808818686332 4.8634792242510869 0 0 0 0 36.902879442966878 -31.543158744170796 0 -31.543158744170796 -5.7237136537905826 0 0 0 0 10.613703637730413 -19.093120298892867 0 -19.093120298892867 -6.5807605982181698 0 0 0 0 33.604165326972314 -23.487443850063798 0 -23.487443850063798 7.9699480407504177 0 0 0 0 22.051250810200145 88.328607581089727 0 88.328607581089727 517.73140950095512 0 0 0 0 21.563989412754381 0.90167137772732531 0 0.90167137772732531 -15.627339072782434 0 0 0 0 34.998827712852744 -60.41199660441012 0 -60.41199660441012 230.98793148049026 0 0 0 0 -40.265713923818112 53.534878310808267 0 53.534878310808267 241.40854552313408 0 0 0 0 2.5773101693052993 -0.5326324170365595 0 -0.5326324170365595 -3.6902820404855863 0 0 0 0 45.895254852621292 23.585904414797824 0 23.585904414797824 541.12496541928851 0 0 0 0 138.75746998205068 -5.9558832634199916 0 -5.9558832634199916 156.29052260308663 0 0 0 0 -107.2907037510513 -59.732954665958459 0 -59.732954665958459 75.256695397929434 0 0 0 0 -90.294995656839546 -68.649061115213044 0 -68.649061115213044 46.901428156075781 0 0 0 0 -69.976824980178208 -102.6396366114659 0 -102.6396366114659 -21.292212931754875 0 0 0 0 -129.78093294321206 34.642198034304784 0 34.642198034304784 250.91323528870271 0 0 0 0 -114.69175891161558 -76.975053909610324 0 -76.975053909610324 52.577620557595765 0 0 0 0 -77.52423393600202 27.906917785399628 0 27.906917785399628 101.81397206174734 0 0 0 0 -182.68580722080878 -253.16899063484243 0 -253.16899063484243 102.20684718013717 0 0 0 0 -70.45446419325981 -265.24650825344179 0 -265.24650825344179 -256.99080100776564 0 0 0 0 25.05479075820087 -13.489766938700196 0 -13.489766938700196 7.8871084317316953 0 0 0 0 -127.86915592041987 -527.01948095339867 0 -527.01948095339867 709.99308263816783 0 0 0 0 -149.56719874813643 324.90408871759428 0 324.90408871759428 704.45135790904123 0 0 0 0 631.02082763983708 -654.12913764052246 0 -654.12913764052246 633.66559715988842 0 0 0 0 1488.0343697497483 -218.46956661782815 0 -218.46956661782815 -358.50582404980651 0 0 0 0 2.1394149689400361 -5.4375871412663095 0 -5.4375871412663095 10.532032754552091 0 0 0 0 -91.895570540160406 -25.829033618140784 0 -25.829033618140784 -38.840890260189553 0 0 0 0 -327.95514834177629 -18.43326216184505 0 -18.43326216184505 236.04046752906834 0 0 0 0 2.6646620928868039 -11.061298606779342 0 -11.061298606779342 29.925417689095504 0 0 0 0 84.278805314832425 -620.45819840950537 0 -620.45819840950537 1342.9128150709403 0 0 0 0 -291.85190526238739 -82.6093546474292 0 -82.6093546474292 45.088954848928552 0 0 0 0 766.19478863124277 -141.86447112764722 0 -141.86447112764722 -522.82670724675427 0 0 0 0 600.27056439838088 29.810641903730811 0 29.810641903730811 -349.25795742356559 0 0 0 0 10.650596464591807 -4.3515720855839355 0 -4.3515720855839355 1.8685194020815254 0 0 0 0 183.76286224956948 -328.44451623139207 0 -328.44451623139207 1125.1922843460272 0 0 0 0 1326.6454210828779 -464.09880842857865 0 -464.09880842857865 -419.00091910598712 0 0 0 0 377.21344284000043 159.17360812562163 0 159.17360812562163 -295.21891110068759 0 0 0 0 42.215932866301955 13.793029324180679 0 13.793029324180679 -50.49292711342423 0 0 0 0 97.274348527706024 -46.631521611524477 0 -46.631521611524477 165.01690715283007 0 0 0 0 25.662432359523336 98.026274448046678 0 98.026274448046678 292.24593316881442 0 0 0 0 125.30868957318307 -14.236542424925346 0 -14.236542424925346 320.67491604673387 0 0 0 0 125.38048362436047 -13.391299733599574 0 -13.391299733599574 202.30984725704729 0 0 0 0 165.79943603416723 -163.62081840465964 0 -163.62081840465964 61.701413590200445 0 0 0 0 221.07970214797024 -307.47067671335321 0 -307.47067671335321 433.72703861907127 0 0 0 0 37.772270989571552 -71.416864987126246 0 -71.416864987126246 226.26833444022873 0 0 0 0 45.789355214852549 -51.388006484032758 0 -51.388006484032758 249.83651037096365 0 0 0 0 0.73026611202704572 -0.45339245406951978 0 -0.45339245406951978 0.33566370379420302 0 0 0 0 24.998408581355761 -34.287442283021107 0 -34.287442283021107 213.78989464388013 0 0 0 0 92.267595376140889 -187.34868822738366 0 -187.34868822738366 437.72446480674455 0 0 0 0 367.99528099638337 -81.629967132852926 0 -81.629967132852926 -13.293820192953945 0 0 0 0 424.39010795519062 -195.39184676517061 0 -195.39184676517061 119.07375744113574 0 0 0 0 379.49480349277565 -7.3827645528537573 0 -7.3827645528537573 5.5468495364875707 0 0 0 0 193.19044480408411 -113.56890501085246 0 -113.56890501085246 135.08778956860203 0 0 0 0 310.0111477188766 10.886393574647741 0 10.886393574647741 50.710968296400779 0 0 0 0 201.58071520786689 -11.191785655334201 0 -11.191785655334201 50.606277798189637 0 0 0 0 178.48737794124099 -76.00866520527714 0 -76.00866520527714 76.891953329084913 0 0 0 0 64.259443090686545 -178.97762868725485 0 -178.97762868725485 151.99573182225618 0 0 0 0 -309.10323438791511 -45.677192367900261 0 -45.677192367900261 211.29406687395385 0 0 0 0 61.615286302635013 55.09745353090608 0 55.09745353090608 45.344753852029726 0 0 0 0 2.6575683336093068 -11.662255526143962 0 -11.662255526143962 39.230939172149945 0 0 0 0 579.18809635841717 -223.78688239080805 0 -223.78688239080805 140.07532201997537 0 0 0 0 255.97426461345094 73.843019067149726 0 73.843019067149726 13.458350855374022 0 0 0 0 258.4645177948114 15.346597674613349 0 15.346597674613349 65.848842859392221 0 0 0 0 229.58596389956256 56.930306230540623 0 56.930306230540623 66.824846003315486 0 0 0 0 223.60905848990478 73.100148386352416 0 73.100148386352416 89.280237414121643 0 0 0 0 274.64781370121455 45.009785594972811 0 45.009785594972811 48.707288114269886 0 0 0 0 223.69668209342126 67.75699251753781 0 67.75699251753781 47.891882158666249 0 0 0 0 216.74622878874652 88.189737551561478 0 88.189737551561478 57.88451463650631 0 0 0 0 -130.17359705152285 -135.00922013784657 0 -135.00922013784657 63.314818685248611 0 0 0 0 2.6673044538987236 -15.084372028863376 0 -15.084372028863376 37.327895450303942 0 0 0 0 168.11516982396915 -54.286390590629296 0 -54.286390590629296 44.925838438123037 0 0 0 0 5.5783966767859336 -11.138945778042384 0 -11.138945778042384 -8.1557851082232222 0 0 0 0 294.92459632368809 78.048565690394383 0 78.048565690394383 -12.956731602642321 0 0 0 0 -4.8741336546070713 -4.5041851427849551 0 -4.5041851427849551 8.2411088505793018 0 0 0 0 322.05477171626262 131.15560121623128 0 131.15560121623128 80.581547248746347 0 0 0 0 296.99105426128153 16.727126059307665 0 16.727126059307665 27.204028713007631 0 0 0 0 126.85252887142633 31.205708238717932 0 31.205708238717932 62.152678996233618 0 0 0 0 218.24432322831126 75.911670740920925 0 75.911670740920925 -3.7090108672735767 0 0 0 0 214.58174552429773 37.763071539326404 0 37.763071539326404 108.63054016251438 0 0 0 0 215.98003477134944 31.714462621769723 0 31.714462621769723 45.164409940627706 0 0 0 0 199.96185440254158 -1.6998965616137411 0 -1.6998965616137411 -44.473958126629554 0 0 0 0 125.46894817091561 64.496164278461379 0 64.496164278461379 -93.349709841633285 0 0 0 0 220.28236992154962 79.611588195970171 0 79.611588195970171 23.774504454409225 0 0 0 0 51.441132761025074 -84.048456386587247 0 -84.048456386587247 17.891650315476227 0 0 0 0 89.323221874870796 -124.57287690545483 0 -124.57287690545483 57.576672223526444 0 0 0 0 145.63693994868618 -48.753143650295819 0 -48.753143650295819 6.7021983637829976 0 0 0 0 184.84918064514386 2.8425801936632169 0 2.8425801936632169 38.971093359091441 0 0 0 0 15.42237573219245 -99.683592601841269 0 -99.683592601841269 -72.283828887298682 0 0 0 0 39.084400980984356 -7.4324228015173617 0 -7.4324228015173617 -5.0370350128127939 0 0 0 0 57.507244807218513 -144.79272914244544 0 -144.79272914244544 -53.06935257159364 0 0 0 0 -79.499459507582287 -98.541263181060742 0 -98.541263181060742 -68.50632416371019 0 0 0 0 -71.586944317339658 -125.03204454335875 0 -125.03204454335875 1.4038278732419016 0 0 0 0 -92.971179683578157 -133.87370574596702 0 -133.87370574596702 163.11859375369079 0 0 0 0 -48.940400118695379 -246.03415234749761 0 -246.03415234749761 -64.595146743899249 0 0 0 0 -16.636041894245864 -177.92805514175063 0 -177.92805514175063 9.7084518955108372 0 0 0 0 -7.5351530366656334 -193.13338423815753 0 -193.13338423815753 32.054956409617489 0 0 0 0 38.288348034100636 -114.78158805740685 0 -114.78158805740685 43.109145972772808 0 0 0 0 -18.470008170077563 -121.76384101989248 0 -121.76384101989248 98.735788299796809 0 0 0 0 -8.4651690393152421 -127.65764834006765 0 -127.65764834006765 -95.803517648076308 0 0 0 0 0.38430440734260429 -1.3143275670227084 0 -1.3143275670227084 0.28829284313459763 0 0 0 0 -42.822401696146699 -68.627633254150311 0 -68.627633254150311 110.52690305441007 0 0 0 0 19.411560658478265 -62.456170859689735 0 -62.456170859689735 77.269678860964689 0 0 0 0 -207.74902229266627 -141.50998647007435 0 -141.50998647007435 -140.34224849528584 0 0 0 0 -0.34630149546781297 -0.70444749592505729 0 -0.70444749592505729 0.090830048525495838 0 0 0 0 -118.04207668133313 -197.9995878342051 0 -197.9995878342051 -148.72452844495882 0 0 0 0 -35.802595623646994 -39.827489895283321 0 -39.827489895283321 25.277622171106088 0 0 0 0 -311.84267369530062 -281.13803537383632 0 -281.13803537383632 -106.42025159999116 0 0 0 0 -156.55193214477822 -308.0852938309074 0 -308.0852938309074 -249.07292038720499 0 0 0 0 -167.90162468656308 -242.19423800540724 0 -242.19423800540724 61.214360095840448 0 0 0 0 -309.64565241274613 -272.43134219939355 0 -272.43134219939355 -236.27589256369299 0 0 0 0 -376.00892191403545 -444.07793997976705 0 -444.07793997976705 -312.106609320193 0 0 0 0 -352.85722073248144 -363.54716765255012 0 -363.54716765255012 -309.78268941402195 0 0 0 0 34.926637632215574 -19.944964538104315 0 -19.944964538104315 2.3317490427362806 0 0 0 0 -242.04309362042477 -271.93138290931591 0 -271.93138290931591 -310.27108007707318 0 0 0 0 -8.3851426063820327 -286.11895537725366 0 -286.11895537725366 -346.6029495050916 0 0 0 0 -65.662173110580625 -376.33102515677047 0 -376.33102515677047 -390.32490399481355 0 0 0 0 -91.476181766673562 -363.02388674929165 0 -363.02388674929165 -393.2162151788043 0 0 0 0 -65.361482691801939 -488.64033757662537 0 -488.64033757662537 -505.65278528826684 0 0 0 0 -28.148869687574916 -409.09325561178991 0 -409.09325561178991 -330.68229514641916 0 0 0 0 369.99905463271352 47.308618123066708 0 47.308618123066708 -391.53930581349442 0 0 0 0 24.349637229137493 -10.52848948375027 0 -10.52848948375027 -4.7398038412788708 0 0 0 0 295.35159201651913 663.908365866434 0 663.908365866434 129.23145515227043 0 0 0 0 13.069744159470119 -3.2844730061828713 0 -3.2844730061828713 -6.7255950898026668 0 0 0 0 -295.33560862889237 -444.38146674570788 0 -444.38146674570788 -568.62045724479003 0 0 0 0 -287.00667594630653 -214.30076061846984 0 -214.30076061846984 -235.50922805621735 0 0 0 0 -205.53298839443778 -216.94031087788036 0 -216.94031087788036 -314.84141089372548 0 0 0 0 -286.28843424897241 -213.6201114191814 0 -213.6201114191814 -118.74166261207665 0 0 0 0 63.867509228610288 -320.11596016653607 0 -320.11596016653607 -627.37240000418092 0 0 0 0 62.160958844252576 -150.00572159616428 0 -150.00572159616428 -300.47305706788666 0 0 0 0 -50.015770216596138 -300.50292197525232 0 -300.50292197525232 -443.84290225189898 0 0 0 0 -173.77827122192684 -234.19184571667449 0 -234.19184571667449 -200.32383288860774 0 0 0 0 98.924935003531573 -82.693022250512058 0 -82.693022250512058 -40.049968501574313 0 0 0 0 -13.624615931633244 -27.390090194425021 0 -27.390090194425021 12.014575397705816 0 0 0 0 -111.08345864257535 -121.66190401520316 0 -121.66190401520316 -116.14456729106678 0 0 0 0 -875.69342123764727 -1179.8034872977887 0 -1179.8034872977887 -1502.3426064799387 0 0 0 0 -9.6964194640094519 -1.9175788716180717 0 -1.9175788716180717 -2.8919456561768375 0 0 0 0 8.365629704392088 -19.422289134419447 0 -19.422289134419447 9.2274381184572398 0 0 0 0 -156.34978681718985 -225.55104947984273 0 -225.55104947984273 -245.17807096737761 0 0 0 0 -620.53941681077413 108.50423444217608 0 108.50423444217608 -24.23726491302989 0 0 0 0 -1006.5144074992295 -676.63204214862094 0 -676.63204214862094 -182.47335035340711 0 0 0 0 -403.7815974752084 -889.0860404881314 0 -889.0860404881314 -978.30818776846513 0 0 0 0 -1227.0294410620972 -710.59222181177495 0 -710.59222181177495 -417.08917825186518 0 0 0 0 -216.35027131934112 -81.240181688457369 0 -81.240181688457369 -894.04675193291507 0 0 0 0 380.03701492634343 -197.63617630247609 0 -197.63617630247609 -793.53265183009353 0 0 0 0 -443.96929605052355 -299.41822751789573 0 -299.41822751789573 241.81356000199145 0 0 0 0 31.839481253651684 -664.494782125082 0 -664.494782125082 -1826.3723259286098 0 0 0 0 -1520.6091491601101 -1539.2854546173594 0 -1539.2854546173594 -962.29236154414593 0 0 0 0 -2.6474866434477207 0.76395369097425103 0 0.76395369097425103 -19.138190840113779 0 0 0 0 -1148.8686011415775 -247.26705681692442 0 -247.26705681692442 -183.93318201013426 0 0 0 0 106.89857897611728 -1104.6581703306786 0 -1104.6581703306786 -1438.285231187484 0 0 0 0 133.48273643992434 -761.29620478431661 0 -761.29620478431661 -1576.9661803543613 0 0 0 0 -547.24345826952413 263.05152783035328 0 263.05152783035328 151.73622582680036 0 0 0 0 -2.7573180183280783 -283.47782341771153 0 -283.47782341771153 210.35849884805612 0 0 0 0 240.28604570075549 -241.81178679960431 0 -241.81178679960431 69.789467767395308 0 0 0 0 -137.39288407679123 -265.92932969081932 0 -265.92932969081932 212.35721471219773 0 0 0 0 1309.7252347960748 -191.11285365530011 0 -191.11285365530011 -746.4374756297957 0 0 0 0 -26.578415853058686 -210.93986097585832 0 -210.93986097585832 -207.31951041296873 0 0 0 0 -147.88885853971442 -158.20266228978926 0 -158.20266228978926 185.32304570083807 0 0 0 0 -150.028321648766 -189.18111910891116 0 -189.18111910891116 172.70874019079474 0 0 0 0 -186.52082609220452 -107.79004343072097 0 -107.79004343072097 198.87758272944893 0 0 0 0 -143.31156949688739 -126.88278795837527 0 -126.88278795837527 116.62996989723479 0 0 0 0 -199.31317909944482 -1.6331061655776011 0 -1.6331061655776011 297.36414157422848 0 0 0 0 -192.31358229964826 -140.51070437980468 0 -140.51070437980468 261.32760443656633 0 0 0 0 49.758063905350355 -442.28217968228773 0 -442.28217968228773 241.24326963744886 0 0 0 0 2.242732631258896 -0.43355020811339173 0 -0.43355020811339173 -1.4743203582135735 0 0 0 0 412.42034341712861 885.0027208089017 0 885.0027208089017 188.61266054644892 0 0 0 0 44.170065166626955 -1017.5383527953564 0 -1017.5383527953564 -518.09091574971058 0 0 0 0 -16.37011536617365 76.290890502947661 0 76.290890502947661 136.68661551247806 0 0 0 0 -0.06818882732405207 0.63749363133843318 0 0.63749363133843318 7.2009472253041684 0 0 0 0 455.39809180285692 -317.25980384997655 0 -317.25980384997655 113.70808911596427 0 0 0 0 -30.858681103367417 -26.926107760030277 0 -26.926107760030277 23.693749348331039 0 0 0 0 -4.3459236937377366 -4.7306642025880201 0 -4.7306642025880201 18.303442967338309 0 0 0 0 13.120821430539763 -74.179753673572918 0 -74.179753673572918 124.73939423477253 0 0 0 0 -5.526506974254076 -9.8779890974310511 0 -9.8779890974310511 7.0207974484076612 0 0 0 0 6.7907083995341964 9.3699377924853025 0 9.3699377924853025 -16.364093744661318 0 0 0 0 -13.488719170730846 -17.437555481861207 0 -17.437555481861207 0.026794406768192225 0 0 0 0 -17.940577617497183 -25.059325591005177 0 -25.059325591005177 18.246998250847895 0 0 0 0 -32.971364549284772 -29.450856978236061 0 -29.450856978236061 20.681196421869572 0 0 0 0 -8.1708907100910437 -39.21385095370897 0 -39.21385095370897 19.307144175646044 0 0 0 0 -56.355911090312475 -54.741483661504333 0 -54.741483661504333 14.628220814621272 0 0 0 0 -63.330368300958071 -95.223102012289473 0 -95.223102012289473 115.47440024699632 0 0 0 0 -50.65970659854429 -27.022684260783763 0 -27.022684260783763 29.493030182213261 0 0 0 0 -47.116051290067844 -173.2296498228236 0 -173.2296498228236 5.1815721798348022 0 0 0 0 -63.255797583971798 -146.08437034781559 0 -146.08437034781559 -20.425400112435455 0 0 0 0 -7.2026246172048189 -14.787671239643053 0 -14.787671239643053 -0.8307814281329069 0 0 0 0 -7.7409222964779474 -49.862262925998039 0 -49.862262925998039 -62.128628799045146 0 0 0 0 -28.628667471282824 -22.228553760852606 0 -22.228553760852606 32.635102120871622 0 0 0 0 -12.997403949506406 -57.741526755128234 0 -57.741526755128234 -72.361599391416348 0 0 0 0 61.666069326674915 37.453555848378073 0 37.453555848378073 -350.62724541191255 0 0 0 0 0.4682281569352682 -1.837721086339144 0 -1.837721086339144 -0.12033343218146264 0 0 0 0 -9.0553032519895922 1.7348249896444798 0 1.7348249896444798 25.385472191588146 0 0 0 0 -58.70505473294088 4.8060750321718615 0 4.8060750321718615 113.76019270383222 0 0 0 0 -59.396430011795019 -3.9136859066056786 0 -3.9136859066056786 45.679604108307103 0 0 0 0 -263.62444666988449 117.69420212140358 0 117.69420212140358 -25.998928971730493 0 0 0 0 -436.41405803230009 -253.62111348544931 0 -253.62111348544931 -131.37379660057218 0 0 0 0 -0.23092285998509965 -2.6662286265982127 0 -2.6662286265982127 1.65532549070095 0 0 0 0 -263.73152929561911 -327.22644972213311 0 -327.22644972213311 -410.55173899820693 0 0 0 0 -80.342218904552283 33.745142214058887 0 33.745142214058887 -300.77471444957916 0 0 0 0 -273.46149961366609 -214.42457597494786 0 -214.42457597494786 39.276512967985582 0 0 0 0 -69.814425750737428 -289.9995988561991 0 -289.9995988561991 -234.73173388366536 0 0 0 0 -82.634625685590436 -266.83216810957038 0 -266.83216810957038 99.9560938326008 0 0 0 0 -29.488643775559467 -105.19467328994409 0 -105.19467328994409 72.289767725994352 0 0 0 0 -219.73949141891717 -26.980136297750732 0 -26.980136297750732 62.024801057592185 0 0 0 0 -295.02609848824795 -108.23800811360019 0 -108.23800811360019 140.35438125307468 0 0 0 0 -205.55729130705731 -116.04893851934747 0 -116.04893851934747 27.242885321501262 0 0 0 0 -203.89663035213016 -81.466180246648491 0 -81.466180246648491 -78.856807913058915 0 0 0 0 -249.04821599070692 -104.49062692296135 0 -104.49062692296135 21.177350367809936 0 0 0 0 -164.15869964797093 -93.243511707930281 0 -93.243511707930281 -293.75553955203645 0 0 0 0 -245.39130015398041 -43.581123040526137 0 -43.581123040526137 40.467908701268584 0 0 0 0 -112.93894145960257 -63.399319026574062 0 -63.399319026574062 -464.30691112717966 0 0 0 0 -267.13216058092894 8.0606945386580691 0 8.0606945386580691 93.874886957559056 0 0 0 0 -148.85704705305398 -92.704106190980553 0 -92.704106190980553 155.42477992400467 0 0 0 0 -100.20696018499075 -387.06604830641595 0 -387.06604830641595 407.59648402182262 0 0 0 0 -146.50615364510304 -137.48825433753649 0 -137.48825433753649 63.805145132106986 0 0 0 0 -254.06374341332412 -67.774279502078144 0 -67.774279502078144 148.05257965840019 0 0 0 0 -93.964456418652844 -71.088885989880794 0 -71.088885989880794 146.30505990136444 0 0 0 0 95.341977491676516 -223.78353344676333 0 -223.78353344676333 255.16847918726961 0 0 0 0 -157.16424557219398 -150.59972843477232 0 -150.59972843477232 262.92909751819849 0 0 0 0 95.51819081999929 -250.09624759258986 0 -250.09624759258986 301.0934534934575 0 0 0 0 63.644473551725241 -237.742129833587 0 -237.742129833587 350.68775720017595 0 0 0 0 165.19728414626979 192.53791339553962 0 192.53791339553962 276.40114058441986 0 0 0 0 28.844121905185602 -119.61941054947505 0 -119.61941054947505 32.021060304794354 0 0 0 0 61.732596521280357 -208.48076899879024 0 -208.48076899879024 303.61594916451168 0 0 0 0 62.18684752023546 -211.05434100350141 0 -211.05434100350141 231.33019295730213 0 0 0 0 6.1863461019602397 -4.3592593268015758 0 -4.3592593268015758 0.20896701532406947 0 0 0 0 14.648865514105637 -75.304626726944065 0 -75.304626726944065 391.11548649494409 0 0 0 0 -14.150197469425542 -3.6879988019559873 0 -3.6879988019559873 1.9243236352371484 0 0 0 0 2.5025425234780414 4.0532205270984036 0 4.0532205270984036 185.90649686949672 0 0 0 0 138.8165897669096 9.4779451924882778 0 9.4779451924882778 11.549327719317489 0 0 0 0 -545.1225826183836 -291.25099281995233 0 -291.25099281995233 323.99058241455805 0 0 0 0 407.80429371022728 -237.57245762366506 0 -237.57245762366506 -177.26815428745567 0 0 0 0 -6.638049651362266 -0.8514453453869697 0 -0.8514453453869697 -0.55699555766365116 0 0 0 0 -226.6578975398661 -352.60432313655178 0 -352.60432313655178 -351.74304649635781 0 0 0 0 -605.95724415496807 -358.17626737001183 0 -358.17626737001183 393.87779573800208 0 0 0 0 -887.60439793952537 177.79552887199077 0 177.79552887199077 797.80585743204642 0 0 0 0 -843.04018730468283 -487.10087870685527 0 -487.10087870685527 204.0971325413575 0 0 0 0 -351.12325148004311 -97.740357876642292 0 -97.740357876642292 340.02316699455173 0 0 0 0 -364.95394109573317 -62.697231845938177 0 -62.697231845938177 273.34227954139726 0 0 0 0 -241.24658479772552 -22.194568430279446 0 -22.194568430279446 271.86628000971439 0 0 0 0 -245.86721999201836 -169.56356616633346 0 -169.56356616633346 206.18637521305152 0 0 0 0 -404.30369650729881 -209.4016935599312 0 -209.4016935599312 196.30068798431716 0 0 0 0 -32.177787793239986 -84.540701872257387 0 -84.540701872257387 186.62299253214371 0 0 0 0 -29.080891104884358 -87.278458154343582 0 -87.278458154343582 -20.337497306728665 0 0 0 0 113.23438045012517 96.791584888246916 0 96.791584888246916 -251.15193424840254 0 0 0 0 -18.759232554945271 -25.579399998558891 0 -25.579399998558891 43.181062047986927 0 0 0 0 5.6751505178933712 -0.49860487996002067 0 -0.49860487996002067 12.591367472505329 0 0 0 0 121.87333006032532 216.79898347950814 0 216.79898347950814 16.379739486641938 0 0 0 0 -43.413558807238587 -85.760627658019075 0 -85.760627658019075 -19.882994837111255 0 0 0 0 -16.271672966816368 28.441143942911708 0 28.441143942911708 204.75018315191846 0 0 0 0 213.00825414537212 -70.953244645778 0 -70.953244645778 27.027757986289998 0 0 0 0 -39.987228055964806 -87.848286847645795 0 -87.848286847645795 -20.801849623581802 0 0 0 0 -51.28602942397265 -82.022042530094041 0 -82.022042530094041 -21.294324904607492 0 0 0 0 -61.86149149992707 -75.773979632998817 0 -75.773979632998817 -18.864631340013148 0 0 0 0 -69.35823175270707 -75.557684684414198 0 -75.557684684414198 -11.751294561181567 0 0 0 0 -59.904148574925784 -80.612923613043677 0 -80.612923613043677 -14.231620508602646 0 0 0 0 -66.188773128851608 -82.162694368060329 0 -82.162694368060329 1.7217424230984761 0 0 0 0 -53.00123354610696 -92.873684740302451 0 -92.873684740302451 -17.201097002864117 0 0 0 0 -42.8391029422055 -85.439582304494252 0 -85.439582304494252 -20.167282260561478 0 0 0 0 -35.593597872306418 110.00799158814743 0 110.00799158814743 248.41562531947784 0 0 0 0 -26.343167928760813 -15.939054566845977 0 -15.939054566845977 45.989813006522184 0 0 0 0 -88.148393140538246 -54.726108663904597 0 -54.726108663904597 31.551882259835111 0 0 0 0 -26.753938372061384 -26.665125302945398 0 -26.665125302945398 129.34771472958573 0 0 0 0 -69.88943685211234 -75.102618679791703 0 -75.102618679791703 0.83178184582357062 0 0 0 0 167.63042458939162 128.88367925796229 0 128.88367925796229 8.2190046032083046 0 0 0 0 -737.95904976802376 -473.98240746970623 0 -473.98240746970623 25.941203300418238 0 0 0 0 -430.27855854838344 -436.49761681374821 0 -436.49761681374821 -44.269609293506619 0 0 0 0 216.84518134404789 213.20033959589455 0 213.20033959589455 -256.36829501270768 0 0 0 0 22.313169263274176 -223.27583407719339 0 -223.27583407719339 -79.523159148491686 0 0 0 0 -307.43291647173464 246.15232284505191 0 246.15232284505191 -163.3773715800944 0 0 0 0 -781.07719527547306 -148.71348740147778 0 -148.71348740147778 -22.942731683434431 0 0 0 0 -5.2382839205105824 -0.3595358456453468 0 -0.3595358456453468 -0.23253215645422043 0 0 0 0 -158.07440746581051 -408.79426503320565 0 -408.79426503320565 -813.80092626189753 0 0 0 0 -56.027681810392096 -117.74181984409643 0 -117.74181984409643 -172.29444427074486 0 0 0 0 -50.71780937116273 -164.70330627404837 0 -164.70330627404837 -294.19726189529138 0 0 0 0 -80.626000051714072 -119.78621260859563 0 -119.78621260859563 -123.51848698613128 0 0 0 0 -28.0704495691989 -29.077213054460344 0 -29.077213054460344 26.642722277132179 0 0 0 0 -103.32280111015325 -163.64428012080754 0 -163.64428012080754 -115.94266880708437 0 0 0 0 -105.12832797075043 -151.64046717780013 0 -151.64046717780013 -195.61869023294821 0 0 0 0 -143.62346374987101 -119.30342058945462 0 -119.30342058945462 12.722820488810612 0 0 0 0 -149.3753527222143 -134.79797959527923 0 -134.79797959527923 -28.535699751680113 0 0 0 0 -110.1601695419813 -128.74410254692293 0 -128.74410254692293 -89.862646710713307 0 0 0 0 0.40044991037497368 -0.7077486445627148 0 -0.7077486445627148 -0.86580496220948433 0 0 0 0 -357.48560549339163 -184.11976773550123 0 -184.11976773550123 16.136555617489535 0 0 0 0 -161.19425908366975 -268.00502330130394 0 -268.00502330130394 -195.47887321719463 0 0 0 0 -158.28208643956896 -234.77763429453398 0 -234.77763429453398 -48.214054974643659 0 0 0 0 -119.26871732400832 3.3870488802522232 0 3.3870488802522232 272.19873653579475 0 0 0 0 -39.452284172546072 -15.233779523681166 0 -15.233779523681166 31.911604193950634 0 0 0 0 -134.19886701928772 -107.89462956341868 0 -107.89462956341868 -25.974896106033157 0 0 0 0 -42.547270523151383 15.14964851062723 0 15.14964851062723 15.199636384382757 0 0 0 0 -142.67232629644786 -101.77230420648084 0 -101.77230420648084 -19.708422275064549 0 0 0 0 -24.602742903791295 -44.558488092916832 0 -44.558488092916832 4.9295550055176136 0 0 0 0 -125.88483780753813 -107.27600448548947 0 -107.27600448548947 -26.469315051526792 0 0 0 0 -121.62968147551874 -112.74325137573214 0 -112.74325137573214 -30.113142614219214 0 0 0 0 -126.11222865725722 -115.76397114981046 0 -115.76397114981046 -32.059520823558046 0 0 0 0 -121.80175523835351 -113.34585714246214 0 -113.34585714246214 -30.079973072949088 0 0 0 0 30.295066853776007 -202.19007800795271 0 -202.19007800795271 104.58199785630131 0 0 0 0 -14.538363712332995 -8.6565003532641782 0 -8.6565003532641782 -3.2002088725854492 0 0 0 0 -15.824720803866512 -236.9354781596312 0 -236.9354781596312 982.15365604234103 0 0 0 0 380.30678130405431 -901.32230413923025 0 -901.32230413923025 343.5121256062921 0 0 0 0 533.07501504386892 -569.7641859892974 0 -569.7641859892974 106.36654671442011 0 0 0 0 -13.857213967643375 -14.184663550513747 0 -14.184663550513747 -0.59540493919043769 0 0 0 0 -187.53750498647787 13.238907656315405 0 13.238907656315405 8.7223923133024073 0 0 0 0 -75.182391842310608 -14.308397566572239 0 -14.308397566572239 28.205539828847577 0 0 0 0 -142.63742203039874 -9.9841890268762654 0 -9.9841890268762654 5.4433912577587762 0 0 0 0 -64.080091086027096 -28.797970407029425 0 -28.797970407029425 -7.5706640270591379 0 0 0 0 -126.44937535710051 -115.41085370678775 0 -115.41085370678775 20.331616639727145 0 0 0 0 -316.80573036405985 -194.5750445538215 0 -194.5750445538215 -12.157728914398831 0 0 0 0 -79.80007112113708 -227.60682080000333 0 -227.60682080000333 -163.53557906548667 0 0 0 0 -30.963491184804298 -142.48025664727902 0 -142.48025664727902 -84.724183942333639 0 0 0 0 -13.188385891731741 -119.73307165419283 0 -119.73307165419283 -53.191599994381249 0 0 0 0 -59.678269653995812 -167.06203657512378 0 -167.06203657512378 -90.225914744778493 0 0 0 0 -140.61895503395499 -143.7874510690126 0 -143.7874510690126 -9.3775524597222102 0 0 0 0 -78.737750124810191 -113.28542066300452 0 -113.28542066300452 3.2828796815156238 0 0 0 0 -81.141339807196346 -120.93283242172765 0 -120.93283242172765 -19.866267859644722 0 0 0 0 -42.919715117575834 -94.68800407220624 0 -94.68800407220624 -17.49383574454987 0 0 0 0 -62.031844904842728 -105.47571450922806 0 -105.47571450922806 -14.247369810909731 0 0 0 0 -80.800296928282478 -91.747057500979281 0 -91.747057500979281 -1.1855026276116405 0 0 0 0 -78.48928330243325 -84.040551033704105 0 -84.040551033704105 16.971980901951611 0 0 0 0 -121.60065061112982 -70.728135319506691 0 -70.728135319506691 35.254297384036363 0 0 0 0 -162.08039563587226 -103.78278495051336 0 -103.78278495051336 23.762969199138752 0 0 0 0 -101.82269012366305 -80.104567267115272 0 -80.104567267115272 29.840134942474833 0 0 0 0 -110.21856141646276 -101.50541782769142 0 -101.50541782769142 8.2590039683473151 0 0 0 0 -148.11532828556665 -226.94082755256204 0 -226.94082755256204 763.52229651962261 0 0 0 0 -151.4260852955922 -277.88805789349499 0 -277.88805789349499 579.18272067558155 0 0 0 0 -184.59952759723819 -240.61827036387331 0 -240.61827036387331 583.89051947328699 0 0 0 0 -166.95838512077171 -255.28042275565531 0 -255.28042275565531 547.7598229303112 0 0 0 0 -216.58592012873851 -128.72399878828583 0 -128.72399878828583 430.89893944562209 0 0 0 0 -99.153494742578914 -154.56135953543981 0 -154.56135953543981 264.32796325413801 0 0 0 0 -152.59792870670208 -113.83238105839337 0 -113.83238105839337 281.85149164767063 0 0 0 0 -205.57802556658862 -198.82267773315834 0 -198.82267773315834 604.66344722029316 0 0 0 0 -124.83467036261573 -68.274622903118143 0 -68.274622903118143 361.47543852657327 0 0 0 0 -152.40981420970638 -33.717607210481219 0 -33.717607210481219 365.5400914087104 0 0 0 0 -84.356639417164843 21.674566131869142 0 21.674566131869142 145.75986902282693 0 0 0 0 -36.109056994149356 -35.781205067679352 0 -35.781205067679352 -6.5953112530963356 0 0 0 0 40.809710804693168 -67.350857809913578 0 -67.350857809913578 121.29102892014271 0 0 0 0 -46.249548114225036 18.269871252839948 0 18.269871252839948 89.855411118644952 0 0 0 0 7.7302054315077839 8.1028048480866346 0 8.1028048480866346 -171.85411223833944 0 0 0 0 -323.82119638251606 38.019782309136644 0 38.019782309136644 -115.07079797613187 0 0 0 0 -74.06842836202577 64.369271499993772 0 64.369271499993772 109.01743127522059 0 0 0 0 -244.46014392911457 -170.56844181960696 0 -170.56844181960696 73.140343233193562 0 0 0 0 -131.26812254666584 -127.49300206275802 0 -127.49300206275802 87.087694856905728 0 0 0 0 -308.83133022535185 -51.164814702900912 0 -51.164814702900912 157.11369029194611 0 0 0 0 -196.18678091324909 4.3598916077835383 0 4.3598916077835383 184.40815148010006 0 0 0 0 -21.274735715618128 -25.002699839181219 0 -25.002699839181219 -11.775174644036841 0 0 0 0 -155.31538939275197 74.920873672588641 0 74.920873672588641 27.631509366779937 0 0 0 0 -3.0713036509441736 -21.574853753255411 0 -21.574853753255411 7.8609985737814441 0 0 0 0 137.83341070491588 22.423542725484367 0 22.423542725484367 -158.17519017360246 0 0 0 0 4.4121281302992088 -2.8142883371028589 0 -2.8142883371028589 -4.6132151438034228 0 0 0 0 -15.964547474251546 -17.761790722622383 0 -17.761790722622383 0.035827705952224509 0 0 0 0 -18.463103961799789 -25.479442589002474 0 -25.479442589002474 1.0218810592696173 0 0 0 0 -16.088594774180933 -14.102861466480604 0 -14.102861466480604 -4.2736796775667401 0 0 0 0 163.6065115624242 -338.9256252701789 0 -338.9256252701789 359.28270858011456 0 0 0 0 19.131557206565049 -85.802062977738387 0 -85.802062977738387 -74.849676025227382 0 0 0 0 -5.2767213632731966 -5.8514138897794297 0 -5.8514138897794297 -1.1509158727173272 0 0 0 0 -175.8177064330921 -48.454359230250702 0 -48.454359230250702 230.78659645074367 0 0 0 0 -115.09461059752721 -89.998310648103143 0 -89.998310648103143 212.60644960145873 0 0 0 0 21.394399652228458 -257.39939272710399 0 -257.39939272710399 345.83737797700087 0 0 0 0 -8.79381403158186 -102.76158065426353 0 -102.76158065426353 246.37583611836453 0 0 0 0 -68.792254110230715 -281.49497441152198 0 -281.49497441152198 512.8982951907783 0 0 0 0 157.84129763246165 -254.86384942950826 0 -254.86384942950826 325.66918996562163 0 0 0 0 -174.03188443832551 -209.08375729580803 0 -209.08375729580803 463.20794908158132 0 0 0 0 11.054368611556129 -19.989219341481657 0 -19.989219341481657 -2.8083954847752466 0 0 0 0 -10.493478736858407 -14.665296243830099 0 -14.665296243830099 -11.338136774550602 0 0 0 0 -18.889804661623202 -27.240194241072459 0 -27.240194241072459 -18.794625676526891 0 0 0 0 -19.316114085391746 -30.548650104937678 0 -30.548650104937678 -14.167695248649125 0 0 0 0 -8.243967919450867 -16.314477540201807 0 -16.314477540201807 -4.5266446164134546 0 0 0 0 -4.9873567893556583 -20.891412475362095 0 -20.891412475362095 0.88293017079522729 0 0 0 0 -19.8946503118039 -25.41434252755645 0 -25.41434252755645 1.6207922631842446 0 0 0 0 0.15198409427095783 -3.6621211888157585 0 -3.6621211888157585 -1.6461758598777214 0 0 0 0 -47.991431277849188 -121.95869002095151 0 -121.95869002095151 -188.83334033675317 0 0 0 0 6.249997696490027 -17.840601453232011 0 -17.840601453232011 -4.9647721814835677 0 0 0 0 -3.8150013295235112 -20.220120332020088 0 -20.220120332020088 -9.5939575950651488 0 0 0 0 -10.547237504943041 -26.972777266350818 0 -26.972777266350818 7.1452687978689937 0 0 0 0 -2.1566148725594747 -14.822719925947602 0 -14.822719925947602 1.7696236859547285 0 0 0 0 3.129670374204963 -17.081865154572391 0 -17.081865154572391 -4.4870022311819859 0 0 0 0 -0.74326137932858671 -11.142744136546494 0 -11.142744136546494 2.4429746103156376 0 0 0 0 -4.9617627865300165 -16.82357218886122 0 -16.82357218886122 -0.36341880134576598 0 0 0 0 -33.962358429098458 -74.114487010909897 0 -74.114487010909897 -99.43666349331761 0 0 0 0 -41.409045591506583 -92.527580778104038 0 -92.527580778104038 -144.14475331273479 0 0 0 0 -6.3908343516874417 -23.059223817399534 0 -23.059223817399534 -16.170501828166135 0 0 0 0 -85.932129099233862 -85.895025872078804 0 -85.895025872078804 -33.58891792919303 0 0 0 0 -104.25353835248461 -112.16321081815431 0 -112.16321081815431 -64.097062289760288 0 0 0 0 -121.69780866047222 -113.10804594800243 0 -113.10804594800243 -29.537135154423595 0 0 0 0 -121.68538804488298 -112.72274046475684 0 -112.72274046475684 -29.293613207652015 0 0 0 0 -143.83104324228043 -179.26752830556143 0 -179.26752830556143 68.178309783927034 0 0 0 0 -60.271328404419407 -51.879018582055899 0 -51.879018582055899 -32.302824426694848 0 0 0 0 -553.28037404474162 -240.84430078108198 0 -240.84430078108198 628.91734332710985 0 0 0 0 250.64461567510443 -279.34556504341163 0 -279.34556504341163 -1.6817585329990834 0 0 0 0 -87.562050521752099 -749.83167195903115 0 -749.83167195903115 1155.0725302829887 0 0 0 0 -865.28636784659466 305.90926588327784 0 305.90926588327784 1085.7874721674034 0 0 0 0 -490.50488185956783 -112.52534535000814 0 -112.52534535000814 504.07761289752989 0 0 0 0 183.7667364111694 -543.84017224164927 0 -543.84017224164927 412.38538104171766 0 0 0 0 -625.46789261516824 116.67638836112201 0 116.67638836112201 121.83368611827609 0 0 0 0 1077.7436869513476 -989.28841113208182 0 -989.28841113208182 885.36061775725102 0 0 0 0 -5.1619926649184151 -0.50168593107260051 0 -0.50168593107260051 4.7920648238514758 0 0 0 0 1717.7325435683924 -916.49595018812443 0 -916.49595018812443 518.05923536347836 0 0 0 0 -2.2939646945497074 -0.36418240946920832 0 -0.36418240946920832 0.57467520054856891 0 0 0 0 1008.8519862299727 -1064.7657282750552 0 -1064.7657282750552 802.68995231644658 0 0 0 0 733.58118687497699 -165.28153282252242 0 -165.28153282252242 345.10204229452938 0 0 0 0 212.51489942862827 -121.42454187788098 0 -121.42454187788098 268.34376148828596 0 0 0 0 565.89393248135457 -383.77373942538543 0 -383.77373942538543 67.146041338557097 0 0 0 0 201.92679439364292 -243.94576369632341 0 -243.94576369632341 327.80373624692584 0 0 0 0 538.7661499156311 -641.97447209393977 0 -641.97447209393977 345.67257601831807 0 0 0 0 474.55585897230776 -436.6614153119699 0 -436.6614153119699 213.41460557204118 0 0 0 0 528.38252589285548 -626.41586618489964 0 -626.41586618489964 464.29090973372422 0 0 0 0 446.93304180247651 -484.82369243543144 0 -484.82369243543144 838.0137232017878 0 0 0 0 698.22099098087347 -731.68653128294864 0 -731.68653128294864 329.0091301903085 0 0 0 0 -11.234826936479578 -15.217930208991731 0 -15.217930208991731 -5.9741499823952608 0 0 0 0 -152.91578569513513 -180.56912721418666 0 -180.56912721418666 97.051009885389021 0 0 0 0 -22.959179185828706 -8.4689506740025635 0 -8.4689506740025635 20.868687158623587 0 0 0 0 -12.892119301364801 -41.924166946260129 0 -41.924166946260129 -5.0752709056941967 0 0 0 0 83.673250493535306 -335.69969066492922 0 -335.69969066492922 371.92247622249306 0 0 0 0 634.27745479515761 -479.51056204435554 0 -479.51056204435554 316.432287515403 0 0 0 0 62.430293196268394 -449.03121127289842 0 -449.03121127289842 522.66798205315354 0 0 0 0 -161.25194336315326 -341.17312930825938 0 -341.17312930825938 503.5007805374189 0 0 0 0 103.71281618194189 -575.12591111496204 0 -575.12591111496204 235.26312802809844 0 0 0 0 -262.35444818038377 -511.11341514717424 0 -511.11341514717424 511.18520360794719 0 0 0 0 115.51946196729841 -531.3090500497965 0 -531.3090500497965 397.6420734368985 0 0 0 0 169.2493313457453 -541.48607125504714 0 -541.48607125504714 104.47313832225336 0 0 0 0 174.22827390363091 -435.66469436146144 0 -435.66469436146144 430.47867054240669 0 0 0 0 164.09822992636327 -209.45300422167202 0 -209.45300422167202 -209.07750407288768 0 0 0 0 259.18471805774243 -151.00077240924111 0 -151.00077240924111 -173.67647217086778 0 0 0 0 39.723721290676622 58.009253343392629 0 58.009253343392629 -705.25726072958423 0 0 0 0 -0.74438914647180354 -716.43407166511861 0 -716.43407166511861 -519.63570782202078 0 0 0 0 25.422426980068849 -408.78397067491551 0 -408.78397067491551 234.31262038311979 0 0 0 0 -418.48030675759946 -748.52501316046892 0 -748.52501316046892 352.2608336912599 0 0 0 0 146.2523936535581 -204.80314078854281 0 -204.80314078854281 -1537.7850784228176 0 0 0 0 -6.3145416544238202 -2.1976438969280991 0 -2.1976438969280991 -0.91850702065557144 0 0 0 0 -207.62024827502319 -387.71402702420892 0 -387.71402702420892 570.5992937316496 0 0 0 0 -199.91162333951797 -389.54366732663766 0 -389.54366732663766 573.98231032966396 0 0 0 0 -175.45486519893893 -412.61238494110876 0 -412.61238494110876 593.91618943374488 0 0 0 0 -162.08184268739433 -351.20871458246108 0 -351.20871458246108 674.31174913080031 0 0 0 0 -172.92696470610827 -442.69374208629051 0 -442.69374208629051 848.6035230018424 0 0 0 0 -3.9791688430850627 -285.39980734704659 0 -285.39980734704659 -80.533313466166874 0 0 0 0 150.99501133988269 -233.79485860298428 0 -233.79485860298428 -285.7821524962128 0 0 0 0 -615.26766386990857 -90.252304472811375 0 -90.252304472811375 -467.63960855552432 0 0 0 0 -202.55199874909158 -146.76542933870951 0 -146.76542933870951 -276.96277389338934 0 0 0 0 68.408577234353288 -115.24845701641789 0 -115.24845701641789 -472.25901994032029 0 0 0 0 25.303555774180495 -20.186651382929995 0 -20.186651382929995 -643.04777862928677 0 0 0 0 289.4293338172065 142.41876267774205 0 142.41876267774205 -559.77595825287244 0 0 0 0 -26.705408920315676 -51.887386852238706 0 -51.887386852238706 -90.810193463261385 0 0 0 0 -200.90227638594661 -311.87386399749994 0 -311.87386399749994 -379.83014994301357 0 0 0 0 209.9647285048195 -191.78979277684084 0 -191.78979277684084 -617.56703598128661 0 0 0 0 450.34296282615105 141.4032080072584 0 141.4032080072584 -220.32182780409858 0 0 0 0 0.61420371926298145 -1.0434355262647159 0 -1.0434355262647159 -5.2820393435609532 0 0 0 0 0.54556107214739313 -35.553524848644884 0 -35.553524848644884 36.779151483057603 0 0 0 0 354.97860192504595 -581.74223539345167 0 -581.74223539345167 -378.65393695599778 0 0 0 0 239.72046848746686 -296.08046013680541 0 -296.08046013680541 -708.40399896724193 0 0 0 0 451.83293868961482 -84.558675177950363 0 -84.558675177950363 -498.98971941339551 0 0 0 0 -110.56619876844343 150.54288208271828 0 150.54288208271828 -689.18531274593988 0 0 0 0 106.7399131718139 -651.90174910240012 0 -651.90174910240012 -559.35244860933017 0 0 0 0 627.16226582544914 -909.5994327153021 0 -909.5994327153021 -806.5871854615616 0 0 0 0 -460.7481206391567 -289.7419032154321 0 -289.7419032154321 -215.24459223348094 0 0 0 0 -1.7141019489946299 1.5340828151897625 0 1.5340828151897625 -16.32504148050738 0 0 0 0 -94.28630032332876 58.75068279342122 0 58.75068279342122 8.9918417391963885 0 0 0 0 31.87782826727198 -33.353240753482169 0 -33.353240753482169 -44.927707172746523 0 0 0 0 -14.681308827530302 -39.490970804558856 0 -39.490970804558856 35.382669943086512 0 0 0 0 11.919101007115902 -9.141675253214018 0 -9.141675253214018 -44.678156591217721 0 0 0 0 55.566081729113648 -61.615160746611764 0 -61.615160746611764 -68.312224952873294 0 0 0 0 44.856034462303796 -27.426888578200305 0 -27.426888578200305 7.4411399829859874 0 0 0 0 19.603554247703869 -90.138953150216821 0 -90.138953150216821 89.645345680881292 0 0 0 0 249.30896836714237 -46.525170149756377 0 -46.525170149756377 -31.65840993290476 0 0 0 0 0.20191745458361865 -0.73569110857340547 0 -0.73569110857340547 -12.812778383709244 0 0 0 0 95.128174058991135 -119.01117028799672 0 -119.01117028799672 -62.824152611992758 0 0 0 0 197.94900017838518 -86.489054312914959 0 -86.489054312914959 -64.387923921611218 0 0 0 0 20.761945690785069 -101.66001214287644 0 -101.66001214287644 -8.2858886928515858 0 0 0 0 473.6128595236878 -149.74709747256929 0 -149.74709747256929 -18.928817512101432 0 0 0 0 92.680650459602475 -46.23794249799721 0 -46.23794249799721 -8.4692011083207035 0 0 0 0 175.33709863942931 -286.29121087087151 0 -286.29121087087151 64.479786608502764 0 0 0 0 325.78508062718902 -428.31437996040859 0 -428.31437996040859 281.59296351065132 0 0 0 0 348.4980179250706 -286.17057683696112 0 -286.17057683696112 40.784521764415331 0 0 0 0 205.32816583838849 -221.20975508995002 0 -221.20975508995002 -60.950024005043815 0 0 0 0 -4.0572373479643318 -5.4940099053989826 0 -5.4940099053989826 -0.3822388814001485 0 0 0 0 -49.935945166289457 -20.980527742769482 0 -20.980527742769482 145.03925937164968 0 0 0 0 -822.05015181509225 23.433688805040219 0 23.433688805040219 259.05130018378804 0 0 0 0 -11.611348998878384 30.869308446552168 0 30.869308446552168 78.011678107392072 0 0 0 0 1.101036133299587 -6.9778777711003173 0 -6.9778777711003173 6.8393977241992951 0 0 0 0 64.307364528567632 76.477011158743608 0 76.477011158743608 93.273814974250854 0 0 0 0 -0.76341619112236003 -42.99357509775308 0 -42.99357509775308 56.456488332180015 0 0 0 0 1.385004896962414 -23.653628890083922 0 -23.653628890083922 19.842040966243335 0 0 0 0 270.82198419490305 50.631258516512389 0 50.631258516512389 -261.15853328521189 0 0 0 0 76.888949756936199 -135.92004861050464 0 -135.92004861050464 -185.95647189672309 0 0 0 0 52.424491929826218 -45.828177958366041 0 -45.828177958366041 -55.587963210822636 0 0 0 0 13.326811721657577 -193.03742387879538 0 -193.03742387879538 -237.26168403522388 0 0 0 0 -3.9768813863993273 -203.4953061116521 0 -203.4953061116521 -156.89601545555342 0 0 0 0 164.12654818625742 -171.11460913401243 0 -171.11460913401243 -469.85386933988411 0 0 0 0 -261.85129167031118 -457.52703373087388 0 -457.52703373087388 -365.78942887846642 0 0 0 0 0.967735274880269 -4.3601484976292042 0 -4.3601484976292042 -7.8208570112516895 0 0 0 0 -635.76768401860863 -36.879504897374773 0 -36.879504897374773 10.640590076211083 0 0 0 0 192.42646719081222 -80.017397733005282 0 -80.017397733005282 -257.83599607664655 0 0 0 0 316.74132489624753 -244.42033887662365 0 -244.42033887662365 -590.22588751219962 0 0 0 0 179.90895142830414 13.415597634773803 0 13.415597634773803 -599.73728161165127 0 0 0 0 346.1950039818912 -291.88718217024325 0 -291.88718217024325 -412.87357445067846 0 0 0 0 230.6939459583009 -346.46282572863493 0 -346.46282572863493 -295.327741458932 0 0 0 0 378.12556212626077 -169.29366820776886 0 -169.29366820776886 -511.24405443247997 0 0 0 0 230.91855120683613 -334.01678057792742 0 -334.01678057792742 63.949397662107003 0 0 0 0 267.86487957641657 -216.57860348289614 0 -216.57860348289614 -372.15998429934189 0 0 0 0 396.31787896339665 -282.98588691527584 0 -282.98588691527584 -339.16577593967668 0 0 0 0 272.02314749207289 -232.36694891911611 0 -232.36694891911611 -455.9904637477448 0 0 0 0 72.186532230654848 10.171143932806444 0 10.171143932806444 135.25782899033402 0 0 0 0 355.00140915160591 164.63492382128061 0 164.63492382128061 -560.09154901077272 0 0 0 0 -2.395317435913725 -5.482984763079191 0 -5.482984763079191 -0.18703076927349749 0 0 0 0 212.09650131865783 118.83518933034611 0 118.83518933034611 219.02188799264695 0 0 0 0 -5.5204999868083178 -13.056811103831706 0 -13.056811103831706 109.06738754169055 0 0 0 0 -4.3373757496083272 -45.762483499378504 0 -45.762483499378504 189.18176646332176 0 0 0 0 -26.161425542872166 -67.686914876085211 0 -67.686914876085211 85.535906465967855 0 0 0 0 -73.830118042278627 -68.423099075544542 0 -68.423099075544542 135.12659671110305 0 0 0 0 161.46589940975446 -165.89040018971508 0 -165.89040018971508 78.255074586801129 0 0 0 0 43.494056861469289 33.93755892615809 0 33.93755892615809 269.93702091720024 0 0 0 0 -120.55002300670094 -151.04294464826853 0 -151.04294464826853 -111.31442589309518 0 0 0 0 137.19032799752313 -90.412407910236652 0 -90.412407910236652 -105.74021196477861 0 0 0 0 40.28382316597785 -44.458363147793463 0 -44.458363147793463 25.833057701558339 0 0 0 0 -97.02178532178732 -353.15993462455299 0 -353.15993462455299 -351.20192604241947 0 0 0 0 7.889404533598281 -19.459251766598754 0 -19.459251766598754 9.0835987296704843 0 0 0 0 21.82143152257602 -31.472967929890018 0 -31.472967929890018 28.001732496571812 0 0 0 0 -23.00885585109063 -168.30086784043124 0 -168.30086784043124 -239.09190859755654 0 0 0 0 -27.665552386959462 -117.90320117741953 0 -117.90320117741953 2.8284087711599568 0 0 0 0 -107.62337842398847 -30.492563445503947 0 -30.492563445503947 -167.807683334795 0 0 0 0 60.918089393358969 -247.81950006322586 0 -247.81950006322586 -623.27583881754254 0 0 0 0 -149.91351637218031 -467.54980463238098 0 -467.54980463238098 -475.05518075007603 0 0 0 0 -595.53605532563961 -769.76216816109991 0 -769.76216816109991 -681.25879373307453 0 0 0 0 -186.1137588335896 -415.35171968398026 0 -415.35171968398026 -400.1258305677984 0 0 0 0 -484.09385386909344 85.752003661520575 0 85.752003661520575 186.69859030714724 0 0 0 0 -704.92468661524617 -580.42403970276246 0 -580.42403970276246 848.16291173485024 0 0 0 0 -8.4876592532889674 -6.9664503042480348 0 -6.9664503042480348 -2.9389984271698566 0 0 0 0 -23.558241734815965 -8.4190109394457977 0 -8.4190109394457977 -987.62238137403392 0 0 0 0 -633.3700605125905 -870.77840019347695 0 -870.77840019347695 -1113.0378526386003 0 0 0 0 2.4585450071390369 -408.78394896591999 0 -408.78394896591999 459.79806991335136 0 0 0 0 -17.966985082180059 -13.635969060396668 0 -13.635969060396668 -4.6184675039257641 0 0 0 0 78.847762420027721 -579.4222512632623 0 -579.4222512632623 -1936.9466620977146 0 0 0 0 54.133899547087822 -612.16234314431813 0 -612.16234314431813 -1926.7043597084339 0 0 0 0 -262.68446221199929 -121.93480286746671 0 -121.93480286746671 -19.489738215092075 0 0 0 0 404.20392895999612 -595.971809743005 0 -595.971809743005 -2114.9709647072814 0 0 0 0 -151.3679424568636 -43.316052741334715 0 -43.316052741334715 249.15414295332397 0 0 0 0 -11.128374961334096 -3.6428100305312654 0 -3.6428100305312654 -2.2555460617400684 0 0 0 0 14.066818419672927 -22.943287129959572 0 -22.943287129959572 27.769212360261008 0 0 0 0 82.263372125898059 -160.33474393862889 0 -160.33474393862889 -204.5611005175997 0 0 0 0 16.590908176151373 -10.515415052916408 0 -10.515415052916408 6.448649634388012 0 0 0 0 193.78197139538315 -156.39385790396955 0 -156.39385790396955 -178.98217376750108 0 0 0 0 -671.47310242810272 -584.72490922245288 0 -584.72490922245288 -308.71725898401564 0 0 0 0 24.747088792805705 -19.418233813972357 0 -19.418233813972357 8.5115236611377902 0 0 0 0 -103.83202902460471 -115.38807136665855 0 -115.38807136665855 142.74173445919575 0 0 0 0 -729.05630193250727 -691.28756334518584 0 -691.28756334518584 -471.79479793673818 0 0 0 0 -29.456076191169345 -10.531871673213018 0 -10.531871673213018 5.8633975293066385 0 0 0 0 24.200590941993141 -15.843467929991675 0 -15.843467929991675 0.9376419695399818 0 0 0 0 19.711894774065513 -28.00525695504939 0 -28.00525695504939 -17.876309675772063 0 0 0 0 38.733836719604369 -20.655335324017869 0 -20.655335324017869 -35.892095986255299 0 0 0 0 36.990172348279884 -28.943427293197601 0 -28.943427293197601 -67.8817434120283 0 0 0 0 33.003377208689926 -67.281298088184485 0 -67.281298088184485 -78.872701457974472 0 0 0 0 -18.812405096684415 -106.06854514773613 0 -106.06854514773613 -53.74453638416162 0 0 0 0 16.308274159713619 -58.004163432655332 0 -58.004163432655332 -35.415098323697435 0 0 0 0 3.3449716785544297 -89.062557201954405 0 -89.062557201954405 -41.27152351245968 0 0 0 0 -4.0778341361656203 -89.612370960228873 0 -89.612370960228873 -34.826391598740884 0 0 0 0 -25.206252017058432 -100.17966721577977 0 -100.17966721577977 -38.071289614146735 0 0 0 0 -42.908754905151767 -96.430844795012163 0 -96.430844795012163 -24.527787988517957 0 0 0 0 10.442177857061552 -75.530750924899166 0 -75.530750924899166 -28.856048716141231 0 0 0 0 -5.0578055489131657 -80.580420711641636 0 -80.580420711641636 -32.07813847494981 0 0 0 0 11.327918815022713 -81.815042037933381 0 -81.815042037933381 -36.284120533939131 0 0 0 0 -1.2491394037269856 -78.753965319504005 0 -78.753965319504005 -29.953154669419746 0 0 0 0 11.009850593598912 -66.169987550159021 0 -66.169987550159021 -6.0332697400590405 0 0 0 0 13.864707929671567 -76.29114863588984 0 -76.29114863588984 -38.872364844541153 0 0 0 0 21.204417269796977 -50.474835645139137 0 -50.474835645139137 -28.065453637434985 0 0 0 0 13.112193480345013 -50.434845217008842 0 -50.434845217008842 -4.0945199416892137 0 0 0 0 18.121839854888094 -50.620020123678842 0 -50.620020123678842 -13.978109761210362 0 0 0 0 11.177665552793769 -53.06120016222485 0 -53.06120016222485 17.805514122802379 0 0 0 0 6.0960640047760535 -58.859512129298309 0 -58.859512129298309 11.486275117051264 0 0 0 0 -6.8111145264501829 -81.860131260842081 0 -81.860131260842081 256.41744475631276 0 0 0 0 4.8637262296951107 -4.0684594510350536 0 -4.0684594510350536 2.7856580254320349 0 0 0 0 117.19785552077337 -202.88893317660404 0 -202.88893317660404 -35.047283851314205 0 0 0 0 97.344944803230192 -79.986133320134741 0 -79.986133320134741 -199.94241891167621 0 0 0 0 15.170510694813856 -85.459380242073166 0 -85.459380242073166 31.148477983078919 0 0 0 0 14.601241673935874 -77.867092894934103 0 -77.867092894934103 -27.618215223425068 0 0 0 0 73.508287300232041 -127.73624880279021 0 -127.73624880279021 -36.651350209416705 0 0 0 0 33.051822288543917 -59.502093155591865 0 -59.502093155591865 -95.53743109959396 0 0 0 0 34.584117880032863 -78.917664165164751 0 -78.917664165164751 -39.663857183841174 0 0 0 0 28.693488767243252 -30.467998429827276 0 -30.467998429827276 -48.604019693761074 0 0 0 0 7.5228008138365112 -44.795184814673121 0 -44.795184814673121 -28.208055711711495 0 0 0 0 2.8482008607261378 -60.948312376995545 0 -60.948312376995545 -36.735777985661116 0 0 0 0 -5.7358912463628613 -12.110026303552402 0 -12.110026303552402 -24.507352063414196 0 0 0 0 8.8684718317517763 22.311725290509912 0 22.311725290509912 -137.23785299711017 0 0 0 0 172.8962980629185 -111.10015309652044 0 -111.10015309652044 -92.223081491731136 0 0 0 0 -13.507350723920224 -3.1760501115234234 0 -3.1760501115234234 -4.8927426844435162 0 0 0 0 42.759068346797903 9.872227810298682 0 9.872227810298682 -40.238836196596822 0 0 0 0 -13.849451950993652 -22.961042863418573 0 -22.961042863418573 -33.746347627810032 0 0 0 0 -10.194286396676034 -49.693454567415756 0 -49.693454567415756 -29.561896962346509 0 0 0 0 -5.338065907062628 -59.183405012119692 0 -59.183405012119692 -28.051098360381729 0 0 0 0 -23.691488403837866 -69.122293183345391 0 -69.122293183345391 -24.085408545473911 0 0 0 0 -12.794881608224387 -61.664324347289948 0 -61.664324347289948 -22.065026159803892 0 0 0 0 -8.8108101106809045 -63.469331469968893 0 -63.469331469968893 -32.011526578917255 0 0 0 0 -7.5782376546412706 -69.840530072990077 0 -69.840530072990077 -25.538764806768086 0 0 0 0 -8.7281996557306414 -24.775683383425214 0 -24.775683383425214 30.543902517396432 0 0 0 0 -26.299630118523055 -67.870258235430811 0 -67.870258235430811 -5.5243907679978292 0 0 0 0 2.120088248804656 -20.975195200985979 0 -20.975195200985979 9.5862152995108794 0 0 0 0 -44.967030321561651 -83.262051311281539 0 -83.262051311281539 -17.872488893030095 0 0 0 0 -18.360831589467125 -85.764735198987182 0 -85.764735198987182 -26.711231379948003 0 0 0 0 -32.103723987544072 -81.087875241577422 0 -81.087875241577422 -19.038559098773476 0 0 0 0 -31.039986732284888 -93.070777623757749 0 -93.070777623757749 -23.774222103103966 0 0 0 0 -28.275105924538366 -87.842905115013309 0 -87.842905115013309 -27.018182692074333 0 0 0 0 6.2245209729044291 -80.308980835925468 0 -80.308980835925468 -34.475498475479981 0 0 0 0 5.8729186918353662 -67.427656353269413 0 -67.427656353269413 -43.935846509502881 0 0 0 0 -14.872336560212716 -76.546766535640018 0 -76.546766535640018 -29.998852460383205 0 0 0 0 38.76978443610048 20.460759639478795 0 20.460759639478795 -350.24323686664502 0 0 0 0 -248.16222209372972 -207.58337860636493 0 -207.58337860636493 -362.09071435358555 0 0 0 0 -143.20761342981314 -37.363298919255612 0 -37.363298919255612 -348.25455069668135 0 0 0 0 46.509717353636006 -163.80939228255193 0 -163.80939228255193 -377.20337592753594 0 0 0 0 100.43788089674763 -237.9321402319456 0 -237.9321402319456 -497.61300116539496 0 0 0 0 -84.938526909884786 -411.43147455461553 0 -411.43147455461553 -619.88227420309158 0 0 0 0 -66.462348857402503 -204.88687062994268 0 -204.88687062994268 -290.88816902627877 0 0 0 0 807.42310000965335 -497.41099721322553 0 -497.41099721322553 -280.39773964984124 0 0 0 0 -145.20651868376081 -51.423849994482225 0 -51.423849994482225 -56.835794796266327 0 0 0 0 -5.5914844531076398 2.2400722229609187 0 2.2400722229609187 1.2920685745273914 0 0 0 0 90.698948628264134 170.8253318236475 0 170.8253318236475 -57.7536387854434 0 0 0 0 10.93682804888158 18.352929693524857 0 18.352929693524857 -32.849359912588625 0 0 0 0 7.4754956832284734 37.234058985920228 0 37.234058985920228 -120.49868095671991 0 0 0 0 -229.79577555683863 -142.78736867360021 0 -142.78736867360021 -144.80423043367318 0 0 0 0 -54.935939766880892 -168.24728813432512 0 -168.24728813432512 -593.41984465735732 0 0 0 0 -326.23523581893278 -662.33174382929133 0 -662.33174382929133 -756.52474419188547 0 0 0 0 1.6775152596166052 -1.4221400682455041 0 -1.4221400682455041 -0.3601981552999014 0 0 0 0 -354.26377398567638 -431.88464286462931 0 -431.88464286462931 208.20269251774698 0 0 0 0 70.434676596254576 72.262798328780718 0 72.262798328780718 -92.863024839698483 0 0 0 0 -220.73437147416007 -201.08955215445167 0 -201.08955215445167 62.224030540402964 0 0 0 0 -2.7887078665843461 -4.2895380248134032 0 -4.2895380248134032 -7.8878961290001897 0 0 0 0 -600.88287851454515 -394.41973461687849 0 -394.41973461687849 -32.601950485703128 0 0 0 0 55.872540096443117 560.32498065714026 0 560.32498065714026 -319.12625089369976 0 0 0 0 -544.95364971315212 -1130.7798242825047 0 -1130.7798242825047 -344.49783461035042 0 0 0 0 -193.99071151940097 -795.54040873576287 0 -795.54040873576287 -508.01036934732474 0 0 0 0 -375.40411035894613 -237.67465392483427 0 -237.67465392483427 -686.05311034426632 0 0 0 0 -181.50651525192188 -521.07368525328093 0 -521.07368525328093 -507.09072838248176 0 0 0 0 -46.674801986298007 -327.77666325889413 0 -327.77666325889413 -486.2395539016361 0 0 0 0 -78.182505345452228 -312.00258477487114 0 -312.00258477487114 -240.5848937014689 0 0 0 0 2.9237679578742899 -3.7116085711523148 0 -3.7116085711523148 0.29196282847365751 0 0 0 0 -55.857083992513708 -371.93139043011979 0 -371.93139043011979 -611.13452830559072 0 0 0 0 -16.951926135744543 -391.3013978768322 0 -391.3013978768322 -417.0817843802397 0 0 0 0 15.631452182809198 -304.66551570495199 0 -304.66551570495199 -490.67016145236266 0 0 0 0 -53.646550995710641 -423.15184710561425 0 -423.15184710561425 -471.87402651155571 0 0 0 0 -4.7005187934682908 -386.12147702034781 0 -386.12147702034781 -460.45873443143137 0 0 0 0 -24.039988038435695 -138.12458247253471 0 -138.12458247253471 -348.73188441713683 0 0 0 0 -3.1137461559778785 -252.28978530848826 0 -252.28978530848826 -281.43686408158464 0 0 0 0 15.699533843331665 -286.99766082053475 0 -286.99766082053475 -591.88593157329888 0 0 0 0 0.92840316176301485 -0.79400751421812021 0 -0.79400751421812021 0.52639684629472328 0 0 0 0 32.482266301086383 -90.769459853725493 0 -90.769459853725493 -18.182487931282594 0 0 0 0 16.785544610813304 -179.77932066835456 0 -179.77932066835456 -348.66180955230629 0 0 0 0 -1046.1169003455962 -597.93159923124585 0 -597.93159923124585 -401.56684681642582 0 0 0 0 -340.5437409439146 -667.32000076831537 0 -667.32000076831537 -404.82913137555897 0 0 0 0 -75.81172893877374 -364.81613580704106 0 -364.81613580704106 -624.25891485884495 0 0 0 0 -397.10570085053223 -550.02842952836545 0 -550.02842952836545 -608.89136581573621 0 0 0 0 49.906573178490362 -256.24259309529953 0 -256.24259309529953 -683.62523759586429 0 0 0 0 -38.460365599414217 -457.21615555577227 0 -457.21615555577227 -1134.4602839716508 0 0 0 0 -312.2298248587349 -876.84514109812699 0 -876.84514109812699 -822.03170083421719 0 0 0 0 -64.231613174451013 160.64697714546946 0 160.64697714546946 -534.0904221800638 0 0 0 0 -146.79576323739275 -44.30536917378231 0 -44.30536917378231 106.2602496327745 0 0 0 0 -14.825026584682945 -13.414423975861943 0 -13.414423975861943 -4.4733734007211279 0 0 0 0 30.751677012647633 120.30798967231749 0 120.30798967231749 -103.83253055953264 0 0 0 0 -31.944812289933907 -224.08018276172334 0 -224.08018276172334 -224.13137211430694 0 0 0 0 -140.05478790893631 35.106155621862854 0 35.106155621862854 -14.691662701829046 0 0 0 0 -0.76886104310568726 -4.6003960218505364 0 -4.6003960218505364 2.9124787576669178 0 0 0 0 -298.31030162187199 -191.99707700771614 0 -191.99707700771614 -13.322232617791087 0 0 0 0 -418.01487098289044 -190.16328764530908 0 -190.16328764530908 -158.450826119064 0 0 0 0 -339.7102369090062 -345.23284100997444 0 -345.23284100997444 -234.17082501939876 0 0 0 0 -119.48935578411056 -177.49518838139238 0 -177.49518838139238 -236.43750896685378 0 0 0 0 -2.9276436980853262 -1.9636204854710613 0 -1.9636204854710613 -0.90515453581505056 0 0 0 0 -151.20341097490746 -264.23755614741094 0 -264.23755614741094 -450.34707973433888 0 0 0 0 -233.95435723272431 -263.82817628744533 0 -263.82817628744533 -130.28395511109557 0 0 0 0 -483.85040427193235 -413.8998607809317 0 -413.8998607809317 -214.10637441200197 0 0 0 0 -231.77134389238927 -266.21601474557428 0 -266.21601474557428 -190.13714725558384 0 0 0 0 -150.4773369814593 -147.22545259636354 0 -147.22545259636354 -152.68408467873087 0 0 0 0 -267.2344732092788 -271.62204918431962 0 -271.62204918431962 -112.97731180151459 0 0 0 0 -4.6161678520529676 -272.17528858522201 0 -272.17528858522201 -113.57210055763426 0 0 0 0 -88.517445597623919 -137.95424013972206 0 -137.95424013972206 -92.06943584480905 0 0 0 0 0.58271887969494074 -1.5100219774510464 0 -1.5100219774510464 -0.67734730752633254 0 0 0 0 -637.1288990505891 -411.27567521268793 0 -411.27567521268793 -148.67718732151843 0 0 0 0 171.18424132474502 -109.99320423978952 0 -109.99320423978952 -177.53504568482094 0 0 0 0 -494.06164053098473 -198.13919695523509 0 -198.13919695523509 46.276245320288581 0 0 0 0 -1.8739011739142342 -0.96041885496711643 0 -0.96041885496711643 -0.28851769141742167 0 0 0 0 23.815861506448528 -51.835076977277367 0 -51.835076977277367 -43.905475409235805 0 0 0 0 36.767163518805319 -67.361667116605531 0 -67.361667116605531 -296.13086857055168 0 0 0 0 -471.19005667556303 -407.17651408625852 0 -407.17651408625852 -217.41844964396296 0 0 0 0 1.5580574263063482 -1.6790997355290447 0 -1.6790997355290447 -1.12665155710215 0 0 0 0 -680.28293969484912 -389.02750393606493 0 -389.02750393606493 -135.78773954207645 0 0 0 0 651.53912954977204 131.55179739177402 0 131.55179739177402 -55.414190570842038 0 0 0 0 -580.32348838220059 -280.23060619839816 0 -280.23060619839816 -124.86739384818793 0 0 0 0 -100.9369856529147 -292.23932065824374 0 -292.23932065824374 -138.5383491043458 0 0 0 0 -526.49323484972592 -302.0281980805521 0 -302.0281980805521 -170.8413997017924 0 0 0 0 -462.33344214618046 -172.90022801450687 0 -172.90022801450687 -99.106697014380188 0 0 0 0 -419.39412869337502 -299.40176244063696 0 -299.40176244063696 -207.81392442403103 0 0 0 0 -524.95150993595598 -311.15253306429076 0 -311.15253306429076 -188.97178323025582 0 0 0 0 394.057497524881 152.38742591435539 0 152.38742591435539 46.468735706544976 0 0 0 0 115.0618838235423 -296.95090187795358 0 -296.95090187795358 -171.09043737864158 0 0 0 0 6.2260659662544953 -2.4272061552532023 0 -2.4272061552532023 1.6360151979450421 0 0 0 0 555.25646627396418 310.31487116612516 0 310.31487116612516 44.446304285553197 0 0 0 0 4.074863743674058 -3.9824936700978846 0 -3.9824936700978846 -2.0288841673315119 0 0 0 0 350.71104372210084 -67.773817117677709 0 -67.773817117677709 -84.874481974828086 0 0 0 0 919.97090241230762 23.483903986463702 0 23.483903986463702 -448.54488936775306 0 0 0 0 2.0974304392391723 -4.6251145566703933 0 -4.6251145566703933 -5.4165938284607478 0 0 0 0 263.03202662161675 -57.829174110358508 0 -57.829174110358508 -93.676435117453366 0 0 0 0 -328.9693590410443 -7.2664668276247539 0 -7.2664668276247539 420.06772249955247 0 0 0 0 140.49365701612624 -197.55247742529264 0 -197.55247742529264 -108.90567228886357 0 0 0 0 229.26704923092075 -438.65455002545696 0 -438.65455002545696 -258.06916753037149 0 0 0 0 -38.080569859774187 103.60398642654309 0 103.60398642654309 -233.32638705900172 0 0 0 0 113.22070343000786 -22.714841759040649 0 -22.714841759040649 -431.23282464845579 0 0 0 0 -277.25316469123391 -253.46764941060064 0 -253.46764941060064 -462.50692501750927 0 0 0 0 -140.15154127401911 -392.32079972661995 0 -392.32079972661995 -403.69948891006061 0 0 0 0 -361.45675650550947 -385.55101891785762 0 -385.55101891785762 -347.68345288497039 0 0 0 0 3.7646443027979242 -1.9334871487668153 0 -1.9334871487668153 -7.0714105562478125 0 0 0 0 -143.72816443184865 -193.97793937861297 0 -193.97793937861297 -200.19786174528417 0 0 0 0 8.8635784671349569 -9.4344642079672631 0 -9.4344642079672631 2.607811481888163 0 0 0 0 37.151789338362505 -50.418373158026952 0 -50.418373158026952 18.200120544743186 0 0 0 0 146.37464241774614 -50.385313563358068 0 -50.385313563358068 -56.287809780142197 0 0 0 0 99.552242221525375 71.507357575348578 0 71.507357575348578 77.541757491362659 0 0 0 0 15.950414018140904 -8.9510168640727557 0 -8.9510168640727557 -0.43028219853020033 0 0 0 0 3.4018911005295633 -7.1000994774735062 0 -7.1000994774735062 -17.132315337130507 0 0 0 0 -50.467951857779553 -6.8782341236965294 0 -6.8782341236965294 40.671762621044763 0 0 0 0 64.963372079108012 -151.11596442479578 0 -151.11596442479578 -86.145767126996361 0 0 0 0 59.482221337164958 -11.968324093842682 0 -11.968324093842682 -43.000416873474023 0 0 0 0 -1.0599466445183814 -4.4042103655949099 0 -4.4042103655949099 -10.11152068769367 0 0 0 0 -165.99429215078271 -78.137094153228645 0 -78.137094153228645 -61.474893452982542 0 0 0 0 -30.656275823697797 -132.35646899231961 0 -132.35646899231961 -117.76688708053553 0 0 0 0 -36.591427900531471 -141.48402465934441 0 -141.48402465934441 -115.09077599025113 0 0 0 0 -12.562238054288173 -19.858178366554057 0 -19.858178366554057 61.47544186545565 0 0 0 0 118.04300513019189 -155.0692451783234 0 -155.0692451783234 113.11718657497568 0 0 0 0 209.90477691918932 -171.5061811366877 0 -171.5061811366877 20.889607907418394 0 0 0 0 11.793291420723108 -238.00654638320339 0 -238.00654638320339 48.389401099855604 0 0 0 0 152.38082309126912 -142.67666477201419 0 -142.67666477201419 -63.616700264536121 0 0 0 0 -10.629247718470651 -187.19451255108288 0 -187.19451255108288 -38.501539061089716 0 0 0 0 152.56792643998642 -136.28579081017199 0 -136.28579081017199 82.071876195113873 0 0 0 0 108.84144223279873 -272.94332496222341 0 -272.94332496222341 77.300913906386995 0 0 0 0 249.87756234231711 -52.104968917521546 0 -52.104968917521546 -327.99934665007822 0 0 0 0 -24.211632512163419 -15.874015923767942 0 -15.874015923767942 -7.9650882530865488 0 0 0 0 2.7501539761997265 -220.01178733170673 0 -220.01178733170673 -91.049813196543255 0 0 0 0 -144.39721922953322 -86.020163208491795 0 -86.020163208491795 -131.03843299516666 0 0 0 0 -177.61450192400662 -675.24473694663175 0 -675.24473694663175 207.72840704888949 0 0 0 0 -0.1855692863221452 -1.3694283074440285 0 -1.3694283074440285 -3.4025525429720744 0 0 0 0 627.13819673389116 -129.46826588020122 0 -129.46826588020122 -151.29981908845912 0 0 0 0 -824.23977586942055 -182.35091988280419 0 -182.35091988280419 203.74490641863667 0 0 0 0 153.79025604406161 -308.1163466044527 0 -308.1163466044527 226.83196455003053 0 0 0 0 -132.79245028047274 -36.56983594205974 0 -36.56983594205974 24.418171266421268 0 0 0 0 122.05030937684933 -258.09363993603984 0 -258.09363993603984 204.15837142615783 0 0 0 0 43.662801221369591 -212.11408388584459 0 -212.11408388584459 219.65975218645508 0 0 0 0 0.47081000339467138 -1.521386699003263 0 -1.521386699003263 2.5163339151912254 0 0 0 0 287.38578468608648 -84.989736075411201 0 -84.989736075411201 -72.995509696249428 0 0 0 0 -450.52094512349231 -159.46769164942179 0 -159.46769164942179 160.9974375803431 0 0 0 0 86.435033601419491 -37.532268703145746 0 -37.532268703145746 -51.855179437705374 0 0 0 0 -92.09198182063119 -163.57208414342858 0 -163.57208414342858 -299.99934646674774 0 0 0 0 -92.930142756953501 -163.47170282994921 0 -163.47170282994921 26.68428147301006 0 0 0 0 -300.17624972317935 85.011805214131527 0 85.011805214131527 -25.745219029402506 0 0 0 0 -152.70067167548768 -61.924787622689109 0 -61.924787622689109 94.64071469211558 0 0 0 0 -102.65545199015469 16.172630973260311 0 16.172630973260311 110.64256426018574 0 0 0 0 100.13059264245931 -43.591093691336937 0 -43.591093691336937 60.062054873726993 0 0 0 0 33.8441800036735 -59.065844783936427 0 -59.065844783936427 58.792219756804116 0 0 0 0 6.1181232749128363 -6.5373635685457288 0 -6.5373635685457288 16.090110017099498 0 0 0 0 16.95000277998588 67.56663180977921 0 67.56663180977921 -6.874875986322877 0 0 0 0 27.920452594351239 -37.197930007876117 0 -37.197930007876117 40.229988034370024 0 0 0 0 -114.79250759564002 -111.78426247301468 0 -111.78426247301468 17.691689034430055 0 0 0 0 33.530596174212405 -55.504491626500567 0 -55.504491626500567 28.298276744848408 0 0 0 0 28.184306362276061 -20.055521516834801 0 -20.055521516834801 32.249754834188934 0 0 0 0 28.283216329391507 -21.853612232425803 0 -21.853612232425803 64.735258556213012 0 0 0 0 33.602229652411665 -135.15882081756183 0 -135.15882081756183 108.23441352212831 0 0 0 0 22.434686840461609 -2.0619926872666383 0 -2.0619926872666383 27.262517283146735 0 0 0 0 1.5627158629074636 1.3749769653927615 0 1.3749769653927615 -0.13621052392541344 0 0 0 0 -3.4014127311620541 -66.845509402666721 0 -66.845509402666721 -8.4821636154792941 0 0 0 0 -9.4697900322153146 -31.971137377986452 0 -31.971137377986452 -205.37894852289901 0 0 0 0 71.288904341010948 -65.649893948159388 0 -65.649893948159388 36.018381369722192 0 0 0 0 55.473075363545831 -12.370739639385647 0 -12.370739639385647 13.557884151145117 0 0 0 0 -167.53445744422015 -254.90975196111776 0 -254.90975196111776 -29.770447518149012 0 0 0 0 -134.52612014465012 -158.10236001231897 0 -158.10236001231897 247.895178426028 0 0 0 0 -296.86068793618642 -264.53545799239873 0 -264.53545799239873 -204.64560924262332 0 0 0 0 2.0462344561251236 -3.8729102203504606 0 -3.8729102203504606 1.0200740231843497 0 0 0 0 -305.95162295163755 -187.70354279449202 0 -187.70354279449202 -203.67697877763567 0 0 0 0 -24.451965541798927 -165.08191694761445 0 -165.08191694761445 -119.76942949994918 0 0 0 0 -10.475860541097063 -111.29496642052254 0 -111.29496642052254 -102.2087916586097 0 0 0 0 -348.12272708810906 -357.10406352509517 0 -357.10406352509517 -230.45155294750657 0 0 0 0 -103.87058815720229 -175.90556545253185 0 -175.90556545253185 -103.1719779437226 0 0 0 0 -67.64190834074725 -126.31259646389299 0 -126.31259646389299 -102.61288014867205 0 0 0 0 -453.99641206555134 -325.66584939028689 0 -325.66584939028689 228.87374029827333 0 0 0 0 1.8296290316875794 -4.1746847353233516 0 -4.1746847353233516 3.9977986751643044 0 0 0 0 -282.31283970172808 64.351034569044714 0 64.351034569044714 -6.0520026192934893 0 0 0 0 833.16796443345811 430.34907979264244 0 430.34907979264244 366.25445994940856 0 0 0 0 1901.8516764441156 -61.85460290802439 0 -61.85460290802439 -97.227437867572007 0 0 0 0 0.044878966755192096 -1.7657292810225194 0 -1.7657292810225194 -2.5605328001816758 0 0 0 0 2159.8741808448431 180.73246715878668 0 180.73246715878668 -157.82550913774321 0 0 0 0 -434.56271613097488 -382.97686856398104 0 -382.97686856398104 -204.61841130573885 0 0 0 0 4.853425072391877 -12.429485559904947 0 -12.429485559904947 -4.9350629958513679 0 0 0 0 -371.89891076680215 -394.14569328183279 0 -394.14569328183279 -266.13865568787878 0 0 0 0 -539.88480320586677 -449.05025526901591 0 -449.05025526901591 -238.3045412060801 0 0 0 0 1507.7613338290903 469.03383612912512 0 469.03383612912512 -58.801131106294633 0 0 0 0 -356.65122328248617 -275.58290805700562 0 -275.58290805700562 -58.502159139919968 0 0 0 0 2056.4798594172025 515.80943968481733 0 515.80943968481733 -62.366813791595632 0 0 0 0 1073.3110742226272 -305.73027320398614 0 -305.73027320398614 70.679737309437769 0 0 0 0 9.1654437763304486 -7.0749573110508379 0 -7.0749573110508379 -5.4110213913549927 0 0 0 0 80.36573032326487 -83.723298834194793 0 -83.723298834194793 -319.45821322706615 0 0 0 0 -298.86208149570757 -171.15506826709907 0 -171.15506826709907 -150.12989549962367 0 0 0 0 -419.90018770766619 -437.0366295680542 0 -437.0366295680542 -381.16465181252715 0 0 0 0 2883.7461499864439 29.917341573469457 0 29.917341573469457 371.90518221139791 0 0 0 0 -576.40359697236636 -682.62933128411714 0 -682.62933128411714 -261.82169368999894 0 0 0 0 3.7886512851726764 -3.4707835993444505 0 -3.4707835993444505 -2.5141922547580293 0 0 0 0 0.30909974319547473 -942.2370084732238 0 -942.2370084732238 -159.76014814035443 0 0 0 0 -160.743854941873 -303.11655803485701 0 -303.11655803485701 -335.87318105531449 0 0 0 0 -514.62753795870594 -432.13601834327073 0 -432.13601834327073 -309.87927480046346 0 0 0 0 128.76835285432026 -648.15899195610837 0 -648.15899195610837 -66.681648086178029 0 0 0 0 753.76207627422264 -904.23041219191509 0 -904.23041219191509 -229.15749456962658 0 0 0 0 110.35654207281186 -639.52712006743241 0 -639.52712006743241 100.71364713839284 0 0 0 0 8.0907346103622473 -2.2836349482371929 0 -2.2836349482371929 -19.131405780247974 0 0 0 0 378.41026299817895 -93.651745416578706 0 -93.651745416578706 -17.061870715482655 0 0 0 0 299.11847852179562 -306.97724976871177 0 -306.97724976871177 -79.255214707758569 0 0 0 0 817.45916907241917 -356.52764841375756 0 -356.52764841375756 -123.22465598740018 0 0 0 0 1374.2160829044733 -299.07639938434295 0 -299.07639938434295 -209.07110299658962 0 0 0 0 543.73378535807933 112.73002929961876 0 112.73002929961876 44.324318902879895 0 0 0 0 964.44951424741885 174.91245146191977 0 174.91245146191977 -80.045512888376834 0 0 0 0 106.96084163495289 -35.37765575771482 0 -35.37765575771482 -133.62838439229381 0 0 0 0 1370.5097260050934 -236.96254761361706 0 -236.96254761361706 253.88398503398639 0 0 0 0 12.412073372142711 -18.801204667044381 0 -18.801204667044381 0.79945526160162217 0 0 0 0 2244.6621046919754 -867.48579071249333 0 -867.48579071249333 -61.710430334216653 0 0 0 0 -0.87939654269644052 -4.9011396070574094 0 -4.9011396070574094 0.01285946596585319 0 0 0 0 3127.4802077829372 728.06095113499032 0 728.06095113499032 -128.20408249374577 0 0 0 0 2687.4682798698195 393.92516373400213 0 393.92516373400213 -297.18419907640782 0 0 0 0 -6.5843512426727102 -26.797880168905976 0 -26.797880168905976 -156.21199169172542 0 0 0 0 -99.811693502801063 -107.49949656706121 0 -107.49949656706121 -43.679710580378014 0 0 0 0 -1.8562588646636868 -96.963947280222783 0 -96.963947280222783 10.515982827659172 0 0 0 0 102.93641181687326 -36.359217525134227 0 -36.359217525134227 -60.742581760590838 0 0 0 0 -17.487609706884541 25.258975832231954 0 25.258975832231954 89.4737892359135 0 0 0 0 41.987715499724075 -27.455448291508514 0 -27.455448291508514 11.877176783378438 0 0 0 0 49.918733400474594 -54.25661680012854 0 -54.25661680012854 -46.356266845636128 0 0 0 0 118.30034920063918 -99.2233992875681 0 -99.2233992875681 -5.2042182168715954 0 0 0 0 -41.505207581334616 -133.21525004995783 0 -133.21525004995783 -0.73085728456499055 0 0 0 0 50.178015982044172 -31.859832815448378 0 -31.859832815448378 5.0327148940197048 0 0 0 0 258.74559190861692 112.42641175995414 0 112.42641175995414 -201.61129651247757 0 0 0 0 163.69261228420874 -117.68567359152348 0 -117.68567359152348 -587.59393208389884 0 0 0 0 -78.746237096474943 -514.27396965404569 0 -514.27396965404569 -743.32373890650706 0 0 0 0 -374.24616881100337 -710.79932925999674 0 -710.79932925999674 -563.50493605098745 0 0 0 0 -159.68714100757279 -520.52149873029703 0 -520.52149873029703 -416.4258283821473 0 0 0 0 49.864630754642349 -232.11980854327703 0 -232.11980854327703 -347.08569787222223 0 0 0 0 -119.50274145065487 -205.87850419088863 0 -205.87850419088863 -206.20319676421605 0 0 0 0 -33.445452700150781 -8.6137704339671473 0 -8.6137704339671473 -42.4859553917413 0 0 0 0 -147.3904179898127 -387.14733018700645 0 -387.14733018700645 -316.90369307459332 0 0 0 0 -216.38494271034142 -498.23103778617224 0 -498.23103778617224 -406.07090057639562 0 0 0 0 -295.85298480794881 -611.87747141930959 0 -611.87747141930959 -428.92810129063582 0 0 0 0 -405.88138972713932 -470.26475478225257 0 -470.26475478225257 -294.2010386311058 0 0 0 0 -271.01107909807251 -560.81326119453479 0 -560.81326119453479 -342.8132096335903 0 0 0 0 -556.97506461444573 -659.49694965956223 0 -659.49694965956223 -358.12274657349644 0 0 0 0 -229.77185354920221 -563.12495986789872 0 -563.12495986789872 -389.08609675898879 0 0 0 0 -301.50605011295556 -620.03025678030099 0 -620.03025678030099 -408.92906465310625 0 0 0 0 -218.6812055960545 -487.01084521545999 0 -487.01084521545999 -371.28596307880071 0 0 0 0 -308.43219643906446 -504.21753179770917 0 -504.21753179770917 -347.56170396712696 0 0 0 0 -316.12639456830948 -542.60389058517103 0 -542.60389058517103 -399.10736429172539 0 0 0 0 -478.96646024924848 -355.17207262936063 0 -355.17207262936063 -265.0300519155553 0 0 0 0 -230.00944687068841 -344.31035019557385 0 -344.31035019557385 -276.75299185044696 0 0 0 0 -249.04953203701916 -390.87752736220409 0 -390.87752736220409 -87.894604726658145 0 0 0 0 -193.25516388850883 -288.94097616642466 0 -288.94097616642466 -172.84928304308414 0 0 0 0 -22.906790416480362 -477.77051941782338 0 -477.77051941782338 -314.47800748870213 0 0 0 0 -189.25920312740118 -344.70782173095381 0 -344.70782173095381 -420.21317271166481 0 0 0 0 -184.28888330257519 -434.04096211339515 0 -434.04096211339515 -561.55144946720247 0 0 0 0 -14.223760724617023 -424.89366143684856 0 -424.89366143684856 -653.39675390593766 0 0 0 0 -356.62181822448474 -224.24777771839217 0 -224.24777771839217 -789.97020162706758 0 0 0 0 -736.1151909205073 -480.50160687284915 0 -480.50160687284915 -407.57632926753286 0 0 0 0 -288.37486838705809 -679.94993824687481 0 -679.94993824687481 -907.01742840351471 0 0 0 0 -1094.5559105665016 -721.12956647107421 0 -721.12956647107421 -337.79536090819965 0 0 0 0 -0.57376759648318387 0.76481770514365621 0 0.76481770514365621 -6.6681013918530283 0 0 0 0 -429.35601116664839 -299.37681770044219 0 -299.37681770044219 -84.15097149291978 0 0 0 0 15.983843606758025 -12.97306588245128 0 -12.97306588245128 -15.735346253486043 0 0 0 0 -148.18751552380024 -245.8888770662744 0 -245.8888770662744 -182.03562404405966 0 0 0 0 -159.36050513149439 -539.21591594898291 0 -539.21591594898291 -547.60716227979356 0 0 0 0 -197.48461822253375 -474.19335800979024 0 -474.19335800979024 -514.24856905218257 0 0 0 0 -66.350815832800436 -356.83387643358947 0 -356.83387643358947 -364.75558111284772 0 0 0 0 -100.23252844711351 -443.37196538818171 0 -443.37196538818171 -395.1846311360714 0 0 0 0 -78.535729336118493 -417.21266772310923 0 -417.21266772310923 -439.6260984910914 0 0 0 0 -149.04951472775429 -410.25973753074868 0 -410.25973753074868 -424.45453265474134 0 0 0 0 -86.721657722438977 -428.71688870697835 0 -428.71688870697835 -480.94648267065759 0 0 0 0 -168.31597143554154 -286.34480961417194 0 -286.34480961417194 -361.76132072920882 0 0 0 0 28.524640749034006 -349.51582538213916 0 -349.51582538213916 -496.30987095152386 0 0 0 0 -33.505741604277318 -386.15735541813638 0 -386.15735541813638 -466.82523714545823 0 0 0 0 69.715977135041612 -380.74051448345563 0 -380.74051448345563 -258.81141304487392 0 0 0 0 71.995283981010289 -293.29235535324187 0 -293.29235535324187 -450.28145796232911 0 0 0 0 254.37710552628414 -442.22755840466925 0 -442.22755840466925 -244.91054670522317 0 0 0 0 3.0498317707941283 -2.9781306091851256 0 -2.9781306091851256 2.8827312605117896 0 0 0 0 40.77908796286647 -174.91679405875766 0 -174.91679405875766 -304.55726440458966 0 0 0 0 167.41783573966677 -223.83577867912391 0 -223.83577867912391 -298.15419508159039 0 0 0 0 100.86075071594678 -333.29815824906836 0 -333.29815824906836 290.3809302955633 0 0 0 0 -5.2671800996249658 -77.285489778111128 0 -77.285489778111128 435.1592076015113 0 0 0 0 -11.140835663871258 -369.96317756895951 0 -369.96317756895951 300.77252037137805 0 0 0 0 258.52935985063232 25.311076137182681 0 25.311076137182681 325.91316927773005 0 0 0 0 359.0019466589074 -47.744800380758534 0 -47.744800380758534 352.65956620837824 0 0 0 0 78.268442848991981 -114.27106894870485 0 -114.27106894870485 -57.004476394959056 0 0 0 0 172.9507244425713 -323.23256953775763 0 -323.23256953775763 171.20195810072619 0 0 0 0 521.3806313401401 64.425094655956855 0 64.425094655956855 -265.9371238399508 0 0 0 0 78.170682420281082 -331.45484543055863 0 -331.45484543055863 -49.452339881376247 0 0 0 0 2.9768413968201912 -191.47757220522999 0 -191.47757220522999 180.18062402502983 0 0 0 0 -13.172538172013248 1.2839527011271628 0 1.2839527011271628 -286.64649550884496 0 0 0 0 17.111157257269952 -352.56046238585623 0 -352.56046238585623 568.25562495847589 0 0 0 0 129.76683419643814 -58.374278318187862 0 -58.374278318187862 -651.42221294204137 0 0 0 0 -13.911465612468646 -10.268180292485262 0 -10.268180292485262 -4.613093567784631 0 0 0 0 134.71766244950777 -54.466350510338088 0 -54.466350510338088 156.21604520975234 0 0 0 0 422.31061794004563 -116.48040230294464 0 -116.48040230294464 -444.02717401309928 0 0 0 0 -4.8467658778135387 -2.7596876558417733 0 -2.7596876558417733 -1.4509843631671231 0 0 0 0 -215.24394424712773 191.56481873142911 0 191.56481873142911 -463.18034612549309 0 0 0 0 252.55385688939896 250.47414743299669 0 250.47414743299669 -1177.2607559106982 0 0 0 0 -38.960258265200537 270.35739465411825 0 270.35739465411825 -314.14556008896034 0 0 0 0 -611.90665479496965 -54.763313203202415 0 -54.763313203202415 -49.019870510470355 0 0 0 0 -395.01146450484521 -53.915580956017948 0 -53.915580956017948 -140.37159546097973 0 0 0 0 -531.4049212828686 32.702347906699288 0 32.702347906699288 -194.84633693777141 0 0 0 0 -279.01212603696331 -1070.4345461544362 0 -1070.4345461544362 -78.335862503932731 0 0 0 0 105.28730854529022 -166.6388215493771 0 -166.6388215493771 14.612555392661307 0 0 0 0 8.7289691825026239 -345.14190421745116 0 -345.14190421745116 692.09527080295629 0 0 0 0 -470.46092243659587 -103.08983564813207 0 -103.08983564813207 147.29054314762834 0 0 0 0 204.86164454511663 -59.158725664500707 0 -59.158725664500707 -361.43619130588559 0 0 0 0 -397.23275337102314 -533.46076175244707 0 -533.46076175244707 -70.295317591937419 0 0 0 0 9.4420267405117642 -7.1682171618446819 0 -7.1682171618446819 8.7030555074056934 0 0 0 0 -70.5978128515344 -358.13168599488563 0 -358.13168599488563 -229.7554717724779 0 0 0 0 -59.043873467308003 -262.00707891127286 0 -262.00707891127286 96.659106831692043 0 0 0 0 -105.75174832086486 -268.65504392638104 0 -268.65504392638104 -394.41079432616971 0 0 0 0 -316.19102176839078 -16.716724211910332 0 -16.716724211910332 -405.48095454292798 0 0 0 0 -183.38630194197458 -189.64820949316891 0 -189.64820949316891 -11.238436709405505 0 0 0 0 -183.75110008844058 -179.94338673420134 0 -179.94338673420134 -231.83258656179532 0 0 0 0 -237.69996065493979 -125.56000143759957 0 -125.56000143759957 -41.28858586937713 0 0 0 0 -402.79884040977049 -15.882626362479641 0 -15.882626362479641 -113.73016625088712 0 0 0 0 -150.38176320205093 -47.613734045116871 0 -47.613734045116871 -70.722617470695695 0 0 0 0 59.721083737258596 -192.61181978754212 0 -192.61181978754212 -24.543060433330538 0 0 0 0 -163.19173491896072 -71.182880326414306 0 -71.182880326414306 3.1575963005743688 0 0 0 0 -28.165183665849327 -125.15674060776655 0 -125.15674060776655 -36.378822403465165 0 0 0 0 -126.35983503648458 -79.168160690998775 0 -79.168160690998775 -30.913316767720971 0 0 0 0 -167.3647492395794 -134.19202529372524 0 -134.19202529372524 -84.420117737528926 0 0 0 0 -271.70393917342881 -82.679574258185312 0 -82.679574258185312 -11.900262260860472 0 0 0 0 -298.25890202800292 -137.7850883047995 0 -137.7850883047995 -0.88081658647570293 0 0 0 0 -183.64427852199151 -108.56004816227505 0 -108.56004816227505 -23.221506763407888 0 0 0 0 -334.88769591548771 -29.583423320764268 0 -29.583423320764268 -20.628871436834743 0 0 0 0 -547.7273316644787 -120.70748197753346 0 -120.70748197753346 12.989211866370169 0 0 0 0 2.3439853588456998 -2.8953681299673306 0 -2.8953681299673306 1.0125059887816548 0 0 0 0 -397.62627092853654 -135.54951203487872 0 -135.54951203487872 4.5173299045927706 0 0 0 0 -524.56471548036643 -252.24280895273841 0 -252.24280895273841 24.225391003448749 0 0 0 0 -404.96907768623714 -137.03955763941121 0 -137.03955763941121 22.085882660627249 0 0 0 0 -450.60745882037736 -288.58883222904842 0 -288.58883222904842 26.403328437008895 0 0 0 0 -317.27484288502455 -303.06597508374762 0 -303.06597508374762 2.5822963943137438 0 0 0 0 -336.5738278417557 -143.91239727990978 0 -143.91239727990978 8.4645644275951781 0 0 0 0 -373.68580458554788 -134.49525652984084 0 -134.49525652984084 22.518677225001738 0 0 0 0 -332.30914832730923 -119.19439949437583 0 -119.19439949437583 13.887715939781629 0 0 0 0 -278.92181818935205 -214.1931290770226 0 -214.1931290770226 21.485356588809736 0 0 0 0 -272.55395305187994 -235.66380996028602 0 -235.66380996028602 -20.569802155150683 0 0 0 0 -273.26187147694145 -233.78872562619654 0 -233.78872562619654 93.212160803312145 0 0 0 0 102.45174854659854 -327.28998137825602 0 -327.28998137825602 0.3280578836784116 0 0 0 0 12.015391569234453 -501.01830458377958 0 -501.01830458377958 36.058862221987511 0 0 0 0 -250.05946985580522 -219.10957285362383 0 -219.10957285362383 -63.691391112079145 0 0 0 0 -165.85908341882168 -265.4149025763727 0 -265.4149025763727 -165.11221883077087 0 0 0 0 -328.43078744659215 -390.84469531756986 0 -390.84469531756986 -200.51712104307808 0 0 0 0 -138.93675297729351 -147.11576487987622 0 -147.11576487987622 -80.416484351635518 0 0 0 0 -155.3553631919649 -229.86172734608681 0 -229.86172734608681 -182.575930859035 0 0 0 0 -261.00641706473425 -239.72237890300357 0 -239.72237890300357 -147.94222261073446 0 0 0 0 -258.7077601800047 -204.55672670468266 0 -204.55672670468266 -24.035019383751205 0 0 0 0 -14.332591532016522 -404.43599089443887 0 -404.43599089443887 -388.07685139150999 0 0 0 0 -16.377487991485395 -254.81784726782644 0 -254.81784726782644 -258.02618409789829 0 0 0 0 -96.428105822611542 -382.5248421934848 0 -382.5248421934848 -321.12265151870815 0 0 0 0 -216.14585786872522 -376.24839075188811 0 -376.24839075188811 -303.83212022796215 0 0 0 0 -145.96828162002203 -407.66182267072145 0 -407.66182267072145 -307.57048431206567 0 0 0 0 -192.35265245072696 -551.52565347513155 0 -551.52565347513155 -448.90773239984264 0 0 0 0 -293.603439287519 -704.75549494169536 0 -704.75549494169536 -542.96533732673561 0 0 0 0 -541.84043462361296 -609.90563742202357 0 -609.90563742202357 -428.31488218710729 0 0 0 0 -238.89694518350007 -515.52246762139112 0 -515.52246762139112 -549.05022435525268 0 0 0 0 -155.67697448406034 -607.66842072922736 0 -607.66842072922736 -463.10717484899942 0 0 0 0 -98.976033847276085 -374.88598103621689 0 -374.88598103621689 -362.22258816341491 0 0 0 0 -244.7844747657291 -333.56505989935977 0 -333.56505989935977 -264.52271590391319 0 0 0 0 -155.41763654097394 -587.54048699513896 0 -587.54048699513896 -561.332383699817 0 0 0 0 -156.20156193102594 -312.73481483151045 0 -312.73481483151045 -313.69627599214436 0 0 0 0 -163.00995205307117 -250.19214369390465 0 -250.19214369390465 28.884116655790422 0 0 0 0 47.130521996048628 -304.994438615322 0 -304.994438615322 -252.4152964692621 0 0 0 0 -79.704913229506928 -340.01629662408232 0 -340.01629662408232 125.44129125191103 0 0 0 0 495.74368555335241 -324.73378473132834 0 -324.73378473132834 -217.79350278610946 0 0 0 0 188.3593749996362 -501.57855657130858 0 -501.57855657130858 18.362822920171311 0 0 0 0 73.07008074746409 -505.03182172664674 0 -505.03182172664674 -267.69872225789595 0 0 0 0 194.98497696148115 -253.2352209150522 0 -253.2352209150522 -318.33694669446413 0 0 0 0 30.814191020654107 -290.62099801798468 0 -290.62099801798468 -188.86874938322217 0 0 0 0 20.024143858885509 -141.41361617299845 0 -141.41361617299845 -155.29476839951531 0 0 0 0 -27.590556641640433 -189.93681208318594 0 -189.93681208318594 -120.5278487115138 0 0 0 0 -38.79929190798066 -132.38517078308905 0 -132.38517078308905 158.24251997444662 0 0 0 0 264.44829685580044 23.864273343633613 0 23.864273343633613 167.75966787709331 0 0 0 0 190.49574740759272 -116.71141359351896 0 -116.71141359351896 -99.051255166355986 0 0 0 0 126.46782381668163 -325.86002253994229 0 -325.86002253994229 412.60092269035886 0 0 0 0 103.58637882056064 -233.11272735829698 0 -233.11272735829698 46.685579267508729 0 0 0 0 9.8938202700555848 -228.21435481148364 0 -228.21435481148364 66.965866489626933 0 0 0 0 477.49163462607248 -381.37928292715515 0 -381.37928292715515 -81.234019742820237 0 0 0 0 811.54515629891102 -185.15639306147204 0 -185.15639306147204 -190.80136686216429 0 0 0 0 807.03610796714383 215.54042967686561 0 215.54042967686561 -158.81086255553237 0 0 0 0 -382.09973546530819 -565.41846259107842 0 -565.41846259107842 -248.05881987507746 0 0 0 0 1.9301308524238365 -1.8081891853229735 0 -1.8081891853229735 -2.362910573370641 0 0 0 0 260.7360519569811 -223.22907028454756 0 -223.22907028454756 -414.93217876135895 0 0 0 0 481.75664635251451 -594.50550361339629 0 -594.50550361339629 -492.64738225834299 0 0 0 0 -496.03876767972542 -130.40152238825067 0 -130.40152238825067 -61.143637619214132 0 0 0 0 273.14056736343628 -89.497174120409909 0 -89.497174120409909 -19.37914623272809 0 0 0 0 158.94529846449586 -205.0518471326177 0 -205.0518471326177 -78.81116810930871 0 0 0 0 266.54832616218027 292.48697956485694 0 292.48697956485694 225.38059123055427 0 0 0 0 205.75082502922305 -140.97030655962953 0 -140.97030655962953 16.34754482802964 0 0 0 0 65.020614194570953 61.992162091402861 0 61.992162091402861 -275.29491265636898 0 0 0 0 -264.8496348937224 -207.27983182330718 0 -207.27983182330718 -76.943695255449711 0 0 0 0 297.48946440171494 44.112449817741435 0 44.112449817741435 -246.17408924226038 0 0 0 0 2.6314641552358253 -1.1326311441260621 0 -1.1326311441260621 -1.9687915549951072 0 0 0 0 -59.688869869169139 -226.68398834270556 0 -226.68398834270556 -135.0409665353036 0 0 0 0 -88.194840020005358 -141.3936817171143 0 -141.3936817171143 -33.689861742750509 0 0 0 0 0.31213597140794036 -4.7350488516087026 0 -4.7350488516087026 0.057422286565024683 0 0 0 0 -72.497484985215124 -48.720165728769643 0 -48.720165728769643 -92.305558178668434 0 0 0 0 -109.58542467557709 -19.173385505571787 0 -19.173385505571787 -158.8972575016669 0 0 0 0 1.836153308112614 -5.869989799732064 0 -5.869989799732064 3.3010131498657103 0 0 0 0 3.9222102907151566 -68.328357969579884 0 -68.328357969579884 -305.03633300842921 0 0 0 0 -64.285372443227971 -186.17997115727485 0 -186.17997115727485 50.682605465756069 0 0 0 0 -406.38493935059523 7.8738253532246745 0 7.8738253532246745 -3.1891124868816405 0 0 0 0 -193.34474052336736 -165.34606055626864 0 -165.34606055626864 -178.52095943416862 0 0 0 0 -106.38101166804336 -182.7138923167895 0 -182.7138923167895 -293.90825792052055 0 0 0 0 -201.98241759382245 -338.36070110128912 0 -338.36070110128912 -364.69258583148621 0 0 0 0 -29.237964559481043 -210.34315659637423 0 -210.34315659637423 -396.58450701621041 0 0 0 0 -7.6230281138145557 -10.52982286978785 0 -10.52982286978785 1.8006553287125766 0 0 0 0 -8.1614009398545022 -40.055012971994074 0 -40.055012971994074 6.0821623534639571 0 0 0 0 -71.914614014968265 -81.944946808552004 0 -81.944946808552004 -108.75217420523404 0 0 0 0 19.05186972475105 -12.108926889400079 0 -12.108926889400079 8.3303216858274425 0 0 0 0 -2.2392359536715958 -22.274373093719078 0 -22.274373093719078 20.307549413242668 0 0 0 0 35.856954133665567 -101.27590343899828 0 -101.27590343899828 -506.10306057660637 0 0 0 0 -24.714398793741566 -344.4027735423897 0 -344.4027735423897 -680.4559997708202 0 0 0 0 313.32989890094177 -242.18740171510217 0 -242.18740171510217 -1000.5185999579444 0 0 0 0 161.75173078550324 -441.85614157709097 0 -441.85614157709097 -709.36306505749235 0 0 0 0 -13.927556475966412 -309.95468820113274 0 -309.95468820113274 -579.33237311899575 0 0 0 0 -173.72921820692773 -637.50798366640311 0 -637.50798366640311 -914.85352815725491 0 0 0 0 -538.06503733081047 -1057.9727371698616 0 -1057.9727371698616 -839.31207893138708 0 0 0 0 -1771.0645117516251 -897.14387953540427 0 -897.14387953540427 -257.07579084976169 0 0 0 0 1.8977083871356655 -3.8221629234817627 0 -3.8221629234817627 -3.4546639863913811 0 0 0 0 2619.9830859093845 455.14901627461541 0 455.14901627461541 -557.08299862971035 0 0 0 0 2.1658186781717248 3.5473451061116776 0 3.5473451061116776 -9.8448508442657214 0 0 0 0 383.22992976142268 -245.00696116874315 0 -245.00696116874315 214.29461738810642 0 0 0 0 351.69911230073194 292.77638152412692 0 292.77638152412692 -138.07298399096908 0 0 0 0 1280.548353470258 -716.58269691090391 0 -716.58269691090391 -680.13502907365137 0 0 0 0 -119.06609317348921 -412.77928065229207 0 -412.77928065229207 592.00991698245343 0 0 0 0 44.634781581306015 -261.67025320374523 0 -261.67025320374523 121.49340394605679 0 0 0 0 -149.43614545545097 -551.1492748744331 0 -551.1492748744331 -20.031735380616738 0 0 0 0 -96.633802042309071 -107.85635208957228 0 -107.85635208957228 100.71415613820136 0 0 0 0 4.7950761227672629 -2.9369133673952206 0 -2.9369133673952206 11.12852740863238 0 0 0 0 519.0857797846329 127.96933886056649 0 127.96933886056649 -260.67838830155961 0 0 0 0 -405.01568255484744 -184.93858577485298 0 -184.93858577485298 325.16014957372681 0 0 0 0 -1.9910297038185334 0.58750107169710475 0 0.58750107169710475 0.51478428133304988 0 0 0 0 210.04390739407609 -141.14331037762895 0 -141.14331037762895 -0.8100098110298859 0 0 0 0 -21.7023255701788 -20.9239856960412 0 -20.9239856960412 -48.616498736133508 0 0 0 0 -63.94834008333055 -180.24693779436711 0 -180.24693779436711 -191.91281562819495 0 0 0 0 -7.1137250661791924 -26.514339538350896 0 -26.514339538350896 -24.156918449112766 0 0 0 0 -50.36212449202867 -140.81124518762954 0 -140.81124518762954 111.02413600738146 0 0 0 0 38.817417566242511 -119.86561375383462 0 -119.86561375383462 -119.32379832742299 0 0 0 0 -66.771607634385873 -197.18862563974835 0 -197.18862563974835 103.08759187742544 0 0 0 0 -46.124671094792575 -114.83507362316777 0 -114.83507362316777 -98.267787400181078 0 0 0 0 -38.851881447570321 -69.387112745523254 0 -69.387112745523254 23.597533686501976 0 0 0 0 27.551656669113335 -34.529803675003876 0 -34.529803675003876 1.6905141421254442 0 0 0 0 28.786225155597094 -59.697106264420427 0 -59.697106264420427 -13.672917771258653 0 0 0 0 -83.795576585216622 -114.68580515326539 0 -114.68580515326539 -75.478180840480491 0 0 0 0 -87.81668211959186 -99.464856513950508 0 -99.464856513950508 -10.065127799738548 0 0 0 0 -39.618658579959956 -63.473693665619848 0 -63.473693665619848 8.2663000858851774 0 0 0 0 -16.287147066017496 -68.946905127624632 0 -68.946905127624632 -139.83569521358731 0 0 0 0 -47.470943360190859 -93.030683871650922 0 -93.030683871650922 -64.002081365564663 0 0 0 0 -9.4213281466873013 -64.205559241740957 0 -64.205559241740957 -126.49791722377267 0 0 0 0 -6.2837984867353924 -23.815226017192423 0 -23.815226017192423 -18.49162434693875 0 0 0 0 -52.704454421183058 -67.935747366514363 0 -67.935747366514363 20.677547787930042 0 0 0 0 -86.028911800796777 -108.84900809617739 0 -108.84900809617739 -59.447879605682829 0 0 0 0 -79.607670807126851 -91.83442254759575 0 -91.83442254759575 56.659126488706534 0 0 0 0 -123.71622472523086 -75.901024208782474 0 -75.901024208782474 -80.528617781761568 0 0 0 0 8.0840211485470377 -29.425747496812246 0 -29.425747496812246 -6.5108249993918292 0 0 0 0 -37.183307465368216 -295.16727836316886 0 -295.16727836316886 -257.76991431479109 0 0 0 0 -34.053730842543416 -80.744402674981728 0 -80.744402674981728 20.528810581351273 0 0 0 0 74.440005772459699 -139.37649302609134 0 -139.37649302609134 -10.81064019985206 0 0 0 0 -0.02677899296865327 -0.25132031978141356 0 -0.25132031978141356 1.5889280676406656 0 0 0 0 -654.85934085442386 -94.585267467044105 0 -94.585267467044105 26.854537610663101 0 0 0 0 -499.86698421700567 -231.45133191095374 0 -231.45133191095374 -40.064533424563706 0 0 0 0 710.42047045912659 -87.375738639859264 0 -87.375738639859264 -416.92779854463879 0 0 0 0 -130.92341509926337 -288.00990426366479 0 -288.00990426366479 -110.05505582914338 0 0 0 0 -367.07823709398508 -261.14244210899051 0 -261.14244210899051 -97.83985725248931 0 0 0 0 -63.438839323196589 -97.765006675330369 0 -97.765006675330369 -90.782923441020102 0 0 0 0 5.9151539678472034 -34.336218617212033 0 -34.336218617212033 6.9902312002535893 0 0 0 0 -192.93582360851724 -86.865833349147579 0 -86.865833349147579 -114.07666389307997 0 0 0 0 -248.60640059418074 -95.531093322679226 0 -95.531093322679226 -74.37688333625556 0 0 0 0 -267.04037528292974 -69.540541605572798 0 -69.540541605572798 -108.93368052440928 0 0 0 0 -380.31697454304231 -64.554941269467236 0 -64.554941269467236 -62.446732091557351 0 0 0 0 -241.28402968700539 -109.58600355288581 0 -109.58600355288581 -81.693137312744511 0 0 0 0 -103.46962667538901 -146.30876496464043 0 -146.30876496464043 -81.962527110308656 0 0 0 0 -178.02690184452513 -168.66703631875862 0 -168.66703631875862 47.771506510274776 0 0 0 0 -206.44439266741392 -57.84995478586643 0 -57.84995478586643 -28.399917953007389 0 0 0 0 -317.10712636489916 -90.22261004280881 0 -90.22261004280881 -76.770654496158386 0 0 0 0 -302.49264048649638 -135.22987423892482 0 -135.22987423892482 -27.570085042587834 0 0 0 0 -360.58212003071094 -54.987929381924914 0 -54.987929381924914 -30.509253879625248 0 0 0 0 -365.29271460040763 -9.4128351819817908 0 -9.4128351819817908 -100.18430588711271 0 0 0 0 424.40330421778344 -417.10473139937676 0 -417.10473139937676 -1.5210899170015182 0 0 0 0 486.79025149212976 117.7955592766084 0 117.7955592766084 -383.20119978176081 0 0 0 0 -214.86921362510475 310.97806954252883 0 310.97806954252883 -268.64901555071992 0 0 0 0 -50.277194837844945 -51.3655689006373 0 -51.3655689006373 -97.433376655229949 0 0 0 0 78.786752286978754 -184.82865329258766 0 -184.82865329258766 -350.72990605631639 0 0 0 0 468.62345999058743 -140.2679006641556 0 -140.2679006641556 -410.32982100148547 0 0 0 0 454.93233023531502 -170.00879222425283 0 -170.00879222425283 -408.25166196931968 0 0 0 0 3.4243877069152262 -2.4918103291068689 0 -2.4918103291068689 -2.3251823580490054 0 0 0 0 -68.695954274218821 161.69200307608116 0 161.69200307608116 -594.1122012404594 0 0 0 0 474.46175672484969 -314.64726013600011 0 -314.64726013600011 196.36199458414922 0 0 0 0 -4.0269897945472621 -33.199773536238354 0 -33.199773536238354 -8.0316828189606895 0 0 0 0 11.6962093559533 -5.8311022450650825 0 -5.8311022450650825 1.1763294554516222 0 0 0 0 113.61922258148297 -156.05006314831553 0 -156.05006314831553 -349.89686407019326 0 0 0 0 -14.602046200707264 -56.47735287507021 0 -56.47735287507021 -232.94594659969152 0 0 0 0 23.499583144686767 -169.61139413033379 0 -169.61139413033379 -10.38446748761271 0 0 0 0 140.66789908075953 -140.22105496363656 0 -140.22105496363656 -195.24600617440592 0 0 0 0 56.79164866420615 -170.82603510929766 0 -170.82603510929766 -188.28380470785487 0 0 0 0 442.29305722774734 -395.30942461954692 0 -395.30942461954692 0.58654572878367617 0 0 0 0 -67.214446842084726 -64.97631143205399 0 -64.97631143205399 -129.97022564718463 0 0 0 0 13.554535449584364 -171.57012824185222 0 -171.57012824185222 76.341229766861943 0 0 0 0 -25.52099171262671 -48.414385120238876 0 -48.414385120238876 -48.434630744726746 0 0 0 0 -60.650018159950378 -25.455507687524914 0 -25.455507687524914 32.367903317797754 0 0 0 0 112.11810083662385 -63.661897088135447 0 -63.661897088135447 -260.91112604486989 0 0 0 0 -50.361039070763582 -68.617102402582532 0 -68.617102402582532 -63.912549710985331 0 0 0 0 -10.26799112471187 -79.748289293208416 0 -79.748289293208416 13.043808380454662 0 0 0 0 -100.46409244392089 -105.30073370703394 0 -105.30073370703394 147.7845133663759 0 0 0 0 -34.212795255276433 -1.2561177437746665 0 -1.2561177437746665 214.41638965791935 0 0 0 0 167.81229325435561 -180.24990752898975 0 -180.24990752898975 -294.14719839835379 0 0 0 0 -59.955599289805832 -96.505815808370244 0 -96.505815808370244 -74.315804507698886 0 0 0 0 10.210497615849746 -83.529722027177513 0 -83.529722027177513 14.313549735551668 0 0 0 0 -25.517886405459649 -156.41511081025601 0 -156.41511081025601 -214.6850885120366 0 0 0 0 8.2876155574677171 -4.4967879981572736 0 -4.4967879981572736 2.0018836508649116 0 0 0 0 11.292011077797724 -42.80171425647859 0 -42.80171425647859 -52.158806095652835 0 0 0 0 -15.550942588568432 -24.82863164506125 0 -24.82863164506125 6.6687973517327919 0 0 0 0 -14.91894113527178 -18.815011744980438 0 -18.815011744980438 1.3591659254525439 0 0 0 0 -24.303073680459192 -9.1161365677025969 0 -9.1161365677025969 14.805636242061155 0 0 0 0 -25.50438384595941 -15.850425453980279 0 -15.850425453980279 37.976528060840792 0 0 0 0 0.73443531226439518 -12.858006391179515 0 -12.858006391179515 8.5816129141967394 0 0 0 0 -5.1026282626248758 -4.6315764052981905 0 -4.6315764052981905 -3.6477957164412942 0 0 0 0 -0.39109641213428858 -1.8718909324941819 0 -1.8718909324941819 -2.5813935708413851 0 0 0 0 154.0459929689041 -115.98241392572527 0 -115.98241392572527 0.0068091918074060231 0 0 0 0 144.18923368961168 -140.01743231588989 0 -140.01743231588989 24.209706227076822 0 0 0 0 167.94730752242322 -137.80877625265202 0 -137.80877625265202 24.224490758300817 0 0 0 0 203.31322484150223 -245.72220273851417 0 -245.72220273851417 182.78949372159695 0 0 0 0 170.38690236336515 -92.990339884328932 0 -92.990339884328932 54.026173499813012 0 0 0 0 27.788702064406607 -106.71424867484529 0 -106.71424867484529 83.908006556121109 0 0 0 0 247.36776832386022 -111.10904493615817 0 -111.10904493615817 10.76392293351455 0 0 0 0 173.91959977099759 -139.19696917939109 0 -139.19696917939109 -0.17408094984421041 0 0 0 0 53.794183696579694 -18.241289747574683 0 -18.241289747574683 -68.811894745464087 0 0 0 0 131.17258391879204 -32.335891133920995 0 -32.335891133920995 -102.80035406148818 0 0 0 0 67.051520845594496 -222.60983762441174 0 -222.60983762441174 325.85611075322231 0 0 0 0 -8.1132436923999265 -6.7529591902831214 0 -6.7529591902831214 -2.9816381323542771 0 0 0 0 -3.916115606421954 -26.812396796245594 0 -26.812396796245594 -6.0484030712832464 0 0 0 0 308.4431977693439 -363.51191619324891 0 -363.51191619324891 -33.079283168743132 0 0 0 0 204.55646381306724 -457.94451935961115 0 -457.94451935961115 249.51841294608312 0 0 0 0 242.7188708578833 -304.20177502413571 0 -304.20177502413571 699.98871092023182 0 0 0 0 -1.4543085566807719 -2.309710121747429 0 -2.309710121747429 0.97037266481163442 0 0 0 0 -81.668178180098039 -278.59308485051952 0 -278.59308485051952 545.4763775442334 0 0 0 0 -371.98790490445026 -119.36723053568858 0 -119.36723053568858 61.291594238966354 0 0 0 0 0.044567922478044864 -2.7419824228893503 0 -2.7419824228893503 4.8815794890406323 0 0 0 0 -289.03867897858436 -29.083074565915012 0 -29.083074565915012 22.87044695505756 0 0 0 0 -151.2133093524244 -165.86623340936785 0 -165.86623340936785 38.683625444813515 0 0 0 0 -259.55602080872268 -79.699397517484613 0 -79.699397517484613 21.953405919950455 0 0 0 0 -121.93471704594413 -147.70360399808851 0 -147.70360399808851 41.477963187498972 0 0 0 0 -159.45147915644884 -191.69554190986855 0 -191.69554190986855 166.85059997270582 0 0 0 0 11.892513071779831 -253.64762022492687 0 -253.64762022492687 60.991860031732358 0 0 0 0 73.228244517842541 -315.14234284311533 0 -315.14234284311533 63.053138556308113 0 0 0 0 -336.42445981001219 -138.86837289914911 0 -138.86837289914911 49.471159799773886 0 0 0 0 0.14390053718815921 -2.3025298701601074 0 -2.3025298701601074 5.5500443473439987 0 0 0 0 78.802237026677176 -190.26646239218462 0 -190.26646239218462 10.322397959468617 0 0 0 0 -325.05864023548202 -152.40157073024966 0 -152.40157073024966 0.23399246573535493 0 0 0 0 0.37665744670355039 0.11362895751652502 0 0.11362895751652502 2.2404607825539529 0 0 0 0 917.56895457533483 -266.7782118455234 0 -266.7782118455234 -124.57259375887224 0 0 0 0 411.39283744504064 -514.43765679510761 0 -514.43765679510761 0.45748166346311336 0 0 0 0 296.15183267257817 -204.60979635203694 0 -204.60979635203694 39.399613399604277 0 0 0 0 190.32472486240295 -461.25856009127165 0 -461.25856009127165 21.874457858910318 0 0 0 0 79.133790288713499 -411.8266991317214 0 -411.8266991317214 73.819607443947461 0 0 0 0 139.43928939988837 -272.3179508368994 0 -272.3179508368994 109.4533541250421 0 0 0 0 67.608166795362195 -343.27112165923609 0 -343.27112165923609 118.80338517812925 0 0 0 0 5.5104085064367609 -568.34442582327756 0 -568.34442582327756 -0.71112863245070912 0 0 0 0 -462.24886789209631 -448.85025811572268 0 -448.85025811572268 182.81895611203072 0 0 0 0 -620.93796354102233 31.201585004488152 0 31.201585004488152 199.90681297983247 0 0 0 0 -182.18802908875296 -177.29464502941846 0 -177.29464502941846 212.67524307468557 0 0 0 0 51.307933092255553 -370.09131853236613 0 -370.09131853236613 130.36549473342166 0 0 0 0 -78.839717694550927 -273.94031863035343 0 -273.94031863035343 286.69696066912002 0 0 0 0 198.69085529361655 -456.82154651354904 0 -456.82154651354904 174.45023116316588 0 0 0 0 721.3043098428534 -274.95925457822159 0 -274.95925457822159 -783.53412190212111 0 0 0 0 451.17262670660421 82.930889667484735 0 82.930889667484735 309.34768071223516 0 0 0 0 -463.00803639640435 -567.79414747648116 0 -567.79414747648116 788.78944419276377 0 0 0 0 -203.93240798712213 -543.60166236785153 0 -543.60166236785153 -436.69638047682747 0 0 0 0 54.581877671244911 -107.94199486595608 0 -107.94199486595608 -89.244267697133182 0 0 0 0 57.730150517892923 -78.895075722332876 0 -78.895075722332876 -316.71161745225254 0 0 0 0 7.2734095022915426 -154.03325703610972 0 -154.03325703610972 -134.148090979681 0 0 0 0 -144.24342164993459 144.98177701764507 0 144.98177701764507 -184.00582801186829 0 0 0 0 76.350722475714065 -36.317113824821718 0 -36.317113824821718 -5.9886683067015838 0 0 0 0 -17.152555315511563 -160.78550990304939 0 -160.78550990304939 -80.261291481630906 0 0 0 0 0.37207678381567533 0.13563142493130442 0 0.13563142493130442 -3.2120476133382567 0 0 0 0 -34.407167911816032 -5.5832692583062453 0 -5.5832692583062453 -14.396275678162056 0 0 0 0 22.289514711336381 26.084556989811972 0 26.084556989811972 -39.928006800546427 0 0 0 0 29.192114636854967 74.61849657970015 0 74.61849657970015 -83.316646375351411 0 0 0 0 -9.1144818636121272 47.520059991642484 0 47.520059991642484 84.207740847865352 0 0 0 0 45.499196017617578 -113.55634517300496 0 -113.55634517300496 -78.251420435190084 0 0 0 0 44.874402740477095 -134.78043100878438 0 -134.78043100878438 29.51016113962396 0 0 0 0 -195.58162413980062 4.4715664838222438 0 4.4715664838222438 -65.334826851671096 0 0 0 0 -40.590951530279199 -238.52572354830045 0 -238.52572354830045 -242.67486538602134 0 0 0 0 -33.064167318911132 -205.44517304801775 0 -205.44517304801775 9.3683158657659078 0 0 0 0 -95.981021719981982 -92.490710162210235 0 -92.490710162210235 95.229427799160476 0 0 0 0 44.166474976234895 -118.48580678788858 0 -118.48580678788858 100.03989965184883 0 0 0 0 51.051507452314581 -111.86809935234851 0 -111.86809935234851 100.27728856298199 0 0 0 0 81.153420985992852 -168.89966032714528 0 -168.89966032714528 21.335937715819455 0 0 0 0 -3.5205356662091525 -51.033887933811485 0 -51.033887933811485 33.660518868373515 0 0 0 0 -79.547681441805253 -36.614663975273288 0 -36.614663975273288 58.097413397787022 0 0 0 0 -24.441504220849765 -98.965962996364397 0 -98.965962996364397 14.711428431407512 0 0 0 0 3.8393484579510719 -48.81897618600793 0 -48.81897618600793 28.23518211251055 0 0 0 0 21.434677724224457 17.959881010800018 0 17.959881010800018 79.857070513036888 0 0 0 0 -31.544462848187322 -131.15524566567183 0 -131.15524566567183 187.42808928703016 0 0 0 0 -0.42184087853911478 -49.936738076688926 0 -49.936738076688926 35.28440280934592 0 0 0 0 5.845124756404914 -51.150499769614207 0 -51.150499769614207 35.868314400378736 0 0 0 0 -21.918210506377363 -68.563157110271277 0 -68.563157110271277 307.66793714056803 0 0 0 0 -18.899939162239662 -68.636369896249107 0 -68.636369896249107 195.62200805522662 0 0 0 0 20.107667037229476 -56.723744170420105 0 -56.723744170420105 299.46645954098494 0 0 0 0 14.855874242931499 -92.103492406847721 0 -92.103492406847721 17.89942841779628 0 0 0 0 1.1863744348439518 -5.6352604027492816 0 -5.6352604027492816 24.301543574338766 0 0 0 0 -35.906770660976235 -57.389891728662406 0 -57.389891728662406 24.454359699404449 0 0 0 0 26.162257834892443 -83.94736830117472 0 -83.94736830117472 -44.858512857073947 0 0 0 0 34.786379427052907 -54.605361946800258 0 -54.605361946800258 -34.815499902062584 0 0 0 0 22.603514631434336 -90.769843329897412 0 -90.769843329897412 -96.607065252888788 0 0 0 0 -113.89394412451617 -252.32826854420153 0 -252.32826854420153 152.15075799312035 0 0 0 0 77.176316867444257 -261.84541149566576 0 -261.84541149566576 82.850604495508378 0 0 0 0 15.984805578854228 -93.371831280911906 0 -93.371831280911906 -2.8739517901585847 0 0 0 0 -20.227116202197976 -15.945357395065002 0 -15.945357395065002 294.35211527106003 0 0 0 0 1.8690176973468624 -62.858356313648983 0 -62.858356313648983 57.024154508719221 0 0 0 0 77.546135394251905 -293.91048308931568 0 -293.91048308931568 303.18757715074025 0 0 0 0 120.89983607276736 -50.744178289904085 0 -50.744178289904085 -50.970234675733082 0 0 0 0 0.26861475062355566 -63.709249882835792 0 -63.709249882835792 20.196675986609936 0 0 0 0 19.90935725095196 -48.710794057216134 0 -48.710794057216134 -1.2932785850748516 0 0 0 0 0.54668154256206769 -98.906125299700221 0 -98.906125299700221 55.490448221868434 0 0 0 0 -2.7092613616510253 -16.756200179604321 0 -16.756200179604321 -1.9192471482846258 0 0 0 0 101.72067272742061 -230.51598045613537 0 -230.51598045613537 130.75783387661795 0 0 0 0 -292.64919847795682 -100.79036159378666 0 -100.79036159378666 49.610931944400363 0 0 0 0 79.409937400065246 -186.75143796134216 0 -186.75143796134216 54.963439365488739 0 0 0 0 38.309981972736438 -88.036324349787918 0 -88.036324349787918 25.938554931389525 0 0 0 0 4.5951085748019977 -211.80650429877642 0 -211.80650429877642 226.65452851669579 0 0 0 0 217.52116516556271 -129.9213556870709 0 -129.9213556870709 -300.00722888802011 0 0 0 0 -31.550330893961629 -25.548016028689915 0 -25.548016028689915 0.30222703534891338 0 0 0 0 -3.9728651548421112 -40.23398152595837 0 -40.23398152595837 178.90269306892878 0 0 0 0 -10.642394226550095 -52.562063990371826 0 -52.562063990371826 -27.129656625911593 0 0 0 0 127.64553945204716 12.920754463881167 0 12.920754463881167 -291.19866456144518 0 0 0 0 9.1188309601512785 -17.155637773292931 0 -17.155637773292931 -12.352264866130156 0 0 0 0 -15.64952078350143 -86.877543847684137 0 -86.877543847684137 -17.24725748487981 0 0 0 0 -0.69279286506207427 -43.879650279130146 0 -43.879650279130146 76.140837097065742 0 0 0 0 93.530218025216527 -304.37885376197301 0 -304.37885376197301 121.96513053738454 0 0 0 0 -77.824457770788285 -282.91472297931978 0 -282.91472297931978 497.34714476723457 0 0 0 0 163.30070808475284 -156.48721998606743 0 -156.48721998606743 -193.12749454940786 0 0 0 0 -42.637387946007948 8.3059440730248753 0 8.3059440730248753 269.17206766602612 0 0 0 0 57.000279896950815 -247.50214954431794 0 -247.50214954431794 126.60686517155045 0 0 0 0 124.31006885505485 144.37086306585115 0 144.37086306585115 -51.96471400896553 0 0 0 0 27.659373636559692 -84.784036363847036 0 -84.784036363847036 13.01795951075886 0 0 0 0 138.31867578159654 -293.73568214851548 0 -293.73568214851548 -227.08728785991116 0 0 0 0 -50.514309536692735 -156.68615317966169 0 -156.68615317966169 -33.804906419558392 0 0 0 0 2.3243595321143502 -2.5476924786457431 0 -2.5476924786457431 1.4586204680575321 0 0 0 0 178.03067297703092 5.6395021163807542 0 5.6395021163807542 -71.800932284495502 0 0 0 0 116.43673438005499 -141.35831022256752 0 -141.35831022256752 152.23560141030976 0 0 0 0 220.8338882888329 -79.011554631786566 0 -79.011554631786566 -33.858724311445258 0 0 0 0 174.77822769227168 -51.490766833157977 0 -51.490766833157977 -47.312795058700431 0 0 0 0 34.535458513239973 -83.865440870762541 0 -83.865440870762541 -79.209626888870844 0 0 0 0 49.023982227414308 -2.1295996403787285 0 -2.1295996403787285 -14.513113787092152 0 0 0 0 0.14042238014215158 -3.9007732149626246 0 -3.9007732149626246 -4.3550450341733153 0 0 0 0 153.37747533221045 -61.634128042416705 0 -61.634128042416705 4.5767302524582192 0 0 0 0 -197.81752069789741 -185.0709353752286 0 -185.0709353752286 -44.356155455076077 0 0 0 0 -19.283299388373052 -98.71527013992818 0 -98.71527013992818 -73.31693400410586 0 0 0 0 -216.09971689969097 -83.025161207940982 0 -83.025161207940982 -92.552230687782867 0 0 0 0 344.37556424460308 -39.188558218345861 0 -39.188558218345861 -28.061206092479551 0 0 0 0 0.95250911805333072 -5.142272819198622 0 -5.142272819198622 -1.3674142995870397 0 0 0 0 -639.51587346343058 -237.37668263375963 0 -237.37668263375963 150.72290547437296 0 0 0 0 -234.32043053363125 -53.552272134871842 0 -53.552272134871842 196.78810136964603 0 0 0 0 115.11089047571386 -73.510183241067352 0 -73.510183241067352 19.632454859194695 0 0 0 0 84.125037852902096 -32.019130931184918 0 -32.019130931184918 -3.2283197867436684 0 0 0 0 160.91777250530868 -12.177011643514561 0 -12.177011643514561 -1.6661603294705856 0 0 0 0 185.51603442892701 -111.92805945435248 0 -111.92805945435248 50.701751797234465 0 0 0 0 84.004349172519142 -18.966811618563952 0 -18.966811618563952 31.061414211006195 0 0 0 0 51.354668309451881 -56.216930119026074 0 -56.216930119026074 22.000913031835807 0 0 0 0 -61.730074409886583 33.287427422357723 0 33.287427422357723 -6.2987456363480305 0 0 0 0 -134.12719220216241 72.899946658319095 0 72.899946658319095 20.482168560589344 0 0 0 0 273.09547222696528 -18.261342016765411 0 -18.261342016765411 71.556701422508922 0 0 0 0 115.20159941359452 -152.02639790855028 0 -152.02639790855028 28.552652371217846 0 0 0 0 -63.17254039418367 -93.826640947692795 0 -93.826640947692795 0.20971384320000652 0 0 0 0 401.39996074116425 -230.28010154896401 0 -230.28010154896401 -135.14234469764779 0 0 0 0 -3.6670657728536753 -157.30852843520552 0 -157.30852843520552 22.219982875001733 0 0 0 0 -186.58832559846633 -125.67707665215858 0 -125.67707665215858 55.890026711796963 0 0 0 0 -234.16715744870012 -178.96318882501805 0 -178.96318882501805 -175.39613435274805 0 0 0 0 -0.15289345666985987 -0.40983459669205935 0 -0.40983459669205935 0.35759379197730823 0 0 0 0 -887.96287448583826 -76.045424917421769 0 -76.045424917421769 168.27117653843015 0 0 0 0 691.96353722717686 -16.868918543648761 0 -16.868918543648761 -167.64953914795478 0 0 0 0 -329.10311253794498 -256.95145408673488 0 -256.95145408673488 -0.22643671686819289 0 0 0 0 -263.09336102745863 20.330777250939718 0 20.330777250939718 25.670116238092305 0 0 0 0 255.87083591283499 -243.77024378158967 0 -243.77024378158967 -0.065598379413131624 0 0 0 0 364.22400627371144 -171.94035805402382 0 -171.94035805402382 0.089812327045365237 0 0 0 0 287.24232213910273 -168.99745988477662 0 -168.99745988477662 143.34660097982851 0 0 0 0 3.3982739886788984 2.0116733396006765 0 2.0116733396006765 -0.099573394485560129 0 0 0 0 466.22142416173665 -478.78966473909531 0 -478.78966473909531 173.36983099495637 0 0 0 0 -114.80349064766148 154.20615663022568 0 154.20615663022568 -7.8107241657271516 0 0 0 0 -128.6956635918724 -46.609325790655475 0 -46.609325790655475 189.96904772281414 0 0 0 0 435.28510629554148 -226.67889099242893 0 -226.67889099242893 -4.660985019158943 0 0 0 0 29.512016553421745 -367.4817708767041 0 -367.4817708767041 34.730408039164104 0 0 0 0 130.35620287255369 3.5697393175942125 0 3.5697393175942125 -56.364261502643785 0 0 0 0 47.213187608962471 51.08477752161707 0 51.08477752161707 -78.830532548083283 0 0 0 0 60.327266001098451 -51.096999926103308 0 -51.096999926103308 -6.6920112745719962 0 0 0 0 50.760056499103484 -67.904668092642169 0 -67.904668092642169 -30.691799168926082 0 0 0 0 82.896748280966676 -26.37613827700261 0 -26.37613827700261 -24.32288482876902 0 0 0 0 93.129832270063616 -159.7901523389146 0 -159.7901523389146 -144.8076424377723 0 0 0 0 250.14333194250412 -94.306806221271472 0 -94.306806221271472 -117.63596059232805 0 0 0 0 -73.922982123942347 81.727780257300765 0 81.727780257300765 -57.804935090178333 0 0 0 0 1.623051993769554 -2.4744446092656531 0 -2.4744446092656531 -7.3093066382058964 0 0 0 0 1.2575669821230804 23.181990942077391 0 23.181990942077391 -97.128829238834442 0 0 0 0 3.9352680412089285 31.510340702625399 0 31.510340702625399 -71.870753162249457 0 0 0 0 110.80975123467113 -11.763327006888176 0 -11.763327006888176 -4.4618969637376722 0 0 0 0 107.66737747080879 -43.261635716960882 0 -43.261635716960882 -29.275208107777871 0 0 0 0 126.33391703333928 -8.8784043748855765 0 -8.8784043748855765 -31.717198021360673 0 0 0 0 104.70841537160049 -13.872382493515033 0 -13.872382493515033 4.4140564737608656 0 0 0 0 91.442272324928126 -36.006154537655675 0 -36.006154537655675 -25.789969713441678 0 0 0 0 129.45086316206653 -20.487173330009682 0 -20.487173330009682 -23.302111832083028 0 0 0 0 120.32282639268669 -9.7738683140632929 0 -9.7738683140632929 -34.007983772491571 0 0 0 0 110.30863294078881 -15.108786085213069 0 -15.108786085213069 -32.806663887353352 0 0 0 0 7.786123521465683 -8.6627450196411644 0 -8.6627450196411644 -3.9204272317804651 0 0 0 0 5.1879495498658343 -10.943632650596555 0 -10.943632650596555 6.7331855434313184 0 0 0 0 5.6058566909186993 3.6071573442604858 0 3.6071573442604858 9.7056600246578455 0 0 0 0 -2.1254241661180222 -3.8563554723161531 0 -3.8563554723161531 1.1670359797011827 0 0 0 0 65.863749217567602 20.23001528048917 0 20.23001528048917 -8.664850990389823 0 0 0 0 19.147510078144478 37.087320744489261 0 37.087320744489261 -113.55670845424174 0 0 0 0 90.16106234036306 -57.558539533725707 0 -57.558539533725707 -8.0557743980025407 0 0 0 0 0.89586616114658923 -2.4249238244335629 0 -2.4249238244335629 -1.1793321653427853 0 0 0 0 20.846159583122244 7.2320917588931479 0 7.2320917588931479 1.3834991867188364 0 0 0 0 4.3179269235138129 -0.8424750111248045 0 -0.8424750111248045 -1.2966012842801007 0 0 0 0 66.58448835524905 -99.213352471488179 0 -99.213352471488179 44.668287894921377 0 0 0 0 -1.8355714096982441 -5.0631706609213225 0 -5.0631706609213225 -4.9069945117923623 0 0 0 0 108.63424245910028 19.179304239682097 0 19.179304239682097 -12.009505321497272 0 0 0 0 182.01923138433631 -11.940332307698554 0 -11.940332307698554 -34.073888961450848 0 0 0 0 164.38753101854309 -79.89559061138425 0 -79.89559061138425 -2.2687013061949983 0 0 0 0 197.4341584691183 -70.744342139874789 0 -70.744342139874789 -62.861406197043834 0 0 0 0 255.94891778963938 24.623730819446791 0 24.623730819446791 -210.32641285142745 0 0 0 0 348.55905419896681 -169.80235743059893 0 -169.80235743059893 84.167670109833125 0 0 0 0 90.691784785269192 110.33802526022919 0 110.33802526022919 -131.19003175313992 0 0 0 0 16.152951091937688 1.3314061190011444 0 1.3314061190011444 0.89016489042168701 0 0 0 0 3.4424801670538727 38.356072931987001 0 38.356072931987001 -48.686354237075648 0 0 0 0 8.6693300999379321 114.91709572675391 0 114.91709572675391 -25.005860336216195 0 0 0 0 5.9106422392578679 -28.876396573621605 0 -28.876396573621605 32.316380930838932 0 0 0 0 16.261824128266646 2.6562448085692978 0 2.6562448085692978 -2.1372220767687935 0 0 0 0 34.187756325438386 -9.4026341520948336 0 -9.4026341520948336 -20.428741445808555 0 0 0 0 5.5275310497972896 -6.8654125795001164 0 -6.8654125795001164 229.66716823581191 0 0 0 0 5.4715494760291605 -5.1891759785192022 0 -5.1891759785192022 -3.302752678553162 0 0 0 0 13.950301221998188 -4.0257002676826232 0 -4.0257002676826232 -0.0038214435626287013 0 0 0 0 7.6520788571022171 -4.613371609045771 0 -4.613371609045771 -0.095279619323093812 0 0 0 0 6.2113079983996613 -4.544531556970469 0 -4.544531556970469 -2.4629516500717727 0 0 0 0 12.04149332087286 -8.602250746494974 0 -8.602250746494974 -3.1599357203012914 0 0 0 0 19.718590290314481 -1.5965920921228545 0 -1.5965920921228545 -1.7365046016089138 0 0 0 0 4.7278448513541385 -3.1377719283280925 0 -3.1377719283280925 -4.0551306579462789 0 0 0 0 15.140694949574367 -11.597224675644611 0 -11.597224675644611 2.2192761710903142 0 0 0 0 10.80972787666542 -5.1868465810402995 0 -5.1868465810402995 -0.37046565625496441 0 0 0 0 8.2170376470835826 -5.6061913156786858 0 -5.6061913156786858 0.32089343230865808 0 0 0 0 5.6114236297752722 -4.1765009387700616 0 -4.1765009387700616 -1.3284227115633911 0 0 0 0 10.512003309901957 -5.0798320329704438 0 -5.0798320329704438 -0.068517895037075505 0 0 0 0 11.975343553999167 -12.697202692361316 0 -12.697202692361316 1.6665965475367557 0 0 0 0 13.503909960600481 -6.407165475840884 0 -6.407165475840884 0.053451617844984867 0 0 0 0 10.031156479029505 -9.5863458383391844 0 -9.5863458383391844 3.3951293224599794 0 0 0 0 8.6473093275753854 -12.269172632215486 0 -12.269172632215486 -1.8028740074369125 0 0 0 0 0.11042288634200759 -9.3257166135153966 0 -9.3257166135153966 1.3226403986773221 0 0 0 0 -119.85989919926033 -180.6926799319408 0 -180.6926799319408 -0.073245809093350545 0 0 0 0 -45.198621680080578 -157.23092654256106 0 -157.23092654256106 -9.5607807093765587 0 0 0 0 -114.87819265316102 -108.09256651534088 0 -108.09256651534088 19.637243377001141 0 0 0 0 -89.983208129831837 -74.032011432347645 0 -74.032011432347645 63.292630500392988 0 0 0 0 -46.116094832563249 -64.195939146491583 0 -64.195939146491583 13.292238034046022 0 0 0 0 -48.834788252102953 -0.055999059091845993 0 -0.055999059091845993 34.29809424517407 0 0 0 0 -113.03070322296117 51.416997068052297 0 51.416997068052297 -18.234144464571727 0 0 0 0 -273.30614116784636 -95.767539111315273 0 -95.767539111315273 62.69278655776543 0 0 0 0 1.9479993788008869 -4.2729578446887899 0 -4.2729578446887899 0.0058533277770038694 0 0 0 0 1.3161967362603839 -2.7656947809468306 0 -2.7656947809468306 -0.48947089535381849 0 0 0 0 4.3785602058135229 -1.963931180678717 0 -1.963931180678717 0.59056856271928382 0 0 0 0 -0.81911134929941909 -11.207340791501338 0 -11.207340791501338 -2.480653110309504 0 0 0 0 9.1993188104825094 -5.0828761664452031 0 -5.0828761664452031 0.001715732374577783 0 0 0 0 2.7034492239472456 -4.3895216778037138 0 -4.3895216778037138 -0.099471778914448805 0 0 0 0 4.1628047102757764 -0.051591014716557027 0 -0.051591014716557027 -0.43959012519093221 0 0 0 0 -0.87086083381775126 -3.7131704127162379 0 -3.7131704127162379 1.6752066359057594 0 0 0 0 -1.345828185484474 -4.102974189381797 0 -4.102974189381797 2.0306385358078103 0 0 0 0 29.295294657544218 -13.750287667957309 0 -13.750287667957309 3.8837667495645292 0 0 0 0 -2.9294429293549911 -35.742316737349029 0 -35.742316737349029 -2.2748332085611764 0 0 0 0 2.7275983156428083 -106.96232093586514 0 -106.96232093586514 -218.54837056813994 0 0 0 0 -67.974568269504744 -86.446009922219673 0 -86.446009922219673 -8.8852957861381583 0 0 0 0 13.190630891980618 -58.229663159821939 0 -58.229663159821939 -0.8776174953309237 0 0 0 0 -4.7571475062932222 -36.416687358172567 0 -36.416687358172567 6.5554010269624996 0 0 0 0 -12.879597091748012 -10.203350855558668 0 -10.203350855558668 17.203930504154329 0 0 0 0 -32.955477810943307 -3.0898719922552118 0 -3.0898719922552118 6.3301727865764406 0 0 0 0 -8.7022069900292571 -5.0124127460151016 0 -5.0124127460151016 5.9702644660893327 0 0 0 0 24.750200164937063 -10.28431209097792 0 -10.28431209097792 -3.908835203734867 0 0 0 0 -3.6572945472571519 -41.084052816982876 0 -41.084052816982876 -17.804498106219398 0 0 0 0 59.85351915301726 -50.91557244706928 0 -50.91557244706928 -22.575399984147225 0 0 0 0 50.378352205731062 -14.331058756200946 0 -14.331058756200946 -19.292939593928168 0 0 0 0 60.877713279546242 -19.176284045206557 0 -19.176284045206557 22.082577263470739 0 0 0 0 -7.6320743623363798 -15.89141938946603 0 -15.89141938946603 -13.673082581332523 0 0 0 0 85.134671779922428 -71.007641173891898 0 -71.007641173891898 -18.220562136259105 0 0 0 0 80.174390573499124 -44.695830735663549 0 -44.695830735663549 -19.241328774136491 0 0 0 0 1.1999846812850592 -44.412881395550357 0 -44.412881395550357 -11.560887666251801 0 0 0 0 3.9025696248175628 -19.082283522320566 0 -19.082283522320566 18.99542115235991 0 0 0 0 -11.427333110995733 -24.826402413917094 0 -24.826402413917094 -19.008033933067054 0 0 0 0 44.025595196844733 -13.94051890244009 0 -13.94051890244009 -128.99935882141926 0 0 0 0 8.3357657569140073 -11.547785695787752 0 -11.547785695787752 3.0403183435846586 0 0 0 0 10.10165649475471 -10.125256627967957 0 -10.125256627967957 -1.2683878368503798 0 0 0 0 9.6723390618622034 -10.385207986153546 0 -10.385207986153546 0.885605101726469 0 0 0 0 0.97711962977927236 -6.5222144146101328 0 -6.5222144146101328 2.9156329932187077 0 0 0 0 16.719098661935277 -12.782683437981177 0 -12.782683437981177 -128.94892321260704 0 0 0 0 11.72253013599402 -25.649642258067615 0 -25.649642258067615 -35.682915068580769 0 0 0 0 4.3404362604487687 12.284403569705319 0 12.284403569705319 -183.43436819652561 0 0 0 0 1.0548445844734058 -3.1257123280940249 0 -3.1257123280940249 1.9257027909816884 0 0 0 0 -24.609676530907564 -36.427202328166459 0 -36.427202328166459 -31.994244143832475 0 0 0 0 -1.1690921981271458 8.280497181807732 0 8.280497181807732 -63.89767070527887 0 0 0 0 17.12078190860484 -66.922353369329358 0 -66.922353369329358 2.1512575315427966 0 0 0 0 20.462322256536936 -48.434225600016362 0 -48.434225600016362 24.17645847206586 0 0 0 0 48.715725486982592 -46.108666063046257 0 -46.108666063046257 -65.977985741104931 0 0 0 0 33.817923466110187 -70.032541929089348 0 -70.032541929089348 -31.020367191664263 0 0 0 0 17.332774875932046 -29.077046321268426 0 -29.077046321268426 -39.251477478494053 0 0 0 0 104.14430280131819 -84.146868001276744 0 -84.146868001276744 -17.124946033676679 0 0 0 0 35.004388418934468 -19.508799012093732 0 -19.508799012093732 -59.809093445757753 0 0 0 0 25.512085507056327 -39.834687850932823 0 -39.834687850932823 -80.286771502025658 0 0 0 0 24.238726667715127 49.198024396020628 0 49.198024396020628 -95.753182833504979 0 0 0 0 100.12575655775254 39.246108487262973 0 39.246108487262973 -77.991646159622178 0 0 0 0 187.34586767119163 71.514241455712181 0 71.514241455712181 -30.277208383326069 0 0 0 0 35.01001939456637 -54.88955084074405 0 -54.88955084074405 28.39981963203536 0 0 0 0 146.12468959298445 -159.52771476825137 0 -159.52771476825137 123.69751980452565 0 0 0 0 1.0559933047729722 -6.0303048724030077 0 -6.0303048724030077 -5.9414381514728838 0 0 0 0 -9.1175642123403122 -13.078974241560843 0 -13.078974241560843 -18.962007574782945 0 0 0 0 191.24122266476888 -140.68507615908675 0 -140.68507615908675 -67.519122334026179 0 0 0 0 150.52868514173224 -9.5718771542269678 0 -9.5718771542269678 -26.566936000896476 0 0 0 0 -0.44513133111036041 -21.037147419418034 0 -21.037147419418034 14.463643343566218 0 0 0 0 55.409585778105793 -85.233823993738042 0 -85.233823993738042 25.921299382793677 0 0 0 0 -10.224365227584746 -13.860228782488235 0 -13.860228782488235 -17.241315048698056 0 0 0 0 -2.7698107897422233 -9.0887651694138185 0 -9.0887651694138185 -25.074767053265532 0 0 0 0 17.465964444826113 -28.513103764431435 0 -28.513103764431435 -36.580524434502877 0 0 0 0 2.3973653736299969 -5.849710785206284 0 -5.849710785206284 -4.2846155495722051 0 0 0 0 5.2966632140050933 -23.626017065918859 0 -23.626017065918859 -75.178415062313434 0 0 0 0 1.0924900743556236 -39.047502070208793 0 -39.047502070208793 68.785991890770674 0 0 0 0 1.7012412181334611 -2.2779348433732736 0 -2.2779348433732736 0.58580784956244614 0 0 0 0 -0.63362585613384681 -30.709399260322243 0 -30.709399260322243 35.073294736299431 0 0 0 0 8.5395107791546252 -35.833127526562748 0 -35.833127526562748 5.4666215768315851 0 0 0 0 14.117660656153703 -56.617002177204995 0 -56.617002177204995 41.106766961158428 0 0 0 0 6.0152440599149486 -40.618056185121532 0 -40.618056185121532 58.152057246859613 0 0 0 0 1.3352524330007327 -59.639696814727358 0 -59.639696814727358 59.344710008357652 0 0 0 0 5.3842321863583038 -61.964167752765206 0 -61.964167752765206 46.241435392395942 0 0 0 0 18.630726029179026 -54.320292051832496 0 -54.320292051832496 9.1191708239391538 0 0 0 0 -3.2031710836490674 57.649923699966166 0 57.649923699966166 56.78616351205892 0 0 0 0 829.9970112578012 -590.69854048998968 0 -590.69854048998968 -76.00866823463366 0 0 0 0 6.0622999049819555 -45.87959744559339 0 -45.87959744559339 57.617161802862029 0 0 0 0 19.349498421005464 -48.710382716094855 0 -48.710382716094855 8.7753873641065034 0 0 0 0 -88.514989748679 128.00144303965499 0 128.00144303965499 -166.13743888462523 0 0 0 0 10.699551734104286 -50.954708551584702 0 -50.954708551584702 1.398769750474294 0 0 0 0 -1086.9686506584608 169.93177388615368 0 169.93177388615368 904.65076793701883 0 0 0 0 7.9178497187671155 -37.509960618048353 0 -37.509960618048353 57.876124692944359 0 0 0 0 -8.6461405818887087 -19.959956655736121 0 -19.959956655736121 -3.4529289057998085 0 0 0 0 18.843941031269082 -50.614377717309253 0 -50.614377717309253 19.457701597617415 0 0 0 0 166.6543503498682 -5.3653948824581903 0 -5.3653948824581903 183.53103132997057 0 0 0 0 157.56493144032902 -198.32775632287985 0 -198.32775632287985 105.30813709052745 0 0 0 0 -160.43880166146118 -304.35471966026671 0 -304.35471966026671 344.20633162681042 0 0 0 0 -25.397679848584822 -5.5657630125355837 0 -5.5657630125355837 5.9480601321017161 0 0 0 0 99.779328598368011 10.331166900781682 0 10.331166900781682 -1.1116167142172344 0 0 0 0 -141.55314596147946 -449.78635662668967 0 -449.78635662668967 65.886758935026592 0 0 0 0 10.288443119177884 -10.230148435069538 0 -10.230148435069538 -25.82157772553289 0 0 0 0 0.2067541992463191 -2.2463102066728666 0 -2.2463102066728666 -2.7748501576994897 0 0 0 0 648.28710566825612 668.87294113075768 0 668.87294113075768 -497.25092124642106 0 0 0 0 -251.97988044449448 -238.66395547767024 0 -238.66395547767024 343.42443985470163 0 0 0 0 -423.39716764777768 -298.47759684480843 0 -298.47759684480843 336.61092534905765 0 0 0 0 535.46283840032265 -743.36402889058081 0 -743.36402889058081 301.02382371450949 0 0 0 0 -109.5268839616474 -192.0304028503997 0 -192.0304028503997 18.930649191199336 0 0 0 0 11.590767719288124 -71.850232083830633 0 -71.850232083830633 158.31468253879575 0 0 0 0 150.36896237265319 -73.103750090347603 0 -73.103750090347603 -0.014250420819735155 0 0 0 0 97.118756049127114 -165.92044667448863 0 -165.92044667448863 157.83762457131525 0 0 0 0 -6.3057212896528654 -63.868717307021143 0 -63.868717307021143 83.505400484893471 0 0 0 0 -2.4730912505599747 -25.652422411697742 0 -25.652422411697742 23.054830976012283 0 0 0 0 45.206514027508092 7.6605422363209073 0 7.6605422363209073 14.00293543305088 0 0 0 0 109.4517720504482 -100.41979071300739 0 -100.41979071300739 -35.65996937789896 0 0 0 0 27.625496966131323 -148.61489013283426 0 -148.61489013283426 87.109540205972735 0 0 0 0 78.055451083568187 -18.068257629733125 0 -18.068257629733125 74.25565911961894 0 0 0 0 11.951784770255472 -64.116267054116179 0 -64.116267054116179 240.98388107625942 0 0 0 0 27.236214312950324 -137.55600547024369 0 -137.55600547024369 171.39248881073581 0 0 0 0 8.9934545381356656 -53.295503445515351 0 -53.295503445515351 45.455011085032311 0 0 0 0 30.543928370472798 -61.779081661240426 0 -61.779081661240426 7.6637278547749759 0 0 0 0 -23.816658149127392 -14.3286323473192 0 -14.3286323473192 19.517951358506252 0 0 0 0 10.540499874162947 -63.93904997080881 0 -63.93904997080881 59.803035527118482 0 0 0 0 54.083008985842753 -231.15166133260936 0 -231.15166133260936 274.07582856957742 0 0 0 0 -26.566436202903265 -5.9221119260112403 0 -5.9221119260112403 -1.6864133123952882 0 0 0 0 2.1804688654037818 -15.635097990387294 0 -15.635097990387294 51.735177068010671 0 0 0 0 33.532020520786318 -61.818841872074699 0 -61.818841872074699 71.978156965225935 0 0 0 0 6.6395728941397465 -32.204157483178278 0 -32.204157483178278 102.09662491223571 0 0 0 0 -15.499043554397758 -47.629309834446758 0 -47.629309834446758 183.64290137937496 0 0 0 0 0.4266993565185544 -2.121466269271167 0 -2.121466269271167 0.22828945370087084 0 0 0 0 -13.49489962806183 -8.9691190776757139 0 -8.9691190776757139 -72.810030345906853 0 0 0 0 -5.1721830175702053 -54.816628487649723 0 -54.816628487649723 -41.380522376479348 0 0 0 0 16.984924452044652 -39.311966637811565 0 -39.311966637811565 -136.9874901560861 0 0 0 0 -3.2708436531047482 -51.220383203100937 0 -51.220383203100937 -85.370168377803566 0 0 0 0 56.793096309027533 -88.721605321523384 0 -88.721605321523384 -78.878999127307907 0 0 0 0 6.6292544091856804 -16.966877583501457 0 -16.966877583501457 19.864480656241241 0 0 0 0 -20.884903340000164 -13.576363221749489 0 -13.576363221749489 49.850265893881442 0 0 0 0 -42.539115647242852 -62.579888726636455 0 -62.579888726636455 27.272291202367342 0 0 0 0 -53.899431247409666 -35.240259938327654 0 -35.240259938327654 74.941680959440419 0 0 0 0 -20.169959503061847 -38.923174282920058 0 -38.923174282920058 22.413656872064166 0 0 0 0 2.9923541375788503 -19.904904633067304 0 -19.904904633067304 18.335303423330998 0 0 0 0 -9.0980729255770711 -25.875436123347754 0 -25.875436123347754 -17.03240829911374 0 0 0 0 0.65379027809103718 -34.566930215481989 0 -34.566930215481989 -27.695981893659336 0 0 0 0 26.887467314983496 -6.2437468346870446 0 -6.2437468346870446 -18.219344625904341 0 0 0 0 5.1509454424986103 -4.0569553449287099 0 -4.0569553449287099 0.68488816157088195 0 0 0 0 -6.1482185839931844 -37.392922470120538 0 -37.392922470120538 -22.131395030359272 0 0 0 0 20.136896788282911 -32.386743094532903 0 -32.386743094532903 -41.992370633495739 0 0 0 0 84.59207295896158 28.674563100368687 0 28.674563100368687 -2.0961783262173412 0 0 0 0 4.065231066693741 -64.868190970744763 0 -64.868190970744763 -27.123801921363338 0 0 0 0 72.65857371896891 -54.531408137256221 0 -54.531408137256221 -106.42410873151675 0 0 0 0 -37.821216735298549 -78.630596565082669 0 -78.630596565082669 -29.639767138090974 0 0 0 0 -43.222172403196964 -33.048845923731278 0 -33.048845923731278 42.244956506234303 0 0 0 0 0.2244376362927909 -5.6358328267484978 0 -5.6358328267484978 3.6504029715848958 0 0 0 0 -36.95738050412001 -190.287753155877 0 -190.287753155877 -20.38899769973068 0 0 0 0 8.1202384472272797 40.848030569471575 0 40.848030569471575 24.587609710120887 0 0 0 0 304.5010977588795 108.45436548214093 0 108.45436548214093 -8.3513623235485284 0 0 0 0 -321.12599407449306 -137.70267021370455 0 -137.70267021370455 -0.229875844263006 0 0 0 0 -0.7789304769582337 -0.56540089603177535 0 -0.56540089603177535 2.2224822854614672 0 0 0 0 111.28929192805663 -177.33591823644383 0 -177.33591823644383 0.3289643273310503 0 0 0 0 -17.349792559562047 -96.85921823814715 0 -96.85921823814715 16.067974898300236 0 0 0 0 -325.49733291838857 -106.98260539423245 0 -106.98260539423245 -62.871355447139649 0 0 0 0 -482.0343824135125 -306.72191512226709 0 -306.72191512226709 -91.354478625478805 0 0 0 0 2.0740323940074106 -2.6905778026888925 0 -2.6905778026888925 2.1510765672069851 0 0 0 0 -319.19242731292616 -150.17460744631535 0 -150.17460744631535 -65.635193388325206 0 0 0 0 -315.52003308298663 -183.41090302933662 0 -183.41090302933662 0.061175757233286276 0 0 0 0 -217.65045774216378 -90.644045845521759 0 -90.644045845521759 -18.352369464424555 0 0 0 0 -101.51527901384179 -193.27751868756604 0 -193.27751868756604 -56.227159018619204 0 0 0 0 -88.155464913834294 -135.93844997051838 0 -135.93844997051838 20.225191013887525 0 0 0 0 271.13463406131996 -152.3730455202749 0 -152.3730455202749 -38.065573143725487 0 0 0 0 140.94652837410649 -120.57885353099118 0 -120.57885353099118 -53.318910479305487 0 0 0 0 -69.405066898383666 -194.92571888106613 0 -194.92571888106613 -0.00093027044931659475 0 0 0 0 159.76214364018733 -195.8922079148806 0 -195.8922079148806 40.215182679632562 0 0 0 0 228.38966429982247 -208.05238550282229 0 -208.05238550282229 -0.085229007288112349 0 0 0 0 278.08785015890135 -147.72318952307432 0 -147.72318952307432 36.083378385104879 0 0 0 0 213.6464224255642 -194.20383722902488 0 -194.20383722902488 84.212530974800757 0 0 0 0 215.98385341709218 -211.03039935292327 0 -211.03039935292327 15.256666144912742 0 0 0 0 194.82793390290681 -300.40032262546447 0 -300.40032262546447 163.23984830461268 0 0 0 0 238.20704214886064 -545.57225716886751 0 -545.57225716886751 770.28328293679579 0 0 0 0 128.38674781579266 -186.91146991576352 0 -186.91146991576352 222.84441916875949 0 0 0 0 148.09154031829166 -163.47316730840976 0 -163.47316730840976 192.64886981062591 0 0 0 0 170.70804688415046 -160.15693794941035 0 -160.15693794941035 120.47345494196634 0 0 0 0 13.595157357797689 -4.4506153289594863 0 -4.4506153289594863 0.72008182602451676 0 0 0 0 -35.259619629514418 -154.16753783246531 0 -154.16753783246531 -368.41416310724162 0 0 0 0 4.6604285008949873 -2.6137507183089426 0 -2.6137507183089426 -0.61788307380925289 0 0 0 0 -43.816199383189087 92.623634027244407 0 92.623634027244407 -563.68835192466213 0 0 0 0 -444.39200361669282 306.59083700995689 0 306.59083700995689 -322.28490765937022 0 0 0 0 -160.45190319014364 -16.616292303107912 0 -16.616292303107912 -213.18553689405962 0 0 0 0 -659.36615333229565 789.90923231519628 0 789.90923231519628 -587.77422575565288 0 0 0 0 -249.86676773152431 -393.3202708747267 0 -393.3202708747267 112.90082416078076 0 0 0 0 -812.36108232226979 77.390476629501791 0 77.390476629501791 283.65774874569615 0 0 0 0 -214.19793076260248 -336.6295563155727 0 -336.6295563155727 195.09311836273992 0 0 0 0 460.81539063244418 -929.71494757136679 0 -929.71494757136679 457.69406856749265 0 0 0 0 1590.6003648869446 -487.71769334111741 0 -487.71769334111741 -189.12471393274609 0 0 0 0 -413.00326070415394 -453.41112424542371 0 -453.41112424542371 641.86008540372131 0 0 0 0 46.9664488163653 -30.964308981565409 0 -30.964308981565409 -415.68344251203234 0 0 0 0 4.5141100384778383 -1.6871530325046535 0 -1.6871530325046535 0.22160723587082387 0 0 0 0 -48.728220370001509 -42.222208555074758 0 -42.222208555074758 -421.0694166122712 0 0 0 0 44.544437223823479 -35.014421445470362 0 -35.014421445470362 -421.78757581146783 0 0 0 0 527.63728391328186 -238.55086224652041 0 -238.55086224652041 -559.50704167010554 0 0 0 0 -29.760880528057896 -636.68732504522995 0 -636.68732504522995 335.84092360758223 0 0 0 0 -661.13000659593308 -511.21521357973324 0 -511.21521357973324 -39.191578193873283 0 0 0 0 -84.168538761619857 -358.65056289368658 0 -358.65056289368658 -514.26736393131796 0 0 0 0 -179.02186446177075 -285.43566027651104 0 -285.43566027651104 -202.84533142616056 0 0 0 0 -185.38780845464589 -149.71252808383906 0 -149.71252808383906 104.9057564043469 0 0 0 0 467.14089930884802 -125.98332370260323 0 -125.98332370260323 -14.207690793489746 0 0 0 0 8.0739981484930468 -20.541140149058265 0 -20.541140149058265 -0.0036708634652313776 0 0 0 0 7.2971821400715271 -19.576359813163435 0 -19.576359813163435 -0.88873532324214466 0 0 0 0 9.2908694517609547 -19.123404312354978 0 -19.123404312354978 -1.2850243388274976 0 0 0 0 5.6791658562142402 -12.263821808159264 0 -12.263821808159264 5.429171578532987 0 0 0 0 6.174271526204393 -19.902589822679147 0 -19.902589822679147 0.0065429808018961921 0 0 0 0 -3.696880984620293 -15.920593469370942 0 -15.920593469370942 4.108461640040332 0 0 0 0 335.49997667881325 -189.33006191058303 0 -189.33006191058303 0.18081166108387714 0 0 0 0 1.4017540927489662 1.39356316978105 0 1.39356316978105 -0.94010107533748055 0 0 0 0 17.349503215539698 -11.140620846344973 0 -11.140620846344973 7.2147412828926463 0 0 0 0 3.9903241368888942 -0.23289786536101431 0 -0.23289786536101431 1.5928243645604141 0 0 0 0 91.428278844468878 21.850137786270352 0 21.850137786270352 -44.414731854412821 0 0 0 0 441.48263340817175 -256.29207998347556 0 -256.29207998347556 -272.31647800804058 0 0 0 0 18.934807691395761 -9.8239373900990188 0 -9.8239373900990188 -0.07220955260505324 0 0 0 0 2.6421305329019091 -1.7686164835290157 0 -1.7686164835290157 -1.4060321411540144 0 0 0 0 986.18402652278019 333.76516810769681 0 333.76516810769681 104.47722188191256 0 0 0 0 -154.12799247421935 47.83925573826491 0 47.83925573826491 66.951288030504656 0 0 0 0 17.057861154818966 -9.6472113651616382 0 -9.6472113651616382 3.3898935769975651 0 0 0 0 8.8105506528081605 -16.322342063678661 0 -16.322342063678661 2.7882739989327092 0 0 0 0 8.8449046497001973 -16.975639631960462 0 -16.975639631960462 -3.8136253367410973 0 0 0 0 9.9498368536678754 -16.850306009500855 0 -16.850306009500855 2.5949362801402458 0 0 0 0 97.765307677400415 -68.802201190650521 0 -68.802201190650521 -134.76506105226827 0 0 0 0 14.243841977344132 -11.029108005597351 0 -11.029108005597351 0.46512558066715393 0 0 0 0 -39.169266471270021 -11.28801616142664 0 -11.28801616142664 19.176303111416928 0 0 0 0 21.976294462555884 -9.6544497384797978 0 -9.6544497384797978 3.9082896174732582 0 0 0 0 5.500869230231018 -12.201068168006472 0 -12.201068168006472 -5.5027531654328641 0 0 0 0 20.502078010169498 -23.677496215910651 0 -23.677496215910651 -9.8011539890467247 0 0 0 0 0.90062154689869089 -10.288166648935942 0 -10.288166648935942 2.5535887727796052 0 0 0 0 -21.687952617787232 -12.199635551107349 0 -12.199635551107349 24.880889878812013 0 0 0 0 -13.61688223872261 0.83528082028715289 0 0.83528082028715289 10.237922557906131 0 0 0 0 22.429368375520426 -20.778284767744481 0 -20.778284767744481 -28.026225106297716 0 0 0 0 4.6018928492048872 -12.137910513367387 0 -12.137910513367387 -12.407725616092648 0 0 0 0 7.2149343786822726 -8.3399809522527732 0 -8.3399809522527732 2.5119355786113573 0 0 0 0 14.849552152791148 -0.69413945352789597 0 -0.69413945352789597 -6.2956122976902407 0 0 0 0 6.3782968880353934 -11.783001013169198 0 -11.783001013169198 0.9591646372798408 0 0 0 0 -101.70183624021774 14.170285574768059 0 14.170285574768059 -8.4987526464101393 0 0 0 0 -2.8865659779856401 -3.1957713463937267 0 -3.1957713463937267 -0.59754309659651028 0 0 0 0 10.382427374548882 -4.4283742399274786 0 -4.4283742399274786 -1.6406996008776673 0 0 0 0 2.4563782633747451 -10.208066508233429 0 -10.208066508233429 1.9659363871540521 0 0 0 0 19.076776855334174 -6.7160652259553899 0 -6.7160652259553899 -29.29235471803986 0 0 0 0 3.8881227758392924 -68.149517419966287 0 -68.149517419966287 -30.11424203007482 0 0 0 0 4.0265374047188374 -1.5449566963847872 0 -1.5449566963847872 -2.0732799133193964 0 0 0 0 -206.44306572170899 -128.02313370672346 0 -128.02313370672346 5.9621624971478013 0 0 0 0 59.772153048585096 -175.08613147869255 0 -175.08613147869255 -152.57828133602743 0 0 0 0 629.26035376366781 17.917256798813469 0 17.917256798813469 -271.66013653190021 0 0 0 0 -0.4451630150381618 -0.61910439123252559 0 -0.61910439123252559 -0.81721263039192849 0 0 0 0 80.62035700398701 -203.5321628281381 0 -203.5321628281381 -121.66010948651819 0 0 0 0 -26.736246815362392 -267.26567470098962 0 -267.26567470098962 -159.09028070460772 0 0 0 0 -269.47813061198394 -187.43568796922045 0 -187.43568796922045 -46.305518180612125 0 0 0 0 -198.83841992256203 -380.27865497045877 0 -380.27865497045877 -265.85782342408493 0 0 0 0 -7.3073108913522447 -248.38587285367976 0 -248.38587285367976 -181.5816086774139 0 0 0 0 -27.486025535105 -77.612787081830902 0 -77.612787081830902 -426.38526811970223 0 0 0 0 -257.85984272177348 -3.6963546077786305 0 -3.6963546077786305 -35.506261293732678 0 0 0 0 -18.241583913202703 -83.815016344957257 0 -83.815016344957257 -8.926054021481832 0 0 0 0 11.124892054303928 -118.57956457158434 0 -118.57956457158434 -49.326971802876869 0 0 0 0 -145.12527691735886 -144.49433059128205 0 -144.49433059128205 -52.91840918957314 0 0 0 0 -0.61928453929431271 -119.71609012721456 0 -119.71609012721456 -582.55695750999075 0 0 0 0 -193.5108223282582 -303.64721335251124 0 -303.64721335251124 -337.38791859816411 0 0 0 0 4.1757379359121956 -3.2786144770211791 0 -3.2786144770211791 -0.61137430822356009 0 0 0 0 -34.999304426934032 -174.29850932486988 0 -174.29850932486988 -301.21582207050233 0 0 0 0 -58.745416363812183 -121.11008666473208 0 -121.11008666473208 -372.10851747650304 0 0 0 0 -41.165872100667912 -229.62091703364422 0 -229.62091703364422 -310.5769887350034 0 0 0 0 -57.114022686473618 -158.81753137933993 0 -158.81753137933993 -137.20846863665793 0 0 0 0 -28.334311877893924 -187.38524552171293 0 -187.38524552171293 -119.1758034614686 0 0 0 0 -28.030564748567485 -154.05861396460386 0 -154.05861396460386 -303.06565924741153 0 0 0 0 -201.44964311079093 -143.09332680404623 0 -143.09332680404623 -50.020895004479826 0 0 0 0 34.386210571454285 -7.4339394217604422 0 -7.4339394217604422 -40.211679656320484 0 0 0 0 166.27459813021414 -201.30197582284745 0 -201.30197582284745 175.75639514600334 0 0 0 0 85.226293025694758 -289.25795567802925 0 -289.25795567802925 72.417197677714285 0 0 0 0 97.136283318139249 -221.38087514767176 0 -221.38087514767176 399.17323069347185 0 0 0 0 64.493484460777836 -120.8981293564284 0 -120.8981293564284 91.756283477273428 0 0 0 0 187.95691668010113 -215.81157005291607 0 -215.81157005291607 180.08441993772067 0 0 0 0 89.344107113662176 -202.56203895566432 0 -202.56203895566432 245.10523000020476 0 0 0 0 319.94408737873891 -307.24092656761059 0 -307.24092656761059 177.80357089337485 0 0 0 0 204.16392221255228 -184.11620709607087 0 -184.11620709607087 142.78997156394325 0 0 0 0 -14.769554072372117 -15.125233080790721 0 -15.125233080790721 -4.194165212857385 0 0 0 0 185.83735002536559 -173.53837987371662 0 -173.53837987371662 148.75375032195734 0 0 0 0 -5.5186654015041938 -5.5663276387842018 0 -5.5663276387842018 2.0343155349208075 0 0 0 0 5.4805060152206337 -3.7441388926691701 0 -3.7441388926691701 -4.1169367733489537 0 0 0 0 -7.396408299362065 -20.510113517130776 0 -20.510113517130776 -12.655761132104089 0 0 0 0 -118.05672421283452 -554.94907323525695 0 -554.94907323525695 -449.37716080918108 0 0 0 0 -29.612666004524272 -107.364495034637 0 -107.364495034637 -1042.9049349647539 0 0 0 0 -46.66483596299804 -382.00856524953269 0 -382.00856524953269 496.94323135929881 0 0 0 0 0.66286048697737954 -2.2009466099616191 0 -2.2009466099616191 -5.1414741536557642 0 0 0 0 -103.01184857746557 -362.64713403294445 0 -362.64713403294445 -582.29022204854846 0 0 0 0 -28.805865070477012 -45.644582450804592 0 -45.644582450804592 -433.3268776696641 0 0 0 0 -101.64794584369884 -51.263798750573187 0 -51.263798750573187 -227.93178527944838 0 0 0 0 1.3973675945127297 -227.713769552759 0 -227.713769552759 -566.3287266730913 0 0 0 0 4.9084909884610397 -310.82346140243317 0 -310.82346140243317 -208.8417978931102 0 0 0 0 -26.250962017689744 -469.14700537186582 0 -469.14700537186582 -259.82517033597833 0 0 0 0 -41.843049261129636 -320.0865008742112 0 -320.0865008742112 -126.06660530237423 0 0 0 0 352.35906150904339 -551.56339638246573 0 -551.56339638246573 2.2789370276150294 0 0 0 0 255.56667965171073 -342.92083498739521 0 -342.92083498739521 -145.27031217765762 0 0 0 0 -116.65279211612506 -163.90066211731755 0 -163.90066211731755 -310.43149742759124 0 0 0 0 -476.49495270293119 -101.32917614006146 0 -101.32917614006146 -5.5086373534286395 0 0 0 0 -61.155803954738076 -310.1926643398765 0 -310.1926643398765 -48.977139785645704 0 0 0 0 -27.835679802170489 -314.2560700107133 0 -314.2560700107133 -198.3590590304957 0 0 0 0 -27.851806498372753 -319.0251656024484 0 -319.0251656024484 -148.54515099503624 0 0 0 0 98.147003146841598 -352.0586114920734 0 -352.0586114920734 -159.53234760605119 0 0 0 0 -15.745371354711097 -205.33774648442341 0 -205.33774648442341 -178.27924954345508 0 0 0 0 -28.303177709374722 -321.24766516991804 0 -321.24766516991804 -149.69079212373254 0 0 0 0 -61.835536013473757 -360.80724820490286 0 -360.80724820490286 -164.9103403948393 0 0 0 0 -45.809390473012172 -322.44670352883259 0 -322.44670352883259 -103.31061864312505 0 0 0 0 0.54154019438283285 -145.12774234233802 0 -145.12774234233802 4.4930878899031086 0 0 0 0 -43.114499249157234 -440.61468704525032 0 -440.61468704525032 329.29082867708348 0 0 0 0 -103.65749789268375 -351.82225113230379 0 -351.82225113230379 63.0602583643049 0 0 0 0 -13.32851107879651 -166.74564814881887 0 -166.74564814881887 126.20319490485417 0 0 0 0 38.435666397019304 -12.429153988126927 0 -12.429153988126927 40.323989249111037 0 0 0 0 -27.413750083087507 -94.740094225671783 0 -94.740094225671783 -27.524530590395443 0 0 0 0 -6.9140584507385938 54.997735721091885 0 54.997735721091885 97.108515932392038 0 0 0 0 20.827945600110979 -32.784261583103216 0 -32.784261583103216 -93.936438547883881 0 0 0 0 6.3352661186836485 -12.800802543708414 0 -12.800802543708414 88.816528856314108 0 0 0 0 2.0931687604252147 -19.950253334409354 0 -19.950253334409354 94.854149035571027 0 0 0 0 66.327554538944241 -12.139462754617853 0 -12.139462754617853 79.105926778582216 0 0 0 0 11.620427388977987 -37.353242109616986 0 -37.353242109616986 67.674397156002669 0 0 0 0 71.283305613185803 -71.023427904226992 0 -71.023427904226992 122.90722009571618 0 0 0 0 81.552277638917076 -111.88581217085266 0 -111.88581217085266 162.95065147882269 0 0 0 0 139.84311524471013 12.200157656148804 0 12.200157656148804 221.07880255031341 0 0 0 0 83.133791310832748 -92.286331807590614 0 -92.286331807590614 690.60170484470291 0 0 0 0 83.511634097624665 -137.94939238143706 0 -137.94939238143706 443.15635914725135 0 0 0 0 386.65589484191514 85.39216494372522 0 85.39216494372522 201.19573511456838 0 0 0 0 165.04156724739551 -110.43609476005349 0 -110.43609476005349 66.727815681544598 0 0 0 0 -4.3884138935027295 -36.963741680250678 0 -36.963741680250678 106.70155300502665 0 0 0 0 -37.572408192481817 -85.184435185925395 0 -85.184435185925395 348.653909542365 0 0 0 0 133.96770651322004 -305.35725118353002 0 -305.35725118353002 125.54987982581952 0 0 0 0 107.18713940479029 -114.78933172372672 0 -114.78933172372672 137.06016902155534 0 0 0 0 164.42962906412868 -148.81011585734086 0 -148.81011585734086 89.370004145323037 0 0 0 0 36.530504266778735 -61.773219397226057 0 -61.773219397226057 -32.825374187420948 0 0 0 0 23.876054064705038 -67.768159242764767 0 -67.768159242764767 12.731199616805998 0 0 0 0 34.175906987764392 -49.526309416000004 0 -49.526309416000004 -28.320285809782945 0 0 0 0 44.283080827412505 -54.405781564561948 0 -54.405781564561948 -26.098248137976043 0 0 0 0 54.073869680550843 -68.392579307611413 0 -68.392579307611413 -88.209082647637842 0 0 0 0 14.7576023210313 -38.354360211078529 0 -38.354360211078529 -29.77013909249581 0 0 0 0 -27.515380274133349 -156.05588530076784 0 -156.05588530076784 -246.70323288655982 0 0 0 0 47.462942934462632 -20.193254184303697 0 -20.193254184303697 -24.036642811424102 0 0 0 0 82.672666261350969 -32.755073825563159 0 -32.755073825563159 20.088698094594292 0 0 0 0 -16.09856851767529 -71.232023579247965 0 -71.232023579247965 13.701886877544563 0 0 0 0 3.8296336518469616 -64.562310981578776 0 -64.562310981578776 -242.26740197730396 0 0 0 0 -48.644982624893601 32.231770581558521 0 32.231770581558521 211.00686998611491 0 0 0 0 -68.246039737008687 -141.32473576537814 0 -141.32473576537814 -80.303177041655545 0 0 0 0 -15.551676004095981 -66.699293413362597 0 -66.699293413362597 11.756243976534961 0 0 0 0 -44.629829232811971 -214.34677974952319 0 -214.34677974952319 -222.40148302375746 0 0 0 0 -3.7027185164258754 -153.78549945478949 0 -153.78549945478949 -159.61915526366647 0 0 0 0 -119.72510338438587 -167.21390607093417 0 -167.21390607093417 -150.57485315969825 0 0 0 0 -105.70050127523427 -318.23909666159307 0 -318.23909666159307 -379.1284365966676 0 0 0 0 -62.153121196235588 -99.840598856755605 0 -99.840598856755605 -259.70054085784068 0 0 0 0 45.29591114021801 -16.672228142929555 0 -16.672228142929555 4.1928464726410368 0 0 0 0 26.418893127853153 -91.343803421947086 0 -91.343803421947086 -26.946586212521652 0 0 0 0 3.4490914582856931 -62.206107668411278 0 -62.206107668411278 -12.44426695272341 0 0 0 0 27.487059618518288 -99.628056526757064 0 -99.628056526757064 45.551467175871949 0 0 0 0 30.007068111708577 -111.10148068784019 0 -111.10148068784019 60.895638947600673 0 0 0 0 24.996785727589668 -123.12452355644473 0 -123.12452355644473 50.163342100240698 0 0 0 0 -28.763585904689851 -24.285049676317861 0 -24.285049676317861 2.2956388102963246 0 0 0 0 11.074760668270756 -69.877896240104747 0 -69.877896240104747 191.76636513824633 0 0 0 0 -8.3432865611268738 -6.4130941546536064 0 -6.4130941546536064 4.3741618894342835 0 0 0 0 80.821484481809648 -94.325987665829075 0 -94.325987665829075 15.825462525070179 0 0 0 0 54.389281235406088 -88.37063828600003 0 -88.37063828600003 39.261649486444185 0 0 0 0 -26.087335955764956 -26.247415428988763 0 -26.247415428988763 1.6143793840572158 0 0 0 0 80.466036073186842 -91.114089719661933 0 -91.114089719661933 38.756800525588915 0 0 0 0 -37.778076075781428 -18.665615021933263 0 -18.665615021933263 48.638676642999826 0 0 0 0 -6.0354693547294191 -1.9201091965808779 0 -1.9201091965808779 0.34416355098321105 0 0 0 0 132.81294227061699 -80.642350918793454 0 -80.642350918793454 0.794480290129286 0 0 0 0 38.847538421918216 -77.080594692215527 0 -77.080594692215527 51.543130295180163 0 0 0 0 40.23697486121398 -66.506878719149427 0 -66.506878719149427 -4.9749266820726916 0 0 0 0 46.250056127099924 -34.223045478232962 0 -34.223045478232962 -19.942940075343358 0 0 0 0 27.018188172911323 -44.870330086290778 0 -44.870330086290778 11.818278509617812 0 0 0 0 100.39528722770956 -57.395642266626965 0 -57.395642266626965 -25.946446552585257 0 0 0 0 44.147235678817196 -24.195458944088386 0 -24.195458944088386 31.890881415325566 0 0 0 0 39.192705403868786 -99.804285260065626 0 -99.804285260065626 136.23581581278631 0 0 0 0 15.965930919785023 -99.999475484871255 0 -99.999475484871255 146.20941085944287 0 0 0 0 -4.887975313977222 -115.04796892370359 0 -115.04796892370359 119.62335133710076 0 0 0 0 -5.5743036449239298 -75.05406835737449 0 -75.05406835737449 122.94736344301054 0 0 0 0 -102.79094005949446 -213.45599822813529 0 -213.45599822813529 87.096347832906758 0 0 0 0 0.95499028058475233 -195.69939937540039 0 -195.69939937540039 -37.555123942918726 0 0 0 0 -103.15126069771213 -149.43401842181629 0 -149.43401842181629 140.98427713265664 0 0 0 0 -2.0337723339646061 -83.576628881012908 0 -83.576628881012908 15.595887063552837 0 0 0 0 -123.95927191481314 -74.458222150271467 0 -74.458222150271467 320.92024777176994 0 0 0 0 -7.838716406831864 -67.411719173864554 0 -67.411719173864554 12.136656587485362 0 0 0 0 -25.373546518851526 -42.453345796883696 0 -42.453345796883696 172.39351112680743 0 0 0 0 -13.355871267282055 -89.743127786530749 0 -89.743127786530749 66.656149987295066 0 0 0 0 -7.3188540561877744 -85.226348667824368 0 -85.226348667824368 69.970999284858408 0 0 0 0 -23.008346126931428 -119.09858578585408 0 -119.09858578585408 98.411755720058864 0 0 0 0 -17.858886496767809 -126.79175031285558 0 -126.79175031285558 19.810209179573576 0 0 0 0 -3.5560492632903333 -90.551859895460439 0 -90.551859895460439 59.838531331824925 0 0 0 0 4.118905287450616 -111.92283568668336 0 -111.92283568668336 -66.126444035544409 0 0 0 0 6.1905694646920892 -100.06914026072263 0 -100.06914026072263 -9.7304679242161001 0 0 0 0 -62.29764687880288 -158.71958144069322 0 -158.71958144069322 190.03949392445793 0 0 0 0 -110.39512705115703 8.9220369946160645 0 8.9220369946160645 314.21279199488345 0 0 0 0 -13.915110386507649 -69.448032815715152 0 -69.448032815715152 12.598596984266248 0 0 0 0 -44.55204330359993 -68.393136042202968 0 -68.393136042202968 20.954354041044098 0 0 0 0 2.7052662999008135 -43.938299051028594 0 -43.938299051028594 -114.48473534186633 0 0 0 0 -88.452291447450989 -139.62923199688521 0 -139.62923199688521 -83.65657570869007 0 0 0 0 -12.390438667411217 -146.25053535675033 0 -146.25053535675033 -20.163555644307053 0 0 0 0 -10.969531467468187 -137.68759136893641 0 -137.68759136893641 -165.89088273651578 0 0 0 0 -27.820573636636254 -183.68667470470245 0 -183.68667470470245 -19.421417248348916 0 0 0 0 -83.441256035320293 -202.60081071133391 0 -202.60081071133391 -21.742773851277889 0 0 0 0 -55.054656242151395 -165.00785487898247 0 -165.00785487898247 56.059925598732661 0 0 0 0 -20.857060962858668 -190.75686048092757 0 -190.75686048092757 -12.153327155370789 0 0 0 0 -35.347090421160829 -178.73074416188501 0 -178.73074416188501 20.479177220680867 0 0 0 0 -4.019534170278348 -160.16041802093241 0 -160.16041802093241 12.721432724332772 0 0 0 0 21.427068095470531 -115.63045897488337 0 -115.63045897488337 44.06130617193412 0 0 0 0 12.514805442820943 -125.21946337939153 0 -125.21946337939153 29.195082597761939 0 0 0 0 -14.573495406351867 -149.90661980278674 0 -149.90661980278674 21.706124634729349 0 0 0 0 41.250777479966928 -121.11638005675559 0 -121.11638005675559 0.14210013251431519 0 0 0 0 -15.19718028009811 -166.25562123684722 0 -166.25562123684722 11.686371141338896 0 0 0 0 14.043290456492286 -150.33339917204194 0 -150.33339917204194 -4.7444683908688603 0 0 0 0 -11.308169784209895 -176.24950964991694 0 -176.24950964991694 1.7560501378611661 0 0 0 0 -11.67345677454432 -184.25720113563875 0 -184.25720113563875 -14.46477210897865 0 0 0 0 8.6401358175571659 -166.76853373664926 0 -166.76853373664926 -13.471958964210216 0 0 0 0 6.6783597225366975 -162.53858385701642 0 -162.53858385701642 -21.819087661671801 0 0 0 0 6.4199912733893143 -179.04663776131929 0 -179.04663776131929 -42.268240931851324 0 0 0 0 3.5814666430960642 -196.11631115308774 0 -196.11631115308774 -75.780511820594256 0 0 0 0 -18.435564871913812 -199.6294292795501 0 -199.6294292795501 -13.566336448719085 0 0 0 0 -11.047554473370838 -187.58113935997244 0 -187.58113935997244 0.76330362859152956 0 0 0 0 -20.177353323422722 -190.67718046253412 0 -190.67718046253412 2.8140414475346915 0 0 0 0 -20.220799402566627 -184.60697332632117 0 -184.60697332632117 13.353924035443924 0 0 0 0 -20.717878594201466 -182.52036692883848 0 -182.52036692883848 4.6013851233874448 0 0 0 0 -13.685452873818576 -163.45082477615142 0 -163.45082477615142 7.0117059931835684 0 0 0 0 -13.498578152939444 -157.90853196875833 0 -157.90853196875833 -36.823696575484064 0 0 0 0 -19.733172746823584 -155.75573205899036 0 -155.75573205899036 48.701924578934268 0 0 0 0 -14.875723838869817 -165.80789725296654 0 -165.80789725296654 3.0279846904013539 0 0 0 0 -28.720986098051071 -177.15866628781805 0 -177.15866628781805 24.783526564016938 0 0 0 0 -25.29506484639569 -163.46428309816838 0 -163.46428309816838 61.231012303658645 0 0 0 0 -24.258384750442929 -129.54830184593447 0 -129.54830184593447 81.835822671229835 0 0 0 0 -37.099612816455192 -169.24366137485049 0 -169.24366137485049 85.214877622549466 0 0 0 0 -23.33840086809505 -157.36079841890751 0 -157.36079841890751 87.379798400143045 0 0 0 0 -33.107448282544738 -195.99330545218936 0 -195.99330545218936 34.902217801572988 0 0 0 0 -33.585569417307852 -186.0976823890669 0 -186.0976823890669 78.184254336287268 0 0 0 0 -31.720562611219066 -178.07279940112494 0 -178.07279940112494 64.65375093613693 0 0 0 0 -26.192651169512828 -196.69870803425874 0 -196.69870803425874 25.403995725646382 0 0 0 0 -30.646864538699447 -190.05802266922547 0 -190.05802266922547 27.218006689749018 0 0 0 0 -29.073676490756043 -201.24804138060426 0 -201.24804138060426 4.1096105283286306 0 0 0 0 -23.25538197520109 -183.61967446974813 0 -183.61967446974813 29.186354452031082 0 0 0 0 -19.2920923176016 -191.56901081157821 0 -191.56901081157821 -9.5099002647621091 0 0 0 0 -25.835467216362304 -207.10397367916812 0 -207.10397367916812 -29.512696174126177 0 0 0 0 -26.149967601921162 -194.75980461114409 0 -194.75980461114409 -26.612715870374814 0 0 0 0 -20.082507543251268 -209.1032712698543 0 -209.1032712698543 -75.746286901485291 0 0 0 0 -55.92144959991856 -221.91443340348269 0 -221.91443340348269 -11.744532297961996 0 0 0 0 -37.17825844163599 -215.30405385189079 0 -215.30405385189079 -7.6588562610850204 0 0 0 0 -37.309816467579083 -189.49309706116611 0 -189.49309706116611 20.997350537567399 0 0 0 0 -47.433061292889761 -175.59642868023366 0 -175.59642868023366 -0.37692952906218125 0 0 0 0 -50.927808754124271 -185.84105958642249 0 -185.84105958642249 24.877162774093449 0 0 0 0 -62.987452553395997 -250.77532737739966 0 -250.77532737739966 -83.439089661820617 0 0 0 0 -86.278694617567453 -203.26891696068651 0 -203.26891696068651 14.669611611301661 0 0 0 0 -11.19740676472793 -130.12100652049048 0 -130.12100652049048 29.09346057435323 0 0 0 0 27.841061779814481 -149.52463897718462 0 -149.52463897718462 25.841162227283348 0 0 0 0 12.289112270334954 -194.21403069259759 0 -194.21403069259759 70.407380893448135 0 0 0 0 10.608154007270969 -182.68992847581831 0 -182.68992847581831 54.348321646393742 0 0 0 0 -5.6735275104583707 -162.82427471182018 0 -162.82427471182018 31.685589064287342 0 0 0 0 -36.725212791749072 -188.11572337710822 0 -188.11572337710822 65.836042010880192 0 0 0 0 -13.734118221982499 -175.34631142758008 0 -175.34631142758008 62.102743643852591 0 0 0 0 -11.262534936700831 -190.65933731172117 0 -190.65933731172117 106.46061645040754 0 0 0 0 11.230495568248443 -168.33611497316451 0 -168.33611497316451 68.243112775875488 0 0 0 0 -35.681421412438795 -177.69906409078976 0 -177.69906409078976 243.66882978077047 0 0 0 0 -21.989171592227649 -156.02726105113106 0 -156.02726105113106 113.61850223846159 0 0 0 0 23.260856293956749 -81.51759202748508 0 -81.51759202748508 157.38872313497995 0 0 0 0 -28.168035369126301 -164.71913992878399 0 -164.71913992878399 115.96067530654545 0 0 0 0 -27.105653643248843 -117.65857752037118 0 -117.65857752037118 145.03288312074437 0 0 0 0 27.55986737562489 -102.08706459837049 0 -102.08706459837049 230.09902143332874 0 0 0 0 -96.07473236455553 -121.02638985768135 0 -121.02638985768135 84.637498073425377 0 0 0 0 94.351510095963022 -150.84623412199289 0 -150.84623412199289 66.62102970664273 0 0 0 0 9.8540579730130773 -10.836302380816367 0 -10.836302380816367 9.4660356769777252 0 0 0 0 -25.704314079634621 -5.0559041664982516 0 -5.0559041664982516 25.964157967876247 0 0 0 0 -42.1093850095492 -9.5121306670933095 0 -9.5121306670933095 13.782234649803147 0 0 0 0 28.484145280167695 7.4503848047021268 0 7.4503848047021268 239.64798114914402 0 0 0 0 55.377270676620029 -63.984697087268067 0 -63.984697087268067 44.401512612190906 0 0 0 0 -65.124751348455902 -223.61778280773979 0 -223.61778280773979 140.74456804701549 0 0 0 0 -84.133741606689 -170.74259291203998 0 -170.74259291203998 -210.07735900756325 0 0 0 0 -29.868457628159376 -202.9630960339673 0 -202.9630960339673 -432.31710922137063 0 0 0 0 -22.487239476187824 -197.29142404874437 0 -197.29142404874437 -216.59299938817276 0 0 0 0 4.6136072408042139 -5.6986822112506417 0 -5.6986822112506417 -17.67432283186433 0 0 0 0 -62.642955524672288 -251.6184253496067 0 -251.6184253496067 -258.32249310283441 0 0 0 0 -54.14179551552661 -216.57109964076517 0 -216.57109964076517 -77.360292680599741 0 0 0 0 10.280908929126781 -160.96215400945448 0 -160.96215400945448 -63.076798120215244 0 0 0 0 9.5112352538417326 -173.76466372759023 0 -173.76466372759023 -208.62085797043983 0 0 0 0 96.571224402396183 -60.242687931542605 0 -60.242687931542605 -81.602969418181601 0 0 0 0 -29.920385252613414 -229.06862378144785 0 -229.06862378144785 15.421809690940947 0 0 0 0 47.081338387528618 -60.949726233100535 0 -60.949726233100535 8.6022830404580368 0 0 0 0 23.16670789433374 -88.610430054053609 0 -88.610430054053609 221.00687544646826 0 0 0 0 -75.246555145195089 -382.48005119212684 0 -382.48005119212684 449.51882276343576 0 0 0 0 44.64059363592969 -116.91642260720073 0 -116.91642260720073 -139.91067007809397 0 0 0 0 47.181617715195216 -91.602081013237012 0 -91.602081013237012 -17.276001426165749 0 0 0 0 69.193271857046057 -83.058353647278636 0 -83.058353647278636 -7.1159562235225167 0 0 0 0 40.376301604046603 -123.03880863273662 0 -123.03880863273662 -48.899746537963438 0 0 0 0 37.779833984429388 -103.97467408957641 0 -103.97467408957641 16.733173236440052 0 0 0 0 61.604402004230067 -53.930213470592044 0 -53.930213470592044 -3.9332232439586132 0 0 0 0 46.184754689740657 -95.692725323566265 0 -95.692725323566265 -8.4019514029787388 0 0 0 0 499.44527053791967 54.536975188793292 0 54.536975188793292 -331.03259515538264 0 0 0 0 38.609364465539329 -239.09995129561412 0 -239.09995129561412 411.84807236816857 0 0 0 0 590.86940529704043 -502.70275161617656 0 -502.70275161617656 253.7414322643161 0 0 0 0 0.6114823970760388 1.7460125035337892 0 1.7460125035337892 4.6241113368514597 0 0 0 0 264.536477809811 -276.7299652839946 0 -276.7299652839946 154.54169746118876 0 0 0 0 -1.9134207702175452 0.054370725480620052 0 0.054370725480620052 13.925486047662737 0 0 0 0 73.925838600451243 -140.33108758426062 0 -140.33108758426062 269.08473645842582 0 0 0 0 193.52474009940488 -204.95987476957049 0 -204.95987476957049 143.75182535508364 0 0 0 0 -42.337631078238701 -35.922403722937815 0 -35.922403722937815 3.5693312236066959 0 0 0 0 -72.867393928211641 -46.311645458374642 0 -46.311645458374642 11.77647001919695 0 0 0 0 -69.87797201023659 -15.06454258446837 0 -15.06454258446837 226.67360478938599 0 0 0 0 -104.48093288140035 123.28226410207208 0 123.28226410207208 230.75865202993054 0 0 0 0 -187.18580621079309 -16.843171084417222 0 -16.843171084417222 547.78186954220348 0 0 0 0 -123.58087612895542 -104.99050256089618 0 -104.99050256089618 227.05558129158311 0 0 0 0 -11.90171616034786 -44.495421860937995 0 -44.495421860937995 215.01090901059615 0 0 0 0 -146.99243245089201 -83.416478014838958 0 -83.416478014838958 223.48333801228955 0 0 0 0 -74.422301027321737 -94.321760107736281 0 -94.321760107736281 38.453873006588765 0 0 0 0 -63.455191640257908 -67.620830111023224 0 -67.620830111023224 36.745883687982399 0 0 0 0 -118.60495156930938 -87.403154844688402 0 -87.403154844688402 216.68401609663169 0 0 0 0 -61.236522855215298 -71.459929582950281 0 -71.459929582950281 114.97729805573641 0 0 0 0 -167.93093216762281 -197.08264433288878 0 -197.08264433288878 92.864966945658011 0 0 0 0 -125.52366346054623 -88.819745213281749 0 -88.819745213281749 -39.835229165080818 0 0 0 0 -152.00085526879775 3.3180943798181488 0 3.3180943798181488 291.75823869258875 0 0 0 0 -38.545493103607441 -29.928383232530791 0 -29.928383232530791 242.69866364737959 0 0 0 0 157.44458036500146 40.311425432548504 0 40.311425432548504 225.39288560766136 0 0 0 0 24.057567444665438 -51.577398792133863 0 -51.577398792133863 11.188999102017988 0 0 0 0 27.687534778202405 -38.162801826405762 0 -38.162801826405762 -1.2962960361594256 0 0 0 0 8.2637495492381277 -79.626029028988114 0 -79.626029028988114 2.0235336677670546 0 0 0 0 1.7233841987675849 -15.922160865973231 0 -15.922160865973231 18.393840230091357 0 0 0 0 84.508056994914568 -75.48474545601357 0 -75.48474545601357 -283.25017526753072 0 0 0 0 30.80871077591906 -54.035256798633618 0 -54.035256798633618 -6.8370471212025468 0 0 0 0 -68.694769949842566 -156.09517668179461 0 -156.09517668179461 -40.300402916366011 0 0 0 0 108.05476543418035 -79.565832931435125 0 -79.565832931435125 -278.46413717948934 0 0 0 0 48.187932415077739 -73.300562399177579 0 -73.300562399177579 -10.807312238943268 0 0 0 0 7.5944842163465047 -29.863843116529537 0 -29.863843116529537 -14.426797019871373 0 0 0 0 45.621473020381927 -73.867198210155038 0 -73.867198210155038 1.3424630761255685 0 0 0 0 14.867745680468111 -53.474055342999151 0 -53.474055342999151 32.416218320606774 0 0 0 0 80.903688151662209 -84.712353737580997 0 -84.712353737580997 35.150462926161708 0 0 0 0 66.642943395581824 -67.888633310294608 0 -67.888633310294608 40.837071470430601 0 0 0 0 86.686642021526495 63.424578286935287 0 63.424578286935287 -197.75348675535162 0 0 0 0 -78.080904229090265 47.808823232074403 0 47.808823232074403 98.117923779749731 0 0 0 0 70.764452291227215 -57.447906709732635 0 -57.447906709732635 3.9396241795209002 0 0 0 0 68.941035859301337 -81.491560034977738 0 -81.491560034977738 63.528201080178405 0 0 0 0 -98.30569535742768 -198.18838308907465 0 -198.18838308907465 -111.47050332421986 0 0 0 0 27.624768118143265 -41.751901482126058 0 -41.751901482126058 13.697121628153468 0 0 0 0 13.971991442027431 -13.213738303288078 0 -13.213738303288078 1.1317319157690617 0 0 0 0 81.003548382830559 -24.566476651940128 0 -24.566476651940128 4.357590132928582 0 0 0 0 202.21117667031558 -274.1548027931151 0 -274.1548027931151 276.35730355398209 0 0 0 0 177.93793420594011 -401.74230813937106 0 -401.74230813937106 426.6289164225775 0 0 0 0 233.91790062091786 -282.36184130977279 0 -282.36184130977279 255.68010928171446 0 0 0 0 -484.3594568871199 -128.78789224162213 0 -128.78789224162213 332.25985190659173 0 0 0 0 514.33190638659744 -273.63220561568011 0 -273.63220561568011 135.61855141181951 0 0 0 0 -1.8072034702547359 1.9743127770352853 0 1.9743127770352853 4.146046519784151 0 0 0 0 -328.01321777443763 -222.17256809923626 0 -222.17256809923626 366.55007018133006 0 0 0 0 -275.94268667739811 10.582955636052588 0 10.582955636052588 97.620343830832553 0 0 0 0 322.20196885196549 -39.704231520471893 0 -39.704231520471893 234.08684001717143 0 0 0 0 -39.174826256417873 -122.40851948404324 0 -122.40851948404324 159.44640744366336 0 0 0 0 -71.776216041240787 -35.7875465770434 0 -35.7875465770434 431.55567454416394 0 0 0 0 52.859517096390846 -267.80162747180634 0 -267.80162747180634 -87.646832264997556 0 0 0 0 77.242120649388426 -221.52972773810669 0 -221.52972773810669 -254.47273258055748 0 0 0 0 165.47074097627342 -429.53122023444701 0 -429.53122023444701 123.75238138402233 0 0 0 0 239.22170625984066 85.914075739639046 0 85.914075739639046 -202.55423147341639 0 0 0 0 358.15076840236156 -277.89921506906938 0 -277.89921506906938 203.20524185310859 0 0 0 0 70.478558001228407 -248.48305699644652 0 -248.48305699644652 449.47767842396843 0 0 0 0 -1.8682086648129825 -123.35005166214913 0 -123.35005166214913 237.63566212167348 0 0 0 0 4.5597697274520428 -1.6270427973744841 0 -1.6270427973744841 1.7973938558906113 0 0 0 0 50.310090223605414 -91.071620008104986 0 -91.071620008104986 40.462821059843577 0 0 0 0 55.965274259408261 -78.317408642889916 0 -78.317408642889916 -8.4794003848065245 0 0 0 0 12.44133198357757 -7.5473701749265985 0 -7.5473701749265985 -15.309643513662015 0 0 0 0 36.419951878416214 -13.634166615365075 0 -13.634166615365075 -92.971428430081119 0 0 0 0 33.339603545196724 -30.130744930440756 0 -30.130744930440756 -111.51335378034184 0 0 0 0 14.961121056521064 -22.866740133383626 0 -22.866740133383626 -61.453347692583357 0 0 0 0 85.946552462159616 94.419917992557089 0 94.419917992557089 14.657007504703756 0 0 0 0 31.559318372495682 2.0783605669601002 0 2.0783605669601002 -141.08748317842355 0 0 0 0 112.65363515886929 -12.77110891399434 0 -12.77110891399434 -138.53036842132721 0 0 0 0 65.190021012371517 -39.932862221271819 0 -39.932862221271819 -141.11557530300752 0 0 0 0 33.919026712973434 -52.751999361308883 0 -52.751999361308883 -10.693542981041688 0 0 0 0 1.5371872111718403 -83.983752464559075 0 -83.983752464559075 -10.445718744736951 0 0 0 0 70.904228037190478 -58.8616468000655 0 -58.8616468000655 -2.1536629773363529 0 0 0 0 4.8793428593511745 -11.634531773969142 0 -11.634531773969142 6.8248912051890755 0 0 0 0 -28.06020451135555 -59.362428304622881 0 -59.362428304622881 42.965654119954479 0 0 0 0 30.910409684923707 -90.354102278773098 0 -90.354102278773098 -5.5461740945138445 0 0 0 0 11.126131866668249 -7.1254733560351218 0 -7.1254733560351218 1.0558004443529825 0 0 0 0 77.994567578099122 -56.720881245116288 0 -56.720881245116288 -6.0652885174713447 0 0 0 0 26.928627740689045 -26.868619030285771 0 -26.868619030285771 8.7346385699607083 0 0 0 0 22.807450701118796 -28.843275192830333 0 -28.843275192830333 10.310648520622635 0 0 0 0 48.927148520473565 -34.27452086136509 0 -34.27452086136509 7.457572602914297 0 0 0 0 48.374379544591648 -20.538446670700068 0 -20.538446670700068 -37.21540983085174 0 0 0 0 37.777487698593177 -20.020293697598344 0 -20.020293697598344 -7.775155344648252 0 0 0 0 35.801500548437616 -38.572844132232603 0 -38.572844132232603 8.2811163475198555 0 0 0 0 10.179032156230504 -6.6461429989138061 0 -6.6461429989138061 -11.626380147258708 0 0 0 0 4.6685398222660606 -45.953001093892453 0 -45.953001093892453 -3.7578550376456406 0 0 0 0 24.78493216564766 -65.84779056717889 0 -65.84779056717889 -45.179829208886076 0 0 0 0 8.5958139282594868 -28.544291157891237 0 -28.544291157891237 4.3306673282495183 0 0 0 0 28.250505470009053 -22.712386311767169 0 -22.712386311767169 -15.09036646063953 0 0 0 0 -29.408522502890264 -33.586509560136619 0 -33.586509560136619 9.5745824795303633 0 0 0 0 20.241489375602214 -32.862880917258735 0 -32.862880917258735 0.1907233004791351 0 0 0 0 11.240089515932116 -22.452438972543817 0 -22.452438972543817 1.4061815468561747 0 0 0 0 15.347555129945249 -6.2944181197963189 0 -6.2944181197963189 -2.1454652708926005 0 0 0 0 -0.14636940243963181 -6.3796503597350238 0 -6.3796503597350238 3.2599199158867123 0 0 0 0 23.575389993180696 -11.320533599074235 0 -11.320533599074235 -9.5333410594072916 0 0 0 0 21.166088492534001 -12.816370545088347 0 -12.816370545088347 -3.0438869093728442 0 0 0 0 66.127512996148653 -8.951778050250141 0 -8.951778050250141 -39.73590271909211 0 0 0 0 28.592809536927234 -19.914931416944455 0 -19.914931416944455 -6.2428636717086192 0 0 0 0 8.4500129942071851 -1.378511577579502 0 -1.378511577579502 -3.6159708349010913 0 0 0 0 15.189734679192043 11.880192892087507 0 11.880192892087507 -33.917439576249308 0 0 0 0 16.731798030178521 -12.70308365617376 0 -12.70308365617376 -1.3771759978664466 0 0 0 0 36.650292217537753 -31.643096374673405 0 -31.643096374673405 -38.034701379510807 0 0 0 0 49.96945711649937 -30.741263018458085 0 -30.741263018458085 -46.63954015750096 0 0 0 0 59.398659641345148 1.879749526589876 0 1.879749526589876 -86.262552204956592 0 0 0 0 54.898696524116708 -5.6045706752635596 0 -5.6045706752635596 -25.32329724043327 0 0 0 0 150.07149027183004 -4.4482086458492631 0 -4.4482086458492631 -145.60443128790575 0 0 0 0 -2.0978346984655101 -29.887421844862555 0 -29.887421844862555 -76.511265790065011 0 0 0 0 167.02825628859864 -44.976211973995305 0 -44.976211973995305 -132.72243199125114 0 0 0 0 103.40334657720086 -17.750983102279861 0 -17.750983102279861 -83.900260314329898 0 0 0 0 3.7817091598911112 -2.1062734433796066 0 -2.1062734433796066 -0.50875240159788859 0 0 0 0 -24.633204768069845 80.151261113970577 0 80.151261113970577 -140.86489915245693 0 0 0 0 91.13883110425013 -28.869612814334687 0 -28.869612814334687 -130.2308517286674 0 0 0 0 51.319221000521793 38.912405283452244 0 38.912405283452244 -145.45702119701309 0 0 0 0 70.974154224370068 17.07215474167333 0 17.07215474167333 -234.75410769191512 0 0 0 0 -1.3297168680692266 -100.920689471277 0 -100.920689471277 -167.49869732468323 0 0 0 0 -46.319106521030335 -0.62556553039758001 0 -0.62556553039758001 -213.59374735192614 0 0 0 0 -44.25090918454498 -74.303229636248943 0 -74.303229636248943 -65.714251529752801 0 0 0 0 35.450002883957495 -67.756625513158724 0 -67.756625513158724 -243.33088882878656 0 0 0 0 10.890742544946988 -84.038709050294528 0 -84.038709050294528 -155.44330530845764 0 0 0 0 18.306484377948436 -62.182161589345924 0 -62.182161589345924 -205.51706788020601 0 0 0 0 14.461460219232322 -135.18872090822151 0 -135.18872090822151 -192.35187204777685 0 0 0 0 180.41257794346802 -168.72691610902348 0 -168.72691610902348 -219.18875778615256 0 0 0 0 -169.87219477570397 -254.86548215960283 0 -254.86548215960283 -213.91365411892912 0 0 0 0 312.63311440348116 -48.919781490259993 0 -48.919781490259993 -118.08601202827413 0 0 0 0 45.498337576455015 -69.110775175453455 0 -69.110775175453455 -6.8291028550011106 0 0 0 0 150.50831056696097 43.262696198373305 0 43.262696198373305 52.943663592501252 0 0 0 0 79.415981515816384 -15.748299841096014 0 -15.748299841096014 14.016548753876123 0 0 0 0 108.88418376086975 -25.365858764494078 0 -25.365858764494078 10.250139002477226 0 0 0 0 64.314991894374543 -50.719495730019844 0 -50.719495730019844 5.0108242815585982 0 0 0 0 -9.6926821439992636 -22.566918501932378 0 -22.566918501932378 47.539384288596921 0 0 0 0 -22.827714353761621 -1.9242824816446955 0 -1.9242824816446955 15.516079883356724 0 0 0 0 -0.067487799826295714 -1.9794215506072774 0 -1.9794215506072774 0.31077000812071454 0 0 0 0 87.7696156313541 -36.842027169925132 0 -36.842027169925132 -133.95402479128461 0 0 0 0 35.792211003668854 -71.155058646103498 0 -71.155058646103498 -341.52213095552725 0 0 0 0 98.000454696808447 -257.56999688511496 0 -257.56999688511496 -268.40774924461402 0 0 0 0 -225.50170142212664 -23.221798099930311 0 -23.221798099930311 -242.8447425734721 0 0 0 0 -90.515263731020241 -191.88301495190353 0 -191.88301495190353 -189.87293397645772 0 0 0 0 -329.79885316968193 -164.14607773956686 0 -164.14607773956686 -79.119779781191028 0 0 0 0 -402.40410971602705 -437.8731665997002 0 -437.8731665997002 -223.39445363105801 0 0 0 0 -0.17400430661860344 -1.3295199798400965 0 -1.3295199798400965 0.46390431533347964 0 0 0 0 -225.87836512125978 -144.05138057227759 0 -144.05138057227759 -110.37639960920205 0 0 0 0 -192.18050599226262 -72.582385353305654 0 -72.582385353305654 12.326035347992729 0 0 0 0 -131.12450061297932 -150.96694588676473 0 -150.96694588676473 -145.16630923342382 0 0 0 0 -156.72928793248866 -151.54356431137785 0 -151.54356431137785 -314.8128642710908 0 0 0 0 -168.17534314280329 -143.39972472842146 0 -143.39972472842146 -145.31490272297378 0 0 0 0 -143.50078874823157 -167.83717800029262 0 -167.83717800029262 -108.30038891768709 0 0 0 0 -107.28238875313036 -112.43904559583279 0 -112.43904559583279 -168.74570819124528 0 0 0 0 -132.75729464263895 -123.63711354857696 0 -123.63711354857696 -61.895619580362109 0 0 0 0 -59.501473640367294 -143.9056457098568 0 -143.9056457098568 -205.69812284802902 0 0 0 0 -49.691643029187617 -47.953594379147034 0 -47.953594379147034 -18.128216183315089 0 0 0 0 -67.782088780166305 -135.73752337157566 0 -135.73752337157566 -100.86656614967433 0 0 0 0 -78.635921594333922 -92.86219606391569 0 -92.86219606391569 -71.278363644818455 0 0 0 0 10.013345906785617 -5.2007181034859968 0 -5.2007181034859968 -14.901031678360596 0 0 0 0 -81.719858537405543 17.662498642356582 0 17.662498642356582 25.888299184924108 0 0 0 0 -17.28102185959915 0.57493277377534469 0 0.57493277377534469 7.9578408575944195 0 0 0 0 10.518719440187851 -2.234277464227489 0 -2.234277464227489 8.1444536859198706 0 0 0 0 -35.377806021362176 -51.786116027927619 0 -51.786116027927619 -18.667640807590942 0 0 0 0 -33.61225582977022 -63.867450670904873 0 -63.867450670904873 1.6761975865265413 0 0 0 0 7.7124013060383731 -16.280824416566247 0 -16.280824416566247 3.5430897399146488 0 0 0 0 19.395841893805482 -65.439469846704014 0 -65.439469846704014 62.442543265435233 0 0 0 0 77.724179646796983 -37.563960288836824 0 -37.563960288836824 -69.460344072678708 0 0 0 0 -0.37557894203258257 -5.1957845787610069 0 -5.1957845787610069 1.9743842051853298 0 0 0 0 -0.78995261358977586 -7.3182284229387733 0 -7.3182284229387733 -17.66107515594922 0 0 0 0 227.57727285475812 -95.333119042297767 0 -95.333119042297767 -14.939149361804084 0 0 0 0 -0.45972354485245503 -1.2225954358196738 0 -1.2225954358196738 2.6950909034384125 0 0 0 0 72.609214966920263 -83.750060236015997 0 -83.750060236015997 -13.061616755094292 0 0 0 0 51.226598267531699 -26.166882767505285 0 -26.166882767505285 114.2811015125335 0 0 0 0 120.78289246351778 -57.024872817004507 0 -57.024872817004507 26.55850520462991 0 0 0 0 163.85059865132007 2.8749169340162553 0 2.8749169340162553 2.6878634402673924 0 0 0 0 76.340445912093855 -21.574367716257257 0 -21.574367716257257 65.517863926252176 0 0 0 0 60.573646154858579 -77.795699757876719 0 -77.795699757876719 23.863307590174372 0 0 0 0 15.566923352978847 -39.84628102064562 0 -39.84628102064562 -5.8900410036294488 0 0 0 0 74.311108122104429 -53.364275291051399 0 -53.364275291051399 -43.010651256263372 0 0 0 0 25.031572522944966 -24.023047625850413 0 -24.023047625850413 6.7331681175319176 0 0 0 0 -48.011711546194419 -55.657853779717698 0 -55.657853779717698 69.30151427167948 0 0 0 0 0.016030231858197297 -25.972672963365767 0 -25.972672963365767 4.8458454077190254 0 0 0 0 11.817843124288629 -3.6943173984655004 0 -3.6943173984655004 15.024626363145217 0 0 0 0 6.7896445690294058 -54.872838316174239 0 -54.872838316174239 -3.5247645757153805 0 0 0 0 27.035619259875485 -27.386476106918224 0 -27.386476106918224 7.7159270527185697 0 0 0 0 18.806183473628039 -24.880084448285373 0 -24.880084448285373 3.9323708562180002 0 0 0 0 0.29520604464232747 -35.705064196870808 0 -35.705064196870808 0.51735014424775727 0 0 0 0 31.418674057247699 -89.699886280512146 0 -89.699886280512146 3.1331157071363123 0 0 0 0 30.577678628576379 -32.696867439365242 0 -32.696867439365242 9.5758904260350448 0 0 0 0 17.83602459349504 -15.373876621660656 0 -15.373876621660656 31.716145490463532 0 0 0 0 3.3941818926846246 -5.429341902672693 0 -5.429341902672693 8.4805595542208323 0 0 0 0 122.93014810083332 -55.783219951128558 0 -55.783219951128558 -28.936034529935569 0 0 0 0 58.242314111418182 -11.659666659881623 0 -11.659666659881623 -43.329414121893933 0 0 0 0 133.24407007380796 -41.291169637468556 0 -41.291169637468556 -23.446859609597595 0 0 0 0 83.420573465949929 -2.9237375010616233 0 -2.9237375010616233 44.148351702926448 0 0 0 0 21.309969106658915 -32.192694755176674 0 -32.192694755176674 15.03043087448691 0 0 0 0 46.517028833164659 -48.222522632218897 0 -48.222522632218897 36.231486556251184 0 0 0 0 18.60673644300914 -27.551166204633773 0 -27.551166204633773 -1.1674213801234146 0 0 0 0 34.11633172997972 -63.893677523032238 0 -63.893677523032238 8.755611560161924 0 0 0 0 9.6960041505731951 -4.0821631326522052 0 -4.0821631326522052 -1.3304346274692165 0 0 0 0 74.871379517164314 -47.351132510571915 0 -47.351132510571915 7.8348405940000703 0 0 0 0 89.310695477868649 -21.66840741384658 0 -21.66840741384658 26.335103687830269 0 0 0 0 45.335452580126002 -32.405941708682803 0 -32.405941708682803 54.535481632847222 0 0 0 0 -6.56100460978314 -73.471979893804928 0 -73.471979893804928 -9.7765800013221451 0 0 0 0 33.10688282726521 -37.888685281160285 0 -37.888685281160285 27.657094257757848 0 0 0 0 17.27052623521854 -28.973513074175571 0 -28.973513074175571 0.99590310636267532 0 0 0 0 16.134974765152037 33.624279291881976 0 33.624279291881976 -25.991475409795385 0 0 0 0 57.025485855336228 -31.584158341298462 0 -31.584158341298462 40.702984486721107 0 0 0 0 46.157011889910791 -26.918972299397865 0 -26.918972299397865 32.053338429861469 0 0 0 0 6.4376201125123771 -19.202646842037211 0 -19.202646842037211 -2.3897444456088124 0 0 0 0 39.854850532068944 -39.228045680231482 0 -39.228045680231482 25.339747268891671 0 0 0 0 21.033182603294172 -33.270568063042447 0 -33.270568063042447 8.4261336065970482 0 0 0 0 9.4476858267867101 -8.9306176345069161 0 -8.9306176345069161 43.564349667369243 0 0 0 0 14.594545560261356 -27.044860124403634 0 -27.044860124403634 22.678648287654624 0 0 0 0 19.093187149594918 -28.437658183434266 0 -28.437658183434266 31.874634361652028 0 0 0 0 46.815355653700408 -14.080918126117012 0 -14.080918126117012 70.705479980562814 0 0 0 0 0.32531922733323881 -18.781144352309639 0 -18.781144352309639 8.3722105300112162 0 0 0 0 2.9075478090866547 -15.051317444071717 0 -15.051317444071717 5.0496346662317961 0 0 0 0 7.3134228181334038 -27.656698987106211 0 -27.656698987106211 1.4477478570697713 0 0 0 0 32.40347097891415 -31.416337582013604 0 -31.416337582013604 -13.213994735830795 0 0 0 0 -1.6483630925886246 -33.289956086453458 0 -33.289956086453458 -28.717058953188825 0 0 0 0 -16.945727381589677 -43.15785957191838 0 -43.15785957191838 35.444092287303647 0 0 0 0 -5.9898282008125534 -59.155993441661849 0 -59.155993441661849 38.206591597248917 0 0 0 0 36.790253936235104 -86.424996776824628 0 -86.424996776824628 2.7961027322016889 0 0 0 0 -15.427367375466929 -45.961045960168121 0 -45.961045960168121 36.451566470121179 0 0 0 0 -9.9025204841446879 -29.882933529391281 0 -29.882933529391281 -24.098467363431638 0 0 0 0 58.0300587793663 -41.81853732316813 0 -41.81853732316813 -6.1567987122512022 0 0 0 0 0.85655359630982275 -60.090552289584593 0 -60.090552289584593 22.48766813682596 0 0 0 0 -15.095962796773165 -46.906020807298773 0 -46.906020807298773 34.902671224524966 0 0 0 0 4.444777672913915 -50.380009656117181 0 -50.380009656117181 -26.151776445971336 0 0 0 0 18.883507563819876 -33.744874766023713 0 -33.744874766023713 39.780663842801005 0 0 0 0 9.0341488057150485 -32.604767097508805 0 -32.604767097508805 15.626658713744149 0 0 0 0 10.242576640415791 -30.264335777006636 0 -30.264335777006636 -142.89161872077966 0 0 0 0 2.0589468811522948 -3.328472576017603 0 -3.328472576017603 3.3174471668158176 0 0 0 0 31.068718045939022 -74.56749736861093 0 -74.56749736861093 126.50089584221132 0 0 0 0 -4.6970017433844617 -2.1537281244423809 0 -2.1537281244423809 -1.5919890227459241 0 0 0 0 9.7412529476205236 -61.959576485205616 0 -61.959576485205616 67.095164543323335 0 0 0 0 -0.61686301167719648 -19.453995885218319 0 -19.453995885218319 52.420060131993523 0 0 0 0 -3.470037904142302 -7.6570825749763642 0 -7.6570825749763642 4.8935338079136272 0 0 0 0 -13.930501011920569 -5.8007485960897611 0 -5.8007485960897611 46.834735440854274 0 0 0 0 20.663339682019842 -32.14489701384818 0 -32.14489701384818 31.819248128599597 0 0 0 0 13.416738927149709 -60.83049511443096 0 -60.83049511443096 45.072578491689114 0 0 0 0 4.8740532313240692 -41.775919067615177 0 -41.775919067615177 42.989612271261649 0 0 0 0 31.839945429790532 -52.828618542185723 0 -52.828618542185723 46.243196546070976 0 0 0 0 140.8417383905944 -299.50412034870533 0 -299.50412034870533 -61.668560340622207 0 0 0 0 28.199782814167939 -33.641040718109771 0 -33.641040718109771 36.105512047160111 0 0 0 0 29.63162087919045 -25.123756492544999 0 -25.123756492544999 15.244906934862229 0 0 0 0 38.334383800171963 -50.19226498586977 0 -50.19226498586977 7.1200403106340673 0 0 0 0 32.124083989390783 1.1133271360158687 0 1.1133271360158687 -86.812884789331292 0 0 0 0 -1.0514860749026411 20.352490365468839 0 20.352490365468839 -93.575446349299455 0 0 0 0 -19.871178317247541 -119.88648948235641 0 -119.88648948235641 21.673170966219914 0 0 0 0 4.2610318184530556 -3.6044586884119951 0 -3.6044586884119951 0.67784700676159559 0 0 0 0 -172.77326038969204 -60.222538212692598 0 -60.222538212692598 -1.437645813843119 0 0 0 0 -2.3134685553167742 -5.562900252287065 0 -5.562900252287065 4.2631806941438128 0 0 0 0 6.2075195062998318 50.241255374010507 0 50.241255374010507 62.069945523879142 0 0 0 0 476.57219750088234 -70.882136218475353 0 -70.882136218475353 -19.6965152798075 0 0 0 0 200.00474523816865 -116.29781096072838 0 -116.29781096072838 44.51969250242837 0 0 0 0 -168.22290069396058 -51.112691022688523 0 -51.112691022688523 79.675762974700774 0 0 0 0 211.49471434299721 -175.3862175145041 0 -175.3862175145041 -171.30540150955858 0 0 0 0 235.46393808493622 -387.84148977619043 0 -387.84148977619043 302.67187052013469 0 0 0 0 -170.43314830459667 -58.650371618416102 0 -58.650371618416102 54.144263243928435 0 0 0 0 36.809045816475191 -76.786554766509653 0 -76.786554766509653 21.846700363470518 0 0 0 0 -21.985858780746639 -65.06884807991446 0 -65.06884807991446 61.00104457559064 0 0 0 0 -9.999167277515653 -55.723679057063237 0 -55.723679057063237 37.802086703537498 0 0 0 0 -9.871777581135575 -56.831547923402468 0 -56.831547923402468 47.34497621486662 0 0 0 0 5.142958385540954 -4.130473222322891 0 -4.130473222322891 0.51245330362135633 0 0 0 0 297.02464753349886 -384.13876150539727 0 -384.13876150539727 72.324357094854349 0 0 0 0 20.849888628508467 -21.843320846506035 0 -21.843320846506035 -3.6821695352814743 0 0 0 0 -22.147712639585734 -44.589457990554365 0 -44.589457990554365 55.102582232197165 0 0 0 0 -8.430181529394531 -21.052498968647342 0 -21.052498968647342 41.852418791633681 0 0 0 0 -33.655869441254254 -18.626951443438884 0 -18.626951443438884 75.19794892425125 0 0 0 0 -31.828861507230613 -53.915458663221216 0 -53.915458663221216 70.134437675078516 0 0 0 0 -70.906764687319082 -18.438334665777802 0 -18.438334665777802 89.247251156324637 0 0 0 0 -37.343405363200873 -66.889088762334723 0 -66.889088762334723 63.080547705139907 0 0 0 0 -58.611047884774962 -59.569222516707669 0 -59.569222516707669 70.351470872985374 0 0 0 0 12.835701130915368 -122.16452242678497 0 -122.16452242678497 103.74075312519562 0 0 0 0 -99.698713016072361 -81.792261809474439 0 -81.792261809474439 68.939610969990099 0 0 0 0 -21.666612260929259 -18.157688699617047 0 -18.157688699617047 -7.0445528661047092 0 0 0 0 -95.848177494894117 -32.3725086908089 0 -32.3725086908089 89.936679012093919 0 0 0 0 717.17237858051521 49.110898299415567 0 49.110898299415567 -473.15594074741239 0 0 0 0 -13.527619827903493 -24.858170421038267 0 -24.858170421038267 135.72330157453689 0 0 0 0 -164.57092067378039 28.987259467372496 0 28.987259467372496 120.05404467877815 0 0 0 0 0.68502511715223591 -63.285603873793661 0 -63.285603873793661 37.225290581700392 0 0 0 0 -18.210001711789527 -21.811739882379342 0 -21.811739882379342 21.572968755720751 0 0 0 0 -9.8560534637783803 -94.036575150940735 0 -94.036575150940735 -11.110078576028172 0 0 0 0 25.090187351795976 -77.530960569965828 0 -77.530960569965828 19.222264049718433 0 0 0 0 36.194534142040538 -64.421092069256702 0 -64.421092069256702 34.405398859053093 0 0 0 0 34.378154423002343 -94.748617658846342 0 -94.748617658846342 51.447667987675231 0 0 0 0 -14.85071091517915 -19.932999184634706 0 -19.932999184634706 -30.756550692927817 0 0 0 0 36.634289788054048 -119.16768969334771 0 -119.16768969334771 5.0351329530312796 0 0 0 0 3.7624337874567573 -35.188460929268331 0 -35.188460929268331 7.3510662564085578 0 0 0 0 -5.9429457702625257 -32.774765788197037 0 -32.774765788197037 -4.6556495442496839 0 0 0 0 36.4692423313886 -60.770164201937263 0 -60.770164201937263 2.5497801098271466 0 0 0 0 44.982613594517261 -87.0854758075684 0 -87.0854758075684 66.833185484334535 0 0 0 0 29.21859754101115 -85.318944515844123 0 -85.318944515844123 28.350940604199423 0 0 0 0 35.913368840180425 -66.131174510592189 0 -66.131174510592189 5.4610737015834445 0 0 0 0 19.078336990922253 -65.264373114991031 0 -65.264373114991031 -8.3105291668412065 0 0 0 0 51.028338105657895 20.025491821405012 0 20.025491821405012 -221.91378281330981 0 0 0 0 28.921824896339785 -59.517575615639544 0 -59.517575615639544 -15.518312821521249 0 0 0 0 34.18910654789579 -48.48497973659687 0 -48.48497973659687 -11.404226093912257 0 0 0 0 23.339848334277804 -56.371789229160413 0 -56.371789229160413 -48.194224392027536 0 0 0 0 21.404484809884593 -43.847636993390324 0 -43.847636993390324 -11.784096345403668 0 0 0 0 26.081351455999538 -50.969104927618901 0 -50.969104927618901 -20.976569451813702 0 0 0 0 3.4666919328774384 -68.773238452698934 0 -68.773238452698934 -5.3138530191208702 0 0 0 0 24.191388869228831 -58.249151540985622 0 -58.249151540985622 -5.4659575830519316 0 0 0 0 -9.7676733645421336 -91.450273877329892 0 -91.450273877329892 -33.563825008226559 0 0 0 0 6.2113385863549411 -75.628906428165919 0 -75.628906428165919 -17.901667667341826 0 0 0 0 -1.4424167615064842 -0.1247945526155263 0 -0.1247945526155263 -0.72877987829858171 0 0 0 0 -60.283919139403224 -56.630826791861182 0 -56.630826791861182 1.5707415144661354 0 0 0 0 119.01848887092183 -31.401521030064032 0 -31.401521030064032 -33.168762389159383 0 0 0 0 42.749438374297824 -8.4819443662381673 0 -8.4819443662381673 19.364968326324743 0 0 0 0 63.290726696607408 -56.75618491356181 0 -56.75618491356181 -43.792506637950282 0 0 0 0 -144.4976867903606 -276.50967559781202 0 -276.50967559781202 -326.22348205251183 0 0 0 0 -0.032841233689396176 -397.66885224943326 0 -397.66885224943326 -482.02807241158735 0 0 0 0 -221.27283071857528 -415.27764506253516 0 -415.27764506253516 -199.51104902127645 0 0 0 0 43.439871566661168 -419.84699834337516 0 -419.84699834337516 -201.82397151422629 0 0 0 0 -125.70963597825175 -169.61454470498211 0 -169.61454470498211 -30.662907261190412 0 0 0 0 -928.13565051247133 -1064.7937094894733 0 -1064.7937094894733 506.39080750353423 0 0 0 0 -1567.4242072216075 256.83042741932695 0 256.83042741932695 123.61874510208145 0 0 0 0 -1975.793777372659 -998.74646559821122 0 -998.74646559821122 520.00358082685852 0 0 0 0 -25.02030749341219 -10.008009929687589 0 -10.008009929687589 -6.0665691106450197 0 0 0 0 -165.62435279272904 -22.195194666019233 0 -22.195194666019233 134.03237659925071 0 0 0 0 -2028.8311947132461 -693.10634091031534 0 -693.10634091031534 1184.8879846743075 0 0 0 0 -1088.3932543478186 -1955.1309629849784 0 -1955.1309629849784 -1030.895164828602 0 0 0 0 -255.47142998509662 -304.9115912190282 0 -304.9115912190282 -165.00188164123028 0 0 0 0 1927.9069880623065 -312.05998719375202 0 -312.05998719375202 -2929.9657986215461 0 0 0 0 4.8911621331135713 -13.485710528553938 0 -13.485710528553938 -40.598308824183022 0 0 0 0 336.45544192234229 846.79241652667406 0 846.79241652667406 825.66992772311642 0 0 0 0 -760.9702391206738 -436.00141192502633 0 -436.00141192502633 -225.88568840715743 0 0 0 0 630.8478441767511 133.15710626091459 0 133.15710626091459 -684.38895490258437 0 0 0 0 1001.6276542545929 -394.91512952754238 0 -394.91512952754238 -1414.1579069932341 0 0 0 0 11.166934018707252 -390.50200638260139 0 -390.50200638260139 -1119.2163267318392 0 0 0 0 2002.5487369120528 589.89334415090707 0 589.89334415090707 -927.6216698524222 0 0 0 0 -1997.8792608011354 -1344.4254541693826 0 -1344.4254541693826 -304.60026863802341 0 0 0 0 1.044746733318533 -2.8413780272011593 0 -2.8413780272011593 -21.080432267568938 0 0 0 0 582.15284762645024 -2153.5391087061507 0 -2153.5391087061507 -2070.2276120865681 0 0 0 0 -397.14672548767703 -540.85778149627731 0 -540.85778149627731 -620.43256399203347 0 0 0 0 37.824898920822307 -282.117085360278 0 -282.117085360278 -691.16887926342315 0 0 0 0 -98.705186833933112 -600.60575068800972 0 -600.60575068800972 -797.088477139514 0 0 0 0 -928.90216214010434 -348.35956722764058 0 -348.35956722764058 -323.32015063843573 0 0 0 0 -41.535845766862622 -399.51080804655066 0 -399.51080804655066 -471.33570197201334 0 0 0 0 -84.687125662836479 -367.74826034252874 0 -367.74826034252874 -154.77263843744731 0 0 0 0 0.39356119532021694 -419.12003431987978 0 -419.12003431987978 -462.32859003337944 0 0 0 0 -9.4242760290176477 -5.4120385258041068 0 -5.4120385258041068 -3.6899923342174006 0 0 0 0 5.2149016016337555 -2283.6317783760824 0 -2283.6317783760824 -3734.412160254948 0 0 0 0 -124.15536744159181 -22.066062456964573 0 -22.066062456964573 202.69567025127617 0 0 0 0 260.41157900908729 -216.82500526883814 0 -216.82500526883814 -712.89607303591583 0 0 0 0 -369.24239684588247 -407.6641078441462 0 -407.6641078441462 -1672.377107948334 0 0 0 0 1.3845770383184117 -5.775818776238367 0 -5.775818776238367 -1.6281075335370758 0 0 0 0 -934.1529511858389 -1637.5791796457052 0 -1637.5791796457052 -445.8536825674455 0 0 0 0 1.2228527176738166 -1903.2509632157598 0 -1903.2509632157598 -2424.2669197363284 0 0 0 0 -1080.6071816749973 -1161.2279844749864 0 -1161.2279844749864 -0.59146237625463982 0 0 0 0 -635.97066357813674 -621.66479116151459 0 -621.66479116151459 336.34131103060645 0 0 0 0 -757.50772626428079 -1047.9740158453023 0 -1047.9740158453023 -1113.6751697078143 0 0 0 0 -273.03584534072434 -766.89315919502405 0 -766.89315919502405 -1560.7892941694008 0 0 0 0 2.7472640185722526 -10.118646676679106 0 -10.118646676679106 2.396484176583968 0 0 0 0 -644.87303031431657 -1604.96491728814 0 -1604.96491728814 -1507.9578124257241 0 0 0 0 -494.78476775107993 -522.03521017328603 0 -522.03521017328603 -1364.30564368466 0 0 0 0 -181.54227147793426 -674.7293379109542 0 -674.7293379109542 -1292.8869039933743 0 0 0 0 -369.27626450559814 -678.05502141379077 0 -678.05502141379077 -1476.9207975760437 0 0 0 0 1.1632667703738662 -9.8277842495141954 0 -9.8277842495141954 -4.4581360971686053 0 0 0 0 -134.62444213638082 -32.603136054734932 0 -32.603136054734932 -4.4318063403406995 0 0 0 0 -324.60995948900381 -627.83582977702463 0 -627.83582977702463 -1593.2156843813937 0 0 0 0 -2093.1340920419461 383.86748547021853 0 383.86748547021853 -1211.3507740403329 0 0 0 0 -27.036163360475314 -15.336620226625158 0 -15.336620226625158 -0.8302294449314811 0 0 0 0 4.0251107578024232 -14.759079053752231 0 -14.759079053752231 -0.36336380757668962 0 0 0 0 -24.181890779902403 -14.131240049017521 0 -14.131240049017521 -0.45373782815925079 0 0 0 0 -101.74852556874248 -235.52653897812525 0 -235.52653897812525 -1009.1088509943438 0 0 0 0 142.61918910397799 -382.16867826258385 0 -382.16867826258385 -1313.6692211817499 0 0 0 0 508.09509216666629 -592.75776867072273 0 -592.75776867072273 -1489.73347220699 0 0 0 0 576.79204354117974 -225.9167584642928 0 -225.9167584642928 -1371.1105423925474 0 0 0 0 -21.746530704345787 -139.38539488098468 0 -139.38539488098468 10.689433504730459 0 0 0 0 -201.9137266036123 -246.30707187351072 0 -246.30707187351072 -1311.71350980633 0 0 0 0 -221.40228086030402 -128.27383878661203 0 -128.27383878661203 -1939.0267222478142 0 0 0 0 58.506719768573021 113.8444191532999 0 113.8444191532999 -60.913163670382346 0 0 0 0 -242.17846905443002 -133.99712639927748 0 -133.99712639927748 63.31851886241202 0 0 0 0 -55.341394536109874 -758.20068808361248 0 -758.20068808361248 -3388.7144120169319 0 0 0 0 -8.1202170090195125 -5.4783254933291943 0 -5.4783254933291943 -2.3163039868152513 0 0 0 0 -236.48651960791904 -23.065783726226073 0 -23.065783726226073 209.31541522809857 0 0 0 0 5.1271004760245091 -8.1646359686820347 0 -8.1646359686820347 5.4978238580873011 0 0 0 0 -105.83335825198446 -161.11748932571209 0 -161.11748932571209 -181.88320427163853 0 0 0 0 -162.26357776473014 -331.6689394823843 0 -331.6689394823843 -859.24964322950473 0 0 0 0 0.47891930206270672 -5.9147177476540946 0 -5.9147177476540946 1.8583165228526752 0 0 0 0 -205.0188189413675 -1053.7276791990698 0 -1053.7276791990698 0.19146261054629576 0 0 0 0 -67.949235003965441 -1070.9354355163232 0 -1070.9354355163232 -1915.5789733517704 0 0 0 0 -422.35454538369231 -868.94211597757749 0 -868.94211597757749 -31.58449540642323 0 0 0 0 -248.56980450956326 -1116.4488061452139 0 -1116.4488061452139 -797.72135154181888 0 0 0 0 -134.27216220565606 -511.05726797022362 0 -511.05726797022362 -1052.0458997930909 0 0 0 0 181.09636298418627 -1094.4817161148676 0 -1094.4817161148676 0.63580312240810599 0 0 0 0 1459.2897038723459 -544.35058214272431 0 -544.35058214272431 -44.690776911011199 0 0 0 0 -0.13472142598823922 -1.9177686806680043 0 -1.9177686806680043 0.11394879441184003 0 0 0 0 -1476.4721909244181 -806.90478068171797 0 -806.90478068171797 8.2635893775732256 0 0 0 0 -669.79716471636493 -518.34178580542357 0 -518.34178580542357 -355.13838718741317 0 0 0 0 -0.50154746736465938 -6.2162505847931868 0 -6.2162505847931868 1.7940608607173374 0 0 0 0 449.54496947709777 -418.99785213845098 0 -418.99785213845098 368.10066564756562 0 0 0 0 -2.2321908601205678 -3.2739509373658393 0 -3.2739509373658393 0.3986964862203024 0 0 0 0 -79.517075341413147 -884.12857128713222 0 -884.12857128713222 -11.792973860476195 0 0 0 0 -67.894992050267319 -879.26736014205017 0 -879.26736014205017 -103.02906144627195 0 0 0 0 -806.37433871555913 -1443.20236755121 0 -1443.20236755121 -315.25950616342016 0 0 0 0 -658.67841037272774 -1027.4556333503594 0 -1027.4556333503594 -961.61995147216658 0 0 0 0 -662.3729090274137 -815.90504815894383 0 -815.90504815894383 -1840.9043751287682 0 0 0 0 -547.49161306690075 -840.07070526306052 0 -840.07070526306052 -674.06420084480487 0 0 0 0 -1809.4371503449802 -1421.261444544456 0 -1421.261444544456 -883.23236679355614 0 0 0 0 2.9982144082303819 -11.195402506419185 0 -11.195402506419185 5.5170964183818967 0 0 0 0 -145.14678649045709 -463.94647417660917 0 -463.94647417660917 -375.52511715011497 0 0 0 0 -560.26734858440523 -1262.0856705183078 0 -1262.0856705183078 -1257.3681107863158 0 0 0 0 -26.177385267466889 124.40303351486364 0 124.40303351486364 -615.68008289155114 0 0 0 0 0.81790918936054346 -3.7357172113192263 0 -3.7357172113192263 -5.4272296988899313 0 0 0 0 -831.43236954866734 -891.36637049853744 0 -891.36637049853744 -1664.8886179772235 0 0 0 0 -561.34274950619147 -768.03426252181089 0 -768.03426252181089 -1641.4419148732341 0 0 0 0 -895.70386401444375 -697.98917257258745 0 -697.98917257258745 -1351.752769580693 0 0 0 0 -672.87164992140606 -516.68157256102131 0 -516.68157256102131 -1493.08554607306 0 0 0 0 -1205.3528983621727 -667.4502381943912 0 -667.4502381943912 -967.1138780330657 0 0 0 0 -908.15346716903878 -207.85185001737045 0 -207.85185001737045 -1823.7142634642805 0 0 0 0 -473.90292742966994 -1153.7031308583828 0 -1153.7031308583828 -1017.0074794901448 0 0 0 0 -378.00829795439495 -918.07342119811801 0 -918.07342119811801 -2232.7472002824325 0 0 0 0 -2579.2491592913502 -1210.324703291546 0 -1210.324703291546 760.74305165126862 0 0 0 0 -250.40728781396319 -714.63717238624668 0 -714.63717238624668 -337.10149709984398 0 0 0 0 -83.689152883479892 1062.8333253091646 0 1062.8333253091646 1233.0040275555657 0 0 0 0 -360.64193816149782 -482.79822642574436 0 -482.79822642574436 -91.826300406230075 0 0 0 0 4.9064018283078212 -5.3200956359948464 0 -5.3200956359948464 6.6064986184210852 0 0 0 0 -691.51316488674638 -497.71712268503506 0 -497.71712268503506 267.18917226488702 0 0 0 0 -448.50990092609209 -833.70499556201685 0 -833.70499556201685 -1201.8910188514419 0 0 0 0 -685.59693702097866 -607.2543398998896 0 -607.2543398998896 -360.0276105685698 0 0 0 0 -642.86564954984351 -573.81027842823096 0 -573.81027842823096 -1710.1326853852079 0 0 0 0 -1014.956618433338 -908.91343288798089 0 -908.91343288798089 -1207.5348797929182 0 0 0 0 -858.60849146808323 -1410.6419379105719 0 -1410.6419379105719 -2125.0883100337815 0 0 0 0 -787.48060392796469 -742.22433468460076 0 -742.22433468460076 -1182.2853196567448 0 0 0 0 -614.18054909305647 -975.93246305547655 0 -975.93246305547655 -1125.3717304550919 0 0 0 0 -4.4063225842728571 -561.21551951538777 0 -561.21551951538777 -1386.5933418166824 0 0 0 0 -487.85775609052507 -990.41431249947345 0 -990.41431249947345 -1816.8437039961937 0 0 0 0 -509.61612910125405 -946.96325840803911 0 -946.96325840803911 -887.6994644018032 0 0 0 0 -332.88140154638677 -569.63658702441171 0 -569.63658702441171 -963.63252772837586 0 0 0 0 -607.69751350040315 -1025.1851632238031 0 -1025.1851632238031 -278.82642491810111 0 0 0 0 -477.81977664469014 -769.25484842125661 0 -769.25484842125661 -532.2232594944071 0 0 0 0 -716.24683881251985 -856.39027481172161 0 -856.39027481172161 -583.65637050106307 0 0 0 0 -562.27221533324337 -919.23594955857698 0 -919.23594955857698 -583.92694156017455 0 0 0 0 -692.8104211154423 -895.13487351690856 0 -895.13487351690856 -454.3126281880177 0 0 0 0 -275.24216354035889 -653.17612638619903 0 -653.17612638619903 -586.65897742824654 0 0 0 0 -898.49586850409833 -780.69313836239598 0 -780.69313836239598 -563.09668234386481 0 0 0 0 -127.48050220950972 -440.84184998305864 0 -440.84184998305864 -531.79946575716895 0 0 0 0 -476.07386796464561 -361.78048515649789 0 -361.78048515649789 9.334515569920768 0 0 0 0 88.538668786510243 -613.3420474726372 0 -613.3420474726372 -2422.9734741167995 0 0 0 0 -139.87298082240886 -291.72673510079039 0 -291.72673510079039 -246.73593861223344 0 0 0 0 -76.43810335083981 -177.54295189654658 0 -177.54295189654658 64.748015404737089 0 0 0 0 -38.056650084945431 -160.27657624498534 0 -160.27657624498534 -17.532938127187663 0 0 0 0 -55.834178399405573 9.4745604479994654 0 9.4745604479994654 31.493714702373836 0 0 0 0 -134.70462182097253 -284.59578202327975 0 -284.59578202327975 -254.02986937992682 0 0 0 0 -60.524956153024334 -41.265289972780081 0 -41.265289972780081 -0.65030958687432872 0 0 0 0 -6.8554981017393857 -9.7969209407654603 0 -9.7969209407654603 -3.8588297759488199 0 0 0 0 -169.61776495150116 49.069019387985463 0 49.069019387985463 158.31684636469618 0 0 0 0 -70.99913618638675 -148.33882679370436 0 -148.33882679370436 -1.7363989563018549 0 0 0 0 6.5517695496440069 -43.231123230172699 0 -43.231123230172699 30.539024357035743 0 0 0 0 -82.500262299581664 -60.294156544676298 0 -60.294156544676298 0.4930845814596978 0 0 0 0 -147.52843282520189 37.050705785914033 0 37.050705785914033 -112.58698235832708 0 0 0 0 106.35360741921613 161.2252823397539 0 161.2252823397539 -170.06144391593989 0 0 0 0 -164.40352379095748 -377.76105385543815 0 -377.76105385543815 13.314914577269519 0 0 0 0 26.569972893383238 97.629865326925938 0 97.629865326925938 170.08042231216041 0 0 0 0 13.613775608004076 -16.991778955639603 0 -16.991778955639603 23.053916654423091 0 0 0 0 -288.90294773015194 -500.0415534387721 0 -500.0415534387721 351.26641846209532 0 0 0 0 -712.32334049062047 -404.56129313860401 0 -404.56129313860401 374.19212788794539 0 0 0 0 -544.37891605915138 -137.94332234288049 0 -137.94332234288049 624.18769439567404 0 0 0 0 3.9045377945392943 2.1862504599546355 0 2.1862504599546355 -2.0825550756948132 0 0 0 0 -556.79745391460892 -518.60296213410038 0 -518.60296213410038 -154.66619727462239 0 0 0 0 -301.05889479370671 322.82058749104908 0 322.82058749104908 649.39016384804563 0 0 0 0 -341.59358363207139 -106.23499830351648 0 -106.23499830351648 -132.4798924596189 0 0 0 0 -532.65472436560231 -68.611080573693471 0 -68.611080573693471 196.00058973845444 0 0 0 0 178.89016133237601 -57.391416680613474 0 -57.391416680613474 188.41418649591651 0 0 0 0 -479.89912433191785 -53.840261097328039 0 -53.840261097328039 159.82193923522937 0 0 0 0 -300.20417063431887 -309.36556361705334 0 -309.36556361705334 197.96577420375252 0 0 0 0 -541.5487844064337 -187.95699403903564 0 -187.95699403903564 209.62644170006752 0 0 0 0 260.0427318848815 -36.02952998613182 0 -36.02952998613182 156.98012795220347 0 0 0 0 -51.52254158835072 -43.340726921223322 0 -43.340726921223322 -32.783761484422769 0 0 0 0 197.18830480751058 -716.04999110264907 0 -716.04999110264907 429.17661904140914 0 0 0 0 -173.88170268983959 -111.83343090809649 0 -111.83343090809649 293.36141804320505 0 0 0 0 105.93456784435693 -155.78461333576342 0 -155.78461333576342 220.07597446949512 0 0 0 0 271.59585446435813 -198.12428952594928 0 -198.12428952594928 111.61265543791524 0 0 0 0 -187.36105693836726 -44.3206702281459 0 -44.3206702281459 283.37508954538498 0 0 0 0 211.32262555086163 -488.16445542940528 0 -488.16445542940528 450.54374535736861 0 0 0 0 6.3175609698373592 -163.59995580497343 0 -163.59995580497343 451.56029298032365 0 0 0 0 436.05446414995822 -421.7659669676068 0 -421.7659669676068 190.24477018218022 0 0 0 0 25.649376867811952 -220.81276104880817 0 -220.81276104880817 -305.64336555649061 0 0 0 0 127.7033801376092 -197.43067199055804 0 -197.43067199055804 165.89511127745209 0 0 0 0 -10.261957775779592 -323.68345806559955 0 -323.68345806559955 52.174715133922291 0 0 0 0 -328.15620415607555 -126.76236075574707 0 -126.76236075574707 271.13582243444034 0 0 0 0 -101.00869243616762 29.918324068650691 0 29.918324068650691 132.30062575366173 0 0 0 0 -298.89570644604282 -348.68105551414192 0 -348.68105551414192 -320.56051168215345 0 0 0 0 -2.3705429347115796 -0.55306752755214461 0 -0.55306752755214461 -0.015881502934071534 0 0 0 0 -363.5730377574946 -158.1500852608624 0 -158.1500852608624 -198.09436903560709 0 0 0 0 -127.34575872169808 -209.75552631277242 0 -209.75552631277242 -208.06335874308024 0 0 0 0 213.71476552847889 -154.51097440419107 0 -154.51097440419107 -378.09596279110701 0 0 0 0 -39.235580887296237 -208.45725743545336 0 -208.45725743545336 -307.6957353395992 0 0 0 0 -86.799992609379842 -321.34855150542353 0 -321.34855150542353 -468.45333778498753 0 0 0 0 123.60518700715329 -347.90497336574481 0 -347.90497336574481 -497.71662614656088 0 0 0 0 102.16301582762389 -589.30649130309757 0 -589.30649130309757 -862.35369983035343 0 0 0 0 370.80989484758175 -273.48294165869447 0 -273.48294165869447 -643.83377094547177 0 0 0 0 204.55525487610066 -617.76265941670499 0 -617.76265941670499 -906.52257466854644 0 0 0 0 521.73939716685709 -35.297408780668775 0 -35.297408780668775 -405.01038537222485 0 0 0 0 128.95074587732597 -315.01990545953231 0 -315.01990545953231 -280.29824284862843 0 0 0 0 163.90609834311181 -477.52053604193497 0 -477.52053604193497 309.40957192146016 0 0 0 0 -36.461233154475622 -29.358614483327997 0 -29.358614483327997 -20.649894821269243 0 0 0 0 13.6031676238199 -380.40041307703359 0 -380.40041307703359 711.24977061818936 0 0 0 0 295.33870452170959 -698.10475294991193 0 -698.10475294991193 532.57538156080409 0 0 0 0 242.24051248055184 -65.040273937702295 0 -65.040273937702295 -64.181693480699323 0 0 0 0 159.92664079785754 -9.9382269495436049 0 -9.9382269495436049 514.7094438180502 0 0 0 0 -351.23710507350916 -97.38793249772425 0 -97.38793249772425 -274.54401724065247 0 0 0 0 -296.71000758320224 -535.64233076496839 0 -535.64233076496839 315.63135364241316 0 0 0 0 144.14539987119497 1108.0170290971728 0 1108.0170290971728 772.99876003625104 0 0 0 0 -12.912809633605406 -10.017648132022373 0 -10.017648132022373 -7.7057155641738291 0 0 0 0 291.08480371258338 -571.46042937063612 0 -571.46042937063612 -976.82179999008076 0 0 0 0 94.483801264512294 -556.03970391500479 0 -556.03970391500479 -915.59733772465552 0 0 0 0 -338.65355718105275 -1072.0645984833463 0 -1072.0645984833463 -1080.4676590841082 0 0 0 0 0.98508052108809352 -906.36508616027277 0 -906.36508616027277 -1177.5628420308713 0 0 0 0 -345.90266496320692 -944.05705323730945 0 -944.05705323730945 -863.55682927602902 0 0 0 0 -342.70960719477443 -943.27857467484864 0 -943.27857467484864 -1314.8008388437229 0 0 0 0 39.436400559286994 -651.03294602761162 0 -651.03294602761162 -731.97957829963707 0 0 0 0 -75.365357085131109 -828.19526115568442 0 -828.19526115568442 -903.03684530368628 0 0 0 0 -182.00369145786681 -993.07927766724606 0 -993.07927766724606 -631.09831273575401 0 0 0 0 -295.96745466113498 -991.32615316223382 0 -991.32615316223382 -571.82071157848986 0 0 0 0 -181.9986198803756 -1043.2452975628055 0 -1043.2452975628055 -1006.2663878263993 0 0 0 0 -346.85965562290221 -1252.221890135108 0 -1252.221890135108 -576.87029879976035 0 0 0 0 -321.89754407285363 -1149.2879106756154 0 -1149.2879106756154 -1182.0508641526467 0 0 0 0 -455.52195128434687 -1237.3577751506054 0 -1237.3577751506054 -57.159904621585156 0 0 0 0 -349.6185107682395 -1095.7475410597181 0 -1095.7475410597181 -438.52013295153301 0 0 0 0 -350.27231618990595 -1134.8257902550408 0 -1134.8257902550408 -398.3221982204268 0 0 0 0 -517.14971227051137 -1038.2269361771687 0 -1038.2269361771687 -153.4331213739315 0 0 0 0 -459.75854003738641 -1102.7142793646381 0 -1102.7142793646381 -0.12898146946827183 0 0 0 0 -561.58695016361526 -967.77132997578155 0 -967.77132997578155 -176.41032817741507 0 0 0 0 -78.152143222789164 -854.60001465910318 0 -854.60001465910318 10.058605130073374 0 0 0 0 -1048.6344856776814 -713.24275800945543 0 -713.24275800945543 -152.33731240515044 0 0 0 0 -696.47761047186214 -964.62851565126039 0 -964.62851565126039 -0.14028561570012243 0 0 0 0 -440.98239300870046 -877.55518908330851 0 -877.55518908330851 -319.58956573626347 0 0 0 0 -651.93891919665475 -870.51500607593698 0 -870.51500607593698 -319.70065626128053 0 0 0 0 -649.42256708079003 -823.8714164266421 0 -823.8714164266421 -179.528677478178 0 0 0 0 -1011.8917688736547 -696.27916885672312 0 -696.27916885672312 -162.98995608804398 0 0 0 0 -536.24606712410969 -567.95703526674333 0 -567.95703526674333 -191.04929898084083 0 0 0 0 -637.64726026478456 -714.84950669680256 0 -714.84950669680256 -292.74866217871022 0 0 0 0 -464.52640302046348 -491.45793929494903 0 -491.45793929494903 -217.99853773525683 0 0 0 0 -378.51879339150037 -608.87572316166188 0 -608.87572316166188 -292.44073292128917 0 0 0 0 -443.52868658467196 -457.18037373669722 0 -457.18037373669722 -196.05996686147409 0 0 0 0 -535.770212818461 -499.27537252858747 0 -499.27537252858747 -208.04088914890599 0 0 0 0 -346.01191797468346 -878.87604586222369 0 -878.87604586222369 -459.80625876339036 0 0 0 0 -239.86017054582771 -741.18971159261855 0 -741.18971159261855 -551.88552139937383 0 0 0 0 -86.072062427740093 -661.85350749130657 0 -661.85350749130657 -532.42222071865399 0 0 0 0 -323.55801695059199 -598.0468499855524 0 -598.0468499855524 -363.95127757750743 0 0 0 0 -219.70502787655278 -447.0484915152847 0 -447.0484915152847 -388.40957555781642 0 0 0 0 -98.592776936293376 -385.26956777806117 0 -385.26956777806117 -388.99219643487595 0 0 0 0 -237.18639911775244 -367.77594146694173 0 -367.77594146694173 -332.78732330504135 0 0 0 0 -76.12083427523612 -534.35640830102784 0 -534.35640830102784 -664.32237589679426 0 0 0 0 -405.75367006040324 -455.62378200060994 0 -455.62378200060994 -256.79208041791571 0 0 0 0 -381.04093529770762 -409.11413243297284 0 -409.11413243297284 -208.20721375520225 0 0 0 0 -318.48722858895053 -362.94875594348559 0 -362.94875594348559 -190.57822354070959 0 0 0 0 -325.24435602924495 -401.33490379343129 0 -401.33490379343129 -314.08924404035497 0 0 0 0 -355.15429028233484 -344.14978573581902 0 -344.14978573581902 -176.03646297502564 0 0 0 0 -234.36336210279842 -208.03953585618001 0 -208.03953585618001 -69.552616461114667 0 0 0 0 -271.25145612361666 -163.60774435762141 0 -163.60774435762141 -102.22907972495886 0 0 0 0 -370.14119367591775 -72.140298966165574 0 -72.140298966165574 -86.806260694770572 0 0 0 0 -174.59423760564823 -3.2575191570213065 0 -3.2575191570213065 105.76932757784198 0 0 0 0 -123.1787197527301 -47.259814178250963 0 -47.259814178250963 -62.688621020002756 0 0 0 0 -0.19236109218712727 -4.4174637187062729 0 -4.4174637187062729 -1.9481472403426752 0 0 0 0 -500.30631909985095 -356.0932322301378 0 -356.0932322301378 -117.50465659287147 0 0 0 0 -375.1419029320532 -141.26732497382181 0 -141.26732497382181 0.64559022461253335 0 0 0 0 -9.8520772297488293 -19.523189831539639 0 -19.523189831539639 -15.285177333811134 0 0 0 0 -0.32733686672207796 -11.619518674622043 0 -11.619518674622043 -0.90588165066753668 0 0 0 0 8.5966426687482453 -14.000567965511436 0 -14.000567965511436 -21.781935595958203 0 0 0 0 -0.090361144144644356 -5.574670687565046 0 -5.574670687565046 -14.725835640131493 0 0 0 0 0.99975920873043833 -14.553370566472267 0 -14.553370566472267 -11.731340996833751 0 0 0 0 -650.55163615009224 -271.78431685286705 0 -271.78431685286705 -132.62471084257413 0 0 0 0 -626.12822526869422 -276.7963366712429 0 -276.7963366712429 -71.568018130317796 0 0 0 0 -887.44567942918002 -172.99697109188855 0 -172.99697109188855 -117.38341946401488 0 0 0 0 9.3920202928566141 -9.5245166215900099 0 -9.5245166215900099 -8.7316617255273741 0 0 0 0 14.249730032315711 -22.105742450803518 0 -22.105742450803518 0.0037726611605102592 0 0 0 0 31.607276013337923 -16.873963817740332 0 -16.873963817740332 -7.218476698937593 0 0 0 0 -1297.9829742697693 -831.70088369109726 0 -831.70088369109726 -0.3693332033714421 0 0 0 0 -2.020272662319611 -1.2806830982379296 0 -1.2806830982379296 -4.7753566572086186 0 0 0 0 -1986.6387072740995 -489.4420504623763 0 -489.4420504623763 119.27281314761785 0 0 0 0 7.6791119472454739 -21.420067840164847 0 -21.420067840164847 -1.790716343173699 0 0 0 0 7.3915143215490389 -21.520021813754283 0 -21.520021813754283 0.00079592108784038438 0 0 0 0 11.487802905778153 -17.444383282545459 0 -17.444383282545459 -1.6228507401683601 0 0 0 0 8.8191892627655761 -20.349823074720916 0 -20.349823074720916 -3.6205322785281169 0 0 0 0 6.6043082167052489 -20.353235846370808 0 -20.353235846370808 -8.5907967407183605 0 0 0 0 4.2373884519874991 -13.040866473089409 0 -13.040866473089409 -11.237416249779926 0 0 0 0 18.757071498592268 -33.252855436949176 0 -33.252855436949176 -56.956808753260702 0 0 0 0 7.2889264362186594 -10.948567460903462 0 -10.948567460903462 0.7181601849978243 0 0 0 0 0.18506500363635325 -11.598178033735621 0 -11.598178033735621 -0.43293634617178256 0 0 0 0 -2.3020094868734304 -23.207950268457353 0 -23.207950268457353 -23.156067290088686 0 0 0 0 10.95421741905011 -30.510250860092128 0 -30.510250860092128 -14.291378093999811 0 0 0 0 21.885322028283554 -33.478366969713534 0 -33.478366969713534 2.9119474595354404 0 0 0 0 42.072660102508962 -34.1374659613939 0 -34.1374659613939 -27.054101333240396 0 0 0 0 24.404148782185075 -92.31920767122574 0 -92.31920767122574 -47.745412892225431 0 0 0 0 23.426796371131786 -86.223792201191827 0 -86.223792201191827 11.117426671458816 0 0 0 0 6.0265988993378414 -63.854115559213824 0 -63.854115559213824 68.763589069727459 0 0 0 0 13.115216193589731 -62.706748664044426 0 -62.706748664044426 -23.62932422402082 0 0 0 0 -13.427684629379655 -18.35495282982447 0 -18.35495282982447 -15.532136761175934 0 0 0 0 -4.3725477854895871 -19.29178831729223 0 -19.29178831729223 -30.47697976033669 0 0 0 0 -6.5113270629419873 -13.777047822987981 0 -13.777047822987981 -3.4435513645852893 0 0 0 0 -1.0339850057825402 1.2984155274613727 0 1.2984155274613727 3.3987178852522675 0 0 0 0 -18.415771762679611 -20.634980660736204 0 -20.634980660736204 3.0511685860955424 0 0 0 0 -3.5884608061314793 -18.262890705598693 0 -18.262890705598693 -19.546829683895339 0 0 0 0 -17.869473569633556 -27.120162778388476 0 -27.120162778388476 -16.617958675684349 0 0 0 0 -6.647957389432122 -15.956467051291838 0 -15.956467051291838 -20.430098420212744 0 0 0 0 -4.8892405942796469 -6.7834577847373794 0 -6.7834577847373794 -10.086323752152623 0 0 0 0 -196.02319971853285 -11.031719572318252 0 -11.031719572318252 227.44811074091194 0 0 0 0 -41.555421746530556 -50.30310406433 0 -50.30310406433 -98.963447993679438 0 0 0 0 -108.49770011012151 -46.422654526424594 0 -46.422654526424594 -86.94101288983984 0 0 0 0 19.49643951379403 -39.00895886188664 0 -39.00895886188664 31.348553072341019 0 0 0 0 -6.5662631310554787 -2.7487959636223991 0 -2.7487959636223991 -0.41587178005801917 0 0 0 0 -117.00336891480401 -71.458673098175495 0 -71.458673098175495 -1.676491592079401 0 0 0 0 -52.880670106074831 -50.041289641481853 0 -50.041289641481853 168.72947958565783 0 0 0 0 -41.461982247346896 -55.138144097392797 0 -55.138144097392797 36.116613324425998 0 0 0 0 -40.737464329424256 3.7262955048063304 0 3.7262955048063304 20.181613157648826 0 0 0 0 114.50051227106451 -203.37443255968356 0 -203.37443255968356 174.2753860676894 0 0 0 0 161.75210982475801 3.0452915530477185 0 3.0452915530477185 -103.02163514503627 0 0 0 0 614.40876867999032 -156.25866395590128 0 -156.25866395590128 -55.070646626845701 0 0 0 0 -210.73725602407649 -208.74137086824339 0 -208.74137086824339 206.43209649786877 0 0 0 0 180.73430843865208 -496.48123402375495 0 -496.48123402375495 279.41933331266046 0 0 0 0 -165.67598127333622 -51.403610489855055 0 -51.403610489855055 215.04127149638953 0 0 0 0 -24.965213595845853 -36.14963466480549 0 -36.14963466480549 129.96511600197118 0 0 0 0 -277.01845704996958 -315.01527263142634 0 -315.01527263142634 -172.1828789547435 0 0 0 0 -5.5493443593925402 -1.1994697272689052 0 -1.1994697272689052 7.2083849784308427 0 0 0 0 476.49536174649256 270.79002805589698 0 270.79002805589698 9.5551188250537962 0 0 0 0 -1927.0161738885799 1218.0439980883966 0 1218.0439980883966 183.70750446949387 0 0 0 0 -604.60748426901046 -658.6847131603663 0 -658.6847131603663 1261.3002736994822 0 0 0 0 1364.3278245463443 -1125.8570942953666 0 -1125.8570942953666 -939.59766502467392 0 0 0 0 -1.1528539279097458 -120.48885370549397 0 -120.48885370549397 -198.39104128116196 0 0 0 0 1561.4337349143607 -660.55235506873578 0 -660.55235506873578 -474.51695945224492 0 0 0 0 29.185531721363077 -42.721068098930118 0 -42.721068098930118 -114.99539841315709 0 0 0 0 -453.00192497141143 275.87908400309152 0 275.87908400309152 433.60128552780952 0 0 0 0 4.9962883645162748 -12.110560739488903 0 -12.110560739488903 -10.554754712755567 0 0 0 0 -1.2496869667577784 -3.5028990466925833 0 -3.5028990466925833 7.858251932476179 0 0 0 0 1200.8017621529798 -1083.797496275547 0 -1083.797496275547 124.89579755760496 0 0 0 0 234.46088413627876 -455.59192214890209 0 -455.59192214890209 -13.452535075521155 0 0 0 0 -7.5233233552830256 -10.004434782038686 0 -10.004434782038686 -0.4731753180018643 0 0 0 0 880.38154751076763 -189.27335097414471 0 -189.27335097414471 -580.4763200100424 0 0 0 0 -1241.2984248025823 92.90610052759439 0 92.90610052759439 373.2275568638579 0 0 0 0 -234.5157362659811 -119.45149249495444 0 -119.45149249495444 188.1743607164608 0 0 0 0 -825.84355400064669 -432.75520737774787 0 -432.75520737774787 278.56659596485042 0 0 0 0 -362.25813342916808 28.57203870327794 0 28.57203870327794 156.81378386415599 0 0 0 0 -652.94445644425286 -80.897814201365691 0 -80.897814201365691 239.39868436074903 0 0 0 0 43.196975849998125 -537.14861884254788 0 -537.14861884254788 251.11223222814169 0 0 0 0 -183.00026732572587 -200.47620505956002 0 -200.47620505956002 -63.522296087481664 0 0 0 0 -400.67713933421692 142.3297139370261 0 142.3297139370261 -266.38162094936706 0 0 0 0 -783.50009693051652 296.28244270139294 0 296.28244270139294 -28.082519284726004 0 0 0 0 -371.40826036578801 -276.7614692728821 0 -276.7614692728821 -58.878014272719156 0 0 0 0 1386.9175629739475 230.52681215222401 0 230.52681215222401 361.14294157466793 0 0 0 0 291.33458943053847 -336.03993504872778 0 -336.03993504872778 427.63510612704067 0 0 0 0 -42.556060679138014 -44.714743666253341 0 -44.714743666253341 -10.086654426886611 0 0 0 0 -74.605875826871852 76.311643588300285 0 76.311643588300285 290.88560148583201 0 0 0 0 325.53406964239184 -149.41905026109771 0 -149.41905026109771 -61.844360222603427 0 0 0 0 28.519581271022616 -84.327691607177258 0 -84.327691607177258 -15.212348759116139 0 0 0 0 290.96273978565296 -281.56050145432528 0 -281.56050145432528 -105.37246531242999 0 0 0 0 269.16411209580838 66.839754048640316 0 66.839754048640316 -18.351159077108605 0 0 0 0 1.3991507544344444 -1.1209207474206409 0 -1.1209207474206409 0.88133401369640296 0 0 0 0 -139.1825657161412 -318.29787033723369 0 -318.29787033723369 -122.24163022544235 0 0 0 0 79.784917942975881 30.484643832649454 0 30.484643832649454 31.422730629579746 0 0 0 0 -19.665119424455042 9.7458278911362868 0 9.7458278911362868 31.768548590829596 0 0 0 0 163.24878041799093 -76.504957648692653 0 -76.504957648692653 -50.535332934829057 0 0 0 0 43.242972112014129 -27.751425004461169 0 -27.751425004461169 4.6613376269120153 0 0 0 0 108.57844904121885 -92.769636836092104 0 -92.769636836092104 -53.400924390458385 0 0 0 0 33.944952381440089 -22.104986872953305 0 -22.104986872953305 -19.443139823662932 0 0 0 0 33.685969171274337 -10.476988471476943 0 -10.476988471476943 -65.066837837432104 0 0 0 0 99.449778310394322 -229.9074771601845 0 -229.9074771601845 275.66944270823296 0 0 0 0 1.5808527445819038 -14.34006217198106 0 -14.34006217198106 9.3119922229118295 0 0 0 0 84.396864172689675 -299.18161838845481 0 -299.18161838845481 395.15831613064802 0 0 0 0 242.50192520564451 -352.66970909189695 0 -352.66970909189695 185.25369384101214 0 0 0 0 -54.9798778236296 -35.956635563173869 0 -35.956635563173869 85.909329117163708 0 0 0 0 19.80344205233996 -77.783819746569861 0 -77.783819746569861 89.819859131719568 0 0 0 0 100.63525364168891 -22.497478047771438 0 -22.497478047771438 49.332092684915551 0 0 0 0 -11.249096223356901 -237.47557031406905 0 -237.47557031406905 -128.5427729457133 0 0 0 0 -54.058411054775974 -65.66617778494502 0 -65.66617778494502 -14.707463236322099 0 0 0 0 20.309667787398212 -149.02890651086636 0 -149.02890651086636 -38.923851617510081 0 0 0 0 238.86922097003844 -149.91989127911802 0 -149.91989127911802 -102.09787036451598 0 0 0 0 -54.480249172498588 -88.623384584403539 0 -88.623384584403539 -2.4817106185073499 0 0 0 0 240.23755170138611 -322.57755140670633 0 -322.57755140670633 -7.7407325666099496 0 0 0 0 -671.55122711741933 -13.832525161818921 0 -13.832525161818921 274.08199008996598 0 0 0 0 700.44847341031709 -398.89778768664473 0 -398.89778768664473 -12.709099112806143 0 0 0 0 496.14482594049332 -171.47798692952711 0 -171.47798692952711 -86.564951085310895 0 0 0 0 -158.14559555595042 -257.60429225141706 0 -257.60429225141706 108.70144937938676 0 0 0 0 -4.0375929067609775 -5.9850711976976214 0 -5.9850711976976214 22.758372404584094 0 0 0 0 369.20767213878571 -274.96405482426053 0 -274.96405482426053 -26.573492467672622 0 0 0 0 -420.34850893884868 120.84665080966079 0 120.84665080966079 248.37829430954298 0 0 0 0 39.8166633152141 -16.804013270324504 0 -16.804013270324504 3.2338960090128239 0 0 0 0 15.797494131594249 -7.1159756811994299 0 -7.1159756811994299 -6.5797977574666007 0 0 0 0 220.13634233477933 -75.994577719924564 0 -75.994577719924564 -412.09977797853207 0 0 0 0 307.84759593671333 -311.44724502036843 0 -311.44724502036843 -377.18893184194894 0 0 0 0 209.88978954696358 -355.60313602722817 0 -355.60313602722817 -180.71845223188575 0 0 0 0 -55.245701337705981 -52.617756963116953 0 -52.617756963116953 -38.183296123835333 0 0 0 0 -24.227962239790862 -12.251382655925745 0 -12.251382655925745 36.789909137500899 0 0 0 0 5.6627258245425764 -105.3101828418512 0 -105.3101828418512 721.43388719766517 0 0 0 0 -129.89294547960162 74.467992992947984 0 74.467992992947984 56.677619419275288 0 0 0 0 -29.136167916719828 -55.504039548913411 0 -55.504039548913411 -17.159065654535254 0 0 0 0 153.69172073209484 -1.090967550779169 0 -1.090967550779169 -270.6609969320416 0 0 0 0 60.580016884428915 -5.0201827278519886 0 -5.0201827278519886 -101.45466732589557 0 0 0 0 -11.51048756613973 -41.254534473349779 0 -41.254534473349779 -22.974062731205748 0 0 0 0 28.803481133116293 -74.064848880785576 0 -74.064848880785576 -6.3319477014010772 0 0 0 0 24.781685156543972 -117.76672631650581 0 -117.76672631650581 -42.607383026686875 0 0 0 0 2.9075022749478592 -11.828690436351849 0 -11.828690436351849 -3.466177528375546 0 0 0 0 -45.199390861918801 -191.43372562454897 0 -191.43372562454897 -23.873647332018663 0 0 0 0 28.989353846626699 -5.6674582060868914 0 -5.6674582060868914 -7.5795848096061924 0 0 0 0 187.85943811801553 69.104690310792648 0 69.104690310792648 -111.34236782628432 0 0 0 0 190.94704223203007 -44.693962168224971 0 -44.693962168224971 142.67457712118994 0 0 0 0 173.93870772712398 275.5238552182127 0 275.5238552182127 69.199895623058183 0 0 0 0 111.97138552621118 -151.8934422113166 0 -151.8934422113166 654.02962248460972 0 0 0 0 -85.196374272956746 291.11849137237732 0 291.11849137237732 596.28620021875031 0 0 0 0 676.67392909703631 -268.80791354381654 0 -268.80791354381654 55.108977164767566 0 0 0 0 244.42894798782072 -313.13060325967672 0 -313.13060325967672 471.93987070309231 0 0 0 0 115.27213104665134 -2.8977185331314104 0 -2.8977185331314104 265.14746000725427 0 0 0 0 329.80197768530343 -228.68357942264993 0 -228.68357942264993 253.83513610521641 0 0 0 0 258.61259068432264 -92.658478652847407 0 -92.658478652847407 100.74050950686069 0 0 0 0 102.94450001417135 -31.199969159184548 0 -31.199969159184548 202.04904343279486 0 0 0 0 84.619200531131355 -145.40653043243947 0 -145.40653043243947 170.62187929813444 0 0 0 0 26.922312619962334 -34.910644453954205 0 -34.910644453954205 -14.219055035397218 0 0 0 0 -124.42861270368303 -86.88573602764518 0 -86.88573602764518 92.654177237847762 0 0 0 0 129.43284381570265 -49.658973077217524 0 -49.658973077217524 -32.687067536634459 0 0 0 0 -15.285910016973503 -75.180262809346459 0 -75.180262809346459 12.238764835587062 0 0 0 0 -68.336222391400952 -139.80228357575834 0 -139.80228357575834 41.707756159739802 0 0 0 0 -32.271907032452873 -81.5022321002034 0 -81.5022321002034 126.69337008472939 0 0 0 0 101.7877439539443 -52.564589322992106 0 -52.564589322992106 7.3011802618566435 0 0 0 0 83.258146078049322 -157.97601843526354 0 -157.97601843526354 66.848869017303514 0 0 0 0 6.7384230430958496 132.08029587999272 0 132.08029587999272 293.72426843543508 0 0 0 0 82.119686329629531 -61.921759501601713 0 -61.921759501601713 38.263537741010509 0 0 0 0 121.77676175776287 -82.459296865363285 0 -82.459296865363285 -87.022180925425346 0 0 0 0 139.33532707192353 -97.55016915226588 0 -97.55016915226588 -122.36041553806899 0 0 0 0 9.0884077893189215 -10.623962778018509 0 -10.623962778018509 -6.4831129918193113 0 0 0 0 130.52155627521279 -53.515147117614106 0 -53.515147117614106 -50.608770972285129 0 0 0 0 189.99256123406667 -201.19343079049941 0 -201.19343079049941 55.530395359888644 0 0 0 0 101.00956366512037 15.323787507759334 0 15.323787507759334 -74.439804243127583 0 0 0 0 160.87831879892474 -57.951743418620026 0 -57.951743418620026 -105.24325112694351 0 0 0 0 83.540597096447726 -68.403710615723995 0 -68.403710615723995 50.88135675893642 0 0 0 0 4.0066633023670875 -251.07708606961387 0 -251.07708606961387 122.6706103015058 0 0 0 0 -27.803955216429131 -51.816725914224662 0 -51.816725914224662 162.82232038982329 0 0 0 0 -31.128173305092787 -263.38199905231886 0 -263.38199905231886 38.808547693932269 0 0 0 0 -170.6499499305537 -144.6539867894171 0 -144.6539867894171 -204.4268878653545 0 0 0 0 -6.9048633233232977 -172.50643375689469 0 -172.50643375689469 -203.12601756953518 0 0 0 0 43.967307742479534 -169.84679653782678 0 -169.84679653782678 -903.7123293764671 0 0 0 0 77.048158023186261 120.05851126869493 0 120.05851126869493 -606.86288177257666 0 0 0 0 -179.88164677286841 -351.5848847303314 0 -351.5848847303314 116.69311779858435 0 0 0 0 684.41081918196869 -200.75202591561174 0 -200.75202591561174 -777.89388562134263 0 0 0 0 27.919397968477874 -20.254459090159884 0 -20.254459090159884 -13.37570547193549 0 0 0 0 -46.230769448891806 -102.99412153298363 0 -102.99412153298363 -312.67350278176309 0 0 0 0 -110.52112306717027 -668.85764364108036 0 -668.85764364108036 -730.83118266894962 0 0 0 0 484.03504657562553 -619.07383742433922 0 -619.07383742433922 2033.2103914230356 0 0 0 0 -264.28074663156076 -727.68292518398448 0 -727.68292518398448 663.7405102001303 0 0 0 0 1989.5829009590707 -1387.5974356240768 0 -1387.5974356240768 -1658.5653129109269 0 0 0 0 -839.07307237490022 1820.358015054313 0 1820.358015054313 -1666.8236300438293 0 0 0 0 -1785.2141912799198 -218.02485467350562 0 -218.02485467350562 1832.8483875984894 0 0 0 0 181.70890700125892 -439.59449370871516 0 -439.59449370871516 -1217.6062241321088 0 0 0 0 -14.498494127931863 4.8900927826905303 0 4.8900927826905303 -0.75073934209314075 0 0 0 0 -632.47536872142518 171.9463576598755 0 171.9463576598755 438.52653819312036 0 0 0 0 -260.89923498638382 -35.774837631324772 0 -35.774837631324772 549.90913322555571 0 0 0 0 16.836816579518199 -36.176038659273217 0 -36.176038659273217 55.465836187708192 0 0 0 0 35.093045190758247 -32.02677760857614 0 -32.02677760857614 31.938109888867796 0 0 0 0 116.14209892107465 292.34966068849008 0 292.34966068849008 385.035983539482 0 0 0 0 -94.83060363036202 -393.67591182170872 0 -393.67591182170872 -220.88811147646902 0 0 0 0 92.419450151515775 -97.579146841411784 0 -97.579146841411784 -420.90087057528126 0 0 0 0 -3.56082700334861 -6.2884547482863589 0 -6.2884547482863589 -4.9211696413490387 0 0 0 0 -394.12442709521565 -392.59894687172255 0 -392.59894687172255 141.02110909374642 0 0 0 0 1201.8766751459789 -2.5113548079229986 0 -2.5113548079229986 -747.00935915963601 0 0 0 0 250.70088370824487 -329.32797302742529 0 -329.32797302742529 -482.94101836833579 0 0 0 0 13.330549417707225 -9.7015945347455279 0 -9.7015945347455279 8.1764493857917877 0 0 0 0 286.62324902111141 205.93638231202112 0 205.93638231202112 70.35132366414939 0 0 0 0 -180.48401741643102 -122.43618463723396 0 -122.43618463723396 141.29524041284458 0 0 0 0 395.73970606628632 616.85693789414017 0 616.85693789414017 774.09051751360676 0 0 0 0 -215.80041749085649 161.84275124579108 0 161.84275124579108 421.07899297938457 0 0 0 0 459.7050811854333 225.85401331710619 0 225.85401331710619 320.28953017772801 0 0 0 0 -91.67064307698638 158.20582020196161 0 158.20582020196161 171.36642756026777 0 0 0 0 -325.57474912633188 -119.98293272528917 0 -119.98293272528917 272.80036691168198 0 0 0 0 43.833612581096531 70.524152471041361 0 70.524152471041361 232.94720868862487 0 0 0 0 -105.71905620519829 129.50149123379788 0 129.50149123379788 431.85100368408666 0 0 0 0 -138.02885659371714 -208.35657668533531 0 -208.35657668533531 251.06630709320962 0 0 0 0 37.606599940700107 -36.783841754524474 0 -36.783841754524474 -89.996958520860062 0 0 0 0 8.799587540930645 -16.982346233130905 0 -16.982346233130905 0.8966086245635001 0 0 0 0 -29.420475499937311 -162.87983829665245 0 -162.87983829665245 -45.08454128856647 0 0 0 0 -17.51821243817858 -81.266249926860382 0 -81.266249926860382 150.70989388989619 0 0 0 0 -219.78138770280202 -324.0015546406139 0 -324.0015546406139 88.135470013832673 0 0 0 0 11.240916841823356 -20.331732069033762 0 -20.331732069033762 34.543866321837818 0 0 0 0 -447.10366754738061 17.697152685155743 0 17.697152685155743 463.60113192131394 0 0 0 0 -136.99304052073921 -1229.2502716082747 0 -1229.2502716082747 25.609592260765567 0 0 0 0 496.69987232097264 -31.629082763037331 0 -31.629082763037331 -230.37348337711501 0 0 0 0 -406.54224060064007 -346.01808918851384 0 -346.01808918851384 102.45038379428661 0 0 0 0 -152.68544005472268 -1203.8227187108255 0 -1203.8227187108255 1357.8206752110418 0 0 0 0 -137.0438747838889 -266.1333295370423 0 -266.1333295370423 -137.8329895060233 0 0 0 0 -375.73150822236494 -186.03335462455107 0 -186.03335462455107 362.3671813102701 0 0 0 0 6.8311936408137051 -9.9182476952830569 0 -9.9182476952830569 10.243906420136824 0 0 0 0 -162.52879030689292 30.529723607294727 0 30.529723607294727 -133.08542883976315 0 0 0 0 114.83915473022353 -78.281064966219674 0 -78.281064966219674 -27.897967145298026 0 0 0 0 -45.244443314977616 -139.04243616855001 0 -139.04243616855001 107.3178386271793 0 0 0 0 222.44074304447713 -127.1991086265698 0 -127.1991086265698 -49.868948896368238 0 0 0 0 -46.964250789374091 -132.64291924576673 0 -132.64291924576673 107.53363504906883 0 0 0 0 99.515005040529957 -79.465689432293345 0 -79.465689432293345 57.807216895543647 0 0 0 0 136.4613330665743 -756.85114942092696 0 -756.85114942092696 740.73546376853119 0 0 0 0 -133.70857413255908 -286.35098579591704 0 -286.35098579591704 -70.845065736648394 0 0 0 0 213.44049028274094 -206.66408512000089 0 -206.66408512000089 -52.553760924314702 0 0 0 0 102.98166091950475 -78.475249189352155 0 -78.475249189352155 47.008935758206931 0 0 0 0 79.433346331657958 -227.97259619754186 0 -227.97259619754186 -4.3348933075540117 0 0 0 0 437.99592821463739 -66.191962492262974 0 -66.191962492262974 24.554356293621822 0 0 0 0 69.591041126614073 -60.016572061124748 0 -60.016572061124748 64.518512687980547 0 0 0 0 -112.07739887561183 6.9432853237449308 0 6.9432853237449308 -10.883845538715832 0 0 0 0 0.97599794558482245 -87.487303556168627 0 -87.487303556168627 -66.882149316217692 0 0 0 0 33.449519483176118 -96.649062048232736 0 -96.649062048232736 37.522821988612122 0 0 0 0 35.21007363726676 -97.729210337904078 0 -97.729210337904078 -10.84889022444986 0 0 0 0 -7.0472462225261552 -100.72619095738901 0 -100.72619095738901 4.9756350030656904 0 0 0 0 30.365264068183023 -96.124225123781798 0 -96.124225123781798 2.0344981797679793 0 0 0 0 15.937104432217893 -115.06317441897409 0 -115.06317441897409 -13.302431032152526 0 0 0 0 29.210427343190531 -82.035295539157232 0 -82.035295539157232 17.107892262907626 0 0 0 0 20.490038055751938 -81.140192421051324 0 -81.140192421051324 17.042674390671891 0 0 0 0 22.223576631440309 -12.569801795102791 0 -12.569801795102791 15.21467736028265 0 0 0 0 -34.469381637216429 -115.46522706752512 0 -115.46522706752512 5.4957308746015769 0 0 0 0 -19.980960828743264 -88.673377414614151 0 -88.673377414614151 53.575202370375337 0 0 0 0 18.171791164553131 -58.315819534215819 0 -58.315819534215819 40.961771589505091 0 0 0 0 49.952330353396974 -65.342848550670169 0 -65.342848550670169 7.8716773959422426 0 0 0 0 25.20537271493356 -46.696994228853896 0 -46.696994228853896 56.922870731051269 0 0 0 0 7.6146321192500181 -57.619081449091027 0 -57.619081449091027 68.706415522512543 0 0 0 0 4.9835476564185228 -79.09956115706882 0 -79.09956115706882 32.534322191750107 0 0 0 0 22.723184171118191 -73.4523282625305 0 -73.4523282625305 28.347149625580641 0 0 0 0 21.007419795874739 -83.184125897758349 0 -83.184125897758349 39.662664369010599 0 0 0 0 23.535840866068611 -83.751612744308659 0 -83.751612744308659 39.745600086432205 0 0 0 0 33.49924317872501 -82.862277113541495 0 -82.862277113541495 38.469561974750832 0 0 0 0 14.962630978785455 -71.809359599476011 0 -71.809359599476011 37.858815520870849 0 0 0 0 53.220656380712171 -61.662223729492325 0 -61.662223729492325 36.363353847416874 0 0 0 0 28.524123893759679 -93.361811276799926 0 -93.361811276799926 21.723014728208454 0 0 0 0 19.126718508709018 -73.424515814096594 0 -73.424515814096594 34.830905551112664 0 0 0 0 21.465370416382996 -46.936918878056929 0 -46.936918878056929 1.0430659247220859 0 0 0 0 42.949999545209607 -51.318718032647183 0 -51.318718032647183 27.679353507732756 0 0 0 0 26.9948779817787 -92.357730223739054 0 -92.357730223739054 57.217940230417298 0 0 0 0 -22.678193795080006 -79.129645307348255 0 -79.129645307348255 43.464534838756663 0 0 0 0 -76.052587538455555 -110.076613519479 0 -110.076613519479 98.787696114188293 0 0 0 0 21.9285138908308 -72.695867281072424 0 -72.695867281072424 22.016359078444111 0 0 0 0 -5.6197206208016723 -82.545976075372892 0 -82.545976075372892 82.869910201057792 0 0 0 0 -25.337808495901129 -39.249153051597276 0 -39.249153051597276 -2.8746404227121189 0 0 0 0 -6.0451158620999195 -64.39573501542327 0 -64.39573501542327 -20.291681004804559 0 0 0 0 35.925896008147532 -63.133781464454245 0 -63.133781464454245 11.941279864205725 0 0 0 0 21.15681262376593 -57.248853859880953 0 -57.248853859880953 3.762307862983036 0 0 0 0 93.489428895991296 -131.28540764181525 0 -131.28540764181525 -10.253788037967752 0 0 0 0 16.597045983074537 -68.536802004948953 0 -68.536802004948953 23.616676188063458 0 0 0 0 -29.730039018679236 -70.326318592524331 0 -70.326318592524331 146.36756078380859 0 0 0 0 5.5949988779280133 -21.585425300038963 0 -21.585425300038963 -8.6646271326515887 0 0 0 0 25.375954912124143 -93.418483449604537 0 -93.418483449604537 73.74638279422652 0 0 0 0 10.449645947839599 -75.06622187425819 0 -75.06622187425819 43.387101383108529 0 0 0 0 31.307251560181612 -82.330580229565385 0 -82.330580229565385 54.933128176562604 0 0 0 0 39.282692690554541 -105.59478087922616 0 -105.59478087922616 69.442185209525633 0 0 0 0 25.359094279745477 -84.739415417563578 0 -84.739415417563578 34.554550104418013 0 0 0 0 -13.667896314895188 -60.660624610223749 0 -60.660624610223749 46.091940214289934 0 0 0 0 -5.6250538744061487 -82.713253018300747 0 -82.713253018300747 82.927313596552267 0 0 0 0 10.373596527557766 -78.694549340345475 0 -78.694549340345475 19.481957453564974 0 0 0 0 -23.354864013803308 -60.276298624270567 0 -60.276298624270567 12.35847597099928 0 0 0 0 9.2021652000985341 -65.442054881597869 0 -65.442054881597869 18.797812613840506 0 0 0 0 43.058937034045812 -81.497117906001222 0 -81.497117906001222 -7.9216515196712862 0 0 0 0 29.235146754508605 -83.048080629050673 0 -83.048080629050673 -4.8085237105624401 0 0 0 0 39.603202000973397 -89.275242752315535 0 -89.275242752315535 -19.750152881031681 0 0 0 0 74.35083329291956 -101.14197934549156 0 -101.14197934549156 -18.881121966967839 0 0 0 0 37.330262657618732 -74.608014267687395 0 -74.608014267687395 4.4685786684422055 0 0 0 0 17.752305122503458 -89.744322585676855 0 -89.744322585676855 -147.20467230890063 0 0 0 0 -32.963137501574238 -32.421973875203548 0 -32.421973875203548 -51.093092646613513 0 0 0 0 32.312812736447086 -59.208487695022995 0 -59.208487695022995 -42.831297630866175 0 0 0 0 14.389575342502212 -100.01304029853782 0 -100.01304029853782 -23.590808481843851 0 0 0 0 -130.83341862115049 -251.44064516477374 0 -251.44064516477374 -66.98078293272556 0 0 0 0 -25.030058102172916 -119.447414243612 0 -119.447414243612 96.271070955976029 0 0 0 0 -365.37229106915038 -451.06797857479614 0 -451.06797857479614 226.02209940425746 0 0 0 0 0.790135444013913 -4.0046361436750431 0 -4.0046361436750431 -1.2036367844419829 0 0 0 0 -228.4327140113237 -170.81542011170495 0 -170.81542011170495 707.4843578415348 0 0 0 0 140.42625999274605 -42.73199101303544 0 -42.73199101303544 184.7317932092069 0 0 0 0 32.148007716903521 -93.944411017735547 0 -93.944411017735547 180.82037709638826 0 0 0 0 24.001997172945266 -160.99778038212025 0 -160.99778038212025 20.622929737684899 0 0 0 0 92.19114720619109 -136.63612885627663 0 -136.63612885627663 56.128263645412517 0 0 0 0 -69.080502563156188 -88.476555161636497 0 -88.476555161636497 134.48288440462056 0 0 0 0 -24.971777479317097 -144.79860217124588 0 -144.79860217124588 192.09140105584083 0 0 0 0 -32.173237545284792 -127.71168591889 0 -127.71168591889 151.76782417882532 0 0 0 0 -2.0180697907798999 2.71109324870406 0 2.71109324870406 5.3185443132220769 0 0 0 0 -307.48577120375558 -77.080792814063898 0 -77.080792814063898 241.52038555358013 0 0 0 0 -152.56261128353071 -191.51937193687809 0 -191.51937193687809 361.81517061113846 0 0 0 0 -117.55050468456466 -252.59053907060297 0 -252.59053907060297 403.57277897314634 0 0 0 0 439.33527940115891 177.15521028824151 0 177.15521028824151 -176.0452198439416 0 0 0 0 12.570438252652508 -3.9018178326099076 0 -3.9018178326099076 -0.2647209147001881 0 0 0 0 -6.5359606043930398 -246.83147991906299 0 -246.83147991906299 253.53865401395888 0 0 0 0 -1.2899328356434125 -303.50398646890244 0 -303.50398646890244 287.06402862169489 0 0 0 0 147.37430349225178 -430.83820268578711 0 -430.83820268578711 394.19322173061437 0 0 0 0 142.82759878376964 -219.73358683904371 0 -219.73358683904371 225.55290828708166 0 0 0 0 388.06551797129941 -1241.1672565163371 0 -1241.1672565163371 -1463.1760653840465 0 0 0 0 580.08007629385975 -626.14296328239288 0 -626.14296328239288 253.35234634786229 0 0 0 0 809.87379116207012 19.772922620588361 0 19.772922620588361 -116.47583292634226 0 0 0 0 1351.9537123174523 147.85334714339479 0 147.85334714339479 -1755.2377288217249 0 0 0 0 230.60658575923298 110.08638962630357 0 110.08638962630357 135.46470806660363 0 0 0 0 2.860710503598284 2.4601663423660085 0 2.4601663423660085 0.95702024004136632 0 0 0 0 -17.673905232688412 240.98882929113825 0 240.98882929113825 66.459234265043051 0 0 0 0 -59.215906209263878 -49.709984428742324 0 -49.709984428742324 -39.940834747821611 0 0 0 0 381.84167786255421 -686.90229740780705 0 -686.90229740780705 -18.742841374725685 0 0 0 0 -294.68800467814435 86.225426618799247 0 86.225426618799247 134.04011053714203 0 0 0 0 440.21580359312793 184.67378248533532 0 184.67378248533532 -1092.0312029246052 0 0 0 0 13.565557772555621 -565.20831543691384 0 -565.20831543691384 -418.98916785555775 0 0 0 0 -1237.8041955648077 -967.38276418801252 0 -967.38276418801252 -91.628040235518711 0 0 0 0 -1482.2940994248274 32.331959409948468 0 32.331959409948468 163.98512978608778 0 0 0 0 -619.96594829822425 -250.3101367431118 0 -250.3101367431118 211.12108844278555 0 0 0 0 18.359337323692216 -373.46502342542829 0 -373.46502342542829 -9.3764431874878937 0 0 0 0 -795.39917576385778 78.481856453316141 0 78.481856453316141 139.44674703588134 0 0 0 0 -281.90045208303491 271.1349778511285 0 271.1349778511285 -123.39675287576392 0 0 0 0 149.12873112538364 -380.2465754849618 0 -380.2465754849618 -1260.9192160233706 0 0 0 0 -993.92737423537983 398.14220838042274 0 398.14220838042274 -145.95702258522942 0 0 0 0 -20.291708549248909 -8.0854934666350573 0 -8.0854934666350573 -4.5738846349649975 0 0 0 0 -2235.9642719674448 -598.775513478824 0 -598.775513478824 -1023.9503883783855 0 0 0 0 -150.60909260693006 -25.082299161462288 0 -25.082299161462288 559.59535855591821 0 0 0 0 -285.48358095154981 -212.8025539966693 0 -212.8025539966693 341.51614524862816 0 0 0 0 -176.09813071857934 -242.93840271414047 0 -242.93840271414047 98.359810965586803 0 0 0 0 80.754260612113285 -228.08961200033082 0 -228.08961200033082 -179.04626889179781 0 0 0 0 -181.06124647285469 -149.17799962464414 0 -149.17799962464414 299.12313796264061 0 0 0 0 -71.881214207940502 -126.06042944047294 0 -126.06042944047294 11.972947447145998 0 0 0 0 10.193269746141596 -95.731288875167593 0 -95.731288875167593 -76.289709311546176 0 0 0 0 -162.0845179331809 -161.58318239217624 0 -161.58318239217624 302.77111152416546 0 0 0 0 -54.75544171207099 -24.817730951446954 0 -24.817730951446954 -8.275025095557595 0 0 0 0 -14.523241458606208 -17.261679782044666 0 -17.261679782044666 385.19284066172713 0 0 0 0 -60.448585199195179 -52.430501392813483 0 -52.430501392813483 9.6506099433603936 0 0 0 0 -63.510628882402671 -101.91513033890442 0 -101.91513033890442 -68.60133399660117 0 0 0 0 -76.775080234830966 -109.30491346605413 0 -109.30491346605413 34.597142268899916 0 0 0 0 14.248921553067504 -42.27858554788321 0 -42.27858554788321 21.785309322101568 0 0 0 0 -51.495154887998069 -115.67008596668711 0 -115.67008596668711 -88.873598038888304 0 0 0 0 -31.301884637186959 52.853102267959912 0 52.853102267959912 413.61948239441699 0 0 0 0 -16.542359122264742 -14.024978045751453 0 -14.024978045751453 -3.8829825977796162 0 0 0 0 -93.155897971839295 -54.070782900780614 0 -54.070782900780614 -72.290335628174944 0 0 0 0 -214.15473899804056 -110.78231745968151 0 -110.78231745968151 -59.148493494911236 0 0 0 0 13.947611768684141 -9.4531902555130216 0 -9.4531902555130216 8.5548970553481354 0 0 0 0 805.60475049712113 -182.96451154103124 0 -182.96451154103124 -55.735189932762296 0 0 0 0 -312.91380832041614 197.8894647289635 0 197.8894647289635 1697.5838033456239 0 0 0 0 -32.679393533930124 488.74135762068545 0 488.74135762068545 1444.1605498275458 0 0 0 0 283.21950351695705 137.49951220872026 0 137.49951220872026 -67.482736429391025 0 0 0 0 -0.73754126600655923 0.069702858025664227 0 0.069702858025664227 2.1670786982593313 0 0 0 0 51.722067045993754 -12.457097697628342 0 -12.457097697628342 673.20200623242272 0 0 0 0 -28.159696248738328 -347.57035219419049 0 -347.57035219419049 1347.9094475659394 0 0 0 0 -41.963340089569101 -256.79056717446474 0 -256.79056717446474 2061.8978760515747 0 0 0 0 -152.36802769402857 -206.97610821048875 0 -206.97610821048875 417.5725406324018 0 0 0 0 -20.243967591231922 46.440009147547244 0 46.440009147547244 410.51336921038455 0 0 0 0 199.31580147409841 302.62174894963755 0 302.62174894963755 677.6293019632285 0 0 0 0 -281.52636330056703 -87.402275291424303 0 -87.402275291424303 997.02852635638919 0 0 0 0 54.562355540765566 -361.36285276692252 0 -361.36285276692252 -109.34571456247068 0 0 0 0 -547.27600338009506 -407.38172654437221 0 -407.38172654437221 579.45855454785487 0 0 0 0 42.978027457094868 -634.95110165936057 0 -634.95110165936057 687.67069270449997 0 0 0 0 235.55838633716121 -183.285919003245 0 -183.285919003245 221.6512934541679 0 0 0 0 131.6056649550228 -715.62647338691204 0 -715.62647338691204 -1004.6277860940481 0 0 0 0 -561.77766455436358 -104.82961557591989 0 -104.82961557591989 -208.46982194257907 0 0 0 0 -655.2660665100816 -855.18102854231165 0 -855.18102854231165 -99.202228479858604 0 0 0 0 -81.097252610139549 -644.35342747766299 0 -644.35342747766299 -791.62544882383736 0 0 0 0 -233.83356587265735 -491.87007358827759 0 -491.87007358827759 100.10137719386745 0 0 0 0 -231.46715779834631 -530.17949535807202 0 -530.17949535807202 -27.774890237160434 0 0 0 0 -298.16769972820111 -724.49785899276367 0 -724.49785899276367 -308.64199273466511 0 0 0 0 -139.18184166307037 -698.28536977650947 0 -698.28536977650947 -441.32958170112761 0 0 0 0 5.8625571260490688 -394.19357043970376 0 -394.19357043970376 -72.112385525077116 0 0 0 0 182.74229610885232 25.267134229674411 0 25.267134229674411 -413.16881796469534 0 0 0 0 -0.83849909330744765 -2.4849690939552715 0 -2.4849690939552715 -10.970593535729648 0 0 0 0 -70.494700518152968 -109.22948894511501 0 -109.22948894511501 14.173750018708233 0 0 0 0 51.997009827449801 -101.15251306737628 0 -101.15251306737628 8.4937554948992329 0 0 0 0 -20.718255538628796 -33.136124616777437 0 -33.136124616777437 -15.169942592231649 0 0 0 0 -19.046551848783565 -72.702356585626148 0 -72.702356585626148 29.60815441608429 0 0 0 0 -59.004650042770663 -75.265414274356772 0 -75.265414274356772 -79.550688455958152 0 0 0 0 -4.7235657616041635 -13.563543324010041 0 -13.563543324010041 -24.646757219091171 0 0 0 0 -2.9232507805063506 -8.1669398665355004 0 -8.1669398665355004 -5.9291848592443124 0 0 0 0 34.00641889245162 -90.314970050623742 0 -90.314970050623742 105.3769558330896 0 0 0 0 53.739170063061465 -100.31988470136457 0 -100.31988470136457 98.45206601004611 0 0 0 0 -45.568949109365349 -13.740282877257414 0 -13.740282877257414 86.195515204423828 0 0 0 0 -72.907956188806565 36.654664326972124 0 36.654664326972124 22.918708369557862 0 0 0 0 -4.6211925017693716 -4.5844423627230952 0 -4.5844423627230952 11.071744679582821 0 0 0 0 40.981648652144941 -85.585542314318445 0 -85.585542314318445 100.43581958178947 0 0 0 0 26.098901742552698 -145.35612371819479 0 -145.35612371819479 267.86441935765106 0 0 0 0 -3.8789325609173773 -5.7540174801406465 0 -5.7540174801406465 -1.8796283882184248 0 0 0 0 -132.64988841652485 -296.2664826561986 0 -296.2664826561986 -496.21382831296432 0 0 0 0 -43.173510789507418 -74.306958962457429 0 -74.306958962457429 -99.087679013646266 0 0 0 0 -803.07134782680805 -582.32494739977756 0 -582.32494739977756 -318.64129199728632 0 0 0 0 226.91625061150717 -364.61471033170255 0 -364.61471033170255 -732.06452240268845 0 0 0 0 -79.643941785754578 -550.79350424504082 0 -550.79350424504082 -667.66924252333047 0 0 0 0 -143.5391185170447 -503.43458463067873 0 -503.43458463067873 -683.73506032193836 0 0 0 0 86.383728521148441 -331.33932022424779 0 -331.33932022424779 -1456.6152785757113 0 0 0 0 -1.8142766400083872 -2.2613527465072352 0 -2.2613527465072352 -1.2799039384775419 0 0 0 0 52.977598150755512 -311.38092829991911 0 -311.38092829991911 -683.36975080919728 0 0 0 0 129.75855786044485 -90.034885369483163 0 -90.034885369483163 76.634458205851843 0 0 0 0 54.283177362776769 -447.02264044522963 0 -447.02264044522963 -187.69027588597964 0 0 0 0 -52.427277534850873 -265.26045188122953 0 -265.26045188122953 610.72279473305571 0 0 0 0 -16.785803099177429 48.615519149436295 0 48.615519149436295 -14.045451374597178 0 0 0 0 89.688997227938671 22.602785300659889 0 22.602785300659889 -31.249179316109803 0 0 0 0 -1.2191762805093731 0.41607034719683078 0 0.41607034719683078 0.5855191282203478 0 0 0 0 24.130126201023813 -113.01989222855264 0 -113.01989222855264 73.877145068525351 0 0 0 0 163.60807922157983 -330.46563524790145 0 -330.46563524790145 251.03134711243183 0 0 0 0 1.0967570241773501 -217.84837122362842 0 -217.84837122362842 325.69694094740225 0 0 0 0 -0.67939337431607782 1.58714157061587 0 1.58714157061587 -1.7811448243557422 0 0 0 0 -83.696781851467676 -97.854753023148078 0 -97.854753023148078 -181.0062452667953 0 0 0 0 -2.9988820973034649 -5.501206415582331 0 -5.501206415582331 -7.8459724858449817 0 0 0 0 -1.989572865118447 0.21906245039439654 0 0.21906245039439654 -1.9136427653430133 0 0 0 0 186.16128309897613 -241.45544294654246 0 -241.45544294654246 218.12477344821673 0 0 0 0 11.190302778268233 -6.761570115279028 0 -6.761570115279028 -24.236444261798169 0 0 0 0 27.954190911070327 72.561406193453877 0 72.561406193453877 -333.55318466873359 0 0 0 0 141.82550624995201 -389.88497285328413 0 -389.88497285328413 -1049.2696743106862 0 0 0 0 146.71049954707269 -582.40116849823244 0 -582.40116849823244 -1529.5539449085393 0 0 0 0 46.835790929369978 244.03372576427682 0 244.03372576427682 -1566.4880858214819 0 0 0 0 0.074990661727497354 -13.428182559364359 0 -13.428182559364359 -16.505964385680272 0 0 0 0 -2.8133754039594692 -1.9837979449069536 0 -1.9837979449069536 -2.6778384396478998 0 0 0 0 0.021342805273889098 -755.59344002928992 0 -755.59344002928992 -1002.0322209803526 0 0 0 0 -76.443367974366993 -467.62793250958566 0 -467.62793250958566 -944.55862433644688 0 0 0 0 166.83010386404931 -474.54791894096343 0 -474.54791894096343 -974.57432499913921 0 0 0 0 -110.15672727979108 -459.33030830610733 0 -459.33030830610733 -589.62228300470133 0 0 0 0 -87.532215531340626 -618.33869618899189 0 -618.33869618899189 -615.80354244913542 0 0 0 0 1074.5774075622976 -584.6596932811226 0 -584.6596932811226 -18.570691783179427 0 0 0 0 -0.36406337446533144 -844.34032909741109 0 -844.34032909741109 -81.182145878807205 0 0 0 0 0.081568897879087388 -8.4630262230415099 0 -8.4630262230415099 -3.7642246066967289 0 0 0 0 -142.28954708396486 -371.15824555995641 0 -371.15824555995641 -333.80008192470268 0 0 0 0 -141.86186755531526 -354.77099954796722 0 -354.77099954796722 -431.9233642650579 0 0 0 0 969.58691392978653 -333.59760455304786 0 -333.59760455304786 -431.52649797722984 0 0 0 0 -542.0136685634061 187.47927279031501 0 187.47927279031501 341.84083832658507 0 0 0 0 1306.1774099641189 405.19792956501624 0 405.19792956501624 323.33924847083836 0 0 0 0 1118.3938448396657 -1210.3712393261376 0 -1210.3712393261376 1092.6469611845459 0 0 0 0 -1277.2880117228924 -772.55509653191621 0 -772.55509653191621 -239.68926655596533 0 0 0 0 -3457.738863830542 -297.71837927779416 0 -297.71837927779416 941.18826946082845 0 0 0 0 -1225.7037514671683 79.890792185789905 0 79.890792185789905 -293.68542333573714 0 0 0 0 -569.13818792156235 -1383.7750694264032 0 -1383.7750694264032 -169.99241177909425 0 0 0 0 -877.24837530663353 -804.66750785947079 0 -804.66750785947079 1826.3834686246846 0 0 0 0 887.72883287342847 -1424.1025731702175 0 -1424.1025731702175 269.55197811815015 0 0 0 0 250.90569756266632 -634.2267007793962 0 -634.2267007793962 77.142081346362829 0 0 0 0 -659.01562418811955 -842.52431586039893 0 -842.52431586039893 178.64679914573935 0 0 0 0 -1279.2310311501642 -476.51998314182129 0 -476.51998314182129 141.6529850377774 0 0 0 0 -1427.4737283353734 -1396.1168206397274 0 -1396.1168206397274 338.82174529477925 0 0 0 0 3.3468038010195542 -17.786501806429783 0 -17.786501806429783 -22.956472703298459 0 0 0 0 0.70657208273041761 -366.37401651711662 0 -366.37401651711662 140.68227927294356 0 0 0 0 93.993916129831632 -412.94181679346184 0 -412.94181679346184 111.76394592832366 0 0 0 0 444.0547085358412 -220.49669027708342 0 -220.49669027708342 -51.586957520295982 0 0 0 0 -0.26121554482233478 -314.66487721672638 0 -314.66487721672638 12.795987137531483 0 0 0 0 3.9364635008225264 -0.67166640442640357 0 -0.67166640442640357 1.3344268371354804 0 0 0 0 -156.54590497068421 -361.5212534592938 0 -361.5212534592938 1952.4308749356405 0 0 0 0 44.914567652158439 -117.83286627968846 0 -117.83286627968846 1433.8178882229868 0 0 0 0 74.36877243505478 -206.74179878256837 0 -206.74179878256837 1008.1964042610161 0 0 0 0 0.14677895827480825 -240.7580315751029 0 -240.7580315751029 1378.9056711514786 0 0 0 0 186.99917702256062 -651.80208492514976 0 -651.80208492514976 1311.3842206086993 0 0 0 0 95.234389822042431 -102.78932600663029 0 -102.78932600663029 -147.16726589679763 0 0 0 0 -65.229361524514388 -464.61931297034062 0 -464.61931297034062 879.30383494783428 0 0 0 0 211.90369865148386 -397.18320032462361 0 -397.18320032462361 876.40443186133234 0 0 0 0 25.889288396763732 -502.18766950662211 0 -502.18766950662211 824.31427001913107 0 0 0 0 18.497710594485397 -510.38226079855303 0 -510.38226079855303 1259.7727337457527 0 0 0 0 93.528611735295272 -553.71191326603093 0 -553.71191326603093 859.77310311758993 0 0 0 0 78.545010085668764 -542.41221033886814 0 -542.41221033886814 570.80204334499649 0 0 0 0 82.135566554235993 -515.51545033048569 0 -515.51545033048569 671.28183295213421 0 0 0 0 158.43767049101007 -507.64055157112125 0 -507.64055157112125 583.40877626266229 0 0 0 0 162.18011130166997 -499.24117576529625 0 -499.24117576529625 559.25256782965516 0 0 0 0 360.59041382788564 -461.63055604946931 0 -461.63055604946931 556.52633569861609 0 0 0 0 12.471043184064911 -20.854403594366886 0 -20.854403594366886 15.628361035585783 0 0 0 0 131.86427541263402 -286.31184864819488 0 -286.31184864819488 436.97059262062976 0 0 0 0 2.5807022417681367 -10.338968468810592 0 -10.338968468810592 -4.0788681366226029 0 0 0 0 -8.8747782509994977 -15.24774126089801 0 -15.24774126089801 2.3503682953918172 0 0 0 0 13.664058963660068 -11.179528431081451 0 -11.179528431081451 -5.8085762778876093 0 0 0 0 101.17371639033081 -320.75294992765885 0 -320.75294992765885 785.41309469147564 0 0 0 0 12.396774030023494 -4.0543379749417738 0 -4.0543379749417738 -0.43048429125099419 0 0 0 0 42.475537846381485 -300.79596452898295 0 -300.79596452898295 818.34255888265034 0 0 0 0 -3.8712225329280159 -2.8573040766649243 0 -2.8573040766649243 2.3010795422920225 0 0 0 0 -26.572098309377907 -34.253392400440134 0 -34.253392400440134 10.315084662114316 0 0 0 0 40.11283289901985 -3.2593850923212813 0 -3.2593850923212813 -18.719975837160746 0 0 0 0 13.748613128787838 -33.626028656286508 0 -33.626028656286508 12.096989398002478 0 0 0 0 24.434789912709675 178.8674706559168 0 178.8674706559168 162.06422751355421 0 0 0 0 0.48596654578167886 -5.4780431526863254 0 -5.4780431526863254 0.30995171049873704 0 0 0 0 -59.427272774737503 3.6685490399768241 0 3.6685490399768241 346.30850902072416 0 0 0 0 45.366055336256977 -252.97263110505719 0 -252.97263110505719 223.13767172092048 0 0 0 0 287.71626996024861 -145.6718033463585 0 -145.6718033463585 122.16320754638946 0 0 0 0 237.99265472348634 -205.53920287793699 0 -205.53920287793699 547.37966728318133 0 0 0 0 172.48211725140573 -275.39238304793253 0 -275.39238304793253 39.408904220492332 0 0 0 0 157.47071654710453 -204.94856851198529 0 -204.94856851198529 600.48906124995483 0 0 0 0 306.45749823036749 -450.73530809106569 0 -450.73530809106569 867.30604398568539 0 0 0 0 -3.2153329117732312 -0.92689787004934487 0 -0.92689787004934487 1.8079832176762949 0 0 0 0 79.622519406097126 -289.17874866558668 0 -289.17874866558668 397.78666205038826 0 0 0 0 7.1355908368786913 -43.414442397986022 0 -43.414442397986022 23.806490081758056 0 0 0 0 9.7615187189512653 -13.966711631250291 0 -13.966711631250291 -67.748704640102005 0 0 0 0 -19.934742124612967 -9.4734015995650225 0 -9.4734015995650225 43.663480352348415 0 0 0 0 0.37177202082239091 -0.64509316762996605 0 -0.64509316762996605 111.62470550859871 0 0 0 0 42.903328450935078 11.779503937166737 0 11.779503937166737 15.077567892668412 0 0 0 0 299.57156718011538 -467.03022120374226 0 -467.03022120374226 497.17205307828408 0 0 0 0 -3.2525172118199634 0.46158654604752769 0 0.46158654604752769 1.427994600763121 0 0 0 0 -0.12565467978856759 -200.70131464538827 0 -200.70131464538827 164.92865958365292 0 0 0 0 130.25015283671019 -300.61098465489704 0 -300.61098465489704 324.43686669335875 0 0 0 0 -3.5042780860593723 -1.8162035209421461 0 -1.8162035209421461 2.8699623438174626 0 0 0 0 -29.348156692482007 -230.88386590133268 0 -230.88386590133268 383.53307406603562 0 0 0 0 169.21974144518026 -192.0903808624862 0 -192.0903808624862 221.99133054324102 0 0 0 0 67.759055291680852 -120.88917496077102 0 -120.88917496077102 242.38012406625421 0 0 0 0 0.23415458735689754 -109.72732125135371 0 -109.72732125135371 191.9193294905017 0 0 0 0 288.59816577752645 -265.51054641363407 0 -265.51054641363407 268.61563690195987 0 0 0 0 269.75133581913542 -261.68869555509264 0 -261.68869555509264 268.40722761222116 0 0 0 0 311.62170388872619 -271.14632654542947 0 -271.14632654542947 219.76195474914857 0 0 0 0 288.20533564503421 -359.48115056486859 0 -359.48115056486859 252.12504895064194 0 0 0 0 -2.7210364790932431 -1.1979921747064424 0 -1.1979921747064424 2.7844154457513071 0 0 0 0 45.959101849730359 -11.279620758761666 0 -11.279620758761666 -19.009861803024251 0 0 0 0 4.525305762039352 -23.332986316839197 0 -23.332986316839197 -0.15069327473611338 0 0 0 0 -2.2583380648011371 21.41254144805589 0 21.41254144805589 -39.632010324014118 0 0 0 0 -4.8637080386055231 -9.1774275125250711 0 -9.1774275125250711 -13.201024172240025 0 0 0 0 9.0956996524546412 -28.921131211533066 0 -28.921131211533066 -25.982381177409479 0 0 0 0 285.09570185478515 -278.7411781983028 0 -278.7411781983028 273.17671246981627 0 0 0 0 266.12477991363266 -274.81579598575445 0 -274.81579598575445 272.89754308468059 0 0 0 0 21.703633195378643 -18.576732024836019 0 -18.576732024836019 -4.6091865154012339 0 0 0 0 262.57772831777402 -400.18652890385056 0 -400.18652890385056 314.28881689241098 0 0 0 0 -5.9264856353105984 -12.140453519631969 0 -12.140453519631969 -19.59642046538886 0 0 0 0 299.19436613974722 -283.0680492104666 0 -283.0680492104666 197.0849817917624 0 0 0 0 72.998475544925896 -149.66926080702615 0 -149.66926080702615 286.41296607901131 0 0 0 0 -2.2523687751252623 -1.1838601447817609 0 -1.1838601447817609 2.1837017526724196 0 0 0 0 435.51179187410162 -412.94796929291715 0 -412.94796929291715 257.75319507226595 0 0 0 0 438.11656456960191 -363.29827678254696 0 -363.29827678254696 255.26571986285489 0 0 0 0 -2.0335958463620045 -442.90434037336718 0 -442.90434037336718 393.38086970963923 0 0 0 0 298.5311142673163 -371.85383786595048 0 -371.85383786595048 287.49906445051602 0 0 0 0 -7.371711862898735 -18.200084078319108 0 -18.200084078319108 -18.526140779466999 0 0 0 0 438.31227634199468 -362.10080253360968 0 -362.10080253360968 197.69558694836815 0 0 0 0 1021.7730116181192 -476.90214264235692 0 -476.90214264235692 127.17228428438648 0 0 0 0 0.87935776626804341 -2.7382909186196684 0 -2.7382909186196684 -0.93147733042455627 0 0 0 0 -203.36261037627992 88.093540094278978 0 88.093540094278978 89.73292979071266 0 0 0 0 -4.4103862371730997 -23.520192760366001 0 -23.520192760366001 38.436584600319378 0 0 0 0 -105.91691388237814 -21.40628784666842 0 -21.40628784666842 42.740209685966761 0 0 0 0 2.4761496116843773 -56.815691288682501 0 -56.815691288682501 -38.216158895153058 0 0 0 0 -31.768370810881606 -63.968109926325269 0 -63.968109926325269 -27.282663023634086 0 0 0 0 -0.82860192428779555 -43.665199398918048 0 -43.665199398918048 -6.1022078911446442 0 0 0 0 16.791232351912186 -21.233624719357977 0 -21.233624719357977 0.47360260875575477 0 0 0 0 26.93873088593682 -31.489034791988161 0 -31.489034791988161 -27.792464913156437 0 0 0 0 -17.158276251881034 -30.146076466357044 0 -30.146076466357044 56.027484333489156 0 0 0 0 32.511443720453826 -37.550702015520983 0 -37.550702015520983 -41.768790889189404 0 0 0 0 7.8686388380883727 -73.525318541869638 0 -73.525318541869638 105.38183556690547 0 0 0 0 16.497522398785804 -57.383083199909379 0 -57.383083199909379 50.312967557925731 0 0 0 0 70.64769827281998 -64.759297882896135 0 -64.759297882896135 16.027562575945922 0 0 0 0 -54.03365000764461 -18.557692630432939 0 -18.557692630432939 -11.799055125266023 0 0 0 0 1.0220450297157129 1.4069686379628621 0 1.4069686379628621 1.4488053484524528 0 0 0 0 308.61942502397142 -303.73917213928507 0 -303.73917213928507 74.093965173400647 0 0 0 0 155.06235206907149 -102.66526367532788 0 -102.66526367532788 98.365708789195082 0 0 0 0 -23.014116748832748 -123.11923631022728 0 -123.11923631022728 180.8679113629114 0 0 0 0 -72.897531420268933 13.404486771767552 0 13.404486771767552 53.930529798013595 0 0 0 0 2.6519003809626156 -24.361652690855408 0 -24.361652690855408 -115.25411002941837 0 0 0 0 12.159064409478162 -35.196077252060363 0 -35.196077252060363 49.849105984378909 0 0 0 0 136.59272923093522 -432.51937655921574 0 -432.51937655921574 39.754400804129546 0 0 0 0 -143.81802067527315 -252.93994150394064 0 -252.93994150394064 295.39482635859895 0 0 0 0 -30.906837287126109 -171.23816484872077 0 -171.23816484872077 -95.38446920175619 0 0 0 0 -59.564437026907399 -50.379201967178233 0 -50.379201967178233 -21.239323830479407 0 0 0 0 -0.18648469435720472 -52.077715279823678 0 -52.077715279823678 -101.8777811195323 0 0 0 0 56.00483714636357 -290.25395698367538 0 -290.25395698367538 -64.474343562751528 0 0 0 0 -19.658122798078693 -124.68781976305877 0 -124.68781976305877 -126.44869734378881 0 0 0 0 3.9718880121176028 -30.625254730207331 0 -30.625254730207331 47.149095319808438 0 0 0 0 -217.11986720295681 66.649811459577904 0 66.649811459577904 374.88605303154691 0 0 0 0 94.964108469509483 45.34324097615729 0 45.34324097615729 173.30294573459105 0 0 0 0 -56.158991785225226 21.780983155924332 0 21.780983155924332 551.67181352817352 0 0 0 0 3.9056177949946402 -0.60695841284045571 0 -0.60695841284045571 0.036356678112205998 0 0 0 0 33.97030440994422 -94.311689228263276 0 -94.311689228263276 150.42336618149784 0 0 0 0 62.499607209604619 -295.73225676281095 0 -295.73225676281095 409.04732092369522 0 0 0 0 91.280909892377167 -150.57242864649015 0 -150.57242864649015 -11.688772073652217 0 0 0 0 70.577860892093668 -103.89512996066969 0 -103.89512996066969 67.738518650996411 0 0 0 0 -1.7596016030234978 -29.714020110471488 0 -29.714020110471488 19.902915749532582 0 0 0 0 -655.03544011748454 500.32182999789802 0 500.32182999789802 81.581385343229385 0 0 0 0 807.58548027960933 -736.38363628913248 0 -736.38363628913248 24.072165646975918 0 0 0 0 39.572302072614548 -577.07574420778019 0 -577.07574420778019 1167.0451848554821 0 0 0 0 -2.9164963989498176 -2.3187930009716382 0 -2.3187930009716382 -4.3888494522753803 0 0 0 0 140.58720876304869 -311.28958740347753 0 -311.28958740347753 -210.83254134644812 0 0 0 0 -41.684942138308543 -219.2869816684215 0 -219.2869816684215 42.104032577311955 0 0 0 0 -172.69614856659609 332.15738671455983 0 332.15738671455983 -131.05446042638869 0 0 0 0 -428.69721984166245 79.36088014811321 0 79.36088014811321 180.5307288164804 0 0 0 0 15.426197264154325 125.14484520749829 0 125.14484520749829 95.969098491886143 0 0 0 0 1.3692609972411844 2.4782691185811672 0 2.4782691185811672 14.635373877032023 0 0 0 0 62.263405729798251 -13.248526446790493 0 -13.248526446790493 41.674983205174613 0 0 0 0 896.30363601911813 -646.50330238917377 0 -646.50330238917377 614.65648170605709 0 0 0 0 694.46262887402554 -87.010041896188341 0 -87.010041896188341 539.70588411647623 0 0 0 0 189.53041859908262 -353.45937756881904 0 -353.45937756881904 726.84198789526272 0 0 0 0 236.56651451025391 -593.77528798682397 0 -593.77528798682397 1211.0569274374357 0 0 0 0 363.7304578035255 -378.36406621239803 0 -378.36406621239803 480.56757163159637 0 0 0 0 388.61646841955371 -563.22866082917244 0 -563.22866082917244 642.04183739957625 0 0 0 0 540.61546628782526 -350.97466081915809 0 -350.97466081915809 353.10077730344346 0 0 0 0 268.84223639429547 4.9677879631890391 0 4.9677879631890391 103.65349184430488 0 0 0 0 99.392356474476401 -175.46738928491686 0 -175.46738928491686 322.94902912780799 0 0 0 0 186.76101113007462 -385.88555053281743 0 -385.88555053281743 685.2864198893003 0 0 0 0 357.19592961492162 -300.04301942227903 0 -300.04301942227903 181.52538834523148 0 0 0 0 2.7458807665743166 1.1589973784557372 0 1.1589973784557372 1.6417029507167697 0 0 0 0 566.44988496115548 -925.71864430371716 0 -925.71864430371716 870.35043743935239 0 0 0 0 455.46035861826385 -489.99783067972385 0 -489.99783067972385 533.75435997353634 0 0 0 0 38.726572075684089 -55.255988771456032 0 -55.255988771456032 420.20313944407644 0 0 0 0 61.719269460343639 -447.9508683267577 0 -447.9508683267577 875.3591649203438 0 0 0 0 -47.230332869428821 -90.897945364667066 0 -90.897945364667066 39.998247647909011 0 0 0 0 138.91917856829969 44.812575134671533 0 44.812575134671533 -196.5896711932055 0 0 0 0 32.117434933005683 -4.3545397116402498 0 -4.3545397116402498 -1.7605454770480078 0 0 0 0 65.338713321601972 -46.298085453470776 0 -46.298085453470776 -78.362113180285519 0 0 0 0 258.71707637303189 -223.97613892955178 0 -223.97613892955178 -121.75592400382084 0 0 0 0 -12.771591945186344 -10.609060286271244 0 -10.609060286271244 -1.6446356972744951 0 0 0 0 365.91263080220756 -572.94672084740876 0 -572.94672084740876 578.74239993041556 0 0 0 0 -2.6357186996061728 -4.1329687021612074 0 -4.1329687021612074 -0.23771377376135661 0 0 0 0 35.517541091205203 -44.95591035121106 0 -44.95591035121106 -12.237130813242402 0 0 0 0 51.076545125368284 -70.429218425213548 0 -70.429218425213548 39.767045896560973 0 0 0 0 -4.2426327710921612 0.39515941888283379 0 0.39515941888283379 2.2514798889743943 0 0 0 0 -85.618294050495024 -52.06679543842256 0 -52.06679543842256 95.189652976744128 0 0 0 0 -36.760877371183597 -9.7824918814749253 0 -9.7824918814749253 82.759299148157879 0 0 0 0 14.576606297196122 -425.63072583600479 0 -425.63072583600479 -20.083115724755771 0 0 0 0 -100.62898807675811 -71.666992377900897 0 -71.666992377900897 77.578342884344238 0 0 0 0 -56.230222332349513 -42.049823740818283 0 -42.049823740818283 38.25706514580088 0 0 0 0 341.80160995130427 -308.10359147459349 0 -308.10359147459349 -96.949696517003758 0 0 0 0 -15.379057996273332 -294.35197801579034 0 -294.35197801579034 87.933567754644173 0 0 0 0 326.02986626068196 -244.31502610718144 0 -244.31502610718144 -33.769205677781429 0 0 0 0 -455.72133345346447 -37.734693333813993 0 -37.734693333813993 1222.6325241869927 0 0 0 0 354.18419801285199 -699.82870080060093 0 -699.82870080060093 371.65904033622792 0 0 0 0 -295.98594112413411 316.45412280899291 0 316.45412280899291 -172.67985065887842 0 0 0 0 -90.679285314748995 -336.65649634901092 0 -336.65649634901092 417.29421544911474 0 0 0 0 600.61054253415205 -411.01851110998359 0 -411.01851110998359 -67.741100196839398 0 0 0 0 338.07255993410945 -107.79005834425698 0 -107.79005834425698 -84.82642260126886 0 0 0 0 12.057707278612725 -0.10896003607076921 0 -0.10896003607076921 0.830107910112035 0 0 0 0 -13.082866540527903 -109.26543085489561 0 -109.26543085489561 61.113769652288056 0 0 0 0 -9.8808371979357617 -78.453187385354568 0 -78.453187385354568 2.6718657724413788 0 0 0 0 -4.5779714465105528 -39.966470563816571 0 -39.966470563816571 124.36911734192725 0 0 0 0 -219.66663570309174 -442.71064188339005 0 -442.71064188339005 593.40340455142359 0 0 0 0 -40.114159897684061 -68.047863002672713 0 -68.047863002672713 -23.579827780127985 0 0 0 0 234.45743913298793 196.3379567525817 0 196.3379567525817 313.25307033520767 0 0 0 0 -937.16270930043538 576.70826771488646 0 576.70826771488646 448.41970165349085 0 0 0 0 318.38950456920065 -890.22261458340404 0 -890.22261458340404 -774.60096643857105 0 0 0 0 -1163.197253322709 -502.10773127888751 0 -502.10773127888751 625.9721069958548 0 0 0 0 573.18298025926924 -333.57609890761432 0 -333.57609890761432 -724.43436521205604 0 0 0 0 -27.534311101894872 -30.906603777434427 0 -30.906603777434427 -37.081112126426945 0 0 0 0 17.668299777040374 -117.18901541458251 0 -117.18901541458251 41.100717994930847 0 0 0 0 27.332837974150607 -19.206536449113855 0 -19.206536449113855 -159.83700443228122 0 0 0 0 -209.78094486946793 14.972197510002729 0 14.972197510002729 45.581992579302778 0 0 0 0 -58.41597629050375 -60.750933485766268 0 -60.750933485766268 99.115871196302578 0 0 0 0 -45.371324077610552 -49.774538576912505 0 -49.774538576912505 48.479398020842837 0 0 0 0 -42.431305790705665 -75.230791623892401 0 -75.230791623892401 88.705066181741131 0 0 0 0 -77.42878167589879 -61.642213032708241 0 -61.642213032708241 110.4975902006554 0 0 0 0 -90.394585793585065 -134.73325052920666 0 -134.73325052920666 200.97514777922697 0 0 0 0 -52.299887318171386 -67.15763268041519 0 -67.15763268041519 88.100158519997422 0 0 0 0 -52.66797774265433 -102.16047433737822 0 -102.16047433737822 167.72070373862607 0 0 0 0 -11.29736954094551 -136.17293080937361 0 -136.17293080937361 135.60968404423875 0 0 0 0 -0.52055351013768814 -139.05731447154744 0 -139.05731447154744 132.04013442793803 0 0 0 0 -5.8470197536025807 -146.18627532159098 0 -146.18627532159098 152.79844086799676 0 0 0 0 -44.217869161482668 -95.169304296149676 0 -95.169304296149676 129.5526939875117 0 0 0 0 -8.0305390420107869 -107.29259056663341 0 -107.29259056663341 102.73547991691794 0 0 0 0 -45.409048632602207 -95.845088461109299 0 -95.845088461109299 114.66528094408932 0 0 0 0 -43.068820697344563 -75.856044126182567 0 -75.856044126182567 91.295064101310345 0 0 0 0 -71.481026525285415 -90.217834786083586 0 -90.217834786083586 97.337355355682575 0 0 0 0 -48.595981217691588 -77.903767229202685 0 -77.903767229202685 92.19209769900408 0 0 0 0 -48.734016908671265 -75.807457629825308 0 -75.807457629825308 81.981109560783807 0 0 0 0 -7.8710652047739131 -142.53129954697215 0 -142.53129954697215 121.29407180662383 0 0 0 0 -73.685816546618298 -98.141764984903602 0 -98.141764984903602 62.259487589239143 0 0 0 0 6.3273156332760081 -68.973856660800891 0 -68.973856660800891 94.428490464931031 0 0 0 0 20.191678435854232 -58.656107169626125 0 -58.656107169626125 95.238137327787427 0 0 0 0 -137.1881376156598 -119.95427939411184 0 -119.95427939411184 110.40341287690444 0 0 0 0 21.670112173454982 52.894229972389439 0 52.894229972389439 166.2237652533986 0 0 0 0 34.081087575305617 -188.69241327941663 0 -188.69241327941663 129.60112830448634 0 0 0 0 -52.645346779259853 -76.585946377638265 0 -76.585946377638265 96.17910493175259 0 0 0 0 -37.438662484717497 -102.1144657543673 0 -102.1144657543673 92.749272534847478 0 0 0 0 -37.495948340462746 -102.86966412420918 0 -102.86966412420918 116.72977074645132 0 0 0 0 23.560430157533641 -66.397723186112586 0 -66.397723186112586 87.728189451591717 0 0 0 0 -21.14417188637708 -100.42546086627908 0 -100.42546086627908 74.50262665120681 0 0 0 0 -16.471699759633339 -131.63195695560171 0 -131.63195695560171 29.880045574287578 0 0 0 0 -7.2017409758116457 -18.858451125174085 0 -18.858451125174085 18.619627524046138 0 0 0 0 -156.58205967821414 -31.012861520000115 0 -31.012861520000115 158.65102887653302 0 0 0 0 -27.800251090666279 -22.603895887448743 0 -22.603895887448743 50.27857643252355 0 0 0 0 -68.447519217559602 -53.40955072003635 0 -53.40955072003635 -15.458837528289223 0 0 0 0 75.615639525211009 -89.185800674413258 0 -89.185800674413258 -34.756152414377539 0 0 0 0 26.561094021283893 -60.672831524239292 0 -60.672831524239292 52.110893440520627 0 0 0 0 -2.0698321577592651 -89.341996916111611 0 -89.341996916111611 -25.469387499017103 0 0 0 0 25.488910607094589 -47.762421512538893 0 -47.762421512538893 -1.9418258001856472 0 0 0 0 -120.44009708154772 -272.22685077205279 0 -272.22685077205279 37.460910153389705 0 0 0 0 28.355470698585279 -48.680480105256407 0 -48.680480105256407 -6.7094085384127311 0 0 0 0 3.9380089272137866 -42.464042098092648 0 -42.464042098092648 56.067973187068972 0 0 0 0 60.436086130672265 -87.717983551713587 0 -87.717983551713587 0.019169161929312395 0 0 0 0 -14.878707307283548 -132.57383686853427 0 -132.57383686853427 -48.917439192900929 0 0 0 0 -118.43809281388531 -127.90563702593863 0 -127.90563702593863 28.482047902547492 0 0 0 0 -204.44404043248505 -22.508778753606748 0 -22.508778753606748 26.430354035077471 0 0 0 0 -96.495223749923753 60.941792617300962 0 60.941792617300962 -160.41702270952374 0 0 0 0 5.9651629191964428 -55.163459347895099 0 -55.163459347895099 -14.949590682159169 0 0 0 0 15.745017347246403 -77.325625568570246 0 -77.325625568570246 8.6336375574319391 0 0 0 0 26.386681674342526 -82.082910390692746 0 -82.082910390692746 -47.37378675857326 0 0 0 0 -40.333609711668416 -46.954293298827793 0 -46.954293298827793 -9.4384692866215829 0 0 0 0 -112.4286632471194 -26.252059509803075 0 -26.252059509803075 42.06720989542373 0 0 0 0 30.126211177841469 -101.03475722720486 0 -101.03475722720486 -13.317738215551799 0 0 0 0 26.932407014573982 -68.035173432018382 0 -68.035173432018382 -11.310477313383672 0 0 0 0 -515.2480243495811 90.233695844907743 0 90.233695844907743 506.76669473642323 0 0 0 0 140.84796618815744 -162.17188260414332 0 -162.17188260414332 160.9501857572393 0 0 0 0 3.2377118467727115 -4.682651328999043 0 -4.682651328999043 -6.5227610229396786 0 0 0 0 -37.329131203987345 -104.37423492820562 0 -104.37423492820562 -217.99385840045215 0 0 0 0 38.380414774169097 -60.941761522612779 0 -60.941761522612779 28.292308555147802 0 0 0 0 425.48640110334964 -92.126899957911519 0 -92.126899957911519 -450.06210001933505 0 0 0 0 4.9986449321295368 -54.413570316058482 0 -54.413570316058482 -9.7579247028807004 0 0 0 0 10.449864141446763 -39.516929713660709 0 -39.516929713660709 -52.300191367937416 0 0 0 0 194.94464380425779 -170.26210399679485 0 -170.26210399679485 108.93266767561363 0 0 0 0 -1.2686147619244448 -2.4667898845873921 0 -2.4667898845873921 -0.35866612286034183 0 0 0 0 -184.92524875073764 -171.89466482338287 0 -171.89466482338287 169.94656765831314 0 0 0 0 106.59689955796057 -145.67062544584223 0 -145.67062544584223 127.62553365846361 0 0 0 0 131.12816577327158 -209.31240488771891 0 -209.31240488771891 105.9293044300357 0 0 0 0 143.67686781578595 -150.68583936917139 0 -150.68583936917139 97.872987597089377 0 0 0 0 83.002226929398603 -157.6281290286006 0 -157.6281290286006 102.98060826376786 0 0 0 0 107.32041708241013 -169.38977452207109 0 -169.38977452207109 96.2261665262522 0 0 0 0 61.581585617313976 -206.23763106093247 0 -206.23763106093247 113.52979336463613 0 0 0 0 -69.72809610877448 -138.69815814806225 0 -138.69815814806225 105.03348011706657 0 0 0 0 165.42745426495094 -170.61644281248846 0 -170.61644281248846 124.79790907686765 0 0 0 0 211.10807983725681 -53.19723735261141 0 -53.19723735261141 116.15793995045897 0 0 0 0 26.967733233861509 -62.271893413306316 0 -62.271893413306316 118.73894273724727 0 0 0 0 14.440496730829182 -117.27526317775664 0 -117.27526317775664 110.45858537157255 0 0 0 0 141.10166026090883 -121.47573594562255 0 -121.47573594562255 92.01487186254235 0 0 0 0 101.57415138145734 -135.69798095543774 0 -135.69798095543774 94.482668910313805 0 0 0 0 41.25917998218938 -97.705417487257364 0 -97.705417487257364 95.842642335195706 0 0 0 0 1.0634618206313462 -92.414468659523664 0 -92.414468659523664 98.655014747372206 0 0 0 0 24.749054459116451 -128.46932391289511 0 -128.46932391289511 101.03758342324727 0 0 0 0 31.257658341208298 -111.72805780571161 0 -111.72805780571161 95.195507723286937 0 0 0 0 -13.383845853257299 -113.48748890270144 0 -113.48748890270144 116.64655294687327 0 0 0 0 -20.050698039638519 -91.184265774432788 0 -91.184265774432788 97.277725047000786 0 0 0 0 39.369525696208257 -183.75841438818134 0 -183.75841438818134 121.72765062912367 0 0 0 0 7.6106667306521558 -196.06887271877167 0 -196.06887271877167 118.41683768250368 0 0 0 0 40.51353236506111 -171.84988654018889 0 -171.84988654018889 96.94235586533523 0 0 0 0 54.838923761217302 -157.79436251378638 0 -157.79436251378638 110.34631275747233 0 0 0 0 6.3288833820988657 -146.48388611726477 0 -146.48388611726477 108.50489881334397 0 0 0 0 17.046874468188435 -176.58094667541081 0 -176.58094667541081 163.6756603021804 0 0 0 0 25.350112251660903 -208.67582808119732 0 -208.67582808119732 131.33508625807553 0 0 0 0 30.516657047466651 -154.7280286297871 0 -154.7280286297871 83.813706680813993 0 0 0 0 38.166892784975062 -170.94022861187568 0 -170.94022861187568 66.988585064133076 0 0 0 0 49.326951400591497 -196.70302892622658 0 -196.70302892622658 101.19743004201882 0 0 0 0 -14.609492656360089 -56.109475690181853 0 -56.109475690181853 -19.573314984815397 0 0 0 0 304.35911491935985 -272.43423081856349 0 -272.43423081856349 119.28273104948039 0 0 0 0 35.965217369519948 -58.125634523202969 0 -58.125634523202969 -48.719703872236096 0 0 0 0 35.919920074359396 -50.892648420706138 0 -50.892648420706138 -61.944933123489591 0 0 0 0 18.988527766239713 -37.126613734110833 0 -37.126613734110833 -58.821793899010231 0 0 0 0 35.450234196378005 -151.41064206971714 0 -151.41064206971714 70.910549405938582 0 0 0 0 35.689228688916046 -171.2563443164463 0 -171.2563443164463 76.152850881958329 0 0 0 0 -14.743478831750007 -29.920784356315124 0 -29.920784356315124 -35.576262660929601 0 0 0 0 -84.798352492362028 -227.01681048272803 0 -227.01681048272803 51.072343206554251 0 0 0 0 -8.5134016020050254 -14.217575897971827 0 -14.217575897971827 -11.591897350332829 0 0 0 0 -99.236270063373013 -13.355407521328743 0 -13.355407521328743 -77.231881986343069 0 0 0 0 -5.1316778936235607 -32.761029981888321 0 -32.761029981888321 -25.806140345500889 0 0 0 0 -159.13878667918289 -276.79961601608193 0 -276.79961601608193 57.206609606364509 0 0 0 0 -1089.7024363487799 -39.423341764975703 0 -39.423341764975703 31.258919250498366 0 0 0 0 10.240854719711933 -55.458011697178335 0 -55.458011697178335 -13.949426156496088 0 0 0 0 -5.2536263877830294 -39.423649701754371 0 -39.423649701754371 -29.08613303631369 0 0 0 0 -116.58439727776931 -35.186414893658366 0 -35.186414893658366 -53.746299080303288 0 0 0 0 12.032259557403449 -46.174580866425458 0 -46.174580866425458 -0.26970766517479206 0 0 0 0 10.825464901288797 -53.977326797128626 0 -53.977326797128626 -11.835191363887134 0 0 0 0 -787.7993953950936 -46.742303213102787 0 -46.742303213102787 -411.8196199980739 0 0 0 0 -860.13345018267864 16.309095832731145 0 16.309095832731145 -176.67184374406497 0 0 0 0 -625.20369669458159 3.9463056382819559 0 3.9463056382819559 -521.41663105734278 0 0 0 0 2.9130958193171779 -11.321634952070841 0 -11.321634952070841 -3.6312988987875441 0 0 0 0 28.923482259044249 -52.548095246754883 0 -52.548095246754883 -35.631625325876939 0 0 0 0 14.204738828339032 -43.608658592037614 0 -43.608658592037614 -28.342187731585796 0 0 0 0 134.87934962385043 408.30593998175573 0 408.30593998175573 -750.42367285974865 0 0 0 0 0.0067437370926199947 -29.937740924363311 0 -29.937740924363311 -40.635880060867294 0 0 0 0 1040.2419588738794 974.65031094526898 0 974.65031094526898 -484.15833942391691 0 0 0 0 84.168214788827754 766.89349246062557 0 766.89349246062557 325.65705496533519 0 0 0 0 12.970099626632873 250.71778226070637 0 250.71778226070637 208.97305930247603 0 0 0 0 -405.03635520751413 119.46609941218594 0 119.46609941218594 -539.36515773975293 0 0 0 0 10.416178957261764 438.20789539905184 0 438.20789539905184 -308.42895944768316 0 0 0 0 -619.88626257743454 198.46658515421132 0 198.46658515421132 55.615734794302625 0 0 0 0 -612.01125501156639 174.25891477400364 0 174.25891477400364 -76.128161570135489 0 0 0 0 -1158.8634855312957 152.08265115878112 0 152.08265115878112 302.08794313027465 0 0 0 0 -1028.9405941219811 485.16258400765309 0 485.16258400765309 288.6681049124636 0 0 0 0 -148.42002271050296 366.00484645736651 0 366.00484645736651 0.17964451501029544 0 0 0 0 227.72525147199485 289.46415546240587 0 289.46415546240587 -14.276951159632517 0 0 0 0 -149.00120041593118 373.60404551802907 0 373.60404551802907 119.34455703537606 0 0 0 0 113.2496281309941 385.72220503742665 0 385.72220503742665 -85.261769881206419 0 0 0 0 125.4575856264637 242.43155219537584 0 242.43155219537584 -45.15006148180737 0 0 0 0 1122.038310312968 866.28475431600782 0 866.28475431600782 69.893412682800772 0 0 0 0 -207.35605025549285 891.95286874970498 0 891.95286874970498 113.86749304433761 0 0 0 0 4.2424893704280286 -32.604312009634157 0 -32.604312009634157 36.199066235705601 0 0 0 0 62.156873592779448 -180.14747731727766 0 -180.14747731727766 -435.09096075291609 0 0 0 0 -144.65676290803822 -320.07589747018756 0 -320.07589747018756 -47.976139828169835 0 0 0 0 -109.71763509366792 221.86751941063812 0 221.86751941063812 -396.81316487818549 0 0 0 0 74.186882856265584 -113.27607209274356 0 -113.27607209274356 -63.405602187616751 0 0 0 0 12.845901206997951 -121.10677437976483 0 -121.10677437976483 -77.170595719908306 0 0 0 0 95.603665466675011 -88.436910097516375 0 -88.436910097516375 -191.17551191508392 0 0 0 0 171.04760870587779 -172.85297814672958 0 -172.85297814672958 -148.46673570702842 0 0 0 0 93.38658889727958 -138.03411777123983 0 -138.03411777123983 -81.106424120836891 0 0 0 0 32.458905406907434 -178.77859771787189 0 -178.77859771787189 230.09965096521773 0 0 0 0 214.14489878292807 -55.450496302716601 0 -55.450496302716601 -68.438545101089403 0 0 0 0 265.94854469375241 -291.16308694965664 0 -291.16308694965664 49.527528210033779 0 0 0 0 79.583012730353403 -231.16524772818047 0 -231.16524772818047 97.803443314202013 0 0 0 0 -27.913045366905862 -39.148946115354192 0 -39.148946115354192 -65.671767359985097 0 0 0 0 -8.9260870983532108 -5.5104180048941771 0 -5.5104180048941771 7.3274020787767711 0 0 0 0 -4.2006644365052708 -6.7067422246113111 0 -6.7067422246113111 -5.8264206666833402 0 0 0 0 115.11190643522423 317.05151713166651 0 317.05151713166651 -856.33829788891217 0 0 0 0 -740.63022494630059 171.76934760494419 0 171.76934760494419 -30.899759075900874 0 0 0 0 -158.47213814065617 -81.693421501269768 0 -81.693421501269768 79.237928696985819 0 0 0 0 317.37749607956357 174.01374248878074 0 174.01374248878074 191.66826320737073 0 0 0 0 -280.73669783389505 298.0774561564665 0 298.0774561564665 181.52209463768486 0 0 0 0 1044.2812544125118 -581.1450392609795 0 -581.1450392609795 -1276.502982296869 0 0 0 0 498.33457225740858 -301.1659757671232 0 -301.1659757671232 -394.15858972137175 0 0 0 0 224.62489332868427 195.46876312840868 0 195.46876312840868 1106.0234715300912 0 0 0 0 1898.5542872471733 -1067.816614665192 0 -1067.816614665192 -404.05022715902032 0 0 0 0 575.28343811199738 -682.98468854117073 0 -682.98468854117073 959.87529585684388 0 0 0 0 335.28775335310002 -1061.2046703881349 0 -1061.2046703881349 -403.13731695310253 0 0 0 0 5.4193771828166177 -5.5406596566681543 0 -5.5406596566681543 1.3604902494663138 0 0 0 0 -103.37225451230552 -46.921171231843346 0 -46.921171231843346 1229.5491969863822 0 0 0 0 -19.991987681438331 -76.661562875441177 0 -76.661562875441177 -174.4947139816789 0 0 0 0 102.75939232149767 -893.80165346043304 0 -893.80165346043304 845.88870779931904 0 0 0 0 7.7889497813111035 -4.7538018046822694 0 -4.7538018046822694 1.2593035855128925 0 0 0 0 0.95059658139700787 -20.774655548967658 0 -20.774655548967658 -108.32437267267142 0 0 0 0 -209.3349617511376 142.85921342747241 0 142.85921342747241 935.98868754463274 0 0 0 0 -85.928077305067291 -97.120615082785747 0 -97.120615082785747 -95.661597651458123 0 0 0 0 -99.233006035237167 -7.2375149904336951 0 -7.2375149904336951 -163.90989980886934 0 0 0 0 -93.306583129196952 -86.447806763412245 0 -86.447806763412245 1.4538653670342683 0 0 0 0 4.297843043694229 -98.169681869956321 0 -98.169681869956321 -130.2647510798306 0 0 0 0 -9.7349003187136987 -38.825017522018015 0 -38.825017522018015 -23.16217307218858 0 0 0 0 -54.63364556529632 -81.093427449406363 0 -81.093427449406363 -59.402212280081017 0 0 0 0 -52.601651894874522 -69.877652651018707 0 -69.877652651018707 -89.563003815437355 0 0 0 0 -57.703399896026895 -58.056754380738766 0 -58.056754380738766 -10.372403928227982 0 0 0 0 -61.117763446125537 -51.815078219528402 0 -51.815078219528402 6.8739407921534621 0 0 0 0 -51.623990488833442 -54.730213386565083 0 -54.730213386565083 -6.425700873021583 0 0 0 0 -29.925472191037443 -85.897019542645012 0 -85.897019542645012 8.8142204850164489 0 0 0 0 -93.532328897768821 -106.99291525464696 0 -106.99291525464696 -54.407652648337262 0 0 0 0 -63.726223005196971 -108.86865184838314 0 -108.86865184838314 -57.062801550690438 0 0 0 0 -106.19088423297399 -44.119877333896056 0 -44.119877333896056 6.3678375209444766 0 0 0 0 -167.99042657327118 -171.24162943035105 0 -171.24162943035105 -108.39933828012454 0 0 0 0 640.03024246041332 -608.7220858877738 0 -608.7220858877738 133.18779644357801 0 0 0 0 -244.0178019322484 -44.379755622712537 0 -44.379755622712537 -17.298003429620941 0 0 0 0 -8.9314760779730733 -16.439663488961298 0 -16.439663488961298 -25.494995092568004 0 0 0 0 -57.606247890191298 -19.402145132090709 0 -19.402145132090709 -17.417960459642927 0 0 0 0 -13.063041715394554 -21.569864008243847 0 -21.569864008243847 -33.615266750588951 0 0 0 0 46.88947888090479 -246.79502420663084 0 -246.79502420663084 222.54535462592912 0 0 0 0 62.759427513399714 -197.78891086281737 0 -197.78891086281737 165.22096994161893 0 0 0 0 -33.585406243812031 -131.77395607587891 0 -131.77395607587891 102.72707424231453 0 0 0 0 -89.806353797961492 -284.10136282899839 0 -284.10136282899839 235.10417951744216 0 0 0 0 250.30774299249606 -152.26431721373319 0 -152.26431721373319 198.93243906662667 0 0 0 0 75.652718591423763 -36.078521019972527 0 -36.078521019972527 -6.4036460115952423 0 0 0 0 -2.5234832352434751 -236.81153232982587 0 -236.81153232982587 -299.17735469027571 0 0 0 0 -263.75646247449458 -188.77884973400387 0 -188.77884973400387 94.66860578121964 0 0 0 0 -500.25289356464418 -492.95581218447478 0 -492.95581218447478 -255.04653728781352 0 0 0 0 641.73444517452663 -499.37289137911341 0 -499.37289137911341 -1956.7522766947304 0 0 0 0 932.48476920817848 -203.14806917472629 0 -203.14806917472629 -791.95081605193127 0 0 0 0 255.17117526605944 -334.27730357979272 0 -334.27730357979272 -792.36852504397029 0 0 0 0 -1393.4954115386527 -597.53498570189504 0 -597.53498570189504 -200.79340896395661 0 0 0 0 -1.995535638674518 -5.1562713204898607 0 -5.1562713204898607 -12.079824803467821 0 0 0 0 -189.29692150753453 -190.55575685727422 0 -190.55575685727422 -85.105586005966643 0 0 0 0 -65.529775819243241 -409.67681316570122 0 -409.67681316570122 356.34341441166316 0 0 0 0 84.860174882042429 -328.26285403789279 0 -328.26285403789279 -154.8977956092931 0 0 0 0 64.594879710275563 -173.68399585666248 0 -173.68399585666248 -489.87147517689448 0 0 0 0 118.70090914020329 -427.397791401625 0 -427.397791401625 -289.98838727289831 0 0 0 0 188.98683646697418 -219.6255101717461 0 -219.6255101717461 -266.99610308823867 0 0 0 0 242.21503412308084 -495.84470248760317 0 -495.84470248760317 -327.56014842357808 0 0 0 0 178.13608010845201 -357.08607298701463 0 -357.08607298701463 -568.11763067399875 0 0 0 0 167.77466430478125 -279.27359935505297 0 -279.27359935505297 -834.93300482028735 0 0 0 0 -1552.2861119951267 -567.47778304528765 0 -567.47778304528765 -292.45773330287466 0 0 0 0 -3.8439904653169208 -9.2280210008573427 0 -9.2280210008573427 -1.7210435619206628 0 0 0 0 -53.125098385411547 -468.83434371419935 0 -468.83434371419935 196.28897907494056 0 0 0 0 70.761945310939609 -613.69154469239243 0 -613.69154469239243 -222.38921904630206 0 0 0 0 -1.1450486479610902 -7.0250022100589753 0 -7.0250022100589753 -1.6204594403914729 0 0 0 0 -616.10563118983919 -817.40562573700095 0 -817.40562573700095 -737.90299839440831 0 0 0 0 64.879527401681116 -506.19385019576941 0 -506.19385019576941 -1546.9752064572804 0 0 0 0 -791.84961010544066 416.57691693701418 0 416.57691693701418 -393.90153365334982 0 0 0 0 144.04868764802814 -424.97898912733854 0 -424.97898912733854 -292.9456472683496 0 0 0 0 138.65982013528992 -333.28540286823772 0 -333.28540286823772 -514.48020758871553 0 0 0 0 -319.24150192618981 -67.416487197002425 0 -67.416487197002425 -290.26711983110636 0 0 0 0 -91.789335597963145 -414.84695755282473 0 -414.84695755282473 240.26566049635767 0 0 0 0 -255.99396062701089 -498.65703698943071 0 -498.65703698943071 229.04293892706119 0 0 0 0 -550.05728261806507 -398.25946568248401 0 -398.25946568248401 452.54708067562592 0 0 0 0 -472.25946306128571 -156.42991978320129 0 -156.42991978320129 501.31646211738007 0 0 0 0 -727.05783978920772 -147.43433395450757 0 -147.43433395450757 622.23682817209192 0 0 0 0 -334.73427015284324 -217.21608766896134 0 -217.21608766896134 541.99202731096739 0 0 0 0 -402.46955208876534 -577.1901805663274 0 -577.1901805663274 647.92513099431198 0 0 0 0 -945.55346180903871 -611.73211419886138 0 -611.73211419886138 668.73995921772621 0 0 0 0 -94.38069542752055 -570.71752824101532 0 -570.71752824101532 605.74913865810504 0 0 0 0 17.110119758559449 -806.59379775747129 0 -806.59379775747129 506.71924394708822 0 0 0 0 107.87192850093834 -445.97235693717448 0 -445.97235693717448 -27.811736021119941 0 0 0 0 438.58317593984975 -534.29913524011545 0 -534.29913524011545 -29.394189118218492 0 0 0 0 145.03057943491513 -386.31522886673156 0 -386.31522886673156 -23.998409353461284 0 0 0 0 328.51015668024957 -518.2452686257343 0 -518.2452686257343 371.97733314918696 0 0 0 0 642.38620064055885 -256.03903834609127 0 -256.03903834609127 5.9296967027330538 0 0 0 0 495.56302267796582 -67.621670739706133 0 -67.621670739706133 1527.2196811001941 0 0 0 0 1341.2293210671633 -505.84937213868761 0 -505.84937213868761 334.39887076692776 0 0 0 0 411.97295826885056 -1145.9646020269583 0 -1145.9646020269583 1242.268466767875 0 0 0 0 5.9347525588388095 -9.9625802002608737 0 -9.9625802002608737 10.449874676516114 0 0 0 0 163.33600020241283 365.28264955129271 0 365.28264955129271 2093.2917027723961 0 0 0 0 705.49827625457272 -1249.3615683572204 0 -1249.3615683572204 702.02407042429331 0 0 0 0 765.88126837483287 -681.03289732555459 0 -681.03289732555459 -616.07051341522128 0 0 0 0 494.78559511304957 -392.75809872924583 0 -392.75809872924583 -181.85874014010369 0 0 0 0 450.18501208985151 -647.26586835885769 0 -647.26586835885769 141.365972051688 0 0 0 0 -26.91272036061855 -96.134191870341965 0 -96.134191870341965 -309.13719739055796 0 0 0 0 -359.62735344076646 -372.65432210100425 0 -372.65432210100425 -94.917965390795871 0 0 0 0 -160.14143171314572 -174.35457697115271 0 -174.35457697115271 -99.04325413332117 0 0 0 0 -62.455332137693404 -276.41504916869053 0 -276.41504916869053 4.5655673370929435 0 0 0 0 -178.29245832524612 -222.07446074130803 0 -222.07446074130803 41.357489817874011 0 0 0 0 -109.46860309442491 -146.04125939073674 0 -146.04125939073674 52.013665696935277 0 0 0 0 -7.7330776613052876 -213.43125389030683 0 -213.43125389030683 160.17867004774416 0 0 0 0 195.96333966967904 -421.1735790341645 0 -421.1735790341645 175.04683916718204 0 0 0 0 266.78882673357293 -328.35495994938719 0 -328.35495994938719 43.187261769353427 0 0 0 0 12.684393102679678 -183.80898146133677 0 -183.80898146133677 -6.6697072877541359 0 0 0 0 -199.42055663936117 -274.59668252763004 0 -274.59668252763004 -121.92662431655208 0 0 0 0 -225.46014435037432 -199.1029112437991 0 -199.1029112437991 -53.798261533046798 0 0 0 0 -74.922550972863974 -190.30466547781907 0 -190.30466547781907 -86.670050572780383 0 0 0 0 -106.91135435084288 -221.63712181410119 0 -221.63712181410119 -44.694515228860837 0 0 0 0 -220.372337118828 -199.79203166755542 0 -199.79203166755542 264.04250821517417 0 0 0 0 -209.30716727895924 -268.01957120876614 0 -268.01957120876614 125.71484715071347 0 0 0 0 -204.98508294638668 -276.02212889764996 0 -276.02212889764996 -44.595060158641672 0 0 0 0 -233.39680592757941 -252.98801910509792 0 -252.98801910509792 -23.141453822332551 0 0 0 0 -189.68648966586261 -198.02180981914717 0 -198.02180981914717 -8.2747939400862833 0 0 0 0 -273.72305974855408 -284.67993851218125 0 -284.67993851218125 -15.225347305786045 0 0 0 0 23.346326128721529 -25.934653366647112 0 -25.934653366647112 23.8841339177058 0 0 0 0 -195.72445042486106 -225.50179782836403 0 -225.50179782836403 -279.51262721109742 0 0 0 0 -239.82444458474674 -502.3233798520555 0 -502.3233798520555 -428.31694243234961 0 0 0 0 258.14776623420403 -280.13945155679176 0 -280.13945155679176 79.931511683411372 0 0 0 0 -91.099998394245631 -289.08536517935318 0 -289.08536517935318 -228.02395108804194 0 0 0 0 35.235526414580775 -47.163127234551361 0 -47.163127234551361 28.453383458567419 0 0 0 0 -606.29998177426023 -775.68829962817654 0 -775.68829962817654 559.0668527257003 0 0 0 0 472.2772957703346 -1285.8802122893867 0 -1285.8802122893867 133.64888343003258 0 0 0 0 -11.587367008010915 -409.30863419466004 0 -409.30863419466004 -56.306716328182119 0 0 0 0 -609.19743778814518 421.98284247655465 0 421.98284247655465 770.52553863799949 0 0 0 0 -264.23040049989686 -857.75877960246726 0 -857.75877960246726 613.21349664632362 0 0 0 0 -1362.3670417983703 -869.69592784595807 0 -869.69592784595807 827.53590639209142 0 0 0 0 -2.8517238556793671 -7.8478313636129613 0 -7.8478313636129613 -12.256908712391557 0 0 0 0 -1607.8968603068697 64.86411735918773 0 64.86411735918773 713.76164407881515 0 0 0 0 1030.5398995272262 -1283.680509055831 0 -1283.680509055831 131.3776735807719 0 0 0 0 1198.880512931566 -441.22204754417999 0 -441.22204754417999 18.792719075636342 0 0 0 0 327.29197935507545 -435.72528839830193 0 -435.72528839830193 737.34235883628753 0 0 0 0 404.07245289505227 -811.84288169906654 0 -811.84288169906654 -131.6026890340836 0 0 0 0 352.44870658384752 -666.1828982736497 0 -666.1828982736497 162.92034275485639 0 0 0 0 209.56662373810104 -148.82833547896189 0 -148.82833547896189 29.50528596141794 0 0 0 0 60.630861346893653 -164.94179916664916 0 -164.94179916664916 -436.4129915184385 0 0 0 0 197.70547300553153 -372.24856434382127 0 -372.24856434382127 -374.9271286555304 0 0 0 0 1596.2424572669006 -434.43832854819993 0 -434.43832854819993 -187.75930811466969 0 0 0 0 -3.6536819440576167 6.5552743216468201 0 6.5552743216468201 4.6271316329815022 0 0 0 0 -688.08075904024736 -615.04578360004598 0 -615.04578360004598 -136.63833143716147 0 0 0 0 98.898378653510008 -264.65096814991557 0 -264.65096814991557 -264.36802544733655 0 0 0 0 90.503874104055285 -188.57108478320515 0 -188.57108478320515 148.43906274674737 0 0 0 0 -94.01183118265908 -178.68902627880016 0 -178.68902627880016 -269.66063963666124 0 0 0 0 42.276436951120559 -3.8478315147622197 0 -3.8478315147622197 -58.248080085322727 0 0 0 0 -6.335570029143625 -10.333174531956359 0 -10.333174531956359 -2.7592212092609998 0 0 0 0 -9.1725590283458587 -182.41634612379858 0 -182.41634612379858 82.962900217787137 0 0 0 0 -10.76355165168934 -121.11342433997561 0 -121.11342433997561 -319.32734530840389 0 0 0 0 -45.406144283219902 -51.182512583225048 0 -51.182512583225048 -27.228626250387325 0 0 0 0 27.02846626281098 -102.71177245643776 0 -102.71177245643776 -339.25508688749505 0 0 0 0 13.499229536622806 -159.52670192934488 0 -159.52670192934488 19.602150428294408 0 0 0 0 37.946180228696903 -184.60772396915854 0 -184.60772396915854 17.515698987987889 0 0 0 0 9.142545706281453 -135.56926144436488 0 -135.56926144436488 -9.0402839413654874 0 0 0 0 -4.2760027915646788 -126.45309040911161 0 -126.45309040911161 -1.7034010681054497 0 0 0 0 0.26565583489718847 -145.01684727238535 0 -145.01684727238535 10.255004147213185 0 0 0 0 -27.545550812712463 -106.26972155564545 0 -106.26972155564545 -9.620664311969449 0 0 0 0 -83.47322195781453 -144.21045027576838 0 -144.21045027576838 -25.94814635036164 0 0 0 0 -74.039875321337604 -191.55252918084443 0 -191.55252918084443 -2.7168204646659433 0 0 0 0 -91.730439571430907 -148.33501222340055 0 -148.33501222340055 61.128262732061557 0 0 0 0 -9.1987465231577517 -99.862503442305751 0 -99.862503442305751 17.27674357756041 0 0 0 0 -46.507459692773409 -157.17583850236406 0 -157.17583850236406 -66.505049447208876 0 0 0 0 -50.80260885086318 -184.64292065341579 0 -184.64292065341579 -99.155573753334465 0 0 0 0 -81.918147199845407 -143.35360092486371 0 -143.35360092486371 -213.94433907354323 0 0 0 0 16.247713058119146 -15.748490399248219 0 -15.748490399248219 -6.2240247815598657 0 0 0 0 21.246042301048874 -193.05447436745453 0 -193.05447436745453 -199.38102543579589 0 0 0 0 -11.694355797197204 -164.27662875665555 0 -164.27662875665555 -210.86787496051693 0 0 0 0 -48.600283578794915 -70.095683639658091 0 -70.095683639658091 56.712594026308579 0 0 0 0 -0.61871764698298648 -42.524206067391788 0 -42.524206067391788 -16.054980937231448 0 0 0 0 36.315430545152793 -81.13607699959158 0 -81.13607699959158 -2.1882238290125002 0 0 0 0 -50.716791299711986 -127.58315192371447 0 -127.58315192371447 -107.22887705761241 0 0 0 0 32.711410180323369 -64.830182465055884 0 -64.830182465055884 -7.11037746245362 0 0 0 0 74.819735467404826 -71.158090051261752 0 -71.158090051261752 -82.104691897737212 0 0 0 0 47.714197442051955 -96.729590648639714 0 -96.729590648639714 -66.651435975392815 0 0 0 0 33.777101893013317 -48.276404665395916 0 -48.276404665395916 -29.563658143859541 0 0 0 0 -20.34051480839571 -14.132524760988503 0 -14.132524760988503 10.552108826865535 0 0 0 0 91.487020515833137 156.72441791778783 0 156.72441791778783 -156.87346687984245 0 0 0 0 127.73390593392833 -307.68950916415133 0 -307.68950916415133 116.11455670621535 0 0 0 0 -36.300106749571853 -25.996628954230516 0 -25.996628954230516 -20.498042333518136 0 0 0 0 50.497300774732139 -124.38365569053713 0 -124.38365569053713 -87.711437439071233 0 0 0 0 -68.463738392776577 -171.50535610779843 0 -171.50535610779843 13.622153128781065 0 0 0 0 -32.533576771242167 -29.716363025074809 0 -29.716363025074809 -22.75299706815775 0 0 0 0 138.04267776790221 -314.72126077188568 0 -314.72126077188568 294.24031981001644 0 0 0 0 52.437845118169207 -69.616125389360604 0 -69.616125389360604 94.663308525032335 0 0 0 0 502.99556830431538 -115.01223877186021 0 -115.01223877186021 -146.57207870314596 0 0 0 0 111.85830166819505 -403.78592818907237 0 -403.78592818907237 -872.78452563298652 0 0 0 0 43.333475873831048 -106.89818193658357 0 -106.89818193658357 -317.44806791660085 0 0 0 0 35.614127078617457 201.28170455541112 0 201.28170455541112 -1059.8464294027108 0 0 0 0 155.86404586080607 -260.53257032364945 0 -260.53257032364945 154.81517828072901 0 0 0 0 -94.036445099089178 -514.37701412791102 0 -514.37701412791102 -98.24366439752248 0 0 0 0 6.7277263908763416 -506.97079231334556 0 -506.97079231334556 -438.84237324104106 0 0 0 0 -110.60657711692329 -457.04761118163606 0 -457.04761118163606 -291.70251154820835 0 0 0 0 -382.21534420605167 -942.04977153302207 0 -942.04977153302207 -15.382320545119001 0 0 0 0 -421.49252350939787 -1296.3433066838861 0 -1296.3433066838861 1508.1289909637044 0 0 0 0 -1175.4792617403873 -185.47074942705649 0 -185.47074942705649 1137.8422935332483 0 0 0 0 90.251671975653153 -564.30613983567309 0 -564.30613983567309 661.8204129020105 0 0 0 0 -338.9194654350722 -789.72942281947871 0 -789.72942281947871 454.01369894183699 0 0 0 0 752.10223110968946 -1109.81575611991 0 -1109.81575611991 580.04031738270328 0 0 0 0 -14.43542861793938 -20.845332058608498 0 -20.845332058608498 -21.808353304551744 0 0 0 0 35.929848033216331 -1078.408657853553 0 -1078.408657853553 858.20502522751849 0 0 0 0 623.79552100321598 -81.463321144641213 0 -81.463321144641213 496.39753502480789 0 0 0 0 219.7143514808995 -439.37007728020717 0 -439.37007728020717 654.58055541072099 0 0 0 0 989.76833140245526 -1869.6474797195201 0 -1869.6474797195201 -11.549410008750783 0 0 0 0 -12.440512472728372 -21.051296288154205 0 -21.051296288154205 -25.449719579580915 0 0 0 0 -1262.666213959219 -1159.5081917314594 0 -1159.5081917314594 -75.097273226317611 0 0 0 0 -599.76368018442383 -115.50610955634346 0 -115.50610955634346 150.72257367637349 0 0 0 0 397.3594445284798 623.28458838323968 0 623.28458838323968 -2008.4079941236691 0 0 0 0 -5.3697117331579989 -11.010084282605519 0 -11.010084282605519 -15.290346927695467 0 0 0 0 1119.3261516088096 -205.63030255244166 0 -205.63030255244166 -724.70117770351874 0 0 0 0 204.21611125770596 -35.796897486757871 0 -35.796897486757871 462.4619259180472 0 0 0 0 1094.9439899197823 -760.12721039077223 0 -760.12721039077223 -776.91147480316192 0 0 0 0 -0.3442355374201469 -7.7563129500957331 0 -7.7563129500957331 -16.697180571354153 0 0 0 0 -1201.1005477591307 -237.80494593186268 0 -237.80494593186268 283.85634757840569 0 0 0 0 -969.34331197962456 -1206.3193188537291 0 -1206.3193188537291 -1045.0071996078484 0 0 0 0 -411.70942325798387 -410.06653358320176 0 -410.06653358320176 -70.025565517808673 0 0 0 0 -740.79252916378027 -545.37287845323783 0 -545.37287845323783 54.769531034924285 0 0 0 0 -477.44808957192799 32.581495228242446 0 32.581495228242446 377.52469910195737 0 0 0 0 1667.8858368326619 -279.86510072926103 0 -279.86510072926103 91.863182252001252 0 0 0 0 -168.3150196462957 -431.52299130266783 0 -431.52299130266783 142.84395754337334 0 0 0 0 7.5484160211480571 -21.081444868202567 0 -21.081444868202567 71.853372176144219 0 0 0 0 588.58883368606621 -367.72569326829716 0 -367.72569326829716 -155.19987659575781 0 0 0 0 821.97531125968089 -86.643105166805071 0 -86.643105166805071 -139.88519953724744 0 0 0 0 -246.58323961865608 -103.38534652701162 0 -103.38534652701162 -21.870210419016075 0 0 0 0 -4.480232540971997 -4.429709366539484 0 -4.429709366539484 -0.79876825735322399 0 0 0 0 11.842709870878025 50.708270250332134 0 50.708270250332134 -3.6837054446004913 0 0 0 0 565.90411116555333 -425.17704665315432 0 -425.17704665315432 466.281349208748 0 0 0 0 357.00317415931204 -457.10998623842897 0 -457.10998623842897 643.11758731949976 0 0 0 0 322.20870175410528 -420.9556245041822 0 -420.9556245041822 491.1337952129652 0 0 0 0 309.05748551661236 -537.71987951845676 0 -537.71987951845676 522.01822223834461 0 0 0 0 218.21639566625527 -324.10381374605822 0 -324.10381374605822 325.78512833613149 0 0 0 0 444.06353048776509 -538.34331978776117 0 -538.34331978776117 433.79254188881532 0 0 0 0 225.90664161818131 -343.08789674454056 0 -343.08789674454056 352.25582531223699 0 0 0 0 294.7370722163032 -479.25694961369118 0 -479.25694961369118 475.63477769255678 0 0 0 0 -29.064159631670918 -793.47630374147047 0 -793.47630374147047 552.36367984623939 0 0 0 0 770.42311946660629 -964.83055516440436 0 -964.83055516440436 525.64738122062408 0 0 0 0 -144.59733120308374 -606.88127291437104 0 -606.88127291437104 794.8954029958586 0 0 0 0 -239.81288061130908 37.999974422040395 0 37.999974422040395 953.31027769679895 0 0 0 0 242.94760706616216 -642.39204758568576 0 -642.39204758568576 564.63544784559599 0 0 0 0 -413.67676710832166 -772.20658410972828 0 -772.20658410972828 774.22020913256347 0 0 0 0 257.78530215733917 -335.40707169769394 0 -335.40707169769394 281.56025935032994 0 0 0 0 98.922114783366851 -20.047079089234558 0 -20.047079089234558 194.10432951211624 0 0 0 0 360.00857268018444 105.42210400063504 0 105.42210400063504 -126.76166264558378 0 0 0 0 308.92157657819916 -65.896685644718673 0 -65.896685644718673 -120.20902795458005 0 0 0 0 46.29614331832272 51.903138318331457 0 51.903138318331457 164.18534744966746 0 0 0 0 215.24909629364993 284.19716684457217 0 284.19716684457217 -330.92283962922738 0 0 0 0 -234.25053397404554 244.15905183956329 0 244.15905183956329 410.97408738287595 0 0 0 0 -114.54902903315451 566.68470199083777 0 566.68470199083777 -242.11652487938773 0 0 0 0 60.825382153576356 268.44806872595473 0 268.44806872595473 220.93382453199592 0 0 0 0 -291.36496840705513 287.02052779408405 0 287.02052779408405 442.36137788433098 0 0 0 0 -534.55131604624694 -119.45117466467696 0 -119.45117466467696 2170.2335299791393 0 0 0 0 -442.53991032694648 -497.79826604571974 0 -497.79826604571974 1255.3543719014633 0 0 0 0 1167.3995509380329 -1336.8970450905535 0 -1336.8970450905535 1640.5509741137612 0 0 0 0 2.331467383458218 -6.9480688198337361 0 -6.9480688198337361 24.489883539768428 0 0 0 0 2584.3402856063767 -769.65886692644108 0 -769.65886692644108 223.41604206593274 0 0 0 0 323.12996249856951 643.20849551519404 0 643.20849551519404 501.00901743353461 0 0 0 0 779.67822152388544 -1081.6539667160969 0 -1081.6539667160969 -663.12433824079562 0 0 0 0 -742.03763719723793 -1548.7912077830151 0 -1548.7912077830151 -747.88108622633877 0 0 0 0 -600.91952377619486 902.96029122510777 0 902.96029122510777 -344.13861500746862 0 0 0 0 -627.43786964303581 -325.9499601763182 0 -325.9499601763182 -143.33358554404913 0 0 0 0 -2046.0124535085779 497.22491241884745 0 497.22491241884745 -618.57920416978959 0 0 0 0 -723.04115479495158 475.04736664663051 0 475.04736664663051 -1049.8730932296821 0 0 0 0 -580.61004708364817 -31.687706867197676 0 -31.687706867197676 -2381.5568085504856 0 0 0 0 -1987.3828426132823 -975.17833147304736 0 -975.17833147304736 -1690.4555901662816 0 0 0 0 -1111.0980498416902 49.610756248393955 0 49.610756248393955 -1333.1326682454892 0 0 0 0 -9.7467629519177308 -12.726679693492727 0 -12.726679693492727 -10.858415891901938 0 0 0 0 -907.22434401203645 -1034.7999480796243 0 -1034.7999480796243 592.61105746539761 0 0 0 0 133.70612800256731 -68.2901423406596 0 -68.2901423406596 -3048.9460855599209 0 0 0 0 -1339.0304222585473 -1835.7632693255082 0 -1835.7632693255082 -833.84598964550605 0 0 0 0 -353.84983736464346 -120.40122080204674 0 -120.40122080204674 -894.08425151049596 0 0 0 0 -13.700207514754169 -8.7092324112530264 0 -8.7092324112530264 -6.0065731876191037 0 0 0 0 -107.32280428605736 426.84824817388471 0 426.84824817388471 315.18950701623953 0 0 0 0 -1379.4640108271124 -34.440248903842985 0 -34.440248903842985 280.52823382606039 0 0 0 0 -1706.9565418972888 -948.10562766144108 0 -948.10562766144108 33.232507097029156 0 0 0 0 -614.14076021571236 -946.78577948062411 0 -946.78577948062411 -1601.6703073189092 0 0 0 0 -964.33219691168051 -511.23906367760856 0 -511.23906367760856 434.05547317575838 0 0 0 0 -870.27311649546027 -486.12105494584011 0 -486.12105494584011 285.59885238970128 0 0 0 0 -754.43518034977023 -587.31547951271114 0 -587.31547951271114 316.71071053905689 0 0 0 0 139.65744851890486 -234.64054850506045 0 -234.64054850506045 -42.37692985659487 0 0 0 0 -543.21201502550684 68.773891981783891 0 68.773891981783891 264.02344071330879 0 0 0 0 861.63231849826116 -454.14270129276247 0 -454.14270129276247 87.777577573715462 0 0 0 0 1109.9112552220686 -993.94196335051834 0 -993.94196335051834 179.06739118385121 0 0 0 0 -18.015446215175658 -24.976405573336663 0 -24.976405573336663 -18.927080987368065 0 0 0 0 -195.71898536593653 -536.61512903804032 0 -536.61512903804032 571.27596549261489 0 0 0 0 -938.06892097558011 -651.17183644399302 0 -651.17183644399302 603.4587614124498 0 0 0 0 -206.2013275148347 -611.37976700397121 0 -611.37976700397121 370.42410075174394 0 0 0 0 -984.79939368278428 -712.8590082755145 0 -712.8590082755145 402.28591062610849 0 0 0 0 -17.951529064572242 -568.42922050424681 0 -568.42922050424681 228.90214809617828 0 0 0 0 -25.34920785461145 -632.64095009744233 0 -632.64095009744233 -326.72993461937585 0 0 0 0 -545.06137038847373 -640.98129527057245 0 -640.98129527057245 -248.69383733362156 0 0 0 0 662.02203877711145 -715.86368720651444 0 -715.86368720651444 -248.40164196605474 0 0 0 0 589.80545454655658 -131.24139422579901 0 -131.24139422579901 -313.80927401695203 0 0 0 0 700.07438220462063 -558.6637560689278 0 -558.6637560689278 318.38569907518831 0 0 0 0 711.0198385999829 -253.90389010915806 0 -253.90389010915806 334.12160759901235 0 0 0 0 1180.8218162687263 -586.80724113842916 0 -586.80724113842916 97.821181418818924 0 0 0 0 998.98911119770491 -160.89955756133895 0 -160.89955756133895 -479.71558260334496 0 0 0 0 678.5499220151687 -385.68399869118821 0 -385.68399869118821 -36.549248401752266 0 0 0 0 293.95970525995654 -367.88400346714297 0 -367.88400346714297 -469.38989699412195 0 0 0 0 284.08298650798588 167.40289776576378 0 167.40289776576378 -522.10329690678554 0 0 0 0 635.80662777378166 230.70480478610625 0 230.70480478610625 -714.71533975417924 0 0 0 0 617.7771685151165 48.173235794168022 0 48.173235794168022 -313.79289148683529 0 0 0 0 286.89662701849011 -243.02675291713604 0 -243.02675291713604 -1185.2663773432541 0 0 0 0 280.72840903596079 223.05563364721456 0 223.05563364721456 -1213.4351483763403 0 0 0 0 -222.62566397018963 -258.76941407404593 0 -258.76941407404593 -1675.8777598714732 0 0 0 0 -154.59754175919807 54.986930756394941 0 54.986930756394941 -752.39411756308618 0 0 0 0 -123.39960364968283 248.83854045483895 0 248.83854045483895 -1031.8271505857429 0 0 0 0 -89.025412954724743 540.2556201348616 0 540.2556201348616 -611.28802420602187 0 0 0 0 142.62371601912309 322.32678459299859 0 322.32678459299859 -406.26961210987065 0 0 0 0 476.85663048180868 183.44118748370329 0 183.44118748370329 -432.69673480435813 0 0 0 0 860.43253103004827 54.222496647027583 0 54.222496647027583 -521.93026680547155 0 0 0 0 294.26885049605335 469.92080804303077 0 469.92080804303077 -633.27749733411019 0 0 0 0 485.24601543629979 214.82938588370416 0 214.82938588370416 -338.32586514313152 0 0 0 0 602.57353210140718 65.9942577511938 0 65.9942577511938 -356.85625361173493 0 0 0 0 478.10561333944497 -37.538988720464658 0 -37.538988720464658 -351.19823172246106 0 0 0 0 493.30506460358447 -55.646404091704426 0 -55.646404091704426 -364.38356390856643 0 0 0 0 632.22992931329645 -65.854334210594971 0 -65.854334210594971 -370.26441871770749 0 0 0 0 493.98934225886478 -249.57230524988336 0 -249.57230524988336 -172.15357540690093 0 0 0 0 303.21651513632969 -74.818305272101497 0 -74.818305272101497 -385.67946616657719 0 0 0 0 131.02672001635074 43.664257117579837 0 43.664257117579837 -337.70083188792705 0 0 0 0 236.99770214607997 -125.2240429880494 0 -125.2240429880494 -226.98793446227501 0 0 0 0 67.618085543275811 43.493348807665825 0 43.493348807665825 -206.72687433301326 0 0 0 0 10.71830420205697 -39.590785348711933 0 -39.590785348711933 -10.770759750065736 0 0 0 0 -12.033858674831578 -14.666088180964579 0 -14.666088180964579 -15.997980005400136 0 0 0 0 -64.967087114971946 -100.40740467319029 0 -100.40740467319029 -117.27712033631951 0 0 0 0 -3.7604953429215158 -2.4448474600680754 0 -2.4448474600680754 3.0760686654347253 0 0 0 0 692.53543821399217 -240.72805331653035 0 -240.72805331653035 -209.79133066530994 0 0 0 0 706.49586946573982 -170.05709876784022 0 -170.05709876784022 -235.76120266428552 0 0 0 0 673.76796069016564 -122.91120277738628 0 -122.91120277738628 -161.3965262422771 0 0 0 0 1031.9326139473123 -29.092455636076011 0 -29.092455636076011 -98.466241635600454 0 0 0 0 1322.3004510603205 -725.75833091795721 0 -725.75833091795721 302.2599662691664 0 0 0 0 7.7688941852676123 -0.74623231626330977 0 -0.74623231626330977 -6.2582637362980655 0 0 0 0 -0.98226166094900691 -36.000819821354298 0 -36.000819821354298 -14.176634575907883 0 0 0 0 -8.6427745908149518 -31.732015527971498 0 -31.732015527971498 -14.926286357175798 0 0 0 0 1279.1428987927793 -239.03807786228572 0 -239.03807786228572 -17.228381420627557 0 0 0 0 -16.794050275848974 -22.282854344775714 0 -22.282854344775714 -21.478750821834609 0 0 0 0 0.90501969937758986 -38.507260388116038 0 -38.507260388116038 -10.890388167662934 0 0 0 0 -7.3635816214809893 -20.03715039646346 0 -20.03715039646346 -41.808001334865651 0 0 0 0 7.5244114360793901 -36.38704605338225 0 -36.38704605338225 -28.168189616949576 0 0 0 0 -3.7343735551694408 -38.216723108382382 0 -38.216723108382382 -28.740917892887808 0 0 0 0 5.5659588100752444 -32.609169473277177 0 -32.609169473277177 -26.632871387378145 0 0 0 0 7.0907523443906086 -10.721063397423961 0 -10.721063397423961 -0.73016161817529568 0 0 0 0 85.327704563402222 -23.23894421026273 0 -23.23894421026273 -69.147889898766152 0 0 0 0 -1.4234882797227328 -16.120644752227875 0 -16.120644752227875 -36.52587869429118 0 0 0 0 21.007443364454957 -30.214401118488013 0 -30.214401118488013 -28.012429213122232 0 0 0 0 2.6232587992290064 -28.374658966797995 0 -28.374658966797995 -12.842298170218783 0 0 0 0 23.913025114008633 -38.034655823553976 0 -38.034655823553976 -35.380073482591797 0 0 0 0 0.10236890134014368 -44.326565410507158 0 -44.326565410507158 -9.5110750601356813 0 0 0 0 12.493125402857913 -29.379325995248195 0 -29.379325995248195 -12.740914850865011 0 0 0 0 11.20615846941655 247.86839318474506 0 247.86839318474506 -544.76256377853133 0 0 0 0 10.216219819223625 -39.670463030285646 0 -39.670463030285646 13.72973073049161 0 0 0 0 -8.332534661231648 -8.2481880357272814 0 -8.2481880357272814 -8.6579584736350199 0 0 0 0 -0.0099611795842715935 -34.251108497865701 0 -34.251108497865701 30.678113762618523 0 0 0 0 12.321998650324531 -27.879905733977012 0 -27.879905733977012 7.3992597331516663 0 0 0 0 -2.2067616900894791 352.41369454411506 0 352.41369454411506 -1603.6517130928542 0 0 0 0 -3.3281621360838471 -2.0816665115394812 0 -2.0816665115394812 -3.1616411339511359 0 0 0 0 -0.70672217201354215 -687.97353997598975 0 -687.97353997598975 -632.79476141609211 0 0 0 0 67.308336054367828 -619.55219595066319 0 -619.55219595066319 -316.14867554136072 0 0 0 0 216.94510431136587 -143.69756230801977 0 -143.69756230801977 -615.18896211533138 0 0 0 0 53.833352655471572 -92.459284599532566 0 -92.459284599532566 -442.87359761402513 0 0 0 0 176.14032070063695 -30.139386066974112 0 -30.139386066974112 -603.27185211678739 0 0 0 0 145.53440471453359 -51.433546022602968 0 -51.433546022602968 -314.306094730724 0 0 0 0 294.87409192958148 -98.274225814246165 0 -98.274225814246165 -401.89526579965059 0 0 0 0 402.74411811867321 28.972992490009347 0 28.972992490009347 -353.82123740620057 0 0 0 0 302.96111079966067 -76.08119489109049 0 -76.08119489109049 -337.00704257524649 0 0 0 0 425.60583983687684 -23.053305534776882 0 -23.053305534776882 -335.65210140195086 0 0 0 0 298.38143156110891 -133.10467368274112 0 -133.10467368274112 -230.07515622789833 0 0 0 0 306.68664531305694 -64.266902452916838 0 -64.266902452916838 -118.31648315847269 0 0 0 0 272.28245370442164 -293.39099933362377 0 -293.39099933362377 -40.818492496874114 0 0 0 0 209.34616755431489 -222.76404886880505 0 -222.76404886880505 142.96829560073456 0 0 0 0 224.27564782794798 -261.36457281390449 0 -261.36457281390449 -232.44531613097843 0 0 0 0 250.56401274862583 -226.86605651512673 0 -226.86605651512673 -196.42392462540374 0 0 0 0 135.80913897700884 -535.55020407332813 0 -535.55020407332813 14.733224757575954 0 0 0 0 181.16148803412216 -416.97331875110831 0 -416.97331875110831 140.35376523379091 0 0 0 0 255.50769739662064 -436.51236871887158 0 -436.51236871887158 164.91700935771132 0 0 0 0 175.13202447661752 -414.69594105436499 0 -414.69594105436499 406.26347398939834 0 0 0 0 163.7091201346484 -459.01354205213556 0 -459.01354205213556 345.65715669234487 0 0 0 0 254.27050646932912 -492.07345154035465 0 -492.07345154035465 416.68796321482387 0 0 0 0 184.97066075473413 -535.46426864276964 0 -535.46426864276964 443.35012143582571 0 0 0 0 98.179466524663439 -509.20491868585668 0 -509.20491868585668 558.12052045749078 0 0 0 0 244.90998410246539 -455.53742964172034 0 -455.53742964172034 544.64162415919054 0 0 0 0 82.668205981659412 -563.61625958518744 0 -563.61625958518744 420.82837054663469 0 0 0 0 113.5443886100511 -479.6847093028 0 -479.6847093028 504.39566585433568 0 0 0 0 -23.876794872878236 -483.45023969104295 0 -483.45023969104295 471.96795092202206 0 0 0 0 187.9774849116875 -522.53635379268326 0 -522.53635379268326 476.84432477100927 0 0 0 0 0.22460505335766356 -634.8206434196054 0 -634.8206434196054 485.372679101416 0 0 0 0 -62.19799313051044 -368.43142068060206 0 -368.43142068060206 36.079827318477328 0 0 0 0 170.33678032706666 -525.32785448390587 0 -525.32785448390587 53.178529505526967 0 0 0 0 130.39647380757378 -542.20587975900662 0 -542.20587975900662 141.793280690752 0 0 0 0 80.887756742282363 -439.59586566006874 0 -439.59586566006874 182.13753003376041 0 0 0 0 650.07444833012414 -481.05409682743584 0 -481.05409682743584 -778.21035227344964 0 0 0 0 275.42586194965679 -511.07210795023093 0 -511.07210795023093 -577.23769689865912 0 0 0 0 7.5216427313459597 -1.4628213751357091 0 -1.4628213751357091 -0.10690574803602981 0 0 0 0 372.07545950178792 533.45213120776953 0 533.45213120776953 406.04427302126442 0 0 0 0 753.8858286940233 56.907357587434717 0 56.907357587434717 881.1236755534992 0 0 0 0 -344.13510005015632 107.48454509509247 0 107.48454509509247 157.33819923876035 0 0 0 0 913.43540035407932 -380.76640140796007 0 -380.76640140796007 -745.94068450290433 0 0 0 0 943.57196641948758 -417.79913902787212 0 -417.79913902787212 -732.04064707694852 0 0 0 0 957.44906706385154 -391.56995325730804 0 -391.56995325730804 -747.14323526614533 0 0 0 0 822.20721170363163 -424.15120632290098 0 -424.15120632290098 -704.14280961401892 0 0 0 0 1056.1921933790354 -279.79823953747382 0 -279.79823953747382 -576.6388189326799 0 0 0 0 -2.4308087637566036 -11.866689438473177 0 -11.866689438473177 -33.322553024025048 0 0 0 0 51.599495422806285 -448.44696054249107 0 -448.44696054249107 -731.05148531348823 0 0 0 0 -114.95923079909335 126.70572867664077 0 126.70572867664077 -130.64308304593578 0 0 0 0 984.72597871518792 65.065745605408665 0 65.065745605408665 -103.6195522317812 0 0 0 0 681.50502575358314 -255.16197695312621 0 -255.16197695312621 -434.8723729392641 0 0 0 0 622.16202792503555 -254.62045802661351 0 -254.62045802661351 -434.74035667434691 0 0 0 0 332.72393884671555 -105.98455025702469 0 -105.98455025702469 63.871486408133933 0 0 0 0 -7.7837802080966867 75.455538816510852 0 75.455538816510852 -518.04445831188605 0 0 0 0 359.13993390234464 -97.531654927228374 0 -97.531654927228374 -236.1024943487173 0 0 0 0 -114.90498399449734 -197.67875159239429 0 -197.67875159239429 -198.39471801177888 0 0 0 0 -17.032566173562429 -168.24753400646591 0 -168.24753400646591 -83.231587424635563 0 0 0 0 19.99247571067167 -23.311717742971723 0 -23.311717742971723 -323.13452083783159 0 0 0 0 -21.267034484155033 -50.75022946696572 0 -50.75022946696572 -488.49746024014371 0 0 0 0 99.691430305496141 -70.857607947015822 0 -70.857607947015822 -853.41139205502805 0 0 0 0 19.253677875789514 0.76765650976424382 0 0.76765650976424382 -1.2549554745345279 0 0 0 0 124.20269388033148 25.899724701926061 0 25.899724701926061 -145.62281622384035 0 0 0 0 38.605261961017277 -14.117333102683915 0 -14.117333102683915 -90.620318968333777 0 0 0 0 81.864862716728112 34.725487617472027 0 34.725487617472027 -43.720391134867896 0 0 0 0 103.33883898088698 -77.515351002047282 0 -77.515351002047282 -28.77153946749786 0 0 0 0 105.7697566899742 -106.91224332601087 0 -106.91224332601087 -238.70143796736738 0 0 0 0 150.26801121921199 88.472043474576822 0 88.472043474576822 2.4431684048959141 0 0 0 0 -1.3769846323577299 -4.3227408849530207 0 -4.3227408849530207 -11.861784342526413 0 0 0 0 1014.6680556203719 398.63522444996579 0 398.63522444996579 -483.40052050037229 0 0 0 0 733.60458427127742 -90.772727893383944 0 -90.772727893383944 -895.75488058191149 0 0 0 0 -1354.6827036096684 -505.59639928242359 0 -505.59639928242359 -37.398016797469609 0 0 0 0 -545.70935322798687 -673.21202325067497 0 -673.21202325067497 -462.93072534549128 0 0 0 0 -636.95606744440556 11.433504867157353 0 11.433504867157353 -662.78454012060502 0 0 0 0 -82.777122166269692 -376.61896622017139 0 -376.61896622017139 -561.20170446408065 0 0 0 0 -405.92529458026002 -166.21502244890235 0 -166.21502244890235 -161.81079177874108 0 0 0 0 -388.87214158991719 -522.78757084500103 0 -522.78757084500103 -424.11649325206599 0 0 0 0 -338.81385090929507 -626.60048071590973 0 -626.60048071590973 -249.34824048120208 0 0 0 0 -654.65865621601733 -899.60138412147171 0 -899.60138412147171 -819.60457426759217 0 0 0 0 -110.89569461045176 -385.46996755489636 0 -385.46996755489636 26.879218898429826 0 0 0 0 -99.937380118384681 -480.08461936457479 0 -480.08461936457479 -1.7512054515318596 0 0 0 0 -108.6772744303089 -339.80810393621323 0 -339.80810393621323 -174.27647764366156 0 0 0 0 1.5170423007353406 -1.9698633213233592 0 -1.9698633213233592 -0.11786558155043458 0 0 0 0 -148.74198382666327 -397.58664657664485 0 -397.58664657664485 106.34056539840731 0 0 0 0 -117.32497570794476 -407.68859589760996 0 -407.68859589760996 13.045032136715236 0 0 0 0 -161.54494528269242 -293.75074687987762 0 -293.75074687987762 -694.10941526428178 0 0 0 0 -173.56470222421558 -547.22446412783984 0 -547.22446412783984 -536.16645435345345 0 0 0 0 -131.33085740640126 -516.77683109232566 0 -516.77683109232566 -961.9954354899246 0 0 0 0 -283.42172422120711 -325.87420909667981 0 -325.87420909667981 -429.23639580169947 0 0 0 0 -172.04809796390873 -299.86557271942593 0 -299.86557271942593 -490.68624678294327 0 0 0 0 -565.51179385389332 -570.08569644055387 0 -570.08569644055387 -363.19627865795246 0 0 0 0 -715.60811112697957 -216.55948359737704 0 -216.55948359737704 131.82088577354079 0 0 0 0 -604.25044709627036 -73.660422983231911 0 -73.660422983231911 210.56917754035885 0 0 0 0 -289.00485654728982 -399.97275016935237 0 -399.97275016935237 -583.30975270711269 0 0 0 0 -296.44028850594577 -372.24061658428491 0 -372.24061658428491 -217.79148429512497 0 0 0 0 -210.20494713948574 -293.13855316961235 0 -293.13855316961235 -327.75798180640595 0 0 0 0 -220.12936454679038 -74.592707532727218 0 -74.592707532727218 -238.77221208038463 0 0 0 0 -445.2913304289541 -145.80582058877917 0 -145.80582058877917 -156.6265424800622 0 0 0 0 -206.78075599089061 -28.133133532403008 0 -28.133133532403008 -129.08786011054326 0 0 0 0 -204.68680226551805 1.9703944135544589 0 1.9703944135544589 -283.67142082103237 0 0 0 0 -136.38963814453746 -98.20031928431672 0 -98.20031928431672 -355.75740393713568 0 0 0 0 -149.6407455771091 -144.96920051176221 0 -144.96920051176221 -169.27876455268415 0 0 0 0 -171.58093413238021 -124.86462250096884 0 -124.86462250096884 10.13418497931707 0 0 0 0 -113.95059131756352 -149.43178434536094 0 -149.43178434536094 -184.4674377773008 0 0 0 0 -99.186046145919818 -90.635122717604418 0 -90.635122717604418 -6.4966988500400475 0 0 0 0 0.4517456795383854 -1.9006005958884806 0 -1.9006005958884806 -1.7894584867185017 0 0 0 0 173.61992244461999 -99.531166680960268 0 -99.531166680960268 -230.95084489047531 0 0 0 0 -130.78512568024598 -124.35612920529638 0 -124.35612920529638 4.9589440471800117 0 0 0 0 -140.53635366314211 -118.19556431466481 0 -118.19556431466481 32.202398983899911 0 0 0 0 -127.6303373278497 -116.49718252591083 0 -116.49718252591083 10.614436774598289 0 0 0 0 -222.58986809892667 -246.69049569820982 0 -246.69049569820982 -216.18075557423072 0 0 0 0 -241.57857824005805 -322.78883446745203 0 -322.78883446745203 -429.43085014266165 0 0 0 0 -566.68174889474176 -342.73955940479846 0 -342.73955940479846 -172.47831935713839 0 0 0 0 -216.75607884161855 -148.88952026035804 0 -148.88952026035804 -72.549225762934839 0 0 0 0 -120.29945358828627 -281.70780606762401 0 -281.70780606762401 -208.69923098204572 0 0 0 0 -146.74460499697852 -199.1179825705467 0 -199.1179825705467 -36.832254783821554 0 0 0 0 0.99665880548500141 -2.9363436083556778 0 -2.9363436083556778 -3.0834745717139356 0 0 0 0 0.595964809767624 -1.7596374800666226 0 -1.7596374800666226 -1.6152303887241999 0 0 0 0 330.534476423039 -46.484729038384557 0 -46.484729038384557 -279.97773517796304 0 0 0 0 -146.69893839264751 -297.43932927604965 0 -297.43932927604965 -205.52847533739987 0 0 0 0 -77.362788107093365 -109.70416690852471 0 -109.70416690852471 40.44928929017442 0 0 0 0 -115.02453786691513 -120.65716381929906 0 -120.65716381929906 -47.469053077053104 0 0 0 0 -85.157776463767732 -74.695289893846166 0 -74.695289893846166 23.243671037394961 0 0 0 0 -131.23024502486624 -122.32038763039054 0 -122.32038763039054 7.4669475504833827 0 0 0 0 -119.56421938615131 -125.49912244353936 0 -125.49912244353936 -70.290243011750135 0 0 0 0 -256.16702251224524 -118.30254698554199 0 -118.30254698554199 -119.03954274425632 0 0 0 0 -110.81493527575913 -61.185331819457133 0 -61.185331819457133 -104.17936614880364 0 0 0 0 -121.3997923261486 -109.63943910148032 0 -109.63943910148032 -117.25531644995499 0 0 0 0 -12.484566527460629 -52.48570408901287 0 -52.48570408901287 -164.33165370869392 0 0 0 0 -75.668268216875731 -59.801200091813371 0 -59.801200091813371 -66.883050050669226 0 0 0 0 -73.221009078694237 -102.69799753937292 0 -102.69799753937292 -74.439736505155452 0 0 0 0 -91.27673205443898 -20.391993994062432 0 -20.391993994062432 -87.969577975884022 0 0 0 0 58.558514314503554 -11.305972490782551 0 -11.305972490782551 -33.441077715790016 0 0 0 0 63.939770106659125 -132.5612931133619 0 -132.5612931133619 -22.16424907905548 0 0 0 0 248.7095600370734 -214.57740708394303 0 -214.57740708394303 29.063622902351199 0 0 0 0 -9.5913373001573152 -21.987625125033535 0 -21.987625125033535 -46.57017608227796 0 0 0 0 1.9467016957074179 -1.8695358750303974 0 -1.8695358750303974 -18.720029614420426 0 0 0 0 165.12622556916904 -107.91165556407941 0 -107.91165556407941 -70.027634918820695 0 0 0 0 71.494705774097383 109.31690886058277 0 109.31690886058277 126.08374089722929 0 0 0 0 113.03468399953636 43.78286991961977 0 43.78286991961977 12.739702186976501 0 0 0 0 -15.549199072098418 -49.517633479244978 0 -49.517633479244978 -26.046679860650329 0 0 0 0 -37.169099630296841 -99.54487116841301 0 -99.54487116841301 -25.764160827017776 0 0 0 0 79.014439709844737 -14.641043329858803 0 -14.641043329858803 16.038939614401897 0 0 0 0 -3.2513776776678363 -15.576328456863257 0 -15.576328456863257 -45.676006856800832 0 0 0 0 -90.534515605435445 -9.4173747722852568 0 -9.4173747722852568 74.187452160127577 0 0 0 0 -8.200490296123462 -210.61034116116116 0 -210.61034116116116 -302.32004021407192 0 0 0 0 -145.07598971419793 -80.960142794316198 0 -80.960142794316198 70.413433301280747 0 0 0 0 -41.704366319754627 -67.069024355354486 0 -67.069024355354486 3.6860870593991422 0 0 0 0 31.563362503069584 47.871978685746399 0 47.871978685746399 69.051900239188399 0 0 0 0 772.95799117267643 -333.19357583957708 0 -333.19357583957708 -42.681573385807496 0 0 0 0 283.13700925037665 -283.46322458802615 0 -283.46322458802615 92.900488364844023 0 0 0 0 525.77025727516229 -138.68780661421897 0 -138.68780661421897 31.712604330964524 0 0 0 0 531.81090355969263 -411.37518157833802 0 -411.37518157833802 168.61320169497048 0 0 0 0 518.22705197925757 -272.22572389183284 0 -272.22572389183284 -10.98733673305469 0 0 0 0 271.03095830422717 -236.52574391656617 0 -236.52574391656617 119.4324959751325 0 0 0 0 461.1098193947455 -214.96413755176422 0 -214.96413755176422 -64.069777049246113 0 0 0 0 469.65641812068088 -138.18442825010061 0 -138.18442825010061 331.46804549910939 0 0 0 0 -1.769682448540868 -2.9346483987720298 0 -2.9346483987720298 -4.2067343744709476 0 0 0 0 51.985820995067115 294.54927779297122 0 294.54927779297122 348.76030104756501 0 0 0 0 -183.63568855091353 -96.604788180712148 0 -96.604788180712148 -3.3979487043689005 0 0 0 0 -171.60381387500274 -169.99118049572098 0 -169.99118049572098 -163.17615000152728 0 0 0 0 72.122827627630159 -114.33241727127461 0 -114.33241727127461 -53.553472304532079 0 0 0 0 245.30001230422295 -300.7942554805104 0 -300.7942554805104 -34.26215418132233 0 0 0 0 269.97646122675451 -222.2127686099127 0 -222.2127686099127 9.9482348967530925 0 0 0 0 145.45534808731736 -297.38240889931512 0 -297.38240889931512 -13.291066812166662 0 0 0 0 133.30983726489649 -267.87020385524295 0 -267.87020385524295 59.693681973577043 0 0 0 0 46.931382290579052 -167.97694608757973 0 -167.97694608757973 -26.984948058609007 0 0 0 0 36.391580463021285 -256.03020622144282 0 -256.03020622144282 54.639128454157799 0 0 0 0 91.350295591750807 -286.15841525906831 0 -286.15841525906831 81.868109837089037 0 0 0 0 133.38233589075344 -266.35303463032409 0 -266.35303463032409 26.297997123583912 0 0 0 0 270.28208360270617 -244.73982854525724 0 -244.73982854525724 16.836707483771193 0 0 0 0 133.14565031643383 -189.26544219151282 0 -189.26544219151282 3.2956208740886836 0 0 0 0 131.77799771409974 -287.01626064841696 0 -287.01626064841696 129.25562067623969 0 0 0 0 121.26672561503509 -259.71627227686849 0 -259.71627227686849 95.285358822224794 0 0 0 0 192.99254929152653 -186.37291469210606 0 -186.37291469210606 87.950879907092087 0 0 0 0 106.33480283578575 -205.75463205792852 0 -205.75463205792852 182.69739319146748 0 0 0 0 132.63415436825562 -258.60829057815107 0 -258.60829057815107 -1.5720664697844313 0 0 0 0 15.429342810889011 -174.18272518847789 0 -174.18272518847789 88.110643855914759 0 0 0 0 -27.790350214772388 -128.2501429944852 0 -128.2501429944852 215.39877595815875 0 0 0 0 -19.744101685480189 -213.63481955077492 0 -213.63481955077492 305.30230211237756 0 0 0 0 99.705535868453808 -308.68482500216226 0 -308.68482500216226 378.19025104509075 0 0 0 0 253.30092636698009 -215.4699183161207 0 -215.4699183161207 211.09795259427574 0 0 0 0 30.474938523202127 -25.582506774679686 0 -25.582506774679686 -38.534842481852536 0 0 0 0 95.694188209758067 -110.10338939792132 0 -110.10338939792132 474.62212602009555 0 0 0 0 106.78249555018829 -142.55123963851159 0 -142.55123963851159 139.1110783529216 0 0 0 0 -1.0765248923826789 -2.8531302091163857 0 -2.8531302091163857 0.59039597363468488 0 0 0 0 14.709068508024757 3.2068343719557788 0 3.2068343719557788 -53.185338664977962 0 0 0 0 14.790976508568747 64.150793074092007 0 64.150793074092007 60.361201621037367 0 0 0 0 -0.35484860573067145 -1.5831553783703125 0 -1.5831553783703125 0.76958995642888817 0 0 0 0 99.101806661929913 -199.65083460355925 0 -199.65083460355925 267.122951622188 0 0 0 0 1.8070638370927554 -114.8883880673211 0 -114.8883880673211 -228.24107933419896 0 0 0 0 22.614111267230328 -126.55690916292701 0 -126.55690916292701 202.94151509345636 0 0 0 0 -37.985838304280151 -105.8458936366751 0 -105.8458936366751 -186.38763014554536 0 0 0 0 -10.865905074278999 -102.64613414783366 0 -102.64613414783366 -186.01321430161443 0 0 0 0 -103.19478921617156 -69.563063984258179 0 -69.563063984258179 -52.784810569143247 0 0 0 0 -35.860184241189017 -139.59662632733534 0 -139.59662632733534 -281.20945362491921 0 0 0 0 -0.98205184238850052 -95.118620952742276 0 -95.118620952742276 -313.65524282020624 0 0 0 0 1.0932501487031914 -105.61435463488169 0 -105.61435463488169 -279.07306446703751 0 0 0 0 -21.359980213799645 -63.722335477846627 0 -63.722335477846627 -241.68677139913416 0 0 0 0 0.20170539559353529 -102.96956130592685 0 -102.96956130592685 -268.80215103999308 0 0 0 0 -52.138207912193366 -120.98765109576948 0 -120.98765109576948 -173.16843421521889 0 0 0 0 21.508802952922792 -60.407174715996916 0 -60.407174715996916 -271.00663819226656 0 0 0 0 -64.285498588960309 -121.84277449404726 0 -121.84277449404726 -115.23579753484705 0 0 0 0 64.584080854327794 -213.70289697795056 0 -213.70289697795056 -134.51864770378342 0 0 0 0 62.539825301382223 -240.47619190294552 0 -240.47619190294552 -59.430051732356105 0 0 0 0 7.1763219798319824 -88.136239064931033 0 -88.136239064931033 -156.76644888612873 0 0 0 0 2.6218076812504094 -3.2836795177226077 0 -3.2836795177226077 0.70937230162480913 0 0 0 0 196.40227626221531 -111.64436675885327 0 -111.64436675885327 -456.03672287596885 0 0 0 0 7.207931254087093 -11.58955817405962 0 -11.58955817405962 2.6923367854750291 0 0 0 0 -81.925898198416689 -304.63072293320101 0 -304.63072293320101 -432.98753349371691 0 0 0 0 387.44249538327495 -373.75234778112639 0 -373.75234778112639 375.97821174621532 0 0 0 0 -504.33840273429996 -350.63449469448142 0 -350.63449469448142 -41.310694723973938 0 0 0 0 -41.701296898618239 -65.985079481525645 0 -65.985079481525645 -213.01035185433375 0 0 0 0 292.75339896866171 -308.30893345041102 0 -308.30893345041102 89.175133734951032 0 0 0 0 -93.465868702116722 82.662432121075994 0 82.662432121075994 33.018315592326644 0 0 0 0 -128.54568696805472 -8.922926304364978 0 -8.922926304364978 318.52564676507654 0 0 0 0 -69.85891097979038 -34.6938697360481 0 -34.6938697360481 -8.8856319790727412 0 0 0 0 -72.307335070256158 -39.975077510464416 0 -39.975077510464416 134.54414946796453 0 0 0 0 -29.332364200671691 32.424519868759262 0 32.424519868759262 -66.530758210150566 0 0 0 0 -26.783532854583427 -67.753593829747615 0 -67.753593829747615 -43.117575592667436 0 0 0 0 -2.9247740808898719 -11.147074048653648 0 -11.147074048653648 5.2368041945788573 0 0 0 0 -0.77879304613879441 -2.4135778479261569 0 -2.4135778479261569 2.7656987356455969 0 0 0 0 106.38034529132801 -207.16964857961341 0 -207.16964857961341 369.59710217055135 0 0 0 0 -29.88083951799581 4.0950208291841363 0 4.0950208291841363 39.043448894369476 0 0 0 0 -8.0154595276271721 -8.1758272947348587 0 -8.1758272947348587 -2.1443781275122547 0 0 0 0 -0.53672058472133877 -5.2136951113716634 0 -5.2136951113716634 0.16860728979009476 0 0 0 0 1.21514383094837 0.43583175786426231 0 0.43583175786426231 -1.473426601783915 0 0 0 0 -153.76030793840073 -152.76756421016785 0 -152.76756421016785 -136.4050403070944 0 0 0 0 4.8811256514029537 0.37376559116840724 0 0.37376559116840724 -10.895356856422836 0 0 0 0 0.69856925560543459 -253.68878203020518 0 -253.68878203020518 -150.09940440233254 0 0 0 0 31.256603514289964 -124.56028373466052 0 -124.56028373466052 -200.20801908753344 0 0 0 0 5.4655105497589282 -4.2979281537412239 0 -4.2979281537412239 0.84755325665822867 0 0 0 0 125.1748652345068 -88.383449231218833 0 -88.383449231218833 -171.65335980109103 0 0 0 0 31.061178036179967 -109.81422558100013 0 -109.81422558100013 255.57312224313523 0 0 0 0 1.9231248209679421 -1.6357681621356095 0 -1.6357681621356095 0.70777584356030632 0 0 0 0 58.512507217634266 -217.28789272445692 0 -217.28789272445692 -92.062662980926916 0 0 0 0 213.74935473629739 -278.83846842807884 0 -278.83846842807884 -68.521213479371681 0 0 0 0 257.17668397212196 -62.609073790955193 0 -62.609073790955193 -63.271868079593787 0 0 0 0 38.686360390525806 -155.39297969449399 0 -155.39297969449399 -100.31299752211839 0 0 0 0 -0.86569936226260324 -47.955275663340217 0 -47.955275663340217 -4.6855955366480657 0 0 0 0 16.062104467811878 -156.5592640235393 0 -156.5592640235393 111.55173189218843 0 0 0 0 299.74923686871716 -311.59427281809758 0 -311.59427281809758 -204.33208533484594 0 0 0 0 56.259321271087174 1.3660291619080454 0 1.3660291619080454 80.610420061783145 0 0 0 0 -76.372576394575844 -238.39973332745632 0 -238.39973332745632 -151.42479355252362 0 0 0 0 -6.3298213122807283 -259.99706898875411 0 -259.99706898875411 -150.90080893924051 0 0 0 0 57.051968646526802 -157.29304921554581 0 -157.29304921554581 -104.16852014343158 0 0 0 0 65.918843744816854 -281.27817969102409 0 -281.27817969102409 -184.29566127705493 0 0 0 0 -47.25768246061125 -345.81801731083351 0 -345.81801731083351 -233.34511798980247 0 0 0 0 68.264882212355587 -271.40002402745358 0 -271.40002402745358 -197.7416625437304 0 0 0 0 79.071291194887635 -310.7883019824144 0 -310.7883019824144 -284.96309229438612 0 0 0 0 92.609240149928155 -334.06486992575901 0 -334.06486992575901 -303.03252714733844 0 0 0 0 75.946161242139169 -238.62000835512094 0 -238.62000835512094 -229.68086732626853 0 0 0 0 49.549964359044452 -317.01709962976139 0 -317.01709962976139 -243.14738801785506 0 0 0 0 78.832068393956433 -225.75538285966877 0 -225.75538285966877 -265.17760329216435 0 0 0 0 -47.783667588939579 -145.29219827391637 0 -145.29219827391637 -299.87504088271726 0 0 0 0 86.809098282303012 -271.0949850005357 0 -271.0949850005357 -354.7939228474188 0 0 0 0 141.99654592490879 -316.25927781514793 0 -316.25927781514793 -317.83314161425187 0 0 0 0 136.77032661284466 -310.67921404254571 0 -310.67921404254571 -311.99646333905366 0 0 0 0 119.79420241200796 -343.8889755621318 0 -343.8889755621318 -316.7452288853674 0 0 0 0 144.30964466863679 -285.28542676955476 0 -285.28542676955476 -284.05381216371279 0 0 0 0 174.82932793168493 -294.07325766249869 0 -294.07325766249869 -335.22843127031956 0 0 0 0 105.2220478969557 -319.60485169939466 0 -319.60485169939466 -350.32016239712402 0 0 0 0 127.20476331794816 -330.52732972662295 0 -330.52732972662295 -366.98182026681297 0 0 0 0 79.429342577017906 -355.67455397890444 0 -355.67455397890444 -310.82457628334578 0 0 0 0 61.881197460652402 -347.48862969903666 0 -347.48862969903666 -304.9185962491074 0 0 0 0 11.762363380747502 -434.06102451631557 0 -434.06102451631557 -399.53015880468229 0 0 0 0 103.07536487147445 -357.90732469055774 0 -357.90732469055774 -393.62801350032322 0 0 0 0 592.14088120513406 -636.86480689768905 0 -636.86480689768905 -1309.047738823112 0 0 0 0 -282.03272839441888 -383.8254174908102 0 -383.8254174908102 -205.62969423103345 0 0 0 0 -23.940770496163623 -123.45711340167645 0 -123.45711340167645 -498.96473130188406 0 0 0 0 -2.4003088971858233 -86.414319473012711 0 -86.414319473012711 -581.06065115083447 0 0 0 0 54.860164688891928 82.244098264916829 0 82.244098264916829 -966.57803138215786 0 0 0 0 -178.2867703382226 -218.23020717803411 0 -218.23020717803411 -661.16151200427794 0 0 0 0 27.201888217015977 -18.379550263220153 0 -18.379550263220153 -660.15215570799637 0 0 0 0 10.028151344619118 -130.46020389786418 0 -130.46020389786418 -462.44885367714221 0 0 0 0 20.94485559124962 -36.104467232516839 0 -36.104467232516839 -433.68537707828091 0 0 0 0 -61.301139677595074 -126.22134691754809 0 -126.22134691754809 -310.76866679021623 0 0 0 0 -30.389118159525424 -37.072188245212146 0 -37.072188245212146 -304.56108099902531 0 0 0 0 -10.824572761662125 -56.284090677960762 0 -56.284090677960762 -339.71837608201895 0 0 0 0 -138.03096486934919 -54.530799093854284 0 -54.530799093854284 -408.42060540602688 0 0 0 0 -0.78698779606747848 -90.015533515399056 0 -90.015533515399056 -401.47521191794203 0 0 0 0 50.995449422533511 -161.11928419410924 0 -161.11928419410924 -412.67912062096912 0 0 0 0 82.002385028084973 -125.42186625277918 0 -125.42186625277918 -427.32154366441182 0 0 0 0 134.13253372158397 -237.95303215338117 0 -237.95303215338117 -374.45700352112453 0 0 0 0 161.98215101950791 -276.164044449431 0 -276.164044449431 -423.31978017388701 0 0 0 0 50.325674620027712 -67.836938800549433 0 -67.836938800549433 -553.8709504434064 0 0 0 0 164.83298838538303 -165.92573605862322 0 -165.92573605862322 -578.79904102205001 0 0 0 0 50.448756243228672 -85.824417425933461 0 -85.824417425933461 -457.75675379397489 0 0 0 0 216.9001560820243 -271.74052000072152 0 -271.74052000072152 -487.35527963871027 0 0 0 0 -222.27148735411447 27.644471940707263 0 27.644471940707263 -586.73375998828533 0 0 0 0 209.4758171453559 -67.564499802576393 0 -67.564499802576393 -960.57119934104594 0 0 0 0 -237.03794278478927 -125.57702307584805 0 -125.57702307584805 -67.378895776473655 0 0 0 0 301.49409442698015 -531.56049701227857 0 -531.56049701227857 -752.29875347692132 0 0 0 0 -0.50616530342028021 -5.1799574992065427 0 -5.1799574992065427 -1.9292319670785494 0 0 0 0 199.62227635275667 -308.57979325467113 0 -308.57979325467113 -519.23837725452358 0 0 0 0 118.54526502829412 -468.16903665419841 0 -468.16903665419841 -64.91201196278962 0 0 0 0 248.28679408762127 -140.12844443493896 0 -140.12844443493896 -62.22846133355457 0 0 0 0 174.59618922526624 -359.4726185390723 0 -359.4726185390723 -312.47534590652231 0 0 0 0 197.07569648446224 -259.72515244031729 0 -259.72515244031729 -241.00277359602842 0 0 0 0 154.018668568252 -329.80328491073624 0 -329.80328491073624 -290.8193168568323 0 0 0 0 202.93886320669299 -167.70270081402396 0 -167.70270081402396 -112.39788885454391 0 0 0 0 226.22916773290763 -218.87713863060753 0 -218.87713863060753 -242.02029856026206 0 0 0 0 186.64302472754844 -266.42334832714596 0 -266.42334832714596 -210.53925685362083 0 0 0 0 315.68935835882485 -60.290155655426133 0 -60.290155655426133 -31.356310133377974 0 0 0 0 315.5633377125115 -207.62260350030556 0 -207.62260350030556 -92.981467605158286 0 0 0 0 27.684835104188323 -16.217667343767744 0 -16.217667343767744 -35.374479331525436 0 0 0 0 -2.5345989787150049 -13.319390235779096 0 -13.319390235779096 -17.650678232262788 0 0 0 0 267.82888612986244 -184.54992962981578 0 -184.54992962981578 96.5362660494593 0 0 0 0 22.521793984815631 -5.0713761268659709 0 -5.0713761268659709 -646.40735514939934 0 0 0 0 5.4789467317622806 1.3865966833651262 0 1.3865966833651262 -3.6836866693616948 0 0 0 0 31.108256937813167 -28.160970109923255 0 -28.160970109923255 -52.061579781931414 0 0 0 0 25.599722537338039 -32.242981963776629 0 -32.242981963776629 -30.4912209500053 0 0 0 0 23.977604782581587 0.37066352929964452 0 0.37066352929964452 -4.0519793510832791 0 0 0 0 18.330905316935969 -26.867497253768306 0 -26.867497253768306 -11.737507653004286 0 0 0 0 17.977708746707322 -29.154703022438298 0 -29.154703022438298 -25.526735016541352 0 0 0 0 8.572725684285615 -22.792871155847024 0 -22.792871155847024 -11.92660894672008 0 0 0 0 2.0452837561915658 -34.049694977161607 0 -34.049694977161607 5.6274029885425989 0 0 0 0 -6.3796250870245785 -17.887781054693733 0 -17.887781054693733 -8.1407339747033802 0 0 0 0 -3.3525428660390091 -12.861491051799216 0 -12.861491051799216 -15.189226574170611 0 0 0 0 -1.3809900505229962 -22.486767065382082 0 -22.486767065382082 -9.6745932240010006 0 0 0 0 113.366784707232 49.391848774040227 0 49.391848774040227 24.291713067699675 0 0 0 0 356.73248792569893 7.4720411512698774 0 7.4720411512698774 -68.092069410179192 0 0 0 0 336.62454342749754 -39.413673111179151 0 -39.413673111179151 -95.395993119556806 0 0 0 0 -5.6691873706961706 -12.912255015807453 0 -12.912255015807453 -16.534096017070372 0 0 0 0 16.343838251304078 -27.724960526801624 0 -27.724960526801624 -12.094707397020102 0 0 0 0 284.09582509309485 -140.46464893911718 0 -140.46464893911718 -200.5182952075329 0 0 0 0 336.58632064070662 -30.165833942884092 0 -30.165833942884092 -135.2764001749797 0 0 0 0 297.50750023663977 22.213592772217908 0 22.213592772217908 -156.23698898959719 0 0 0 0 264.49754021959575 -148.55420058200434 0 -148.55420058200434 -190.42969056885704 0 0 0 0 333.11762212891404 -37.911236491745058 0 -37.911236491745058 -112.37092714311257 0 0 0 0 504.29840967449127 19.94289890910386 0 19.94289890910386 -101.8319841833661 0 0 0 0 348.12557249257361 -94.752754712568731 0 -94.752754712568731 95.889928342801795 0 0 0 0 266.14535983492033 101.82911708780011 0 101.82911708780011 163.37995668755593 0 0 0 0 248.33005572196544 59.274568289061335 0 59.274568289061335 61.732589293533238 0 0 0 0 330.66248783612286 -391.54975794281745 0 -391.54975794281745 -344.17655200812806 0 0 0 0 395.23367290324177 108.00716015959915 0 108.00716015959915 -33.360168193514255 0 0 0 0 -541.8138105545911 -567.35282477480814 0 -567.35282477480814 -108.10429157740964 0 0 0 0 -1192.5466253218142 -281.70267660491663 0 -281.70267660491663 153.75400559357331 0 0 0 0 0.37033058880430492 -1.8654648792548558 0 -1.8654648792548558 0.29136249534105474 0 0 0 0 1714.3923018508231 -870.07762403885044 0 -870.07762403885044 -1216.423907989345 0 0 0 0 844.79684499334553 343.90831746549838 0 343.90831746549838 19.008928617957281 0 0 0 0 361.30190337038403 -212.59097934155307 0 -212.59097934155307 -609.7996765234584 0 0 0 0 -176.55235206788257 -498.17222538855367 0 -498.17222538855367 -596.89137924935858 0 0 0 0 751.97348329558099 -1165.5597669725521 0 -1165.5597669725521 712.40475014008553 0 0 0 0 -2.6846817867407466 -7.4061377815716813 0 -7.4061377815716813 1.3715930115700363 0 0 0 0 2.2613331279439493 -2.4204153174297698 0 -2.4204153174297698 -3.6680706628339124 0 0 0 0 -226.4281014866483 -243.49532955886571 0 -243.49532955886571 -201.4823854836377 0 0 0 0 -590.26425912484228 -402.65572424821767 0 -402.65572424821767 -268.18580757592645 0 0 0 0 348.30627273879122 162.75626239751637 0 162.75626239751637 78.817597546047182 0 0 0 0 239.96428054607168 -97.949556957340974 0 -97.949556957340974 -328.60952958679809 0 0 0 0 4.1858620840897824 -5.7422713644952772 0 -5.7422713644952772 -0.70361355270101278 0 0 0 0 11.790670634816706 -149.91972260375769 0 -149.91972260375769 -260.62020454269077 0 0 0 0 93.979072776757675 -272.30530409925359 0 -272.30530409925359 -664.45296465334059 0 0 0 0 -138.21834515606497 -213.620657213703 0 -213.620657213703 -550.0908936895471 0 0 0 0 199.63218748531335 -48.316163772018854 0 -48.316163772018854 94.445285997758219 0 0 0 0 -55.70328646721714 102.83829375101504 0 102.83829375101504 -861.12803023740889 0 0 0 0 -2.5941366121269809 -4.2780037712561949 0 -4.2780037712561949 -1.2682136138236766 0 0 0 0 276.27018657104418 -120.48948043042674 0 -120.48948043042674 -1504.4469315372139 0 0 0 0 -15.622075643264907 3.9827702581478661 0 3.9827702581478661 -261.56875782249972 0 0 0 0 -30.98931840020191 -374.16179550868441 0 -374.16179550868441 -782.81326841573537 0 0 0 0 21.898235556891564 -70.150890760384527 0 -70.150890760384527 -249.75338002402441 0 0 0 0 211.02905246384671 -178.51766372233942 0 -178.51766372233942 -521.79311298665789 0 0 0 0 224.98887045848369 -107.99389065193191 0 -107.99389065193191 -230.96169300626889 0 0 0 0 192.98606823670343 -1.8649154006925528 0 -1.8649154006925528 14.869468510880324 0 0 0 0 258.19234828507342 62.954595248578244 0 62.954595248578244 10.915150993516363 0 0 0 0 256.13935705683434 -47.148028870919006 0 -47.148028870919006 65.12595213752229 0 0 0 0 184.50942343255156 51.279190097431638 0 51.279190097431638 78.184586271152511 0 0 0 0 219.70675837071121 -0.10013817386516166 0 -0.10013817386516166 -297.34682792982403 0 0 0 0 85.902521171087756 55.343275809737861 0 55.343275809737861 29.357657088725318 0 0 0 0 77.308546570846374 -11.644879848220626 0 -11.644879848220626 154.92533154899093 0 0 0 0 165.00019491710191 -109.91106574787409 0 -109.91106574787409 -215.90922897183555 0 0 0 0 288.43044043170084 -147.86481345073844 0 -147.86481345073844 141.07959194682962 0 0 0 0 151.05964171236019 -54.712089504342202 0 -54.712089504342202 313.15219688768593 0 0 0 0 225.3814028918132 -61.91064222769819 0 -61.91064222769819 677.01735898614243 0 0 0 0 340.86252671163675 -199.4530788755078 0 -199.4530788755078 -260.59719821118779 0 0 0 0 551.56959958471089 -695.47274961403218 0 -695.47274961403218 59.664539791270727 0 0 0 0 377.25546828805545 -427.1635965242167 0 -427.1635965242167 515.9101502858648 0 0 0 0 369.14225506940693 -314.92110205783274 0 -314.92110205783274 356.60629926024376 0 0 0 0 274.5937841070031 -328.95002876145418 0 -328.95002876145418 521.4139292621021 0 0 0 0 518.28459761903832 -705.58812171099089 0 -705.58812171099089 472.54222445365417 0 0 0 0 522.23682332390035 -360.67884577880977 0 -360.67884577880977 196.86480939447483 0 0 0 0 292.9585786624873 -163.79694671598781 0 -163.79694671598781 149.36660229816698 0 0 0 0 350.4884877844288 -109.22225684474051 0 -109.22225684474051 167.44368848476734 0 0 0 0 289.85771110962105 8.2766097105395602 0 8.2766097105395602 -9.1162515937612625 0 0 0 0 378.23764598589332 -167.63560700183643 0 -167.63560700183643 62.844796975627105 0 0 0 0 482.8890369548426 -140.46471355658468 0 -140.46471355658468 -41.913766294692323 0 0 0 0 451.86852434258662 -89.01276589113877 0 -89.01276589113877 -39.697173201591795 0 0 0 0 756.56324435222814 -249.49163836781372 0 -249.49163836781372 -39.350149837751815 0 0 0 0 988.13168156365464 -157.99505258698264 0 -157.99505258698264 -194.38940680797168 0 0 0 0 1194.0681211881247 -107.95553969386128 0 -107.95553969386128 -268.71325768107636 0 0 0 0 1088.2481993398007 -623.07079955595964 0 -623.07079955595964 -15.041175678481522 0 0 0 0 1127.4553493348567 -637.75701205696168 0 -637.75701205696168 -66.137297671906708 0 0 0 0 1934.9767025994934 -1024.7809100906597 0 -1024.7809100906597 70.180349289119476 0 0 0 0 849.18836597531663 -991.89089075862466 0 -991.89089075862466 412.19389734624565 0 0 0 0 1227.6394532172312 -839.11177690706791 0 -839.11177690706791 77.103669739313773 0 0 0 0 812.44203323833244 -686.44099790056498 0 -686.44099790056498 64.894324438261947 0 0 0 0 624.39928721178717 -421.69451866326744 0 -421.69451866326744 39.958508185474784 0 0 0 0 1004.087102897015 -534.24206478025008 0 -534.24206478025008 -106.78658265332342 0 0 0 0 724.7082013240306 -441.73471622316356 0 -441.73471622316356 31.686278706994926 0 0 0 0 528.93428449565272 -611.55597657707631 0 -611.55597657707631 226.26269985917679 0 0 0 0 503.6201841203856 -686.00503067163299 0 -686.00503067163299 187.66662999384971 0 0 0 0 645.43189596159073 -719.64000319892057 0 -719.64000319892057 155.50696254842478 0 0 0 0 838.36087375739135 -747.91695632266692 0 -747.91695632266692 124.13329241432075 0 0 0 0 663.99889943579001 -693.26215031456377 0 -693.26215031456377 109.25025780816395 0 0 0 0 646.01834359838358 -785.61908782869978 0 -785.61908782869978 237.73795797551065 0 0 0 0 472.8945651116519 -805.20719727131291 0 -805.20719727131291 468.72641676762214 0 0 0 0 786.77419843380267 -868.73873326367266 0 -868.73873326367266 280.13279308367055 0 0 0 0 414.9091945111777 -691.83711726141519 0 -691.83711726141519 360.72386058351185 0 0 0 0 475.22869151315717 -726.59317897548317 0 -726.59317897548317 379.04191173873187 0 0 0 0 636.30219609818869 -743.39819175196862 0 -743.39819175196862 209.88616481864301 0 0 0 0 357.46578801067608 -553.39733243588444 0 -553.39733243588444 185.97069796966753 0 0 0 0 508.22532246638002 -677.28644802723102 0 -677.28644802723102 204.09132182631674 0 0 0 0 318.36998370648871 -539.3080048216907 0 -539.3080048216907 271.77956361960605 0 0 0 0 423.39985086311208 -539.04465045265169 0 -539.04465045265169 51.907313953544872 0 0 0 0 554.73010988464921 -785.29357601368247 0 -785.29357601368247 256.09891409836564 0 0 0 0 -497.12693706550505 -116.98740164580977 0 -116.98740164580977 41.442950997767184 0 0 0 0 0.17685081745591144 -7.8966012786826338 0 -7.8966012786826338 4.2784995005395174 0 0 0 0 402.72042150244761 -171.34095611388545 0 -171.34095611388545 31.55825690630445 0 0 0 0 130.4917041291701 -333.91347186242092 0 -333.91347186242092 148.74378307664665 0 0 0 0 72.684117792367033 -52.278096061536417 0 -52.278096061536417 362.61982425296992 0 0 0 0 -162.75898516811571 -264.35843905205002 0 -264.35843905205002 -73.886946685726571 0 0 0 0 -396.44670536604553 -55.770048187559041 0 -55.770048187559041 -113.96764963022906 0 0 0 0 340.23373790951291 -26.5866651356273 0 -26.5866651356273 -180.60923804010417 0 0 0 0 288.23595924654228 16.575578375671284 0 16.575578375671284 32.839400934587502 0 0 0 0 67.839693573726436 -169.01493580561873 0 -169.01493580561873 -44.780191050864232 0 0 0 0 258.69595058708296 4.1505442154993943 0 4.1505442154993943 -43.651021584239061 0 0 0 0 -4.2946660545183022 -63.84223795787193 0 -63.84223795787193 -72.042251232265698 0 0 0 0 -133.72713994358193 -156.44211477045832 0 -156.44211477045832 51.387096019672754 0 0 0 0 14.513078609371405 -180.32735717366086 0 -180.32735717366086 -42.63213997456478 0 0 0 0 431.87637479657866 -163.08503182759364 0 -163.08503182759364 -53.776060241470987 0 0 0 0 60.483609300747958 52.782882695018998 0 52.782882695018998 -1.9276722831891675 0 0 0 0 -246.71999979671318 -149.03085458168061 0 -149.03085458168061 48.975932561041191 0 0 0 0 428.80022872577774 439.71658619778373 0 439.71658619778373 -201.97191874103009 0 0 0 0 -89.514315137722633 -125.22627002363879 0 -125.22627002363879 -71.258553128855056 0 0 0 0 -35.543480096174335 -228.12056959203255 0 -228.12056959203255 -375.69604030007395 0 0 0 0 -92.556046792241659 -116.30138834914305 0 -116.30138834914305 -74.321006855348969 0 0 0 0 -19.388454108448318 -5.8117611447536888 0 -5.8117611447536888 5.7445525548727119 0 0 0 0 -134.36607409343486 -119.25679538474657 0 -119.25679538474657 -18.541331585151056 0 0 0 0 -165.52555425891572 -114.1037234391797 0 -114.1037234391797 -10.701272617412542 0 0 0 0 49.880155972401099 -69.025752969138011 0 -69.025752969138011 67.592107800010126 0 0 0 0 54.707131448057225 -82.104575678001311 0 -82.104575678001311 19.994719953363528 0 0 0 0 -0.12632296919756908 -10.86040726992236 0 -10.86040726992236 10.828431174840532 0 0 0 0 35.074235258052795 -69.593841489341685 0 -69.593841489341685 96.980828290668796 0 0 0 0 -209.8678930603437 152.33696705243528 0 152.33696705243528 322.54769042352018 0 0 0 0 11.765804395214435 -7.414372289855951 0 -7.414372289855951 3.079378575957465 0 0 0 0 3.7398941262480392 0.60043460188996534 0 0.60043460188996534 -0.066173395096313925 0 0 0 0 -134.35887695004368 -224.8813920450086 0 -224.8813920450086 -427.6124853775018 0 0 0 0 -482.80740247530048 -288.83471791098418 0 -288.83471791098418 159.37087006073079 0 0 0 0 -66.644338754370438 -118.25177585776828 0 -118.25177585776828 464.99941450564074 0 0 0 0 -175.21758814259101 -219.16638520980359 0 -219.16638520980359 371.29436872846782 0 0 0 0 25.399620849064377 -109.82536944120557 0 -109.82536944120557 180.48320475906257 0 0 0 0 44.387910699138956 -86.942212836508588 0 -86.942212836508588 72.672572633692653 0 0 0 0 -311.68407746896628 -372.0004866169711 0 -372.0004866169711 -112.26082608158322 0 0 0 0 -348.09787770488947 -268.1722069210773 0 -268.1722069210773 54.695837638837475 0 0 0 0 -226.45127554338796 -243.884038712642 0 -243.884038712642 -337.32499473031203 0 0 0 0 -369.36970040259075 -439.69000618702739 0 -439.69000618702739 -190.43219959079664 0 0 0 0 -296.91495736564138 -311.59266149030918 0 -311.59266149030918 -188.84910032859938 0 0 0 0 -445.84400514921163 -382.92408662607068 0 -382.92408662607068 261.87053123499027 0 0 0 0 -133.21595260571303 -616.49258196348728 0 -616.49258196348728 -235.76100636080446 0 0 0 0 -191.85433591004949 -143.47792735353323 0 -143.47792735353323 156.93708046549909 0 0 0 0 -120.35696807025215 55.751900435717289 0 55.751900435717289 369.08890777952257 0 0 0 0 -347.97276470540601 -144.20197313604967 0 -144.20197313604967 245.00729497822977 0 0 0 0 -333.23921753241302 -208.69320396534681 0 -208.69320396534681 64.807470269006444 0 0 0 0 -285.29532786352502 -220.29490069710118 0 -220.29490069710118 50.46477291988424 0 0 0 0 -254.3512720214494 -175.67274998998346 0 -175.67274998998346 -33.322352467597739 0 0 0 0 -142.89115248410053 -83.675364432624519 0 -83.675364432624519 27.441601382573936 0 0 0 0 -240.42296747877208 -123.51082563033469 0 -123.51082563033469 -32.574378236762641 0 0 0 0 -239.73784645432534 -143.37996406682032 0 -143.37996406682032 0.75997142956475727 0 0 0 0 -264.83641789258036 -139.43144421150714 0 -139.43144421150714 -5.3419859553541755 0 0 0 0 -2.0051683534514595 -0.98259877768727222 0 -0.98259877768727222 2.5607421358772768 0 0 0 0 2.3044519996610688 -150.98127148199455 0 -150.98127148199455 154.41682159690754 0 0 0 0 -1.1593298271404926 -0.53590834888525407 0 -0.53590834888525407 1.6146847176343044 0 0 0 0 -144.94896333434735 -267.21529664264199 0 -267.21529664264199 -209.56836742810992 0 0 0 0 -137.79326571823981 -315.23276495336563 0 -315.23276495336563 97.171480295812216 0 0 0 0 -165.38670684553244 -120.98179487796233 0 -120.98179487796233 -90.391180916922167 0 0 0 0 -137.06895915084897 -68.532514093429199 0 -68.532514093429199 -40.926489485414095 0 0 0 0 -6.5724867390185864 -208.89816013535119 0 -208.89816013535119 58.900830302274699 0 0 0 0 49.308576099229413 44.635768817893222 0 44.635768817893222 -93.565366895541956 0 0 0 0 -139.1830348270405 -204.42260228693158 0 -204.42260228693158 -312.25000608927621 0 0 0 0 -114.5654825907568 -274.98489133910334 0 -274.98489133910334 -437.07473761317453 0 0 0 0 102.57906225797797 -244.96103187842709 0 -244.96103187842709 -440.32615279409765 0 0 0 0 -120.32857689892262 -124.02029718177948 0 -124.02029718177948 -268.95056685879172 0 0 0 0 -227.15695383358161 -262.09535845446135 0 -262.09535845446135 -284.62459192407925 0 0 0 0 -242.68096965948553 -192.08312637956806 0 -192.08312637956806 -108.72057543153392 0 0 0 0 -266.31145060523068 -145.4979745815499 0 -145.4979745815499 -39.552081692276261 0 0 0 0 -123.7026979912257 -25.433835344906129 0 -25.433835344906129 -9.1689423472744238 0 0 0 0 -337.32672165415534 -272.67952896065162 0 -272.67952896065162 -70.139261774676015 0 0 0 0 -0.4364507005349374 -2.1166295229997782 0 -2.1166295229997782 1.0678767206839144 0 0 0 0 -181.99344496389261 -426.67323100450915 0 -426.67323100450915 -686.52042512791377 0 0 0 0 -189.71977768904799 -327.1192150421748 0 -327.1192150421748 -85.072056894464367 0 0 0 0 -487.4175988312569 -405.93121931667656 0 -405.93121931667656 -57.435149548999107 0 0 0 0 6.4758104994398309 -426.89090879938976 0 -426.89090879938976 -354.72266787324133 0 0 0 0 83.119424395734768 -239.56083006529479 0 -239.56083006529479 75.229657224546827 0 0 0 0 -13.279050438214654 -68.559981500909998 0 -68.559981500909998 19.425261809066797 0 0 0 0 -13.01800105907023 -56.478346914231224 0 -56.478346914231224 301.35456930846613 0 0 0 0 24.727276783199159 -43.374526701411924 0 -43.374526701411924 -10.460850465243311 0 0 0 0 18.816369769871017 -62.181361039124567 0 -62.181361039124567 4.4332837133124485 0 0 0 0 -8.4799497437334139 -22.623842110741862 0 -22.623842110741862 -4.5328770288906526 0 0 0 0 -7.1514746792392998 -32.745609388163302 0 -32.745609388163302 57.970972614753919 0 0 0 0 -0.49907526736692631 -3.9663462295904601 0 -3.9663462295904601 2.4499880830635661 0 0 0 0 -89.034391519229757 -362.59554039830891 0 -362.59554039830891 -617.19519697256965 0 0 0 0 -234.90700177368126 -168.01181636138335 0 -168.01181636138335 71.926828368181305 0 0 0 0 -127.27645459659288 -177.31497324742031 0 -177.31497324742031 -1.7243161058322585 0 0 0 0 -59.439029291694169 -94.69529173857245 0 -94.69529173857245 54.068174461629496 0 0 0 0 -170.44473849847964 -240.90175297834503 0 -240.90175297834503 158.77196887926675 0 0 0 0 -164.75509567190534 -339.16918743738211 0 -339.16918743738211 -10.964332169105546 0 0 0 0 -225.49861705538569 -235.95853082296253 0 -235.95853082296253 -51.851940101354558 0 0 0 0 -168.76216112060274 -251.39894670613785 0 -251.39894670613785 -60.647825984946394 0 0 0 0 -330.04463326342579 -177.35714259923628 0 -177.35714259923628 -53.961399296287709 0 0 0 0 -242.68644688542759 -281.58593356907113 0 -281.58593356907113 -98.832944886209589 0 0 0 0 -319.06827704094758 -256.31302852969384 0 -256.31302852969384 -57.389161151661938 0 0 0 0 -461.59040679231543 -185.37128047755914 0 -185.37128047755914 -88.523179252249975 0 0 0 0 -415.02844089587143 -312.24605255279084 0 -312.24605255279084 -255.37339142456858 0 0 0 0 -234.94241167636392 -165.45640132612789 0 -165.45640132612789 -106.02457801200916 0 0 0 0 -447.42137153127806 -192.8518535931953 0 -192.8518535931953 12.275560144041265 0 0 0 0 -416.06130604806458 -367.0019891257225 0 -367.0019891257225 -200.46738250820636 0 0 0 0 -1.3033923831198564 -0.58436019641825965 0 -0.58436019641825965 1.1655566123706862 0 0 0 0 -441.46352205338462 -204.96318936215903 0 -204.96318936215903 -26.941820223779359 0 0 0 0 -547.63569293228829 -74.089522401416616 0 -74.089522401416616 10.863798353870436 0 0 0 0 -0.63504323869536172 -1.0957858081436953 0 -1.0957858081436953 0.12041636645835752 0 0 0 0 310.0500511846426 -204.52849045856829 0 -204.52849045856829 -63.194615668973711 0 0 0 0 38.402477096744406 -44.407694951799385 0 -44.407694951799385 12.214956200128654 0 0 0 0 77.417428038728758 -52.617350911970789 0 -52.617350911970789 -41.460483991324736 0 0 0 0 106.54072235229251 -133.16705313863713 0 -133.16705313863713 64.279926860271189 0 0 0 0 119.39132438678644 -207.90209451143801 0 -207.90209451143801 -62.720030035249692 0 0 0 0 -0.59352775719859707 -1.054340642928409 0 -1.054340642928409 1.6094971077398554 0 0 0 0 65.568419482780882 -99.98534923536954 0 -99.98534923536954 133.70040492383669 0 0 0 0 -187.52874335528759 -15.825718228787991 0 -15.825718228787991 7.8687710907313431 0 0 0 0 -135.86194763428011 -56.706452127556531 0 -56.706452127556531 -29.1108840562556 0 0 0 0 -0.60734672842352566 -2.8828397182820993 0 -2.8828397182820993 1.4073862666389587 0 0 0 0 -137.31490626302968 -27.91360591289407 0 -27.91360591289407 21.991397878551652 0 0 0 0 8.667389641454065 -17.891844107278303 0 -17.891844107278303 2.5076961191352893 0 0 0 0 0.19828084719026151 -9.5681146642622306 0 -9.5681146642622306 12.104919866397584 0 0 0 0 231.99560040867345 14.075069406769671 0 14.075069406769671 -26.402985330307274 0 0 0 0 38.243796431601368 -75.757486469104151 0 -75.757486469104151 -25.539876468325168 0 0 0 0 -264.10940216325253 -196.9356484195232 0 -196.9356484195232 -172.99558680008408 0 0 0 0 -327.74244548453044 -142.86576993782546 0 -142.86576993782546 10.552871038864396 0 0 0 0 -274.46534959702331 -162.95075237240144 0 -162.95075237240144 -113.99856715739952 0 0 0 0 -293.56782653360824 -103.78465472759035 0 -103.78465472759035 1.3535223089747888 0 0 0 0 -119.62964820647903 -89.775019248378157 0 -89.775019248378157 27.714453945163541 0 0 0 0 -238.2996122742752 -117.33750001710177 0 -117.33750001710177 31.524577963378761 0 0 0 0 -135.29778631461937 -82.053596864032357 0 -82.053596864032357 -19.067560143110313 0 0 0 0 -212.47817467927871 -150.33582103515573 0 -150.33582103515573 6.2366313337442989 0 0 0 0 -292.46420464411858 -196.83006026717339 0 -196.83006026717339 62.106353448321897 0 0 0 0 -302.44693786765856 -170.88582376876093 0 -170.88582376876093 44.06579846731438 0 0 0 0 -285.24332953936033 -219.31323380313577 0 -219.31323380313577 24.412570690306893 0 0 0 0 -196.85882214305457 -182.01947868331627 0 -182.01947868331627 31.680729442670781 0 0 0 0 -106.00358598700768 -133.86553217649816 0 -133.86553217649816 0.98342318017967045 0 0 0 0 -209.65771363739668 -148.23636527121607 0 -148.23636527121607 44.840438017719862 0 0 0 0 -69.939319816579882 -114.95588267053427 0 -114.95588267053427 20.901045422586321 0 0 0 0 -72.129960234442478 -65.127529263165343 0 -65.127529263165343 41.516431825442851 0 0 0 0 -74.531909712619381 -53.56894231361548 0 -53.56894231361548 77.934578288997727 0 0 0 0 4.6443266395026512 -45.420725677833616 0 -45.420725677833616 -32.028387088426825 0 0 0 0 -6.2622768177822969 -37.619862608202865 0 -37.619862608202865 47.941236160376619 0 0 0 0 -2.9968749036015652 -44.41070272549041 0 -44.41070272549041 -25.863693282646636 0 0 0 0 -18.390462133257643 -76.32072872137951 0 -76.32072872137951 -18.917326473005232 0 0 0 0 -24.473250267459662 -79.659938997965583 0 -79.659938997965583 16.965565994128156 0 0 0 0 -7.1578701455982809 -88.999787776832818 0 -88.999787776832818 -52.290624204023061 0 0 0 0 1.4459172926144674 -96.723154967934533 0 -96.723154967934533 -32.845869971679349 0 0 0 0 1.9798722251970062 -42.631840540888341 0 -42.631840540888341 42.502430482515585 0 0 0 0 -123.58132481699977 -187.6711467215946 0 -187.6711467215946 -46.16715730121723 0 0 0 0 -153.45854101789701 -171.39962279730571 0 -171.39962279730571 -10.12884496740935 0 0 0 0 -308.79000213210384 -255.98385264234093 0 -255.98385264234093 -136.67011941414694 0 0 0 0 1.5734984802668279 -9.8982660122536004 0 -9.8982660122536004 -14.473966137521629 0 0 0 0 -220.38725235249149 -269.8818330092472 0 -269.8818330092472 -143.80425271304921 0 0 0 0 -5.4278666626651102 -27.240067685718259 0 -27.240067685718259 4.0941176468440972 0 0 0 0 1.395432537864508 -31.9038905669222 0 -31.9038905669222 -32.46035589623898 0 0 0 0 16.368799245117771 -18.395199437392421 0 -18.395199437392421 -14.925776976476527 0 0 0 0 1.8364613902655815 -18.808615706384678 0 -18.808615706384678 -11.118377699904357 0 0 0 0 9.1958433396873858 -20.963601897544063 0 -20.963601897544063 6.8595726469075124 0 0 0 0 2.6687135055253606 -19.107872265235823 0 -19.107872265235823 24.837911722901154 0 0 0 0 -22.39539236447672 -39.978740663455483 0 -39.978740663455483 1.080506893285019 0 0 0 0 -5.7262082732449926 -2.7641470769649459 0 -2.7641470769649459 17.660958474634754 0 0 0 0 -77.583523886594776 -75.734309711392825 0 -75.734309711392825 42.983208170116995 0 0 0 0 -45.239569869672778 -91.902849005577082 0 -91.902849005577082 67.254726134498924 0 0 0 0 78.590471034563961 -23.688898713644448 0 -23.688898713644448 59.457183304541104 0 0 0 0 12.171623483568688 -33.547527821284092 0 -33.547527821284092 7.8246390418438896 0 0 0 0 -19.147869742111652 -36.171334022544215 0 -36.171334022544215 0.665530812745601 0 0 0 0 13.871967966027643 -50.459204394608335 0 -50.459204394608335 15.685567842968236 0 0 0 0 -94.633652103249233 -135.91973602076723 0 -135.91973602076723 41.960182657789119 0 0 0 0 -3.5369947446652077 -45.528547175228596 0 -45.528547175228596 -19.052875655994285 0 0 0 0 32.974928051618917 -38.568896613049219 0 -38.568896613049219 -76.367348447512995 0 0 0 0 4.8463019715025304 -13.892035564271499 0 -13.892035564271499 1.0957572213766085 0 0 0 0 7.8271795208258688 -12.181727974306625 0 -12.181727974306625 4.044904876187104 0 0 0 0 -100.24832993105792 -83.998174176057319 0 -83.998174176057319 39.253114332714176 0 0 0 0 32.385883539664064 -135.61822210434002 0 -135.61822210434002 -0.8561956907142303 0 0 0 0 -8.4277336166414898 -113.13647027026309 0 -113.13647027026309 30.325589931046125 0 0 0 0 4.2780876609038483 -16.468983725646606 0 -16.468983725646606 -36.416212385477849 0 0 0 0 14.774821242950566 -17.796200583868995 0 -17.796200583868995 -10.277251674555373 0 0 0 0 69.668054099573055 -35.080737067271912 0 -35.080737067271912 22.789682135111434 0 0 0 0 83.286216200362105 -103.99814853227508 0 -103.99814853227508 -31.58536277060557 0 0 0 0 3.5450144319159094 -9.9819187933046756 0 -9.9819187933046756 -26.176580920861028 0 0 0 0 258.77778501634839 -91.399795800461106 0 -91.399795800461106 -68.486584784539446 0 0 0 0 2.2542483835561207 1.6253337831383021 0 1.6253337831383021 -24.062770615156964 0 0 0 0 48.62435500463107 -1.220543948786144 0 -1.220543948786144 -30.710818173789448 0 0 0 0 164.19536311522461 -102.05543405958997 0 -102.05543405958997 -18.594037877437358 0 0 0 0 -11.799221832716285 -159.04729111338565 0 -159.04729111338565 -1.4122860760217009 0 0 0 0 -13.065370889420592 -146.1238812831125 0 -146.1238812831125 6.4524993554514367 0 0 0 0 -115.49343240151939 66.995110629672126 0 66.995110629672126 -405.42755190050229 0 0 0 0 -81.011151817774589 -138.05141912621093 0 -138.05141912621093 24.783656646184681 0 0 0 0 -81.333064270496834 -138.08119538131359 0 -138.08119538131359 30.381395874748705 0 0 0 0 -147.35227483221024 -109.14333785016152 0 -109.14333785016152 18.587008863396477 0 0 0 0 -78.911045755114174 -215.52544718664467 0 -215.52544718664467 -16.774888943771657 0 0 0 0 -111.91908040175622 -158.08834003842276 0 -158.08834003842276 -38.490237520074515 0 0 0 0 -457.66990198098938 -93.983886412228458 0 -93.983886412228458 34.317421071937133 0 0 0 0 -144.32200262965489 -332.84765788574077 0 -332.84765788574077 -21.237659197417088 0 0 0 0 43.668570227426244 -234.57962639300968 0 -234.57962639300968 -159.55559038065985 0 0 0 0 161.89958788449212 -137.48702813446573 0 -137.48702813446573 -87.487996694879257 0 0 0 0 89.764887353609083 -123.82706052807225 0 -123.82706052807225 -48.742566231303499 0 0 0 0 307.00121360300182 -19.946209888947124 0 -19.946209888947124 -108.2255987587705 0 0 0 0 -545.67525673573982 -378.85378529611262 0 -378.85378529611262 -9.4657702237936974 0 0 0 0 103.57526049507578 -128.01004313221711 0 -128.01004313221711 -103.02033815221512 0 0 0 0 -122.50292896918199 -504.55119776705578 0 -504.55119776705578 -223.12453261468545 0 0 0 0 330.31292469987238 -358.48420136364439 0 -358.48420136364439 -224.61765012279062 0 0 0 0 204.27712876399164 -164.66987945723213 0 -164.66987945723213 -224.9887876773646 0 0 0 0 452.69127734783615 -27.245990978855843 0 -27.245990978855843 -159.5241734578367 0 0 0 0 325.44908417415718 -39.623909464407916 0 -39.623909464407916 -105.98556712419213 0 0 0 0 0.80487148117332907 -5.9586452916182218 0 -5.9586452916182218 -41.049662864245931 0 0 0 0 83.555997740490966 -46.995542631550961 0 -46.995542631550961 -73.165447870171192 0 0 0 0 1.368922178762789 -7.7515945016110379 0 -7.7515945016110379 -2.4588447328208787 0 0 0 0 425.56798422958673 20.438976823261783 0 20.438976823261783 -119.45934696171753 0 0 0 0 290.64308403573523 12.912697163410485 0 12.912697163410485 -11.981975486465899 0 0 0 0 206.9107313299246 -128.64159582247703 0 -128.64159582247703 -156.67866595564192 0 0 0 0 28.641489090587129 -143.86143965678639 0 -143.86143965678639 -93.112943369653294 0 0 0 0 -1.9690030070141802 -108.5206001548213 0 -108.5206001548213 -38.722624069494486 0 0 0 0 -53.311502474127337 -182.98256210026739 0 -182.98256210026739 -81.287420354549795 0 0 0 0 -95.088426874542165 -136.6531320586887 0 -136.6531320586887 -31.500469863502076 0 0 0 0 -111.05350864778848 -180.67460715915058 0 -180.67460715915058 -33.5234010221684 0 0 0 0 -22.594126782798412 -93.703737791005551 0 -93.703737791005551 -30.521663225783414 0 0 0 0 44.233458293339936 -97.635408598896902 0 -97.635408598896902 -58.675615372358152 0 0 0 0 64.07390221408059 -64.712344377141562 0 -64.712344377141562 -39.751050878090609 0 0 0 0 25.545859218229452 -115.16653084813879 0 -115.16653084813879 -66.789821735328587 0 0 0 0 32.526996010084986 -87.762538986975414 0 -87.762538986975414 -47.83635871844308 0 0 0 0 -77.969754166165785 -203.79060328780929 0 -203.79060328780929 469.02506606771931 0 0 0 0 99.995215599439689 -17.300271066673304 0 -17.300271066673304 -17.90874770112714 0 0 0 0 85.993047350297275 -69.429865314377821 0 -69.429865314377821 -61.233220713407718 0 0 0 0 130.60987902611305 19.611229787029515 0 19.611229787029515 -13.824121585341345 0 0 0 0 139.08220087367226 -18.059751987744676 0 -18.059751987744676 -55.613290841727576 0 0 0 0 83.878688118587888 -39.165559161676356 0 -39.165559161676356 -34.378343065378431 0 0 0 0 43.219317062427422 -52.371789582559074 0 -52.371789582559074 -10.066696013687761 0 0 0 0 29.477259245053574 -71.617666462807392 0 -71.617666462807392 -27.287351777393269 0 0 0 0 38.814453821651114 28.575463485314685 0 28.575463485314685 64.845233050797106 0 0 0 0 -0.62876409402633726 -30.117924071644666 0 -30.117924071644666 15.941120253875852 0 0 0 0 26.055366197492049 1.290169158127469 0 1.290169158127469 52.907084505874082 0 0 0 0 64.235300484673644 3.5872117677135975 0 3.5872117677135975 24.110551292600576 0 0 0 0 24.16253320746182 -35.055520825189888 0 -35.055520825189888 9.1401655065583327 0 0 0 0 30.936507600417372 -32.447590919927165 0 -32.447590919927165 -1.4698389518744079 0 0 0 0 22.260228500490484 -49.214057258217508 0 -49.214057258217508 -27.459503136749845 0 0 0 0 101.24538459554242 57.504180071999144 0 57.504180071999144 31.877955228199426 0 0 0 0 128.90145515369295 14.309404395859019 0 14.309404395859019 -28.727690981846536 0 0 0 0 57.877774605227387 0.091156367541771033 0 0.091156367541771033 29.398820063681342 0 0 0 0 -629.01359088840945 -311.18891308966158 0 -311.18891308966158 95.536096627794905 0 0 0 0 -613.81061453923758 -310.57984085290673 0 -310.57984085290673 -675.44828152222181 0 0 0 0 1.1004986015840998 -3.3037490537989989 0 -3.3037490537989989 2.6530640500219107 0 0 0 0 -196.94072977241012 135.63931133244478 0 135.63931133244478 -450.03059677663259 0 0 0 0 6.8128321065014745 -8.0663267496250981 0 -8.0663267496250981 2.8005839323607162 0 0 0 0 176.8308889203654 30.372142065132721 0 30.372142065132721 -30.590976780593337 0 0 0 0 198.3066653942733 -30.045204193620521 0 -30.045204193620521 -24.85724792216206 0 0 0 0 147.98935194062506 -35.040018575782597 0 -35.040018575782597 87.54720103861473 0 0 0 0 192.07742241263259 -51.269691348261404 0 -51.269691348261404 4.45987441285979 0 0 0 0 171.11837744205332 -27.027080404835942 0 -27.027080404835942 -41.144864418871293 0 0 0 0 194.73920214701138 -6.6531529097865132 0 -6.6531529097865132 -48.203213094820967 0 0 0 0 167.46288459122297 -30.943556757367332 0 -30.943556757367332 -11.392899113838212 0 0 0 0 190.7198571117442 -14.998658564478319 0 -14.998658564478319 -51.87521766336431 0 0 0 0 142.04993934880076 -53.553852556935226 0 -53.553852556935226 -49.196765690634493 0 0 0 0 148.25324447690537 -5.4199298618254943 0 -5.4199298618254943 -40.97344705487194 0 0 0 0 106.04597770139299 -38.985220639842737 0 -38.985220639842737 -41.668808213597003 0 0 0 0 98.918151020889354 -95.956202077591797 0 -95.956202077591797 -67.454813584037765 0 0 0 0 112.2257060406555 -57.81678876280057 0 -57.81678876280057 -46.73593314786558 0 0 0 0 130.770290370765 -75.063854762229312 0 -75.063854762229312 -32.371426329365931 0 0 0 0 181.423096472201 -11.896609221275867 0 -11.896609221275867 -28.477421470000991 0 0 0 0 112.44972010590936 -50.842342621059288 0 -50.842342621059288 -9.6416148304706439 0 0 0 0 101.17010478789962 -22.502546526740844 0 -22.502546526740844 -66.238822652758245 0 0 0 0 132.73359590793189 -46.879007463388916 0 -46.879007463388916 -114.99551902520034 0 0 0 0 3.9522506419434649 -132.48721320377808 0 -132.48721320377808 -56.881467268744018 0 0 0 0 65.347482303394827 -141.13023737942149 0 -141.13023737942149 -99.287528461532929 0 0 0 0 301.35318011442905 150.52212785227493 0 150.52212785227493 -18.033182364511958 0 0 0 0 303.88761882664403 74.166849745395666 0 74.166849745395666 -62.480018590056716 0 0 0 0 5.4199157473863337 -6.7189248037700189 0 -6.7189248037700189 1.0767809605289784 0 0 0 0 202.51678679693396 -50.64364850745369 0 -50.64364850745369 -109.57945347547502 0 0 0 0 471.45665303212263 -12.573412578696662 0 -12.573412578696662 -123.32972916212748 0 0 0 0 312.34560827117639 78.507258383033331 0 78.507258383033331 -88.492575046784623 0 0 0 0 141.43275367291062 -28.974631462360776 0 -28.974631462360776 -88.846451960773265 0 0 0 0 182.00457109438503 89.568807425708656 0 89.568807425708656 104.19600918155766 0 0 0 0 218.89549735252513 24.682231143706304 0 24.682231143706304 -56.78695915156095 0 0 0 0 -1.4097604197308993 -3.6416421085408999 0 -3.6416421085408999 -3.686734318000461 0 0 0 0 -100.58248493633664 -353.73931174976224 0 -353.73931174976224 493.39215253654402 0 0 0 0 -1360.8308158024765 -255.73884113118947 0 -255.73884113118947 323.18521668387075 0 0 0 0 -851.57434310340795 -1.4509185728408056 0 -1.4509185728408056 -133.03305429802276 0 0 0 0 -883.88151918423046 -262.68121023449703 0 -262.68121023449703 -77.038024731158657 0 0 0 0 -414.13545865551714 8.2080607359275746 0 8.2080607359275746 -132.90725840176282 0 0 0 0 -468.30313378733626 -372.22130948042468 0 -372.22130948042468 -85.928890410805252 0 0 0 0 1199.5579420896247 30.518971461549881 0 30.518971461549881 140.41574156475872 0 0 0 0 -460.4841442026227 252.84938766261257 0 252.84938766261257 -493.69452383019961 0 0 0 0 0.46729927515640313 -1.9026852660090796 0 -1.9026852660090796 -1.0450282240056836 0 0 0 0 353.40660204034793 146.55689170339065 0 146.55689170339065 42.851375964841282 0 0 0 0 568.63955883198651 267.19442603561401 0 267.19442603561401 93.00405226588191 0 0 0 0 330.90487944983079 1.5548528576605349 0 1.5548528576605349 -109.95839323182372 0 0 0 0 347.7228231811132 -58.306909848874056 0 -58.306909848874056 -74.559135958986644 0 0 0 0 220.61521047356291 60.793847658053437 0 60.793847658053437 -88.588453425727494 0 0 0 0 280.35621875883226 -26.288323529772242 0 -26.288323529772242 -106.26798735457953 0 0 0 0 319.88999006688937 28.936506811146501 0 28.936506811146501 -42.032621509075398 0 0 0 0 793.82755029247346 -158.38661470860006 0 -158.38661470860006 -241.4014510672514 0 0 0 0 460.40346601490546 81.207279376386396 0 81.207279376386396 58.25690822683282 0 0 0 0 62.188425996791921 14.146650060437878 0 14.146650060437878 119.56217897420629 0 0 0 0 413.46954162311158 127.55189096442723 0 127.55189096442723 47.923505092514461 0 0 0 0 338.43707667245508 -53.203091993490261 0 -53.203091993490261 -112.7971865977288 0 0 0 0 318.98913961796461 -206.62212777579953 0 -206.62212777579953 91.20685151606358 0 0 0 0 745.89434278251792 -192.39313746793505 0 -192.39313746793505 4.6191161452204597 0 0 0 0 -2.5938356695990175 -9.804004297246852 0 -9.804004297246852 -9.8175757115472422 0 0 0 0 -273.94474200658078 -57.73960422973505 0 -57.73960422973505 131.9663486141435 0 0 0 0 -327.0710883305178 -121.74617489112188 0 -121.74617489112188 56.562556495402532 0 0 0 0 -179.51514586684061 -390.58340082184441 0 -390.58340082184441 203.78059704422776 0 0 0 0 -228.92649315102153 -764.35948998222466 0 -764.35948998222466 401.71941794027953 0 0 0 0 2.6613117217336306 -2.896170262453083 0 -2.896170262453083 0.21995969928424586 0 0 0 0 -405.98421319345925 -562.85419251701342 0 -562.85419251701342 242.93533933219805 0 0 0 0 -271.25660532133406 -223.27413946540946 0 -223.27413946540946 20.69559466395549 0 0 0 0 385.05859833502109 -323.23774315562423 0 -323.23774315562423 89.667617799856089 0 0 0 0 1003.7167431143134 -462.78017451919641 0 -462.78017451919641 -31.459296958386403 0 0 0 0 93.281230448911629 -305.34639771159846 0 -305.34639771159846 118.7151232274191 0 0 0 0 248.7474894900115 -830.19078925391295 0 -830.19078925391295 310.10342217533889 0 0 0 0 54.802103349560639 -225.88458936912866 0 -225.88458936912866 83.426233499837508 0 0 0 0 35.263534722173063 -420.52115604575374 0 -420.52115604575374 294.96400639732383 0 0 0 0 -215.47227311911411 -308.53523129697987 0 -308.53523129697987 102.50998554045327 0 0 0 0 228.25774651793472 -447.93455271618768 0 -447.93455271618768 -166.98177109231437 0 0 0 0 283.90751087162971 -218.61041798103179 0 -218.61041798103179 112.38111808717258 0 0 0 0 413.93940966339687 -435.87349928368167 0 -435.87349928368167 -90.807211345873839 0 0 0 0 123.42637736575489 -184.76945237831751 0 -184.76945237831751 186.84421034276238 0 0 0 0 949.88647638134216 -143.11159083461166 0 -143.11159083461166 -276.67033010786872 0 0 0 0 -2.973384554888483 -13.412390595597607 0 -13.412390595597607 -12.472925311392324 0 0 0 0 262.29033774745949 -293.74853783306753 0 -293.74853783306753 27.088380107348712 0 0 0 0 -220.83960368976068 109.46873001622862 0 109.46873001622862 1189.5776782476933 0 0 0 0 48.27425086537005 -997.4415436018644 0 -997.4415436018644 1085.8373557630021 0 0 0 0 96.678843158621021 -748.23794595730533 0 -748.23794595730533 502.33168520145773 0 0 0 0 -61.80234591157614 -308.78698729125244 0 -308.78698729125244 873.33737375388228 0 0 0 0 229.37575995106272 -409.33399315200768 0 -409.33399315200768 379.07031693301724 0 0 0 0 36.77816561878717 -103.56544055203085 0 -103.56544055203085 148.65812616837684 0 0 0 0 -634.16828456687472 -158.39973492948593 0 -158.39973492948593 337.22814400222978 0 0 0 0 -217.43783011609412 -77.191853186050139 0 -77.191853186050139 -99.5315135244673 0 0 0 0 -1.1861910333376593 -6.5506505844981753 0 -6.5506505844981753 12.47219473607278 0 0 0 0 -168.60800429913797 -313.92058337916387 0 -313.92058337916387 489.07535716011807 0 0 0 0 -224.42950518041107 37.085538462711156 0 37.085538462711156 204.51814148953326 0 0 0 0 -237.28749787633751 -0.87949781463976251 0 -0.87949781463976251 119.60070409939362 0 0 0 0 -400.76007636451141 234.17834805476741 0 234.17834805476741 -71.92576052677714 0 0 0 0 1100.8312070435104 -807.32150064579764 0 -807.32150064579764 219.20908487477573 0 0 0 0 -0.10258215793001368 -2.9256123661718192 0 -2.9256123661718192 5.4473572272138995 0 0 0 0 -825.86918341737146 103.76120892766085 0 103.76120892766085 324.34500208583449 0 0 0 0 1134.9192366576026 -554.52817603559515 0 -554.52817603559515 982.65707046743773 0 0 0 0 -482.6485018901376 -185.07360485988238 0 -185.07360485988238 465.5922482615606 0 0 0 0 -262.40989239563896 -94.491255370074214 0 -94.491255370074214 223.02530654117436 0 0 0 0 170.97761005832581 -595.40622580776471 0 -595.40622580776471 622.36789540059272 0 0 0 0 1058.8327745811985 -282.5960474895428 0 -282.5960474895428 40.794140446792881 0 0 0 0 -250.97481182800402 -36.212778468704983 0 -36.212778468704983 63.789108325057896 0 0 0 0 -291.40067043466843 -57.579192883775249 0 -57.579192883775249 320.38608420079981 0 0 0 0 -346.94794098882994 97.604731812632963 0 97.604731812632963 144.43088617292324 0 0 0 0 -336.8177202234001 -83.662786296344166 0 -83.662786296344166 133.44481820846931 0 0 0 0 15.029976430368395 -22.770986318652849 0 -22.770986318652849 31.910056300571952 0 0 0 0 -71.068816378565771 -101.90993336770225 0 -101.90993336770225 134.58801292722092 0 0 0 0 6.4963262525158072 -8.4451803943033426 0 -8.4451803943033426 10.66040220626504 0 0 0 0 -424.99308374951283 -318.48139843714631 0 -318.48139843714631 -136.26888223312903 0 0 0 0 -395.45616601166876 -241.00963177260314 0 -241.00963177260314 -187.60539254600735 0 0 0 0 -301.31013429459745 -205.39401476892726 0 -205.39401476892726 -98.705426356230305 0 0 0 0 -366.67134759817918 -310.16898700507488 0 -310.16898700507488 -42.346438467246116 0 0 0 0 22.617907826507739 -34.469916547516895 0 -34.469916547516895 48.279589567726205 0 0 0 0 -17.900612765314918 -28.142608326515528 0 -28.142608326515528 -21.309678573206384 0 0 0 0 -620.26853280413525 -166.30564733941355 0 -166.30564733941355 161.88456654058928 0 0 0 0 -430.56891261213332 -202.78583635730024 0 -202.78583635730024 166.31667107464182 0 0 0 0 759.64476373069556 -91.738865078663366 0 -91.738865078663366 -54.678645657560992 0 0 0 0 253.87752883687062 -116.21927472410607 0 -116.21927472410607 -43.794500165499812 0 0 0 0 330.13980186898334 -276.28420356922834 0 -276.28420356922834 70.287113420836249 0 0 0 0 335.29259012130206 -276.08918066999286 0 -276.08918066999286 -17.148794083193934 0 0 0 0 69.278263611482544 -347.51873372265254 0 -347.51873372265254 14.683237167699644 0 0 0 0 -505.29790874907849 -428.74487106237575 0 -428.74487106237575 109.99816779623234 0 0 0 0 -249.23837241006913 -285.70664051357198 0 -285.70664051357198 -39.643949624696688 0 0 0 0 -266.46622037066845 -259.2570836888317 0 -259.2570836888317 340.17294450495865 0 0 0 0 -126.68908165271387 -114.47633680374292 0 -114.47633680374292 -244.3978329836591 0 0 0 0 -208.2478140491512 -452.15966954419946 0 -452.15966954419946 -160.2931234927114 0 0 0 0 5.5987742466932104 -209.03699278254862 0 -209.03699278254862 -126.60078785551559 0 0 0 0 194.733309195939 -54.23333344591083 0 -54.23333344591083 -87.631527372446726 0 0 0 0 261.65843576105544 -105.66048763591243 0 -105.66048763591243 -218.14084202646882 0 0 0 0 -146.41334285443918 -99.410809404836982 0 -99.410809404836982 -65.945448108319397 0 0 0 0 13.219197779586921 -170.11347236052143 0 -170.11347236052143 -213.07201434773378 0 0 0 0 28.956991869324117 -42.07122192834332 0 -42.07122192834332 60.802726781483933 0 0 0 0 -226.90090127869101 -389.82215630789324 0 -389.82215630789324 -25.572756201047014 0 0 0 0 -260.86708180546032 -195.57231602640366 0 -195.57231602640366 352.04445835371189 0 0 0 0 80.929319234145169 164.73304974938401 0 164.73304974938401 27.274001412846474 0 0 0 0 -19.496365521837589 3.3419981553573237 0 3.3419981553573237 -1.0089104860493308 0 0 0 0 -170.68073333959069 226.60241751837884 0 226.60241751837884 533.50468478841867 0 0 0 0 -183.81455267392175 -706.95791717521843 0 -706.95791717521843 -1036.6741879437559 0 0 0 0 -257.575837480259 -241.19850824898822 0 -241.19850824898822 -676.88184658285718 0 0 0 0 -240.80204459267247 -127.16391010148072 0 -127.16391010148072 225.82787570260189 0 0 0 0 -81.243369581152365 -229.04628431957099 0 -229.04628431957099 -77.035697088136658 0 0 0 0 -38.209974173189657 2.965674788403895 0 2.965674788403895 13.473425305098658 0 0 0 0 27.986878696669667 -51.688371719697486 0 -51.688371719697486 60.748718375724437 0 0 0 0 -249.65035117001571 -457.41186234945417 0 -457.41186234945417 -453.46166463178633 0 0 0 0 -328.70790935268838 234.29719813637939 0 234.29719813637939 712.09457385703899 0 0 0 0 -5.6689306158724122 1.7537618472222647 0 1.7537618472222647 -1.3901166896144925 0 0 0 0 -261.61688827140824 -777.09931092150418 0 -777.09931092150418 -1538.856471351929 0 0 0 0 -537.82176007304406 -510.04589265623235 0 -510.04589265623235 -334.06817313266583 0 0 0 0 -926.33317714770237 -596.50279920996991 0 -596.50279920996991 -160.02768577495226 0 0 0 0 237.36819316422316 -8.4231319109949254 0 -8.4231319109949254 -410.9707944790498 0 0 0 0 424.03529495339717 17.978819085863506 0 17.978819085863506 -188.91934641751141 0 0 0 0 0.26963272501767138 -37.924972842305642 0 -37.924972842305642 17.595153755918851 0 0 0 0 -278.33384785402905 245.43398675727462 0 245.43398675727462 -26.183115310097492 0 0 0 0 -301.0885800833239 -524.36066371604716 0 -524.36066371604716 -232.91179715439557 0 0 0 0 229.27049568076836 -73.881972667673836 0 -73.881972667673836 -143.66938664376721 0 0 0 0 21.249072490579238 25.075908275522124 0 25.075908275522124 -100.53427248654043 0 0 0 0 -206.6262112177414 106.52759743130238 0 106.52759743130238 56.378897284474078 0 0 0 0 -1.2180016535190568 -1.2172622593806999 0 -1.2172622593806999 0.023610400790250452 0 0 0 0 180.89195410341881 -122.26358525454725 0 -122.26358525454725 -50.739215016349135 0 0 0 0 -8.2611147191901182 26.848009103002823 0 26.848009103002823 133.10593010339653 0 0 0 0 222.95356219104247 -970.68859665251239 0 -970.68859665251239 1811.1624446920468 0 0 0 0 824.8098988595649 -1099.0269280640587 0 -1099.0269280640587 704.19964757669368 0 0 0 0 -248.3925197733347 -142.85473158511923 0 -142.85473158511923 868.51329022938808 0 0 0 0 180.21964181431758 -352.68188405785622 0 -352.68188405785622 374.90815782282516 0 0 0 0 524.56864229342591 -479.26047271599361 0 -479.26047271599361 -33.964638180686961 0 0 0 0 945.53683216442187 -965.87107622762051 0 -965.87107622762051 307.26371424411991 0 0 0 0 955.23790703518125 -1014.5791649421062 0 -1014.5791649421062 319.6333444938773 0 0 0 0 620.7721713452745 -1017.2985569322464 0 -1017.2985569322464 691.57633230058036 0 0 0 0 858.57765203126792 -1016.2870625305345 0 -1016.2870625305345 472.77299199376648 0 0 0 0 853.00791876409676 -965.85978228667864 0 -965.85978228667864 321.28863792727316 0 0 0 0 1050.9605396123102 -736.80573971559534 0 -736.80573971559534 528.39944932847357 0 0 0 0 805.68423756086486 -766.34931917697941 0 -766.34931917697941 1122.2542886156989 0 0 0 0 34.901113426712982 -343.1169707529175 0 -343.1169707529175 986.90743902248141 0 0 0 0 2005.0685328812242 -2238.9748104088726 0 -2238.9748104088726 1428.9013287570215 0 0 0 0 292.5357078812176 -1488.3883423337993 0 -1488.3883423337993 1445.7460882822427 0 0 0 0 6444.817607213241 -5311.8455752759828 0 -5311.8455752759828 3532.0998324555571 0 0 0 0 6.1407245675711408 -36.275771176724632 0 -36.275771176724632 20.621164359022234 0 0 0 0 782.8187044285396 -955.0631404321125 0 -955.0631404321125 534.68875965245024 0 0 0 0 5522.1591870323728 -1338.2610801347237 0 -1338.2610801347237 -590.56291498132123 0 0 0 0 -441.11256816499281 -241.88817078185622 0 -241.88817078185622 21.317374249182649 0 0 0 0 -328.86083461380076 -291.08949003570797 0 -291.08949003570797 -97.400199799566508 0 0 0 0 -405.91385496851581 -287.39133224449483 0 -287.39133224449483 -60.314425269090179 0 0 0 0 -404.87717120722391 -300.26195792853628 0 -300.26195792853628 45.895893236919619 0 0 0 0 1.2756197161280776 -41.016160418919569 0 -41.016160418919569 22.626054620415889 0 0 0 0 -443.66785077538952 -259.57809427154439 0 -259.57809427154439 84.096523771251668 0 0 0 0 200.10467734120539 -150.60054962083825 0 -150.60054962083825 -57.481516398887834 0 0 0 0 -727.17576409960475 286.51144611513791 0 286.51144611513791 50.054868539063136 0 0 0 0 813.4833677740271 -820.07892238401473 0 -820.07892238401473 531.9321096325001 0 0 0 0 1616.5548028398312 526.67766216370592 0 526.67766216370592 -1448.2289251664588 0 0 0 0 11.374034522290458 -52.722878533709263 0 -52.722878533709263 112.34889108195785 0 0 0 0 33.982960276010999 -120.20466064795255 0 -120.20466064795255 176.45028916568299 0 0 0 0 22.017295431109233 -14.079157378553646 0 -14.079157378553646 116.70420812754128 0 0 0 0 60.633796303629424 -105.25169743374863 0 -105.25169743374863 164.5971297106662 0 0 0 0 28.778243047381125 -120.57298572973866 0 -120.57298572973866 457.28949785785517 0 0 0 0 32.817585804762302 -68.010836820810709 0 -68.010836820810709 281.58163205669553 0 0 0 0 52.104848338229203 -240.09784660260993 0 -240.09784660260993 326.75919623494156 0 0 0 0 54.368400436062416 -204.40413119546815 0 -204.40413119546815 212.90712360890029 0 0 0 0 48.606245542092665 -286.97139782962233 0 -286.97139782962233 433.71713598159113 0 0 0 0 126.25661940470309 -366.61962970229433 0 -366.61962970229433 264.93579128101908 0 0 0 0 269.87994912476097 -522.73544610546014 0 -522.73544610546014 426.35083109543484 0 0 0 0 43.038971299318519 -287.76763023046215 0 -287.76763023046215 539.41056158120773 0 0 0 0 64.809180480278883 -282.60548268154525 0 -282.60548268154525 430.38243195561154 0 0 0 0 99.817506290248275 -423.46784512196973 0 -423.46784512196973 774.60563100190666 0 0 0 0 151.02672123601587 -337.41016880419193 0 -337.41016880419193 460.84060952587242 0 0 0 0 323.51991561704745 -656.15857160910673 0 -656.15857160910673 609.755871265108 0 0 0 0 200.2198458587045 -552.58331196078143 0 -552.58331196078143 527.33011625575455 0 0 0 0 273.82613477977065 -761.44553584920504 0 -761.44553584920504 810.95512731549388 0 0 0 0 700.23774456409592 -965.09891059488655 0 -965.09891059488655 579.6392582110384 0 0 0 0 -22.013445819346998 -461.56168530813557 0 -461.56168530813557 1126.0738663101074 0 0 0 0 418.6716189394192 -806.40137419578605 0 -806.40137419578605 788.06862949077913 0 0 0 0 116.98348759375767 -334.21848747857257 0 -334.21848747857257 499.31210323487176 0 0 0 0 35.997247582268756 -114.67670147146964 0 -114.67670147146964 703.26665465096994 0 0 0 0 67.326117709407299 -56.77898070975607 0 -56.77898070975607 216.3973900784913 0 0 0 0 98.897917060359759 -37.366255348171762 0 -37.366255348171762 186.14510912652258 0 0 0 0 -520.61823424299473 -142.36586621500646 0 -142.36586621500646 938.77611805697597 0 0 0 0 4.9988283959327031 -7.9506878087763226 0 -7.9506878087763226 22.219888714711246 0 0 0 0 3079.1525736932126 -990.77492708855061 0 -990.77492708855061 141.52675713450481 0 0 0 0 104.80846696450749 -796.77512080414726 0 -796.77512080414726 1622.674236859988 0 0 0 0 168.95189486674099 -709.11774592907386 0 -709.11774592907386 1349.3181218138052 0 0 0 0 -351.03561726262251 24.134528426988254 0 24.134528426988254 1066.0887186134241 0 0 0 0 343.01854876377911 -727.29475411356907 0 -727.29475411356907 1139.4297923764534 0 0 0 0 358.49135401188187 -957.73735569076098 0 -957.73735569076098 1357.7614163178077 0 0 0 0 1125.8533554730511 -1261.9519082562565 0 -1261.9519082562565 714.07365453193779 0 0 0 0 712.91831014978197 -923.87324790827915 0 -923.87324790827915 438.2727151893705 0 0 0 0 1130.9628707891297 -1057.2951738243678 0 -1057.2951738243678 534.61836051295541 0 0 0 0 1963.608850310615 -1246.7314880876193 0 -1246.7314880876193 1204.7895746151262 0 0 0 0 4166.3186885007899 -1099.7379317884806 0 -1099.7379317884806 1157.5026163985822 0 0 0 0 1112.7124436705053 -1716.844330853688 0 -1716.844330853688 2146.0447096799689 0 0 0 0 418.7969502987205 -1287.7082825016059 0 -1287.7082825016059 2123.9132071610366 0 0 0 0 1265.6473208086973 -1152.3040515045068 0 -1152.3040515045068 1303.8128170767413 0 0 0 0 2119.8327872872978 -1723.2799413375724 0 -1723.2799413375724 979.01308025695471 0 0 0 0 2469.2053605178126 -2063.6423226144761 0 -2063.6423226144761 1798.0301581271633 0 0 0 0 2647.2850169845037 263.29292795637957 0 263.29292795637957 2433.4657696362301 0 0 0 0 1386.6289801201519 112.76108145273247 0 112.76108145273247 -552.61079569175308 0 0 0 0 2.5076199456412684 -2.0152146081479145 0 -2.0152146081479145 0.92563036980396163 0 0 0 0 1186.6642288802173 -1021.481667161479 0 -1021.481667161479 1316.8474273216143 0 0 0 0 2369.6972932056597 -534.82605875937315 0 -534.82605875937315 -321.74891680737346 0 0 0 0 2522.635618915715 -1238.0951615487247 0 -1238.0951615487247 161.85253599214775 0 0 0 0 1859.4415388998598 -107.4888159102602 0 -107.4888159102602 -485.39581761295995 0 0 0 0 1643.9132038792186 -695.07580848658108 0 -695.07580848658108 -50.681584949881653 0 0 0 0 1757.9832985185083 -1314.908841626193 0 -1314.908841626193 800.17069917917252 0 0 0 0 1937.5586696801558 -1796.385610325302 0 -1796.385610325302 1971.999305036391 0 0 0 0 860.82305498505502 -1016.6533256174216 0 -1016.6533256174216 801.40747082841699 0 0 0 0 2016.445669746895 -439.89405934481965 0 -439.89405934481965 -73.023201990305097 0 0 0 0 374.50976437156851 -234.70624627279085 0 -234.70624627279085 90.913506286424308 0 0 0 0 1148.7198408722211 -1275.7192856001702 0 -1275.7192856001702 666.17963394281333 0 0 0 0 1118.2043832051145 -713.24074555504876 0 -713.24074555504876 252.53875438519754 0 0 0 0 204.25373076724327 -427.6044643854334 0 -427.6044643854334 486.72121012596972 0 0 0 0 190.0010643844571 38.604238313765109 0 38.604238313765109 -45.53224091226366 0 0 0 0 6.7931739087744027 -32.884842917020734 0 -32.884842917020734 51.512363733559255 0 0 0 0 271.88994172725279 -282.63792226007808 0 -282.63792226007808 241.58782219693603 0 0 0 0 -174.71206780294506 -301.54195498327499 0 -301.54195498327499 -99.30663856855972 0 0 0 0 118.54539144045157 65.767554333475346 0 65.767554333475346 -572.63117562986008 0 0 0 0 63.362908036358021 17.421099504026643 0 17.421099504026643 161.07151448937748 0 0 0 0 76.990526920718366 23.811858266070885 0 23.811858266070885 66.401589752458676 0 0 0 0 129.24616066621138 -23.912096437764376 0 -23.912096437764376 -202.98968789463834 0 0 0 0 0.71303392818299471 -181.10853148122987 0 -181.10853148122987 -143.44331054095346 0 0 0 0 -93.319945116240888 -85.090429987038078 0 -85.090429987038078 27.183375576758408 0 0 0 0 -27.614529567799764 -180.14140811793186 0 -180.14140811793186 -98.16829675756162 0 0 0 0 -26.672565310313075 -124.80642077301309 0 -124.80642077301309 196.6886179993453 0 0 0 0 0.32733918459174305 -59.763522651689797 0 -59.763522651689797 -36.941417021313327 0 0 0 0 -9.0581157161195733 -51.693016879416604 0 -51.693016879416604 -43.281276183643683 0 0 0 0 34.958544738074124 -75.077159339198261 0 -75.077159339198261 -73.748086450999836 0 0 0 0 5.2379775180592461 -2.4227670332549778 0 -2.4227670332549778 -16.948529510089671 0 0 0 0 13.640030575554263 -24.728933965027949 0 -24.728933965027949 -5.5777859041520381 0 0 0 0 -23.352674660469347 -144.7891805832478 0 -144.7891805832478 -80.383581414731452 0 0 0 0 -9.9339937485829068 -52.73743284253942 0 -52.73743284253942 -30.434402744738691 0 0 0 0 -19.179030475558385 -43.474169395536379 0 -43.474169395536379 -33.805574241662001 0 0 0 0 -14.020019971379952 -60.762069303611952 0 -60.762069303611952 -37.972911279505752 0 0 0 0 53.160933074259447 -80.451598571145951 0 -80.451598571145951 -94.566198412430822 0 0 0 0 -49.460517287736366 30.038611527646935 0 30.038611527646935 31.54324675463431 0 0 0 0 53.057328402439452 -51.184974635911203 0 -51.184974635911203 -95.704702895414016 0 0 0 0 28.010653971054126 -45.61528556741905 0 -45.61528556741905 38.80139794346178 0 0 0 0 22.566366162674967 -38.760540522149313 0 -38.760540522149313 -40.490654586261371 0 0 0 0 -19.831587202987492 -37.75422657792376 0 -37.75422657792376 -30.490510595499352 0 0 0 0 -31.056471661991964 -61.424118838078357 0 -61.424118838078357 17.655395168103496 0 0 0 0 5.5513107023564316 -81.585290701263631 0 -81.585290701263631 -46.060320596769202 0 0 0 0 -7.1405635300470749 -69.765882936306298 0 -69.765882936306298 -50.701597652889177 0 0 0 0 4.4624156081291062 -40.404561504014922 0 -40.404561504014922 -42.964926694827568 0 0 0 0 15.079060336620152 -30.870304074741433 0 -30.870304074741433 -4.1833220825028281 0 0 0 0 -6.5782117692924658 -46.904847043152188 0 -46.904847043152188 -2.8941719457068302 0 0 0 0 1.430064286403649 -75.764684084222495 0 -75.764684084222495 -66.212685186536419 0 0 0 0 12.014881626131682 -53.999752645671265 0 -53.999752645671265 -48.702477401944748 0 0 0 0 11.500815469423848 -31.922692290275194 0 -31.922692290275194 -8.1808643076082035 0 0 0 0 14.442165712121543 -27.146230624306398 0 -27.146230624306398 -8.2186979688323891 0 0 0 0 41.552789041614233 -53.400970288942176 0 -53.400970288942176 -4.714216443944224 0 0 0 0 -16.70922950305976 -2.7356321718398249 0 -2.7356321718398249 -44.40000085443171 0 0 0 0 10.255352255476282 -75.014870369635673 0 -75.014870369635673 -61.200362146810221 0 0 0 0 5.1739849219092235 -29.37443364741852 0 -29.37443364741852 -28.24875892429489 0 0 0 0 -8.5316468090209199 -49.771969280433936 0 -49.771969280433936 -29.355226431421567 0 0 0 0 9.6110209502269299 -47.167923291653921 0 -47.167923291653921 -33.34349767012128 0 0 0 0 18.326762811888784 -20.513950722245738 0 -20.513950722245738 -5.392658310632811 0 0 0 0 38.592221967084335 -27.060456828456189 0 -27.060456828456189 -0.4099509087276445 0 0 0 0 2.5485220725008659 -18.114276815113055 0 -18.114276815113055 -1.9098351300996337 0 0 0 0 24.831944722053095 -49.897259684354069 0 -49.897259684354069 11.774672943895041 0 0 0 0 6.1186470102267529 -8.1481004970826536 0 -8.1481004970826536 -4.6475484874978665 0 0 0 0 256.84359481924992 -177.87890330393611 0 -177.87890330393611 172.57261286950279 0 0 0 0 26.139174062203665 -34.236655028222678 0 -34.236655028222678 -16.618060643133674 0 0 0 0 29.268676909844622 -5.4527044339112321 0 -5.4527044339112321 -1.2544115062668517 0 0 0 0 126.53806860672285 -262.06884996814085 0 -262.06884996814085 -421.26403556086348 0 0 0 0 -175.24688379798454 -205.66282071076193 0 -205.66282071076193 419.78800646410673 0 0 0 0 -0.68789883942933727 -6.101038521715239 0 -6.101038521715239 -4.2792057644014703 0 0 0 0 -89.057038310913867 -62.88610157332073 0 -62.88610157332073 -6.1787015579193394 0 0 0 0 182.34475259781402 -96.025739289749254 0 -96.025739289749254 -71.437819736132951 0 0 0 0 -31.060256182507118 -22.372772614156695 0 -22.372772614156695 -8.6164051941850062 0 0 0 0 255.61794097182928 8.8433236681999006 0 8.8433236681999006 -69.469309373504075 0 0 0 0 -163.3154072196312 310.39081091412663 0 310.39081091412663 423.20599829366984 0 0 0 0 0.59439189907517131 -0.22914825572801867 0 -0.22914825572801867 4.5984756654847061 0 0 0 0 -162.32456906129414 -204.05640560485972 0 -204.05640560485972 294.9935581121581 0 0 0 0 -6.9851925274815585 -211.86120407052022 0 -211.86120407052022 -81.214713901790219 0 0 0 0 -146.82360353651711 -91.861427792013728 0 -91.861427792013728 315.86780517414536 0 0 0 0 -348.15093095162501 -286.91606787776982 0 -286.91606787776982 480.60231641588325 0 0 0 0 -41.802838418353168 -35.128657902072575 0 -35.128657902072575 0.21911300045442061 0 0 0 0 5.696322628434201 -35.98317856349864 0 -35.98317856349864 6.0906652196729212 0 0 0 0 8.8814059244359669 -113.00486020097105 0 -113.00486020097105 -6.6970385309477933 0 0 0 0 -6.8283644198982074 -27.774269273180153 0 -27.774269273180153 146.0243626519823 0 0 0 0 -20.124258953524986 -51.85817019813112 0 -51.85817019813112 23.398433977985405 0 0 0 0 249.69624688520128 -538.20708376537823 0 -538.20708376537823 -449.72315898586385 0 0 0 0 -50.099465120034438 -24.431976047686476 0 -24.431976047686476 21.89945579894993 0 0 0 0 -1.3983559234316898 -5.8981173594612377 0 -5.8981173594612377 -3.2488619016556157 0 0 0 0 9.0904579299054546 60.316913910946582 0 60.316913910946582 -56.032759839930804 0 0 0 0 -173.18004002700673 164.55743756736592 0 164.55743756736592 372.48917975967015 0 0 0 0 -177.45120263542287 -46.22616267626654 0 -46.22616267626654 26.996972279810507 0 0 0 0 1.4400308227148717 -1.6722495819867831 0 -1.6722495819867831 1.7413607230225772 0 0 0 0 -21.63183729218099 -121.01794000411246 0 -121.01794000411246 -18.158847121874715 0 0 0 0 10.067498378539028 -33.450485674164639 0 -33.450485674164639 55.160582501044217 0 0 0 0 -34.901798364443039 -46.709989514037261 0 -46.709989514037261 112.60292871212005 0 0 0 0 -292.55893838476504 -47.965634906960986 0 -47.965634906960986 519.80578390046378 0 0 0 0 29.138071921821325 -36.547518662803768 0 -36.547518662803768 17.750300716083128 0 0 0 0 3.7542438920568628 -16.201409511486467 0 -16.201409511486467 0.23407890295510825 0 0 0 0 -105.27977572677992 -288.37590746563092 0 -288.37590746563092 -52.484622872187174 0 0 0 0 -143.20807318433071 -87.692320348509384 0 -87.692320348509384 152.9152672031596 0 0 0 0 5.7362554185965564 -81.445950365277895 0 -81.445950365277895 -74.761954240574596 0 0 0 0 16.668322049925337 -217.53668338551506 0 -217.53668338551506 -230.71959352422073 0 0 0 0 -105.21236905879778 -222.32741421772789 0 -222.32741421772789 72.339462362757331 0 0 0 0 12.181212616604171 -87.927521996369251 0 -87.927521996369251 -214.54977023014908 0 0 0 0 -46.964403910049441 -69.509454789242227 0 -69.509454789242227 -52.174116880831207 0 0 0 0 4.8709860907405336 -16.630426392558171 0 -16.630426392558171 7.4996210589421075 0 0 0 0 7242.8653083856516 2730.5588612644979 0 2730.5588612644979 -2961.8213866216247 0 0 0 0 -472.70848735038726 133.24988456073493 0 133.24988456073493 -1021.6589922867415 0 0 0 0 -172.31395072080636 -699.04199714938181 0 -699.04199714938181 794.87574486864446 0 0 0 0 242.28078708154135 -860.45621840839067 0 -860.45621840839067 -652.56757118211954 0 0 0 0 -1636.8277646483893 -594.68370489110293 0 -594.68370489110293 396.91128223674968 0 0 0 0 296.08621850302552 -450.10587758596375 0 -450.10587758596375 -139.48071159793972 0 0 0 0 75.044036094708645 -2012.4602443486056 0 -2012.4602443486056 1321.9080253826451 0 0 0 0 -445.66412477421363 -249.24508408550764 0 -249.24508408550764 -164.46551841384087 0 0 0 0 -498.66846071418604 -123.73170703392236 0 -123.73170703392236 -236.48374014899582 0 0 0 0 -417.63877876035986 -263.96237980050319 0 -263.96237980050319 -65.697737020532827 0 0 0 0 -368.29212685903258 -211.53741974279933 0 -211.53741974279933 -237.60325770675718 0 0 0 0 -1708.2328782710188 -922.89130173498529 0 -922.89130173498529 1860.6055920080107 0 0 0 0 -2336.220980492194 -176.47946800337374 0 -176.47946800337374 1530.4670261735755 0 0 0 0 7681.7422880849272 1347.1965788654436 0 1347.1965788654436 -862.11098671014315 0 0 0 0 6.4996176048912924 -19.953583628888062 0 -19.953583628888062 10.696047802208964 0 0 0 0 130.29329050803199 -301.67271340001457 0 -301.67271340001457 232.97447225182668 0 0 0 0 1444.1004970243671 277.48237508640523 0 277.48237508640523 965.63801688905733 0 0 0 0 1641.4654485541666 -840.25144470870919 0 -840.25144470870919 485.06573645243265 0 0 0 0 143.27305536994481 -495.60713956598727 0 -495.60713956598727 1813.999315654245 0 0 0 0 16.230776544686176 -2.134043210257039 0 -2.134043210257039 -3.6530494549351076 0 0 0 0 477.99711165396263 -943.50757933444675 0 -943.50757933444675 1344.1822066073519 0 0 0 0 -51.732532271535092 -141.96332771730567 0 -141.96332771730567 -35.851276784725997 0 0 0 0 346.45573185639478 302.80372039608756 0 302.80372039608756 -1109.297806321787 0 0 0 0 1693.4050843346911 -17.025088028659638 0 -17.025088028659638 -3.4923813562943451 0 0 0 0 -2.5165238265723193 -2.8667956406018842 0 -2.8667956406018842 4.168203441687953 0 0 0 0 1729.6890651697142 -1167.8131227182225 0 -1167.8131227182225 -27.487310528539183 0 0 0 0 231.16635991907788 -451.71240859297086 0 -451.71240859297086 -784.62935028229185 0 0 0 0 985.17947558676576 -386.26533506255805 0 -386.26533506255805 -847.42680826417882 0 0 0 0 1244.3846472664386 -185.06232275194583 0 -185.06232275194583 -773.893965729294 0 0 0 0 12.212392616924948 -0.25725213789616674 0 -0.25725213789616674 6.4376273217189652 0 0 0 0 127.86926459890856 -418.20048142146425 0 -418.20048142146425 99.142647091533945 0 0 0 0 1305.705856518804 -752.55937293698094 0 -752.55937293698094 -389.59368209277818 0 0 0 0 143.12863453315185 -290.3465351319046 0 -290.3465351319046 488.89686849487407 0 0 0 0 -171.72573414122917 279.5743252281336 0 279.5743252281336 213.18150634943737 0 0 0 0 325.35056044064163 -442.29739183780475 0 -442.29739183780475 242.07290325271424 0 0 0 0 1067.1631109368093 -133.54813466318592 0 -133.54813466318592 218.36043476995837 0 0 0 0 782.04421447396339 -1313.9804457647624 0 -1313.9804457647624 810.33063275250788 0 0 0 0 -1.0496411941158827 -6.3428003365845438 0 -6.3428003365845438 13.714099104714663 0 0 0 0 1679.4238855117455 -896.47438535942092 0 -896.47438535942092 479.7058581021729 0 0 0 0 -507.33934080086925 -539.32311808395798 0 -539.32311808395798 -334.61391169343551 0 0 0 0 -26.036104118245021 -164.78402885243122 0 -164.78402885243122 -611.30914341665084 0 0 0 0 5.534352790892509 -40.069120556651001 0 -40.069120556651001 15.579224327447456 0 0 0 0 3202.0190657858893 -4471.1018174586006 0 -4471.1018174586006 3666.1025120992635 0 0 0 0 1971.3540784256688 -1446.8080695830035 0 -1446.8080695830035 1240.5149944122168 0 0 0 0 47.426433471378459 149.29654079213105 0 149.29654079213105 497.23676532290119 0 0 0 0 -25.426064365554176 -19.729100817789167 0 -19.729100817789167 -2.3603226517116909 0 0 0 0 1586.7878477274426 311.1218005466344 0 311.1218005466344 -960.48072461151605 0 0 0 0 -3.6531358787348154 -445.41874778312581 0 -445.41874778312581 985.32351947073766 0 0 0 0 1439.7067715567514 -454.15373522063965 0 -454.15373522063965 94.113899200836158 0 0 0 0 332.79396214410508 -257.13448473872086 0 -257.13448473872086 68.679129447832565 0 0 0 0 566.06467414038661 588.47870487641012 0 588.47870487641012 357.40878883379446 0 0 0 0 101.05112451743298 -1371.556174212029 0 -1371.556174212029 669.45507332627312 0 0 0 0 -29.33012951400201 -35.429336404464266 0 -35.429336404464266 -87.293052338698544 0 0 0 0 -10.942995467083399 -5.4682884089405874 0 -5.4682884089405874 -3.4649843276697183 0 0 0 0 -222.00074412744445 -175.86191483915047 0 -175.86191483915047 31.08297399084222 0 0 0 0 -285.50599133754622 146.39684420105277 0 146.39684420105277 387.68621552562399 0 0 0 0 -0.50910838327208729 -1.6698993143476457 0 -1.6698993143476457 -0.60909842825652327 0 0 0 0 212.46746212345022 -104.91664270058936 0 -104.91664270058936 -784.53206326810141 0 0 0 0 -73.741218307429108 -31.81095972066305 0 -31.81095972066305 168.9426610270657 0 0 0 0 -5.1305202415845779 -4.4030091561652043 0 -4.4030091561652043 -0.82354331188817986 0 0 0 0 -138.61120885067521 -50.626374050098548 0 -50.626374050098548 -302.17640359769939 0 0 0 0 225.12414413580291 49.727333715538407 0 49.727333715538407 -787.78105878762119 0 0 0 0 283.96151569624021 -205.91151563907806 0 -205.91151563907806 -141.29944445347974 0 0 0 0 226.26706080890108 -326.65925588047185 0 -326.65925588047185 -378.46129423176535 0 0 0 0 344.7942451801523 -113.00724048205666 0 -113.00724048205666 -289.8473783553145 0 0 0 0 597.49342034880692 -65.120749898445865 0 -65.120749898445865 56.731639861518488 0 0 0 0 40.545127151035331 -28.710954488118659 0 -28.710954488118659 -45.558269984008803 0 0 0 0 -33.472914015825609 -51.820870859082788 0 -51.820870859082788 -20.668741428688008 0 0 0 0 9.2674766158818045 -24.644762578219002 0 -24.644762578219002 -24.691793078648274 0 0 0 0 -16.754247744373629 -23.572859164336478 0 -23.572859164336478 22.428131096479774 0 0 0 0 -4.1227604297890181 -10.961537771042682 0 -10.961537771042682 12.285920219954534 0 0 0 0 -18.214691066756686 -11.048614587853535 0 -11.048614587853535 -84.03407793000224 0 0 0 0 -75.295189215410971 -78.796655944405757 0 -78.796655944405757 -22.136184914196747 0 0 0 0 -40.389507608262761 -34.505366046301788 0 -34.505366046301788 -14.095196241025405 0 0 0 0 -2.2253780935919556 -6.6884168789637268 0 -6.6884168789637268 10.106396331766668 0 0 0 0 37.625820566220909 -44.806815928028755 0 -44.806815928028755 17.406328179262346 0 0 0 0 39.992328363545539 -43.312297547804519 0 -43.312297547804519 13.087088646221673 0 0 0 0 76.595141315368437 -4.5087981189844868 0 -4.5087981189844868 30.844855507799366 0 0 0 0 89.104389885299213 -40.70588023310529 0 -40.70588023310529 -20.705501243137405 0 0 0 0 -20.809211505395979 -101.42427246052466 0 -101.42427246052466 -2.024500051555151 0 0 0 0 -16.707702783566674 -97.235805014724974 0 -97.235805014724974 10.53323138315136 0 0 0 0 67.766470778825806 -72.48928922334926 0 -72.48928922334926 -33.481645181123895 0 0 0 0 47.748074883898532 -11.249406180782898 0 -11.249406180782898 -442.84334863601725 0 0 0 0 49.13697558934598 -264.52736827766694 0 -264.52736827766694 -311.488168531876 0 0 0 0 -14.55619428285285 -7.5996684879171781 0 -7.5996684879171781 0.25087299507453886 0 0 0 0 23.6584396591943 -58.078515934829738 0 -58.078515934829738 48.44896820597387 0 0 0 0 -32.614450825474705 -190.21613987042656 0 -190.21613987042656 -378.95443169979444 0 0 0 0 -221.90738566940627 -234.6363451607258 0 -234.6363451607258 -225.69039076296212 0 0 0 0 -4.7939687924788146 -2.5699359135399868 0 -2.5699359135399868 -8.4297232544412566 0 0 0 0 35.513503330978892 -37.497627113940325 0 -37.497627113940325 -24.728779904129624 0 0 0 0 -1.8084041378542679 -65.071154703758111 0 -65.071154703758111 4.6952236040378921 0 0 0 0 -75.567073869357046 -45.725525143299819 0 -45.725525143299819 6.0241836903624062 0 0 0 0 -20.258784370854549 -23.860042559079279 0 -23.860042559079279 -1.5147856987118482 0 0 0 0 -1.8760970634211844 -32.459320423351528 0 -32.459320423351528 -14.764165453118039 0 0 0 0 -26.796544240334242 -35.067874496706281 0 -35.067874496706281 -21.369959477379666 0 0 0 0 1.4068243381686205 -16.906375207629573 0 -16.906375207629573 -28.284764125530039 0 0 0 0 -0.69397940773298217 -40.516499646846569 0 -40.516499646846569 -25.452222127634741 0 0 0 0 376.7042399924303 -282.41963107516312 0 -282.41963107516312 -42.590303974428025 0 0 0 0 -18.006765969814296 -342.22490503623885 0 -342.22490503623885 -41.142216657631366 0 0 0 0 -207.12780480852615 -334.40645867120998 0 -334.40645867120998 82.077731756937283 0 0 0 0 -122.57163615450918 -36.190419114856923 0 -36.190419114856923 32.463689610873189 0 0 0 0 -1.3269681873973491 2.3323060518292333 0 2.3323060518292333 -0.6710417671860327 0 0 0 0 275.04304893207291 -217.73720014314858 0 -217.73720014314858 115.03688218040043 0 0 0 0 -73.014737761318884 -292.09227362624551 0 -292.09227362624551 -204.05474293941916 0 0 0 0 -759.34660344518056 -491.95967552095772 0 -491.95967552095772 77.238092071147548 0 0 0 0 -527.2304649583748 -270.72555603242381 0 -270.72555603242381 -75.404510790012864 0 0 0 0 -450.49820483996018 -515.61629937440557 0 -515.61629937440557 -1.3284554690235382 0 0 0 0 -91.273873590291259 -264.92604583740467 0 -264.92604583740467 65.674120606431643 0 0 0 0 -205.22075119636065 -267.69460128953142 0 -267.69460128953142 188.95921238023584 0 0 0 0 -190.52405924467985 -252.30450153966467 0 -252.30450153966467 348.57744537259714 0 0 0 0 173.00490502773414 -488.82806212462947 0 -488.82806212462947 704.46881064899935 0 0 0 0 39.696569934354784 -201.23263375277384 0 -201.23263375277384 137.5256970573264 0 0 0 0 -24.624768345896427 -339.59258651081473 0 -339.59258651081473 213.46277160105456 0 0 0 0 -16.66193817630824 -318.73789372717329 0 -318.73789372717329 -115.48868212430898 0 0 0 0 -71.534638042785318 -241.85656430316806 0 -241.85656430316806 -207.64051991062297 0 0 0 0 274.28319658561918 -288.08398561088779 0 -288.08398561088779 -204.32670078454976 0 0 0 0 177.192514261523 -200.48813215419977 0 -200.48813215419977 -259.80493438868507 0 0 0 0 202.54735182638547 -258.2394129203567 0 -258.2394129203567 44.855271413114679 0 0 0 0 379.05308676055881 -30.926503712994418 0 -30.926503712994418 -148.19940223679441 0 0 0 0 242.36878422698305 -113.96710759454618 0 -113.96710759454618 126.73526322729231 0 0 0 0 760.54407373020126 -289.08057874351653 0 -289.08057874351653 36.231753071957428 0 0 0 0 520.15714333807 122.10310773605852 0 122.10310773605852 291.6773990251495 0 0 0 0 437.07101260326613 -528.42599670865457 0 -528.42599670865457 1020.5210609525657 0 0 0 0 0.44806426737823757 -0.5529464308935903 0 -0.5529464308935903 6.5667123729093504 0 0 0 0 -709.37924497119388 110.27113233244381 0 110.27113233244381 699.43765085434279 0 0 0 0 1700.813175345286 -736.64974335482293 0 -736.64974335482293 -164.97863749536009 0 0 0 0 835.48427483838122 -297.16168417001973 0 -297.16168417001973 161.51895488625087 0 0 0 0 -113.24614082249752 -195.50718583397975 0 -195.50718583397975 -246.62932932895365 0 0 0 0 -1.2329779412936999 -3.09097215131384 0 -3.09097215131384 19.213065739764708 0 0 0 0 427.94960432224389 -342.63740773597783 0 -342.63740773597783 389.01544741570979 0 0 0 0 -0.38137704620083124 -5.9856606978354066 0 -5.9856606978354066 3.333919715839599 0 0 0 0 -293.40184696297547 -238.79066800781584 0 -238.79066800781584 -135.67954716246459 0 0 0 0 0.60767666776435636 -1.8320879109300865 0 -1.8320879109300865 5.9095825108780318 0 0 0 0 493.43484873009504 323.93234543484868 0 323.93234543484868 -418.80792482934703 0 0 0 0 -330.19697507575893 -145.87499272116656 0 -145.87499272116656 158.42219984825533 0 0 0 0 -303.27963864518875 -350.80781893277253 0 -350.80781893277253 800.87165707477834 0 0 0 0 -446.4339045723334 -82.732637291674109 0 -82.732637291674109 615.1029380282489 0 0 0 0 -19.995564316798664 258.79322908677386 0 258.79322908677386 508.91957335345887 0 0 0 0 234.98627926632548 -108.25469667516063 0 -108.25469667516063 275.77554810293441 0 0 0 0 -158.47653363386689 -173.20214991912871 0 -173.20214991912871 202.93364265812124 0 0 0 0 -121.8476526060258 -193.24844213790493 0 -193.24844213790493 372.60094492787175 0 0 0 0 -120.43744530694221 -179.5580240075069 0 -179.5580240075069 175.88574899748346 0 0 0 0 -107.38016773530671 -80.600273013628794 0 -80.600273013628794 -15.738100969776497 0 0 0 0 -132.0930883663159 -44.784392550418488 0 -44.784392550418488 292.06126737633394 0 0 0 0 -131.53363083756813 -30.070688199590222 0 -30.070688199590222 224.04348632914093 0 0 0 0 -37.832128614461908 -131.42791171468707 0 -131.42791171468707 4.4857674658633186 0 0 0 0 -94.906256158439646 -150.17275226127458 0 -150.17275226127458 0.57035304950477439 0 0 0 0 -98.98320483114594 -121.77731171703135 0 -121.77731171703135 169.88436680683662 0 0 0 0 -57.854986466709306 -217.56026335583101 0 -217.56026335583101 98.671473476824758 0 0 0 0 -182.4581739206169 -221.48047126618621 0 -221.48047126618621 110.29067397934887 0 0 0 0 -118.79120219040306 -250.15366948024894 0 -250.15366948024894 101.70576555401203 0 0 0 0 122.61709819929183 91.587175454842509 0 91.587175454842509 15.168535926201002 0 0 0 0 74.196332521961494 198.26064230909469 0 198.26064230909469 -124.64031584092299 0 0 0 0 116.14026311777025 -207.21877811618992 0 -207.21877811618992 141.37035047000245 0 0 0 0 -16.288646725982289 183.30546326202784 0 183.30546326202784 21.331449140901896 0 0 0 0 13.615831513989633 133.38240529150607 0 133.38240529150607 73.88713399009248 0 0 0 0 17.478949113718727 119.70893158215495 0 119.70893158215495 7.7549899262703548 0 0 0 0 158.51005192741422 112.82023320337612 0 112.82023320337612 -246.42157683152527 0 0 0 0 100.26263110246055 -3.2809150194916583 0 -3.2809150194916583 -92.190890411202417 0 0 0 0 34.518897839330862 51.84516500530026 0 51.84516500530026 -73.049453812382126 0 0 0 0 313.93688177405693 31.983374225483203 0 31.983374225483203 -73.093317320057224 0 0 0 0 106.68783981423599 92.51971575659536 0 92.51971575659536 101.10443417831266 0 0 0 0 249.93985638250615 -102.58869490759025 0 -102.58869490759025 123.89518794394189 0 0 0 0 157.97361423697953 67.382576623447221 0 67.382576623447221 -60.5007658210925 0 0 0 0 299.79036289285909 -147.98680867064104 0 -147.98680867064104 1.0661356931759656 0 0 0 0 0.16895926057211508 -2.4947041457980852 0 -2.4947041457980852 -2.4332925240049974 0 0 0 0 410.50864591671234 -189.69355712286779 0 -189.69355712286779 4.9765640865900878 0 0 0 0 442.26391763309039 -398.73451253310122 0 -398.73451253310122 479.05249669279402 0 0 0 0 779.25922803211529 -691.34898145533816 0 -691.34898145533816 470.21962554370475 0 0 0 0 579.6306682002355 -373.70460580655163 0 -373.70460580655163 152.21337397555544 0 0 0 0 356.61515921106206 -6.7088972678868686 0 -6.7088972678868686 -83.161702438745124 0 0 0 0 614.22132982913536 -608.48754800291044 0 -608.48754800291044 137.54908587245063 0 0 0 0 200.06766354789215 -22.696083430782892 0 -22.696083430782892 -7.0784169368635048 0 0 0 0 214.98155325526801 52.025846742678482 0 52.025846742678482 -138.21040420956706 0 0 0 0 -121.98342642471835 457.23726684062876 0 457.23726684062876 -603.35984986315816 0 0 0 0 -694.34405726108116 16.873905278061102 0 16.873905278061102 81.479227593164978 0 0 0 0 237.33948196041365 -442.00387348610275 0 -442.00387348610275 -658.4537627848531 0 0 0 0 -10.687712414110145 -4.211179071194838 0 -4.211179071194838 -2.5929329809239725 0 0 0 0 -700.85720152172325 605.00822307879025 0 605.00822307879025 -538.1463422114939 0 0 0 0 -19.623862332891804 -140.43124845935381 0 -140.43124845935381 -486.54436184884435 0 0 0 0 -19.351007543082687 -46.456171495774925 0 -46.456171495774925 -4.936597326741321 0 0 0 0 -15.382349625831012 -77.015908296376438 0 -77.015908296376438 39.596887633048027 0 0 0 0 6.7636922527235583 -303.45399482567336 0 -303.45399482567336 -88.266441207040771 0 0 0 0 -153.52860494293236 -278.35935887299638 0 -278.35935887299638 98.403790776372261 0 0 0 0 -293.28323960329362 -475.57097191787307 0 -475.57097191787307 -179.57347942268916 0 0 0 0 -180.0357247454358 -317.14662857984331 0 -317.14662857984331 514.65937044498423 0 0 0 0 -50.073572165218138 -313.94008150379705 0 -313.94008150379705 95.270544979376041 0 0 0 0 -97.823399943889399 -254.3211747770473 0 -254.3211747770473 268.49163788304577 0 0 0 0 -105.51360713180475 -120.50230320430273 0 -120.50230320430273 176.35805759990399 0 0 0 0 1.19381945464397 -3.6145504493746223 0 -3.6145504493746223 2.9248674120281173 0 0 0 0 -83.492637317371191 53.45747131243661 0 53.45747131243661 740.96962344075655 0 0 0 0 20.288874286630744 36.422315805151811 0 36.422315805151811 132.7966500106595 0 0 0 0 -150.44111796295329 -23.8608585665188 0 -23.8608585665188 121.14301618758873 0 0 0 0 -97.269700937056314 -65.900083452287163 0 -65.900083452287163 46.564538258495304 0 0 0 0 -36.49908397352192 -189.62870840720279 0 -189.62870840720279 133.64414992826187 0 0 0 0 27.615464974503993 -252.83754788804526 0 -252.83754788804526 71.074134350768873 0 0 0 0 -99.961970218184888 -232.69403121188486 0 -232.69403121188486 105.48858634402131 0 0 0 0 174.92201566897165 -77.691206850347953 0 -77.691206850347953 46.870201361723787 0 0 0 0 117.88133764906161 6.6604600208802367 0 6.6604600208802367 -76.807664493779157 0 0 0 0 270.93797144719883 -367.02908983506586 0 -367.02908983506586 123.84532402319019 0 0 0 0 523.44940437614605 -83.206879006535019 0 -83.206879006535019 -66.08639613964624 0 0 0 0 36.314945756739689 -228.19070935447598 0 -228.19070935447598 82.275199612052802 0 0 0 0 -45.770696419992419 -125.74975089419604 0 -125.74975089419604 220.85607097375987 0 0 0 0 -220.14168181156128 -604.44184928863615 0 -604.44184928863615 -257.55081813885977 0 0 0 0 -267.33433140768284 -354.28341244693547 0 -354.28341244693547 659.58051754501503 0 0 0 0 -5.3002200874464123 1.5177838134444244 0 1.5177838134444244 -3.143702947143467 0 0 0 0 31.495022049242834 -431.02151443079219 0 -431.02151443079219 -995.05508280751201 0 0 0 0 16.515456423973774 61.793100168973069 0 61.793100168973069 -292.34138312084906 0 0 0 0 -178.25571710849636 -126.00851069555665 0 -126.00851069555665 -173.38894015188271 0 0 0 0 65.854601333117898 -38.971413827077413 0 -38.971413827077413 -105.74107839175417 0 0 0 0 244.97114346502894 196.12350569066621 0 196.12350569066621 29.809241343686153 0 0 0 0 -27.174518016090285 -4.6363955588369734 0 -4.6363955588369734 21.889443719340356 0 0 0 0 -294.74293506081995 -112.35979052485618 0 -112.35979052485618 346.23260642829155 0 0 0 0 -1050.7943237090731 -1375.320114950795 0 -1375.320114950795 -663.33317702321801 0 0 0 0 50.043787303094078 -75.081116124785723 0 -75.081116124785723 94.852566770328337 0 0 0 0 -363.9616499031581 -218.36353223056176 0 -218.36353223056176 -345.36176121252902 0 0 0 0 -141.50029531968903 -408.82466754479219 0 -408.82466754479219 -488.41609732947654 0 0 0 0 7.5329932876593375 -191.51085067002714 0 -191.51085067002714 -371.97729348861321 0 0 0 0 -180.19510921873734 -342.74742403135224 0 -342.74742403135224 -364.41907766973964 0 0 0 0 -105.17846986130462 -315.03699356726702 0 -315.03699356726702 -465.31691925879386 0 0 0 0 -373.5204311830712 -384.91009523536741 0 -384.91009523536741 -390.93028772445314 0 0 0 0 -110.14540684155509 -354.57160294618916 0 -354.57160294618916 -402.48191366486162 0 0 0 0 -140.99840941730508 -336.59514256542388 0 -336.59514256542388 -364.6651249574827 0 0 0 0 -32.748115402433541 -443.19900757113464 0 -443.19900757113464 -266.37926031925235 0 0 0 0 -285.89354619921505 -508.34033631040256 0 -508.34033631040256 -352.96646571341989 0 0 0 0 -97.677913865838491 -379.71570257916392 0 -379.71570257916392 -353.08330539099188 0 0 0 0 182.2804522307415 -216.43274126985671 0 -216.43274126985671 -323.13153602644979 0 0 0 0 60.469677610698909 23.025182485203459 0 23.025182485203459 -57.324058982332645 0 0 0 0 148.29255305482002 -200.52949973332397 0 -200.52949973332397 -301.606566655184 0 0 0 0 80.571125834052509 -147.76853669256889 0 -147.76853669256889 -108.48565810460786 0 0 0 0 54.004624614906788 -170.39113788922441 0 -170.39113788922441 -298.40410891175088 0 0 0 0 278.01551549395299 7.4774831182494381 0 7.4774831182494381 -79.434908294817433 0 0 0 0 193.68793162061775 10.215370871585947 0 10.215370871585947 170.8887864250064 0 0 0 0 430.80353996352278 124.07809752069807 0 124.07809752069807 208.57686035296683 0 0 0 0 464.880980903421 -198.85239831105355 0 -198.85239831105355 244.8329148647681 0 0 0 0 387.58790556238637 -106.94757096410922 0 -106.94757096410922 -130.52471309089015 0 0 0 0 279.57791875191833 -27.209572583202316 0 -27.209572583202316 107.40616005948323 0 0 0 0 286.33749401968817 -387.62632042501366 0 -387.62632042501366 49.446673228725558 0 0 0 0 102.4563536315909 -143.29755790758645 0 -143.29755790758645 288.40274303653132 0 0 0 0 53.81949057896054 -187.62636153947096 0 -187.62636153947096 -121.84130529789036 0 0 0 0 147.61514192618961 62.142444129280193 0 62.142444129280193 7.6891825405946292 0 0 0 0 96.137704168238997 133.67536527366428 0 133.67536527366428 -88.033264151381445 0 0 0 0 8.4309100344416947 66.387703261643765 0 66.387703261643765 -25.111267967258755 0 0 0 0 110.90866458165692 -7.3271277755611663 0 -7.3271277755611663 -206.47070080394451 0 0 0 0 139.59266565177313 117.76833591566719 0 117.76833591566719 -23.645953298487711 0 0 0 0 155.39064980103649 177.86961005761805 0 177.86961005761805 134.97156235922375 0 0 0 0 95.42962922407969 84.105448446243827 0 84.105448446243827 243.42388818550899 0 0 0 0 126.25871841168919 122.58659324525615 0 122.58659324525615 114.89697306032394 0 0 0 0 50.112196947273333 148.58740229111208 0 148.58740229111208 130.17424336791009 0 0 0 0 12.364156075273058 79.390473250521609 0 79.390473250521609 14.767880235086977 0 0 0 0 -158.50356096891073 92.171006202800527 0 92.171006202800527 24.078401343143923 0 0 0 0 51.953109490661518 -60.093668204379355 0 -60.093668204379355 124.62374464402546 0 0 0 0 -27.261086959100794 147.97133119637601 0 147.97133119637601 228.75119999387607 0 0 0 0 238.04759088615901 99.289398169568813 0 99.289398169568813 645.69678337780351 0 0 0 0 293.62477968887106 98.714741978845268 0 98.714741978845268 222.17189632966802 0 0 0 0 237.72625479786984 -273.59663245374304 0 -273.59663245374304 1126.5946941400398 0 0 0 0 48.113775963885928 -54.744811728613058 0 -54.744811728613058 563.16985082356405 0 0 0 0 217.31762078042425 -102.12309115378571 0 -102.12309115378571 423.27193652150163 0 0 0 0 154.86646858026415 -621.14968954666256 0 -621.14968954666256 713.35595372926764 0 0 0 0 -81.477987915865015 -563.30492350098939 0 -563.30492350098939 1028.5225329949135 0 0 0 0 214.62711489640424 -461.97571220470127 0 -461.97571220470127 1134.2248091515576 0 0 0 0 -1.5798633213034918 -461.96830305712683 0 -461.96830305712683 -759.47323002670964 0 0 0 0 0.31954122347880087 -4.4071925773718945 0 -4.4071925773718945 4.3574071531270775 0 0 0 0 -98.356295008510642 -712.70424439738599 0 -712.70424439738599 204.00861669584128 0 0 0 0 1186.5181075603759 -678.46716502898744 0 -678.46716502898744 1083.5175562031036 0 0 0 0 -4.1036888159578666 -353.77105839732758 0 -353.77105839732758 1021.2228969246571 0 0 0 0 544.30334260333984 22.156180347943518 0 22.156180347943518 492.82695203070034 0 0 0 0 644.6962174345208 -475.51128595392947 0 -475.51128595392947 481.14082221320132 0 0 0 0 462.08227011753115 -97.410207796227041 0 -97.410207796227041 688.43719818358659 0 0 0 0 473.51830701817744 199.06572727976891 0 199.06572727976891 1475.4026612617999 0 0 0 0 685.04275997326113 -231.4714492438834 0 -231.4714492438834 767.81771989341723 0 0 0 0 497.60192957003164 -207.90493525173224 0 -207.90493525173224 1127.2043453019469 0 0 0 0 525.96928493519681 162.61999519088477 0 162.61999519088477 678.66014520862518 0 0 0 0 399.92503927927464 -85.044218869690667 0 -85.044218869690667 456.87825732865531 0 0 0 0 402.34316405283607 50.237680928134068 0 50.237680928134068 616.6516457787875 0 0 0 0 448.3155999357441 -518.96298757404475 0 -518.96298757404475 1524.4960888744245 0 0 0 0 508.20621529142954 -549.32907933146998 0 -549.32907933146998 901.88177731865835 0 0 0 0 1427.7380281368569 -989.076027908166 0 -989.076027908166 1015.2646555138599 0 0 0 0 1222.67329975545 -1540.2221562997474 0 -1540.2221562997474 1825.2264885352743 0 0 0 0 570.12376991866768 -15.147851134286611 0 -15.147851134286611 1278.0654657035993 0 0 0 0 499.63279365118433 -1064.4869265417083 0 -1064.4869265417083 2645.7337760057198 0 0 0 0 737.38918463811569 -781.96172602656952 0 -781.96172602656952 1651.5893760891195 0 0 0 0 697.4021323209472 -1583.5900343018416 0 -1583.5900343018416 2487.4017679935205 0 0 0 0 -1361.8936119556201 -1209.8481532830865 0 -1209.8481532830865 2936.6449904160636 0 0 0 0 375.26141523952174 -315.83427988262156 0 -315.83427988262156 2507.6299900372906 0 0 0 0 1612.8235595428268 -382.38093941313855 0 -382.38093941313855 -81.15264341274451 0 0 0 0 -0.91389616817215291 -6.8808267219352643 0 -6.8808267219352643 -1.7312594714380367 0 0 0 0 -191.04008972902375 -163.93805901051201 0 -163.93805901051201 -111.71188640598302 0 0 0 0 -271.95737093023581 -258.51181309022559 0 -258.51181309022559 -204.12251270152046 0 0 0 0 2150.2072926247492 -1293.0090213355252 0 -1293.0090213355252 670.40020999118497 0 0 0 0 1628.4391783555966 -650.52927790901413 0 -650.52927790901413 395.39905256287238 0 0 0 0 555.01925853057037 -500.24742468069599 0 -500.24742468069599 798.38797009614791 0 0 0 0 588.66334157751407 -211.59313377902436 0 -211.59313377902436 215.4930242605069 0 0 0 0 794.82109456038575 -350.93594768297521 0 -350.93594768297521 -31.197060336948198 0 0 0 0 -2.8918275393861848 -13.532416203723928 0 -13.532416203723928 -8.2748696452826636 0 0 0 0 27.267013970460539 -127.8265508942859 0 -127.8265508942859 -144.84038103156126 0 0 0 0 -20.077370060569592 -209.85821445844522 0 -209.85821445844522 1772.3005012011754 0 0 0 0 -72.153561895516759 -1061.4138389225027 0 -1061.4138389225027 1182.9930720113007 0 0 0 0 199.73493816683549 -551.45045120328723 0 -551.45045120328723 989.88452629931271 0 0 0 0 315.22561031569057 -715.59935703222436 0 -715.59935703222436 1072.5138212021516 0 0 0 0 -56.256962993043999 -295.35678355108575 0 -295.35678355108575 793.77142897418344 0 0 0 0 465.88771819076237 -578.82514986164961 0 -578.82514986164961 414.52008220358402 0 0 0 0 -228.62297471846432 18.721133274309977 0 18.721133274309977 -17.739809299342141 0 0 0 0 -0.67096869044657215 -3.7077932463896452 0 -3.7077932463896452 7.0306686417417978 0 0 0 0 -1435.0170507493099 -374.69851116111181 0 -374.69851116111181 947.25559810912819 0 0 0 0 898.83027884036869 -1592.8726308176947 0 -1592.8726308176947 146.15929208099988 0 0 0 0 134.84248299368392 -658.71512540590447 0 -658.71512540590447 587.65765220132016 0 0 0 0 -410.30587297162674 140.6757145092688 0 140.6757145092688 1770.6096502272512 0 0 0 0 -506.96368822035038 -484.07176993072699 0 -484.07176993072699 193.63148239475595 0 0 0 0 -115.51821563585145 -639.10569598924758 0 -639.10569598924758 225.41340628460785 0 0 0 0 -76.62200296508945 -780.1338053832319 0 -780.1338053832319 1185.3307889370681 0 0 0 0 -6.7568080691308481 -5.9091354274096197 0 -5.9091354274096197 -1.6574591687371658 0 0 0 0 -85.255180435890907 -145.67426664048526 0 -145.67426664048526 460.35776305499166 0 0 0 0 -59.138191362125781 -288.20911668327062 0 -288.20911668327062 585.58110342756299 0 0 0 0 -17.360676538182954 -10.899563578639391 0 -10.899563578639391 -5.6466025705317335 0 0 0 0 153.12009670768566 -372.79468080939523 0 -372.79468080939523 36.582923983851288 0 0 0 0 -292.05150351087559 -280.79277790510787 0 -280.79277790510787 18.408529467543303 0 0 0 0 213.67329918437554 -502.51812846389839 0 -502.51812846389839 -18.071591409096072 0 0 0 0 257.81174829782731 -290.32770482050137 0 -290.32770482050137 -849.91320673887822 0 0 0 0 -186.64930364339671 -221.78014795806757 0 -221.78014795806757 -209.96899784644302 0 0 0 0 3.0709462537958636 -8.258149102310643 0 -8.258149102310643 6.3535711889339588 0 0 0 0 -37.257204963239474 -520.60518187629896 0 -520.60518187629896 -597.27624805848609 0 0 0 0 -107.00776727798166 -139.8324912987282 0 -139.8324912987282 151.76038608536146 0 0 0 0 -121.56696160711908 -85.1895275594743 0 -85.1895275594743 92.185628015321527 0 0 0 0 -104.14128484450703 -144.41278868905829 0 -144.41278868905829 -85.44917605327646 0 0 0 0 -197.98064657297436 -20.490998540761211 0 -20.490998540761211 135.6643144752743 0 0 0 0 -235.74146641277366 -321.47963183996762 0 -321.47963183996762 -156.46759984922301 0 0 0 0 -199.78348102898372 -149.75623105795762 0 -149.75623105795762 53.131182322093082 0 0 0 0 -304.23803937943921 -140.46009513068384 0 -140.46009513068384 76.622595305478171 0 0 0 0 -225.22229515632239 -457.90704219100485 0 -457.90704219100485 152.52997026312005 0 0 0 0 2.3543323624889254 -8.9660912646946613 0 -8.9660912646946613 7.4773954995403429 0 0 0 0 -92.023581952542372 -395.42663846506491 0 -395.42663846506491 -35.514257126222219 0 0 0 0 -126.37971624040802 -397.9952866393578 0 -397.9952866393578 -1.8204334631573147 0 0 0 0 -95.614864883078553 -373.57407505135325 0 -373.57407505135325 -90.457028242656634 0 0 0 0 -0.12761280004633591 -368.76762522637546 0 -368.76762522637546 -166.67761282911124 0 0 0 0 -116.8322241888236 -309.93148988641224 0 -309.93148988641224 -133.2347599617151 0 0 0 0 -124.28519486976438 -328.10478656447958 0 -328.10478656447958 37.400570635945314 0 0 0 0 -77.9748090681951 -261.40456285205249 0 -261.40456285205249 -107.90164020795419 0 0 0 0 -77.745158457277284 -267.09159229930628 0 -267.09159229930628 21.185119420664705 0 0 0 0 -107.85268723177069 -396.65912769539295 0 -396.65912769539295 138.55167422897648 0 0 0 0 -110.41361745881295 -381.9892416843968 0 -381.9892416843968 54.765941237787047 0 0 0 0 -123.48921204538783 -405.20934933141234 0 -405.20934933141234 15.487535986800822 0 0 0 0 -143.48768640218987 -474.51137496512729 0 -474.51137496512729 20.260914372762272 0 0 0 0 -49.559635669837007 -403.04116983993481 0 -403.04116983993481 57.256894390813613 0 0 0 0 -180.77286421907775 -441.95818553226582 0 -441.95818553226582 95.237365099445014 0 0 0 0 -104.17954304309387 -396.44005550104612 0 -396.44005550104612 102.96956343912643 0 0 0 0 -248.05041055593756 -463.91974583572255 0 -463.91974583572255 94.466161185588135 0 0 0 0 -154.66499700595159 -407.73906297373196 0 -407.73906297373196 101.5801042457652 0 0 0 0 -132.63540060034575 -504.31231533035952 0 -504.31231533035952 18.393031479368801 0 0 0 0 -173.44603837191971 -551.43027710384422 0 -551.43027710384422 -35.678674910099289 0 0 0 0 -48.469239683981868 -471.38723567014904 0 -471.38723567014904 -37.875394972631739 0 0 0 0 -76.180987209889281 -522.93719512897951 0 -522.93719512897951 -50.627702906961531 0 0 0 0 -99.444184190011583 -449.68675647200416 0 -449.68675647200416 6.5830258237637054 0 0 0 0 -79.225448192170006 -465.05553028151371 0 -465.05553028151371 -35.256207828415427 0 0 0 0 -0.068257751459896099 -430.24878618779576 0 -430.24878618779576 -62.855397288730273 0 0 0 0 25.869153837687918 -482.99067753067493 0 -482.99067753067493 -60.543247751253148 0 0 0 0 15.290367064124439 -418.7589795535082 0 -418.7589795535082 21.09216992034635 0 0 0 0 0.013028666966420133 -474.38552957865409 0 -474.38552957865409 18.854304816227341 0 0 0 0 -0.85069282719632611 -266.81320474748259 0 -266.81320474748259 -102.04343473960034 0 0 0 0 -50.787421623295813 -522.10505814014232 0 -522.10505814014232 -66.101449080302245 0 0 0 0 -8.4398261969326995 -409.36019587751707 0 -409.36019587751707 107.35676495796633 0 0 0 0 -72.277035512466682 -469.47453929520816 0 -469.47453929520816 139.37993725785395 0 0 0 0 1.8418281480838914 -0.1775046887742846 0 -0.1775046887742846 -0.42853429342455751 0 0 0 0 2.1777024286129745 1.7353438706272755 0 1.7353438706272755 -0.23427262879408772 0 0 0 0 24.52913921061554 -76.269764643991493 0 -76.269764643991493 670.97545282147985 0 0 0 0 -0.77768006450020266 0.60105603294488219 0 0.60105603294488219 2.8909707933790036 0 0 0 0 -89.690995136668789 -7.405565920677418 0 -7.405565920677418 2.7111605587554095 0 0 0 0 -62.204156299427268 -73.668034904107571 0 -73.668034904107571 -9.6052354001790832 0 0 0 0 -2.5711916800809149 -0.43730367075364995 0 -0.43730367075364995 1.5217940684174183 0 0 0 0 78.024651791987708 38.059529163690513 0 38.059529163690513 5.0782267592721837 0 0 0 0 6.6884032438968859 0.55088116633565676 0 0.55088116633565676 -1.4635154777255046 0 0 0 0 -13.702062180105713 -21.409483291042534 0 -21.409483291042534 -36.803919784317323 0 0 0 0 43.071344235548167 2.2183945658015318 0 2.2183945658015318 -74.287062505907898 0 0 0 0 0.35337294431727173 1.3074309044931258 0 1.3074309044931258 0.31873903773694023 0 0 0 0 -11.392791154357838 57.679447882868999 0 57.679447882868999 -109.75147906643178 0 0 0 0 -34.450681310474465 21.979145668610954 0 21.979145668610954 53.927762652515412 0 0 0 0 5.6147540961537743 -40.349004537344626 0 -40.349004537344626 2.5156542613817692 0 0 0 0 0.19067513549555315 -0.2986373717526547 0 -0.2986373717526547 1.9610710591418399 0 0 0 0 20.207563552467036 35.847702818025482 0 35.847702818025482 -2.701574472147513 0 0 0 0 -3.1536024378110596 -32.719495873378534 0 -32.719495873378534 -52.107119030920217 0 0 0 0 9.8457614071173793 1.2347406967979122 0 1.2347406967979122 0.48833791033519053 0 0 0 0 -118.9206310821246 -28.184856338107693 0 -28.184856338107693 62.681567138085029 0 0 0 0 52.403399980772519 71.110661788809466 0 71.110661788809466 -92.616322753453915 0 0 0 0 -134.92264498225995 -276.49990972817977 0 -276.49990972817977 -315.81591880807127 0 0 0 0 2.6384843596050587 0.032896359477586401 0 0.032896359477586401 -0.26850101824436567 0 0 0 0 -173.85107484893524 -417.857954668204 0 -417.857954668204 -510.70463516509176 0 0 0 0 147.91737839330744 -185.38638450081925 0 -185.38638450081925 -607.61516206883607 0 0 0 0 -277.11672219533648 -191.72575476042675 0 -191.72575476042675 -298.65136389296777 0 0 0 0 -153.89673343067989 -617.7459883226752 0 -617.7459883226752 -423.54634349391677 0 0 0 0 -281.54462660380523 -237.57820350978477 0 -237.57820350978477 -812.47427875922403 0 0 0 0 -190.67276985303033 -758.14005566657283 0 -758.14005566657283 -930.41851912298716 0 0 0 0 39.565593914601777 -287.2895928894286 0 -287.2895928894286 -521.00971790506537 0 0 0 0 -143.47722829249687 -500.021410433234 0 -500.021410433234 -7.5464392873541328 0 0 0 0 -152.66780968551393 -463.40816935650298 0 -463.40816935650298 -63.355694099687753 0 0 0 0 -173.29242758620239 -557.25681803725638 0 -557.25681803725638 -352.39817740057788 0 0 0 0 -383.4116557740781 -496.92965837128168 0 -496.92965837128168 108.19443388671061 0 0 0 0 -259.70655589464877 -479.00427766836219 0 -479.00427766836219 260.46940940169014 0 0 0 0 -225.86020229464339 -506.02675060178308 0 -506.02675060178308 -133.02872219755864 0 0 0 0 -177.35388436203357 -279.67368848220394 0 -279.67368848220394 624.83598947837345 0 0 0 0 -3.6679090789739917 -1.7808162381901838 0 -1.7808162381901838 -0.54055744439237863 0 0 0 0 92.712231123514357 -42.894208210000215 0 -42.894208210000215 348.93870206710744 0 0 0 0 -5.7520299156245756 -1.857263804654874 0 -1.857263804654874 -0.61161713288823938 0 0 0 0 493.27252176571346 280.62611089799884 0 280.62611089799884 -440.62370045974239 0 0 0 0 -652.17405711603351 -1133.8138411421583 0 -1133.8138411421583 -1507.303793072816 0 0 0 0 -942.87909338987083 -638.31226630931451 0 -638.31226630931451 616.0279634204544 0 0 0 0 -752.37939783241018 -711.89138399085869 0 -711.89138399085869 -43.948912741528829 0 0 0 0 -450.81508203916019 -1180.1716714946169 0 -1180.1716714946169 -1569.383729123474 0 0 0 0 -173.21142392787442 -7.2417138361402067 0 -7.2417138361402067 -606.77318614506703 0 0 0 0 -720.57303003458946 -638.99045080908763 0 -638.99045080908763 -837.40275556013967 0 0 0 0 197.52109713064419 -505.69909093597062 0 -505.69909093597062 -1310.5899008800934 0 0 0 0 -192.9420123139862 -1101.3295310006527 0 -1101.3295310006527 -1907.4162163696228 0 0 0 0 -1215.5276617004711 -1210.0300441379914 0 -1210.0300441379914 -1388.7450561430676 0 0 0 0 -39.340972455895098 537.01638083085538 0 537.01638083085538 -1153.4782921818201 0 0 0 0 -1410.618022118766 -1377.0489628589041 0 -1377.0489628589041 -541.17619051546831 0 0 0 0 140.91251470716088 104.09285468989992 0 104.09285468989992 -990.84192472096288 0 0 0 0 -5.6339679750527125 -7.3149184577673481 0 -7.3149184577673481 -8.7123252615712428 0 0 0 0 -1548.7033348946788 -550.53556672747004 0 -550.53556672747004 254.95010869191628 0 0 0 0 -843.20064043285674 -692.26084008571195 0 -692.26084008571195 155.92628367736756 0 0 0 0 -787.70219713047845 -804.55349485889678 0 -804.55349485889678 303.97797197148793 0 0 0 0 -322.59993892900093 9.7006538581358654 0 9.7006538581358654 428.78815672565179 0 0 0 0 13.00705187481978 -159.88809547717796 0 -159.88809547717796 152.57095628488696 0 0 0 0 674.60317200768623 -778.23822165425099 0 -778.23822165425099 309.2237368638348 0 0 0 0 -5.4407879385372269 -18.740612744200874 0 -18.740612744200874 -25.953060622962987 0 0 0 0 12.765323643092415 -18.581726923367569 0 -18.581726923367569 49.472945202058327 0 0 0 0 -144.40505250831484 105.34513672274306 0 105.34513672274306 34.608742777112639 0 0 0 0 -219.29836353346764 -23.809861563323921 0 -23.809861563323921 147.12656479450925 0 0 0 0 -300.67786251936195 -651.70803495128575 0 -651.70803495128575 -214.66802201097471 0 0 0 0 -1.8242046775776544 -210.82746271592168 0 -210.82746271592168 -22.741639516978466 0 0 0 0 157.11070249273325 -225.21270038932971 0 -225.21270038932971 -304.45601732283058 0 0 0 0 -531.9455766514584 -501.95966004992147 0 -501.95966004992147 241.75897476209366 0 0 0 0 -858.99415156766918 -716.61237086483334 0 -716.61237086483334 289.94173113494071 0 0 0 0 -625.54734744428424 -660.64644256542647 0 -660.64644256542647 173.70721280329394 0 0 0 0 -966.41456848784583 -1065.8168650509824 0 -1065.8168650509824 -161.77051831355243 0 0 0 0 -374.03848715126514 -980.65483654690979 0 -980.65483654690979 -1815.9937179124865 0 0 0 0 -207.24764620400674 -316.31519828624607 0 -316.31519828624607 -106.44596257793832 0 0 0 0 -186.24108799347596 -443.8648343209266 0 -443.8648343209266 -796.41980790811203 0 0 0 0 -255.6954027730244 428.32727761586875 0 428.32727761586875 -109.05927698146269 0 0 0 0 114.31625869123673 -533.40036457487486 0 -533.40036457487486 7.5919245627113696 0 0 0 0 562.58482802010985 -160.2293881886427 0 -160.2293881886427 -301.07164341610633 0 0 0 0 -447.88049235311337 -96.601834812504421 0 -96.601834812504421 427.49945829874662 0 0 0 0 -4.471491890450352 -5.687599017677778 0 -5.687599017677778 -0.5844963103665477 0 0 0 0 -242.54238316912961 233.02080408458141 0 233.02080408458141 -502.14011007308386 0 0 0 0 160.52139940181223 -155.13950039661268 0 -155.13950039661268 158.85096968522521 0 0 0 0 224.58452952289372 19.276460601607823 0 19.276460601607823 -364.68177389740276 0 0 0 0 -15.027123839673209 -4.5969208921418456 0 -4.5969208921418456 -0.6924010593320169 0 0 0 0 9.1838020665381919 -180.37454223847544 0 -180.37454223847544 295.5645328523633 0 0 0 0 90.530348537591635 -147.8339194780342 0 -147.8339194780342 -18.556321063106225 0 0 0 0 8.1230585845187306 -55.411463093279963 0 -55.411463093279963 176.79790112807495 0 0 0 0 12.450578744155791 -180.70380381867858 0 -180.70380381867858 -19.526213105591523 0 0 0 0 97.512996661418583 -85.858150048456991 0 -85.858150048456991 -113.98085398583589 0 0 0 0 46.059563734277617 -115.75085367684869 0 -115.75085367684869 149.28354340258375 0 0 0 0 138.40748045986402 -179.49677397875257 0 -179.49677397875257 -16.504401512769618 0 0 0 0 135.27293621913213 -151.4239979777746 0 -151.4239979777746 73.702582098288985 0 0 0 0 -4.8712865598499775 -225.56340714252019 0 -225.56340714252019 149.96314490092755 0 0 0 0 -181.66966175340349 -334.15109869977459 0 -334.15109869977459 112.84656887723031 0 0 0 0 -16.360692587360973 -195.04311554430387 0 -195.04311554430387 222.28741651326334 0 0 0 0 105.94800999251311 -294.71600150682843 0 -294.71600150682843 74.18424208869601 0 0 0 0 -48.569623915624106 -374.57587203076946 0 -374.57587203076946 89.083740240281259 0 0 0 0 102.48239570965961 -244.61649851665788 0 -244.61649851665788 -56.347968781539748 0 0 0 0 208.49820098430791 -271.09306420761641 0 -271.09306420761641 -63.420383932407276 0 0 0 0 361.16357811870694 -437.36033356558573 0 -437.36033356558573 -300.84097845101496 0 0 0 0 144.25717429128417 -603.50996043504665 0 -603.50996043504665 459.68983344997105 0 0 0 0 26.527936169979512 -381.87762209909488 0 -381.87762209909488 87.653765113856934 0 0 0 0 -46.96403343842394 -439.36670757874526 0 -439.36670757874526 166.50870564940305 0 0 0 0 -89.011593388146139 -184.15469012661742 0 -184.15469012661742 234.6842873283772 0 0 0 0 -32.437566745378717 -138.50407122793422 0 -138.50407122793422 -1.1673341270216042 0 0 0 0 692.84349437347555 -1109.2752038832277 0 -1109.2752038832277 542.06391070555765 0 0 0 0 -164.5061051415687 -145.38388279816536 0 -145.38388279816536 380.73927174853975 0 0 0 0 -156.73796992092684 -339.72681846165688 0 -339.72681846165688 2272.3174722666881 0 0 0 0 689.33098799391882 -82.961746653028058 0 -82.961746653028058 -8.5758392437637667 0 0 0 0 -277.69232154185011 -553.20307030617369 0 -553.20307030617369 2403.549314919499 0 0 0 0 13.598475221508693 -15.673738931618146 0 -15.673738931618146 -0.04054016998768617 0 0 0 0 -26.513343022639674 -172.31156736438879 0 -172.31156736438879 644.26652345818729 0 0 0 0 21.800518172916782 -360.6570121320774 0 -360.6570121320774 237.9881394125041 0 0 0 0 14.35070144517158 -190.32361038252566 0 -190.32361038252566 -225.77878222166692 0 0 0 0 105.41160753806616 -32.404385521122094 0 -32.404385521122094 -462.39738213716009 0 0 0 0 217.05706867230765 -229.93692314201508 0 -229.93692314201508 -230.15911687005882 0 0 0 0 -1.080800589631508 -6.5030334428511551 0 -6.5030334428511551 -2.6910893642859506 0 0 0 0 93.302574765039026 -36.929160623205462 0 -36.929160623205462 -129.3092812476234 0 0 0 0 6.0007555937182815 -4.1648824207911446 0 -4.1648824207911446 -3.9825182441948641 0 0 0 0 -209.32833575607219 -171.07390881249194 0 -171.07390881249194 -19.367085959439464 0 0 0 0 87.061575780026033 -127.63299987865048 0 -127.63299987865048 -218.72101643918131 0 0 0 0 52.324426744935693 -7.7368217887117652 0 -7.7368217887117652 -19.699204442043388 0 0 0 0 15.409029720452963 -144.21385379696267 0 -144.21385379696267 -29.603791701291357 0 0 0 0 94.576144495600602 -321.62643791451046 0 -321.62643791451046 215.35590778157894 0 0 0 0 73.334816141221381 -325.96425724724577 0 -325.96425724724577 223.3013491849706 0 0 0 0 -15.820464021860971 -46.505207062942219 0 -46.505207062942219 -14.474161614252367 0 0 0 0 -175.70177956531188 7.8968477864668216 0 7.8968477864668216 198.78379812261812 0 0 0 0 -22.376696354873928 -41.381796231647471 0 -41.381796231647471 -14.863277211163979 0 0 0 0 140.13737915156526 -173.90432284787494 0 -173.90432284787494 -224.55653822936893 0 0 0 0 -78.900633642653702 49.671208165272731 0 49.671208165272731 47.606734150387567 0 0 0 0 -27.195751492852622 -42.094380059844951 0 -42.094380059844951 -15.04092561268013 0 0 0 0 -26.379668398731155 -2.0196935456478968 0 -2.0196935456478968 86.28218515214121 0 0 0 0 -85.848477089884909 -108.81254413303429 0 -108.81254413303429 -8.2484256401712628 0 0 0 0 -51.514481240119494 -139.73103375777282 0 -139.73103375777282 -47.598919830013074 0 0 0 0 -84.506314471464066 -175.14912675855931 0 -175.14912675855931 -109.40182705674488 0 0 0 0 -33.214508661760703 -37.11968103380935 0 -37.11968103380935 40.233735379577809 0 0 0 0 -37.473086163903645 -83.156529032348999 0 -83.156529032348999 -79.56990667854916 0 0 0 0 -111.32921813452413 -145.63045346048966 0 -145.63045346048966 10.532592844150713 0 0 0 0 -243.411497916808 44.271872182739571 0 44.271872182739571 -239.42248754906723 0 0 0 0 -15.311114637920667 -32.421013728158428 0 -32.421013728158428 49.548557128384374 0 0 0 0 -178.74926388797758 -74.840157983505378 0 -74.840157983505378 4.1299165685941261 0 0 0 0 9.7619535684865468 -26.191276343708612 0 -26.191276343708612 -18.4036812194378 0 0 0 0 -50.736323511711817 -120.79479216259233 0 -120.79479216259233 -124.14153726622772 0 0 0 0 158.53417461514982 -288.04651705064066 0 -288.04651705064066 -467.28949949662911 0 0 0 0 -37.276155580053455 -142.11074864619422 0 -142.11074864619422 31.783973050814893 0 0 0 0 42.700481276763014 -59.132964087357124 0 -59.132964087357124 -68.326977803639807 0 0 0 0 -56.13089855191356 -111.97744746713397 0 -111.97744746713397 6.3276630808168193 0 0 0 0 63.829871772661249 -33.651505924987738 0 -33.651505924987738 -15.08735608466997 0 0 0 0 -24.20818857064296 -194.03953981645464 0 -194.03953981645464 -124.85035765443899 0 0 0 0 -21.071635593703832 -100.09482514314914 0 -100.09482514314914 -47.304807661137602 0 0 0 0 32.328084238994052 -102.13644027776263 0 -102.13644027776263 -177.73187194216052 0 0 0 0 9.090839633368887 -138.36197040643628 0 -138.36197040643628 -16.854490911222911 0 0 0 0 -24.32138492765921 -22.480495859427698 0 -22.480495859427698 -12.56255419411761 0 0 0 0 -9.4172260800332879 -71.128281058473249 0 -71.128281058473249 1.6048328319457141 0 0 0 0 49.063391300383955 -86.015878724465892 0 -86.015878724465892 -153.71887297578564 0 0 0 0 14.821474739341681 -23.036443974061836 0 -23.036443974061836 -4.474964392999909 0 0 0 0 25.342944049421931 -136.74204596502773 0 -136.74204596502773 -268.7608189685406 0 0 0 0 7.3151785411910168 -6.1484290446673819 0 -6.1484290446673819 -0.60650362139599157 0 0 0 0 -116.25483226927463 -28.443328903673091 0 -28.443328903673091 179.54964796820968 0 0 0 0 883.45975379852462 -303.33760242908977 0 -303.33760242908977 -893.22352386755779 0 0 0 0 11.191910245812323 1.032476203153891 0 1.032476203153891 0.38519382714953376 0 0 0 0 -231.74334989597264 66.923587472203508 0 66.923587472203508 345.86299165075889 0 0 0 0 346.13958726465353 -18.573330820775027 0 -18.573330820775027 -207.87593731099787 0 0 0 0 -39.076968259698333 -271.90554197316374 0 -271.90554197316374 -68.578024691697919 0 0 0 0 19.908220643820357 -22.049873091224534 0 -22.049873091224534 -10.025861051124132 0 0 0 0 -48.934420395647464 -49.810208507149675 0 -49.810208507149675 -29.483317252559594 0 0 0 0 59.253842411287224 -197.82251370968771 0 -197.82251370968771 -66.9001678817026 0 0 0 0 46.135609406552703 35.666401083512348 0 35.666401083512348 -131.85003003996326 0 0 0 0 189.33204578184814 -119.26936054779435 0 -119.26936054779435 35.726745259093832 0 0 0 0 23.873121037773672 -143.57843443856837 0 -143.57843443856837 -235.0214459442941 0 0 0 0 -83.368389298917464 -141.14630719773754 0 -141.14630719773754 33.947433453620761 0 0 0 0 36.711096431706892 -77.369178147192969 0 -77.369178147192969 -3.0370810502664938 0 0 0 0 -18.169023592449605 -31.563482301378919 0 -31.563482301378919 -6.807850130896373 0 0 0 0 -77.940491024737071 -138.34758292477341 0 -138.34758292477341 56.88905177282868 0 0 0 0 -89.201694392020727 -143.48151230860458 0 -143.48151230860458 56.446675353668979 0 0 0 0 -21.127945548578282 -122.32103897627894 0 -122.32103897627894 -13.813150568075798 0 0 0 0 4.9017955452291062 -80.888556790803705 0 -80.888556790803705 -66.561486239387705 0 0 0 0 -4.1516914391759201 -98.379856136526541 0 -98.379856136526541 19.945280217172694 0 0 0 0 22.408673754600102 -107.6831603709512 0 -107.6831603709512 -33.836417769587833 0 0 0 0 -6.5346207924186501 -115.77701872073126 0 -115.77701872073126 -35.34831460984698 0 0 0 0 -4.1492007583012267 -72.37542984758494 0 -72.37542984758494 -44.299939600002617 0 0 0 0 -2.2066558058140799 -99.717670534675563 0 -99.717670534675563 -43.643918448944532 0 0 0 0 2.2519194560591131 -140.66475463733994 0 -140.66475463733994 -41.210023065184814 0 0 0 0 10.231275771376843 -70.191283007839758 0 -70.191283007839758 -13.243100618286059 0 0 0 0 -68.452404911760823 -106.4941569131056 0 -106.4941569131056 74.674765262460312 0 0 0 0 -32.621422940603225 -104.40524734454453 0 -104.40524734454453 -78.700308681251272 0 0 0 0 -123.34110405801584 -254.18867393462551 0 -254.18867393462551 -71.025855595831672 0 0 0 0 -40.129532790522873 -59.340750738679681 0 -59.340750738679681 -49.452959061025574 0 0 0 0 -122.59712583340661 -189.77021678512708 0 -189.77021678512708 20.395190535657093 0 0 0 0 -75.854421765339794 -117.65971708857069 0 -117.65971708857069 -43.132121056698907 0 0 0 0 -137.60825579529774 -109.88836969671593 0 -109.88836969671593 -32.152074764203007 0 0 0 0 -90.405611611990025 -84.291561239123553 0 -84.291561239123553 3.3211016761179053 0 0 0 0 1.680309891931671 -39.78984128731453 0 -39.78984128731453 -10.459147190720826 0 0 0 0 -110.31642353632196 -187.68188456511234 0 -187.68188456511234 -107.10873542623244 0 0 0 0 -112.56814545937959 -66.034430354956385 0 -66.034430354956385 -7.7092316878133715 0 0 0 0 24.454523384763675 -47.688268468289721 0 -47.688268468289721 -35.000857283638418 0 0 0 0 -18.011497500196128 -87.315414532497698 0 -87.315414532497698 -65.402748237045671 0 0 0 0 -151.66062600105761 -205.82915810222767 0 -205.82915810222767 -76.186867717292444 0 0 0 0 -99.490147231572337 -153.31062154314304 0 -153.31062154314304 -41.463551213128085 0 0 0 0 -161.1604351117785 -126.94657181695561 0 -126.94657181695561 -12.546884693168977 0 0 0 0 -210.98328324450267 -131.67271102190807 0 -131.67271102190807 11.908883555992361 0 0 0 0 -170.49670645658625 -130.59086797429336 0 -130.59086797429336 -13.644407709166444 0 0 0 0 -35.832547156739793 -133.07513444414519 0 -133.07513444414519 -29.068215925352433 0 0 0 0 -37.218354278586048 -152.12278612372029 0 -152.12278612372029 -54.799509918040258 0 0 0 0 -15.244645631039759 -51.281258473626593 0 -51.281258473626593 34.551861490758867 0 0 0 0 -37.967462153254019 -118.72240765867264 0 -118.72240765867264 -131.2978316001263 0 0 0 0 -57.275961576254993 -54.35094073004155 0 -54.35094073004155 -31.208734704060028 0 0 0 0 -112.29815708649767 -155.61767876543854 0 -155.61767876543854 59.31300465455206 0 0 0 0 -84.139832602390925 -98.167463287614737 0 -98.167463287614737 8.2280040078258025 0 0 0 0 -29.295805977621058 -162.34886621513306 0 -162.34886621513306 -31.764816203776803 0 0 0 0 -27.91178312106058 -148.01571186484239 0 -148.01571186484239 -57.553345675959918 0 0 0 0 -54.433137631588579 -135.02131443488543 0 -135.02131443488543 -161.75534389851964 0 0 0 0 -190.94888172415813 -116.48931296587762 0 -116.48931296587762 45.408468739614364 0 0 0 0 -129.61164540515165 -82.528919641181346 0 -82.528919641181346 6.0426330079717445 0 0 0 0 -133.78854868800954 -72.285184437529097 0 -72.285184437529097 -14.563355660120578 0 0 0 0 -148.1891993185418 -171.05641842029945 0 -171.05641842029945 -24.025304842652986 0 0 0 0 -167.147322078863 -160.63620029927915 0 -160.63620029927915 -12.166646819194284 0 0 0 0 -256.85482031349238 -408.48461707556817 0 -408.48461707556817 -374.74112731606147 0 0 0 0 -85.101842474757404 46.834492592631989 0 46.834492592631989 389.75610744104051 0 0 0 0 0.51780927095665419 0.89512587719774217 0 0.89512587719774217 -1.825460178923116 0 0 0 0 -35.352193366172287 -172.06711516917039 0 -172.06711516917039 126.08603116540326 0 0 0 0 -36.080320767334342 -161.94104964721009 0 -161.94104964721009 207.61203980035862 0 0 0 0 28.384445252533624 -155.24066059569304 0 -155.24066059569304 135.51455091850221 0 0 0 0 12.009351255073852 -191.7121801325593 0 -191.7121801325593 244.13121740820043 0 0 0 0 82.798328710702663 -227.34990791960354 0 -227.34990791960354 131.62799800599169 0 0 0 0 126.28940748104469 -354.41598198846987 0 -354.41598198846987 293.69095697886223 0 0 0 0 -8.8054689134351065 -226.88533090609963 0 -226.88533090609963 83.617903574926459 0 0 0 0 -140.50296904090646 -118.56053495513879 0 -118.56053495513879 46.971382665016108 0 0 0 0 -117.20708566427129 -146.51816247642819 0 -146.51816247642819 74.396545545234403 0 0 0 0 -95.49924710531559 -117.36198664459152 0 -117.36198664459152 110.7750142867244 0 0 0 0 -82.261242732776736 -100.257255873963 0 -100.257255873963 48.038857765510329 0 0 0 0 -127.84301209234764 -71.638104220175592 0 -71.638104220175592 42.869227333812887 0 0 0 0 -121.00002763290831 -64.768496870930903 0 -64.768496870930903 49.17446947076678 0 0 0 0 -125.77480576460221 -47.916647429083241 0 -47.916647429083241 9.1819188682857202 0 0 0 0 -138.12496065820551 -80.019592919046772 0 -80.019592919046772 53.526056754039018 0 0 0 0 -24.633019175740628 -57.359990807908616 0 -57.359990807908616 -59.770910752966302 0 0 0 0 -29.004949587288138 -18.977868685666181 0 -18.977868685666181 -2.1565158218072611 0 0 0 0 -53.486374961828915 -134.23377363275176 0 -134.23377363275176 171.48391331870516 0 0 0 0 -76.134551614941302 -75.793916067319515 0 -75.793916067319515 113.50084896449516 0 0 0 0 -30.916385274296772 -81.38560473468533 0 -81.38560473468533 78.274418575201707 0 0 0 0 -30.338852578792284 -136.51512483935221 0 -136.51512483935221 250.15292484991369 0 0 0 0 -26.520803446186619 -104.39533141970605 0 -104.39533141970605 71.775115952641499 0 0 0 0 -101.11117627993372 -35.782740873728471 0 -35.782740873728471 91.606816634815914 0 0 0 0 -17.059108433550136 -55.989600197569871 0 -55.989600197569871 -9.4327491635449405 0 0 0 0 -13.744410798417448 9.9051631756137795 0 9.9051631756137795 -5.1404513083907659 0 0 0 0 -25.689450488061993 34.376622938569199 0 34.376622938569199 -41.900411551032448 0 0 0 0 -81.302446429446718 -44.777872290833329 0 -44.777872290833329 -47.234669861027214 0 0 0 0 -18.675887115040666 -38.600638535498845 0 -38.600638535498845 -29.074994584685776 0 0 0 0 -1.6497584515018744 -3.2750511653489411 0 -3.2750511653489411 -7.0865639848063751 0 0 0 0 -91.979138171482191 -79.557187835675904 0 -79.557187835675904 -15.082033682076144 0 0 0 0 -117.32548060809313 -73.09254784661789 0 -73.09254784661789 9.177909304802597 0 0 0 0 -23.691979612242442 -38.35370829899199 0 -38.35370829899199 18.905554061214836 0 0 0 0 -2.8115296454850949 -0.43939654476027101 0 -0.43939654476027101 9.0203653120550342 0 0 0 0 -36.850089648344706 -56.606821744740202 0 -56.606821744740202 -38.948746133510241 0 0 0 0 -45.581722320908739 -79.323067376962172 0 -79.323067376962172 -37.934156831284781 0 0 0 0 -18.624450146468007 -66.131249479149119 0 -66.131249479149119 -14.953912243433024 0 0 0 0 -20.165102090370056 -61.921718473565079 0 -61.921718473565079 -20.447108095149815 0 0 0 0 -7.4243782606172317 -69.510554294123267 0 -69.510554294123267 -17.090118055085895 0 0 0 0 -16.844550235244242 -55.59455320482175 0 -55.59455320482175 -60.280232192674248 0 0 0 0 -20.150628685081422 -48.013460901164628 0 -48.013460901164628 -48.401320288685355 0 0 0 0 -17.012740896418109 -50.145452863313949 0 -50.145452863313949 -31.707283497706158 0 0 0 0 0.32851283135943277 -16.004132664347082 0 -16.004132664347082 1.4369170215392515 0 0 0 0 -19.647361569634086 -46.815607872918918 0 -46.815607872918918 -33.451713589549399 0 0 0 0 -19.062335927819731 -50.152521917584636 0 -50.152521917584636 -68.013071893637971 0 0 0 0 -52.884921192944603 -173.06800461546845 0 -173.06800461546845 -139.9805447943836 0 0 0 0 8.5067881839422625 -62.549540731676643 0 -62.549540731676643 -93.947426480859576 0 0 0 0 -27.234808152548794 -55.93939418230957 0 -55.93939418230957 -60.817288395290234 0 0 0 0 -1.7551747152742934 -3.5660154871563385 0 -3.5660154871563385 9.560372890294552 0 0 0 0 79.10885576848159 -34.496767902134707 0 -34.496767902134707 -57.162566262553923 0 0 0 0 -67.106165832978149 69.067991733678809 0 69.067991733678809 310.26069079534409 0 0 0 0 81.632194724432338 -206.72130587481092 0 -206.72130587481092 24.752031309480572 0 0 0 0 -89.516288338267259 -93.193988140870715 0 -93.193988140870715 270.73050571547174 0 0 0 0 328.6341540478752 -221.03448553729174 0 -221.03448553729174 -17.526226619104364 0 0 0 0 -124.1981766161407 75.120005807636602 0 75.120005807636602 260.92210044623698 0 0 0 0 181.74114996412391 -80.953009743260054 0 -80.953009743260054 -91.883856537290058 0 0 0 0 -1.4823545565304812 -145.71195471938904 0 -145.71195471938904 344.86719367768598 0 0 0 0 -36.56244970097265 -43.059769099842725 0 -43.059769099842725 -14.891420025121631 0 0 0 0 -46.003765605557419 -7.8098834713775886 0 -7.8098834713775886 84.658205144181011 0 0 0 0 -7.9160925562537159 -163.61893648264231 0 -163.61893648264231 58.283061968330458 0 0 0 0 -124.30594163505884 -83.758757494160591 0 -83.758757494160591 174.668565319545 0 0 0 0 -61.612236443324946 -16.264757738790877 0 -16.264757738790877 150.97309162468991 0 0 0 0 -115.50093922133965 153.87288907470861 0 153.87288907470861 -274.1379632221051 0 0 0 0 -403.33227598237863 156.87756832857667 0 156.87756832857667 273.56752120996498 0 0 0 0 -357.49151250254363 -384.93256632328234 0 -384.93256632328234 -95.591023119060566 0 0 0 0 179.45448097325425 -224.98418679596836 0 -224.98418679596836 77.002707964853172 0 0 0 0 87.922803197150643 -551.0668907670597 0 -551.0668907670597 -229.60311762961965 0 0 0 0 -337.24024314191252 -104.72805563420832 0 -104.72805563420832 313.97300557207598 0 0 0 0 -11.564422067166262 -9.4997740958373775 0 -9.4997740958373775 11.836685805894815 0 0 0 0 9.6006926296577149 -108.25947594327545 0 -108.25947594327545 -155.55166975775546 0 0 0 0 -54.283465058742195 188.7830991864322 0 188.7830991864322 86.784243384014189 0 0 0 0 -0.57956689436743147 -6.5021914699763297 0 -6.5021914699763297 4.9837546118197089 0 0 0 0 -40.655581753592514 -15.870402422540678 0 -15.870402422540678 -53.325762946449686 0 0 0 0 13.749932427512249 -4.4196733853423211 0 -4.4196733853423211 209.6233796744782 0 0 0 0 12.527051780918555 -48.751564458845678 0 -48.751564458845678 -31.948828277813391 0 0 0 0 30.264107942122791 -198.3748191804907 0 -198.3748191804907 134.13695205422209 0 0 0 0 -218.06459683427966 66.446083015629483 0 66.446083015629483 213.70139112900324 0 0 0 0 -159.62170681828866 -128.12189038770384 0 -128.12189038770384 455.95723808042567 0 0 0 0 49.323821682740714 -59.975015315956782 0 -59.975015315956782 29.903556259452316 0 0 0 0 -207.27566132512584 -149.80464264880811 0 -149.80464264880811 -73.244082679176245 0 0 0 0 -139.09682967046001 -408.35030887016592 0 -408.35030887016592 -0.03689114807639271 0 0 0 0 -196.86339690817113 -7.0487137545187579 0 -7.0487137545187579 79.798401705471406 0 0 0 0 -14.870103617418252 -9.8061214287570238 0 -9.8061214287570238 1.6136800463776879 0 0 0 0 177.57593100847953 -17.923128947852092 0 -17.923128947852092 -102.64743368688505 0 0 0 0 9.4570009241488151 -19.943923898999856 0 -19.943923898999856 -48.856570863903471 0 0 0 0 28.236985833309113 -21.457158376791604 0 -21.457158376791604 -72.204276497998478 0 0 0 0 70.715089456117198 -80.745535277419435 0 -80.745535277419435 -130.19513143620134 0 0 0 0 16.917735963739688 -231.28648143495548 0 -231.28648143495548 -247.43906850953772 0 0 0 0 13.572234385113781 -67.393460176835092 0 -67.393460176835092 46.449670193286671 0 0 0 0 -12.737951637193369 -13.483862322010921 0 -13.483862322010921 -7.3698753662394614 0 0 0 0 305.62778259572224 -30.018131766237275 0 -30.018131766237275 -245.77960241181927 0 0 0 0 159.01447450714477 99.359370575330104 0 99.359370575330104 312.79317213730269 0 0 0 0 -47.801699859765947 -45.558867944231103 0 -45.558867944231103 -15.825117309722419 0 0 0 0 -51.949522632219669 -60.830799354177088 0 -60.830799354177088 -31.580119405882215 0 0 0 0 -294.96036148474377 -143.25281859722941 0 -143.25281859722941 216.29722211199737 0 0 0 0 -107.44690379025997 -111.43533231201036 0 -111.43533231201036 -75.023201889980555 0 0 0 0 -114.85200128353608 56.913187358433788 0 56.913187358433788 6.4611301507611643 0 0 0 0 -52.597820197122928 84.728889138953491 0 84.728889138953491 -89.003187205171798 0 0 0 0 -115.75219645543257 19.644626070556114 0 19.644626070556114 -31.681950627214974 0 0 0 0 -35.879674090809203 -3.404782384134478 0 -3.404782384134478 109.83029972784971 0 0 0 0 -108.05184029773773 144.89396943417864 0 144.89396943417864 40.74572002239438 0 0 0 0 -309.06254407672532 6.6567437394251101 0 6.6567437394251101 6.9300320725751305 0 0 0 0 -349.21498757549853 -10.648655944992242 0 -10.648655944992242 216.98977401030243 0 0 0 0 -360.20062373551036 -145.48551441486103 0 -145.48551441486103 -23.409891052961029 0 0 0 0 -5.1738515176039073 -25.404959593735839 0 -25.404959593735839 17.038063933526701 0 0 0 0 -6.9537390390532892 -8.1215587317153677 0 -8.1215587317153677 246.51265091608911 0 0 0 0 -63.757259932805027 -269.33059133770894 0 -269.33059133770894 121.94049372938832 0 0 0 0 -66.821792098533138 -13.197140582307149 0 -13.197140582307149 567.18166490254225 0 0 0 0 -382.19219958941358 -22.509206928962328 0 -22.509206928962328 -30.509561153287905 0 0 0 0 -496.29572602560074 -295.07006088971639 0 -295.07006088971639 190.96081410258194 0 0 0 0 44.185580033368311 -59.929637965030317 0 -59.929637965030317 44.71960294280143 0 0 0 0 -402.7240534961702 -327.45449431415955 0 -327.45449431415955 134.10004632706477 0 0 0 0 4.8820158288299353 225.1948208838312 0 225.1948208838312 7.862442488582019 0 0 0 0 74.114932715763644 27.372561248184866 0 27.372561248184866 16.33186366368318 0 0 0 0 179.87428802426621 116.00241613733488 0 116.00241613733488 65.337872806936502 0 0 0 0 351.24819220671998 76.403591960504855 0 76.403591960504855 -54.433817154043936 0 0 0 0 446.79202845596592 -531.39718498439106 0 -531.39718498439106 -114.9059116057615 0 0 0 0 3.0735967106070134 -7.7663324166263408 0 -7.7663324166263408 -5.3996245269000376 0 0 0 0 319.18086169809249 -234.00648895205813 0 -234.00648895205813 138.00823622533585 0 0 0 0 742.42016910210441 -129.6907328001962 0 -129.6907328001962 -70.381095135932128 0 0 0 0 -4.9489109272135146 -4.2139397830231484 0 -4.2139397830231484 6.0326564032790628 0 0 0 0 406.45545338655211 -237.75888978243984 0 -237.75888978243984 -64.949343563232105 0 0 0 0 78.050192124357636 -270.65636528962568 0 -270.65636528962568 238.16755921663571 0 0 0 0 -0.24463617239583835 2.3436154137175986 0 2.3436154137175986 2.5191068635238452 0 0 0 0 126.95778331178008 22.666209850116502 0 22.666209850116502 162.12514246739374 0 0 0 0 60.606917556428243 -135.64803085363758 0 -135.64803085363758 -89.481917997232813 0 0 0 0 -47.931543090996001 -89.536387583639126 0 -89.536387583639126 -1.5600920873021096 0 0 0 0 -47.994913243436457 -88.760334120871477 0 -88.760334120871477 91.460321040387498 0 0 0 0 139.34092708336357 -105.72308220555715 0 -105.72308220555715 39.497820750579194 0 0 0 0 -121.43275293430725 -139.41717544261883 0 -139.41717544261883 36.214613264783111 0 0 0 0 -66.930167365857415 -158.03871913629519 0 -158.03871913629519 33.71701610332093 0 0 0 0 -46.759463759466598 -53.029668561978724 0 -53.029668561978724 88.495709188086039 0 0 0 0 -254.64747214633826 -92.087453051606644 0 -92.087453051606644 87.870613045457191 0 0 0 0 -208.10125068728303 -420.10585862598055 0 -420.10585862598055 -335.37821711311153 0 0 0 0 -54.890410260721183 107.42935140796999 0 107.42935140796999 277.18534001130502 0 0 0 0 -662.58121023697095 -246.95989683024254 0 -246.95989683024254 367.48390594545117 0 0 0 0 -55.729601429682589 -183.48093569554931 0 -183.48093569554931 -146.35149144265233 0 0 0 0 -74.656197514821542 -201.42410368352648 0 -201.42410368352648 21.420678582103392 0 0 0 0 -123.83866997975656 -191.85660616357745 0 -191.85660616357745 19.593099335428633 0 0 0 0 -149.40672913982598 -124.31023332245422 0 -124.31023332245422 25.562152772028639 0 0 0 0 -81.493536128047708 15.983092921992466 0 15.983092921992466 156.24147910516149 0 0 0 0 46.45554123993584 -61.399622108506044 0 -61.399622108506044 23.244250229075313 0 0 0 0 4.1821231607417531 -1.2661613788981994 0 -1.2661613788981994 0.32511773838031743 0 0 0 0 -18.501518933178886 -172.70353613036968 0 -172.70353613036968 5.2087763128165534 0 0 0 0 -148.68302926421529 -55.569851060949986 0 -55.569851060949986 39.55068892389977 0 0 0 0 120.41932765008642 -5.8484124937940578 0 -5.8484124937940578 23.37690365322851 0 0 0 0 -194.57614102151092 -197.83318269459232 0 -197.83318269459232 55.041267787566539 0 0 0 0 44.898438394997179 -58.297487123892203 0 -58.297487123892203 39.842705558319146 0 0 0 0 -135.63330787351151 -313.17003956836709 0 -313.17003956836709 -106.17374148998488 0 0 0 0 13.963699373805866 -125.40257917044255 0 -125.40257917044255 -179.69644179955912 0 0 0 0 -60.896076672155687 -16.323154899490874 0 -16.323154899490874 23.833716049244686 0 0 0 0 -306.64520354459273 -123.14256280102018 0 -123.14256280102018 94.39798152149524 0 0 0 0 46.420062407796379 -61.97423858483107 0 -61.97423858483107 43.789638221938532 0 0 0 0 -426.44132295161035 -526.93476429615612 0 -526.93476429615612 146.86984694117109 0 0 0 0 71.670250456067151 -215.24143367055808 0 -215.24143367055808 -70.097723835116312 0 0 0 0 692.35706444204698 -388.35517724753527 0 -388.35517724753527 -38.05185014031531 0 0 0 0 408.04343026363495 84.593518202159885 0 84.593518202159885 -90.157507355118469 0 0 0 0 -1.1964084715987795 -7.8268014538047055 0 -7.8268014538047055 -59.033570972783892 0 0 0 0 -190.40011330240668 -75.883676742862463 0 -75.883676742862463 28.975609939509013 0 0 0 0 224.45443011235329 29.070271776532309 0 29.070271776532309 -101.65506617794381 0 0 0 0 352.83535987844152 -44.184234722898282 0 -44.184234722898282 -142.25965558026473 0 0 0 0 51.402630751250399 -91.615104038686013 0 -91.615104038686013 -65.048084121682223 0 0 0 0 122.01636646318366 -164.26076117663024 0 -164.26076117663024 -115.05804468971672 0 0 0 0 44.626594662939169 -10.855970883114423 0 -10.855970883114423 -124.25393067797995 0 0 0 0 239.93280346391839 -115.9578436193558 0 -115.9578436193558 -111.12880614962057 0 0 0 0 -5.1713382456109862 -16.479542702430876 0 -16.479542702430876 -73.477374034569152 0 0 0 0 89.019669673354656 -66.850287014332935 0 -66.850287014332935 -107.47876013009954 0 0 0 0 1.0621500469233069 5.5701775941877969 0 5.5701775941877969 -12.039805450263074 0 0 0 0 125.93264987453585 -107.3691990146599 0 -107.3691990146599 34.26825746535178 0 0 0 0 97.059550629201112 -31.825387587217847 0 -31.825387587217847 -19.866349311050726 0 0 0 0 -3.1565248597777469 -15.19696672912211 0 -15.19696672912211 5.3424912838350735 0 0 0 0 139.13778691418702 -108.90784125187201 0 -108.90784125187201 121.3026549507631 0 0 0 0 108.13903117226437 18.434054650693724 0 18.434054650693724 -10.370449407753767 0 0 0 0 10.707337993286103 -47.153912510730635 0 -47.153912510730635 -68.867979779844177 0 0 0 0 23.322367844522887 -116.40915796793479 0 -116.40915796793479 -10.858002141852921 0 0 0 0 74.644749691346078 -139.18118560120061 0 -139.18118560120061 -22.040811204789652 0 0 0 0 71.639905471747625 -154.24242420063857 0 -154.24242420063857 -50.812188909571034 0 0 0 0 98.639740957791219 -121.32022193774537 0 -121.32022193774537 -89.840976290434696 0 0 0 0 106.85019363401807 -95.113823369856163 0 -95.113823369856163 -25.763915152420623 0 0 0 0 96.140268735391146 -64.929173700835236 0 -64.929173700835236 -64.520454014669667 0 0 0 0 113.82007780639105 -55.774884996601031 0 -55.774884996601031 -72.930152220604214 0 0 0 0 112.74384786820156 -46.179012996282836 0 -46.179012996282836 -65.776221690506645 0 0 0 0 111.73158241921919 -42.185434661896579 0 -42.185434661896579 -33.659976643852133 0 0 0 0 123.04527746541862 -53.276457785776074 0 -53.276457785776074 -85.016135400008352 0 0 0 0 124.94016765494553 -65.112293325405801 0 -65.112293325405801 -62.442823735633283 0 0 0 0 109.08313567901496 -53.240217367900186 0 -53.240217367900186 -59.868037955833643 0 0 0 0 108.11127249000128 -45.246978721985215 0 -45.246978721985215 -85.897107605969722 0 0 0 0 115.44106125637336 -40.323660845442646 0 -40.323660845442646 -108.26774522090636 0 0 0 0 87.871367477250715 -29.362094583248563 0 -29.362094583248563 -85.095321218344907 0 0 0 0 111.18304609248298 -47.624949775401547 0 -47.624949775401547 -72.519830993340975 0 0 0 0 127.25766620782088 -2.6421454238479782 0 -2.6421454238479782 -68.446015939389326 0 0 0 0 128.62164122886315 -57.42647548266541 0 -57.42647548266541 -119.62503874840513 0 0 0 0 124.07497235271148 -39.59945011673517 0 -39.59945011673517 -108.52030999390627 0 0 0 0 126.71076689369261 -14.428614129201321 0 -14.428614129201321 -146.22487566420386 0 0 0 0 287.36172155954409 24.318241170081819 0 24.318241170081819 -138.06457656176099 0 0 0 0 128.39638084091712 -491.08083540845473 0 -491.08083540845473 204.30517319824867 0 0 0 0 554.78231436122587 165.11324110996247 0 165.11324110996247 -268.2944090309802 0 0 0 0 21.570868570022867 26.337795401010226 0 26.337795401010226 -66.702518999762106 0 0 0 0 4.2538009675556623 3.7848574232852172 0 3.7848574232852172 1.4972035376897921 0 0 0 0 96.969475496764062 -219.67384143534764 0 -219.67384143534764 255.49680078239908 0 0 0 0 116.87176213233761 64.70988672015028 0 64.70988672015028 -96.304919143021834 0 0 0 0 67.282531956136154 -41.328430379707243 0 -41.328430379707243 27.259413759267773 0 0 0 0 74.966130462889851 -70.603040915366364 0 -70.603040915366364 -18.379289896229238 0 0 0 0 75.216399201708555 -47.161543177008753 0 -47.161543177008753 -66.011467521308077 0 0 0 0 140.26657519851869 -216.69603670900869 0 -216.69603670900869 428.91742586768214 0 0 0 0 119.1068306252273 30.891651416664899 0 30.891651416664899 -144.46270176518556 0 0 0 0 22.766263511541609 -11.421415455657652 0 -11.421415455657652 -25.629796404321382 0 0 0 0 -63.338683164241957 -207.55314592278228 0 -207.55314592278228 892.98746252173441 0 0 0 0 653.92398141422018 -633.1095271747663 0 -633.1095271747663 740.65433639862749 0 0 0 0 3.8967588933687125 -4.675185718177147 0 -4.675185718177147 2.6341041628713775 0 0 0 0 -109.86749884104393 56.924836695510749 0 56.924836695510749 0.45804704777765437 0 0 0 0 3.2920009376194983 -8.1648903521469123 0 -8.1648903521469123 -46.448966377657456 0 0 0 0 65.654975790639583 56.989006455939546 0 56.989006455939546 1.2486693957616808 0 0 0 0 11.183378611173993 2.0434018568778782 0 2.0434018568778782 -5.848963054630115 0 0 0 0 623.43257971439016 -86.576643013430839 0 -86.576643013430839 149.39984256408388 0 0 0 0 753.81171238229945 -459.21747502995345 0 -459.21747502995345 231.87494110335501 0 0 0 0 243.05456451037026 -227.43867788269836 0 -227.43867788269836 388.16138360993045 0 0 0 0 290.69803098619741 -23.674724985229659 0 -23.674724985229659 75.334620730029201 0 0 0 0 463.52730515740404 -621.79043375581114 0 -621.79043375581114 663.97923724906013 0 0 0 0 361.13335812350851 -217.73488229561553 0 -217.73488229561553 556.71343454002272 0 0 0 0 488.98527832224499 -431.17459501607664 0 -431.17459501607664 496.19246032671981 0 0 0 0 321.79065224007354 -302.9955988617221 0 -302.9955988617221 740.11650354571248 0 0 0 0 472.17548595489643 -358.43201769456573 0 -358.43201769456573 223.44829228286471 0 0 0 0 223.6570333592681 -339.92095207583588 0 -339.92095207583588 448.29861443331174 0 0 0 0 56.220097210680251 -117.19776706617813 0 -117.19776706617813 198.45178585882331 0 0 0 0 150.43967618806346 69.003965402610447 0 69.003965402610447 -25.434679061292627 0 0 0 0 345.34721564281426 -137.81388782339627 0 -137.81388782339627 162.05908050902872 0 0 0 0 135.85935044035432 61.961066782496346 0 61.961066782496346 -333.63820742414964 0 0 0 0 -111.86478647786862 -33.129350623587925 0 -33.129350623587925 -0.047446557186049176 0 0 0 0 257.46212355590251 -62.802015152302374 0 -62.802015152302374 -52.378106356465651 0 0 0 0 90.036153625915176 -300.80054092618957 0 -300.80054092618957 150.59010781079996 0 0 0 0 43.471753593483299 -271.43437222012699 0 -271.43437222012699 198.68548816667317 0 0 0 0 117.04604029096663 -93.15054337933725 0 -93.15054337933725 -49.543732121373978 0 0 0 0 161.59415516419722 -370.47244377716879 0 -370.47244377716879 210.7911532869548 0 0 0 0 109.47473896385054 -333.48665140484263 0 -333.48665140484263 186.02985753732355 0 0 0 0 228.24225039136945 -360.09452235592835 0 -360.09452235592835 206.36730130937576 0 0 0 0 208.42612289306999 -373.12288933399577 0 -373.12288933399577 161.05521433221065 0 0 0 0 152.10835023093387 -278.48610076130171 0 -278.48610076130171 139.86020572966663 0 0 0 0 43.360614024399666 -8.9500754577619119 0 -8.9500754577619119 -20.4615403842907 0 0 0 0 193.00039394030227 -322.39119559354049 0 -322.39119559354049 258.5769108082186 0 0 0 0 168.54721960000461 -395.87788129727687 0 -395.87788129727687 292.91599317725922 0 0 0 0 461.80029478063807 -379.84180452687542 0 -379.84180452687542 269.52415405330248 0 0 0 0 270.74570777198824 -223.09266056923298 0 -223.09266056923298 180.0362375845616 0 0 0 0 190.12969065387733 -334.4706898182485 0 -334.4706898182485 480.33782618894566 0 0 0 0 260.06915794279485 -375.19711632537474 0 -375.19711632537474 317.13939181641763 0 0 0 0 316.74871070966765 -466.0335473050327 0 -466.0335473050327 437.0118571217954 0 0 0 0 444.06778563783155 -252.74468488201728 0 -252.74468488201728 326.6896006009847 0 0 0 0 163.58801986982144 -403.02336654216379 0 -403.02336654216379 310.44495872276639 0 0 0 0 -159.69980867044069 -185.02649547610417 0 -185.02649547610417 22.33918964110228 0 0 0 0 -352.61103426430054 -529.97838736853464 0 -529.97838736853464 -338.36943447248632 0 0 0 0 -6.3325552436581347 -192.82569755817531 0 -192.82569755817531 -111.7543835133547 0 0 0 0 96.250638011973933 24.037104502782313 0 24.037104502782313 1.4342134315501198 0 0 0 0 -7.2242386253737436 -16.369022214350437 0 -16.369022214350437 -5.4356093093777886 0 0 0 0 133.36863466259092 -631.18797056054973 0 -631.18797056054973 257.51241787782783 0 0 0 0 7.1430532295632361 -5.2722408771631422 0 -5.2722408771631422 -7.8325895993618815 0 0 0 0 322.2219875930241 -306.8448914672058 0 -306.8448914672058 -884.2122778373141 0 0 0 0 94.020724117226564 -448.60387247630661 0 -448.60387247630661 249.69359554678522 0 0 0 0 127.80988613133923 -421.96576867439899 0 -421.96576867439899 267.56330696219084 0 0 0 0 523.0694858043862 -1792.0608953854953 0 -1792.0608953854953 252.53493876836637 0 0 0 0 24.12902110365394 -1578.2216741890061 0 -1578.2216741890061 427.38149393169442 0 0 0 0 434.62484887794199 1132.7899964177743 0 1132.7899964177743 405.46161465959085 0 0 0 0 355.97913651946874 -160.40875511499871 0 -160.40875511499871 -1427.3188278325015 0 0 0 0 -19.425364295166219 -59.061525489869382 0 -59.061525489869382 412.12938737698278 0 0 0 0 411.29971013535396 187.35526965296413 0 187.35526965296413 -157.65179213984629 0 0 0 0 10.134450754609134 -153.70975731091585 0 -153.70975731091585 -53.909480610009268 0 0 0 0 176.32237580195215 -41.95674020214733 0 -41.95674020214733 -233.47754138648816 0 0 0 0 72.955749267144711 -126.67244830919117 0 -126.67244830919117 -302.57187125324981 0 0 0 0 184.8583272515616 -187.29036865819114 0 -187.29036865819114 -579.76667142341103 0 0 0 0 -39.372373735895962 -267.82469892034896 0 -267.82469892034896 -235.33164727438998 0 0 0 0 35.672485339183368 -73.183405218064763 0 -73.183405218064763 -88.275699755336973 0 0 0 0 0.45798831511638127 -158.06852819028427 0 -158.06852819028427 -222.37282830320282 0 0 0 0 35.09640281603879 -86.738242493558801 0 -86.738242493558801 -331.52626480751496 0 0 0 0 20.164277638614294 -50.388350260833249 0 -50.388350260833249 -244.52665766548944 0 0 0 0 192.54221017516102 -215.48991503642719 0 -215.48991503642719 189.64442243230951 0 0 0 0 -0.5601333421039385 -4.1579051704738532 0 -4.1579051704738532 -1.6277653782877906 0 0 0 0 3.7950925834447844 -79.309759104509794 0 -79.309759104509794 -68.568379798938622 0 0 0 0 12.375943915641074 -14.447467679874343 0 -14.447467679874343 -5.7003246900094862 0 0 0 0 43.208322419175772 -33.168907131741548 0 -33.168907131741548 -5.7494780662235243 0 0 0 0 91.505448797368445 -5.5127621650290166 0 -5.5127621650290166 -28.441722281264447 0 0 0 0 -7.8744046451679424 -65.436846207122755 0 -65.436846207122755 3.8114951684838161 0 0 0 0 -80.656880125359748 -181.24719594674389 0 -181.24719594674389 -99.359989482876699 0 0 0 0 41.285507295595963 -38.978593575748249 0 -38.978593575748249 -0.98290223801665633 0 0 0 0 65.120950248303416 -57.878434768367242 0 -57.878434768367242 -22.661673850889201 0 0 0 0 18.745267286532908 -80.079168177539032 0 -80.079168177539032 32.700000542067755 0 0 0 0 70.580631556425033 -52.736590464417532 0 -52.736590464417532 -21.752438148916553 0 0 0 0 20.025052507463101 -7.0254187668813159 0 -7.0254187668813159 -3.6847377028395449 0 0 0 0 23.250057741109458 -40.61387442268304 0 -40.61387442268304 -41.914365045468003 0 0 0 0 61.291033803579921 -40.609427523409977 0 -40.609427523409977 -68.774376558789299 0 0 0 0 77.758219857838412 -18.184153104220968 0 -18.184153104220968 -40.619667831826519 0 0 0 0 48.224977723200709 -33.75045216577611 0 -33.75045216577611 -17.420771347335574 0 0 0 0 60.079989609123004 -52.277716198490452 0 -52.277716198490452 -32.946583403303521 0 0 0 0 61.802617813613324 -40.043489721212609 0 -40.043489721212609 -57.041011615812749 0 0 0 0 86.433360260349218 -54.337285453386926 0 -54.337285453386926 -51.228777344931586 0 0 0 0 71.460853063319519 -61.991353786166655 0 -61.991353786166655 -54.955368507629828 0 0 0 0 71.681484457345505 -65.352288653150026 0 -65.352288653150026 -39.098693282132444 0 0 0 0 56.699251636433473 -58.639764015220862 0 -58.639764015220862 -41.239856799290919 0 0 0 0 51.241393610769592 -73.595281343778879 0 -73.595281343778879 -21.141130148680531 0 0 0 0 100.55723634137394 -79.669586852087377 0 -79.669586852087377 -44.496728728110611 0 0 0 0 68.672679774928923 -136.50099207436054 0 -136.50099207436054 -59.538965497471509 0 0 0 0 146.59017341192521 -68.756085874158089 0 -68.756085874158089 -49.503922964053345 0 0 0 0 10.648282537993509 -50.359365173815604 0 -50.359365173815604 -10.966729748135549 0 0 0 0 13.916948742997192 -85.58667847819197 0 -85.58667847819197 0.46510750142306279 0 0 0 0 19.304267693928178 -2.7653691615911384 0 -2.7653691615911384 -0.18526114397892002 0 0 0 0 43.181710409177455 -36.916032140875174 0 -36.916032140875174 -16.412110963760114 0 0 0 0 2.4160237735061401 -33.113318942561662 0 -33.113318942561662 4.0101203055840813 0 0 0 0 -1.8419956486516753 -40.801499984123822 0 -40.801499984123822 -19.906525497965049 0 0 0 0 37.064853546093218 -27.680973706170334 0 -27.680973706170334 43.793350745632779 0 0 0 0 27.866754425574982 -99.493305601370139 0 -99.493305601370139 48.290178097427997 0 0 0 0 40.921436596792773 -83.528498150328232 0 -83.528498150328232 -22.557255201928456 0 0 0 0 56.268728612369159 -59.020705666060167 0 -59.020705666060167 -31.922731538321841 0 0 0 0 32.966102515470993 -57.646338955955798 0 -57.646338955955798 -30.443328627057781 0 0 0 0 19.57288542592687 -107.72546243909221 0 -107.72546243909221 -67.804595336136117 0 0 0 0 41.597158500182985 -45.026914686965917 0 -45.026914686965917 -5.7627546938962269 0 0 0 0 117.04645230095775 -48.681269753313245 0 -48.681269753313245 -42.614473993093725 0 0 0 0 48.311745216953568 -130.53282010642943 0 -130.53282010642943 -50.175426272398909 0 0 0 0 46.681778472483984 -59.12691308091371 0 -59.12691308091371 63.593302095148829 0 0 0 0 131.49837988653235 10.262567432848755 0 10.262567432848755 5.699906338872097 0 0 0 0 108.78610163471603 -71.391934474086156 0 -71.391934474086156 -43.702610067502974 0 0 0 0 95.682388898014324 -69.757128392920094 0 -69.757128392920094 21.064118546040845 0 0 0 0 46.798585722490884 -38.197255355497404 0 -38.197255355497404 -10.118622331269492 0 0 0 0 -46.46890214659652 -100.48122371122281 0 -100.48122371122281 -2.5744865953056433 0 0 0 0 22.706791614014946 -6.9331520895011636 0 -6.9331520895011636 12.744892707967665 0 0 0 0 -35.038376707176212 -59.497142817235726 0 -59.497142817235726 5.3730315566890567 0 0 0 0 44.848883301099704 -77.725087683801576 0 -77.725087683801576 92.534041258382786 0 0 0 0 217.14772909420572 -45.660358755909328 0 -45.660358755909328 2.9286756461187906 0 0 0 0 219.98406622013863 -45.942265996794958 0 -45.942265996794958 -8.7161207373646903 0 0 0 0 -375.11193864197412 -28.011225257725528 0 -28.011225257725528 107.40677081159629 0 0 0 0 -0.82755916761963988 -2.6440482521329614 0 -2.6440482521329614 -4.840598866976606 0 0 0 0 -15.991584234419861 -66.644678833399666 0 -66.644678833399666 -8.5105152001606257 0 0 0 0 -101.22791498771767 -38.128428272619658 0 -38.128428272619658 -43.472970259637805 0 0 0 0 -77.084876096712833 -115.98034048054205 0 -115.98034048054205 16.659496293010307 0 0 0 0 -14.676566437308793 -101.69271240020862 0 -101.69271240020862 -45.540748252391495 0 0 0 0 -1.8400844239483121 -5.4507566260136571 0 -5.4507566260136571 -15.520599619432687 0 0 0 0 -69.39021996541851 -67.526938496290313 0 -67.526938496290313 -24.184435777717226 0 0 0 0 240.85702262651466 -61.459688525848833 0 -61.459688525848833 -47.349369589781418 0 0 0 0 -34.008225121462601 -48.933306623737735 0 -48.933306623737735 -18.641119131902087 0 0 0 0 -0.19109000888420269 -19.964527964391891 0 -19.964527964391891 -21.081739683058458 0 0 0 0 -42.76493500896504 -82.356943249652431 0 -82.356943249652431 -58.206553704592807 0 0 0 0 -9.7589237123356725 -54.680804445515605 0 -54.680804445515605 -42.071740197650797 0 0 0 0 -18.593598833802389 -41.319243782834747 0 -41.319243782834747 -45.840832103109278 0 0 0 0 4.3947888674716182 -1.5811970189305242 0 -1.5811970189305242 -3.0438639803323859 0 0 0 0 2.2554831872761127 -10.866812756776881 0 -10.866812756776881 -24.191161415636429 0 0 0 0 26.931853163529013 -19.829304283684905 0 -19.829304283684905 -57.546031582558498 0 0 0 0 15.931820194731699 -31.228530821916138 0 -31.228530821916138 -69.324972106645873 0 0 0 0 0.10871661965211388 -155.36484595289585 0 -155.36484595289585 86.125941813808822 0 0 0 0 130.02388316243014 -165.23441439540329 0 -165.23441439540329 45.898602796569321 0 0 0 0 22.953101534476446 -52.450469011380846 0 -52.450469011380846 -218.05797942230947 0 0 0 0 15.180397559059202 -269.2895574812901 0 -269.2895574812901 306.64478159183091 0 0 0 0 0.47176002613818468 1.9463600951784485 0 1.9463600951784485 1.16472382011208 0 0 0 0 36.301099027063174 -128.03491226019651 0 -128.03491226019651 -63.558950993174221 0 0 0 0 36.279229507141281 -127.3108487284735 0 -127.3108487284735 -69.976754361036001 0 0 0 0 0.058486080917646177 -92.927956529474613 0 -92.927956529474613 1.8850871803660993 0 0 0 0 25.551431423360555 -92.774478107791083 0 -92.774478107791083 -20.874129937845282 0 0 0 0 24.858234736588201 -86.164321217431279 0 -86.164321217431279 -81.898016186149562 0 0 0 0 -20.684428373620904 -86.722233302658424 0 -86.722233302658424 4.5899454522368615 0 0 0 0 38.094912010586995 -102.67998969887594 0 -102.67998969887594 7.3698155390029569 0 0 0 0 30.20580845427321 -34.43829338985779 0 -34.43829338985779 99.52955671872769 0 0 0 0 -6.4255574031631113 -118.10105803051192 0 -118.10105803051192 193.96763166038909 0 0 0 0 -54.780542074528057 -77.781889738771497 0 -77.781889738771497 363.82691008679103 0 0 0 0 -1.9942372046736807 -0.11748295582528101 0 -0.11748295582528101 -0.45518314782887437 0 0 0 0 59.479825933172833 -109.13407460261988 0 -109.13407460261988 -1142.3117946660886 0 0 0 0 -0.12807064035587246 -86.898868007211604 0 -86.898868007211604 -491.76028989804036 0 0 0 0 -130.52031559823808 -257.89735053857021 0 -257.89735053857021 -593.05842826532171 0 0 0 0 -86.642551586795889 18.243885430674709 0 18.243885430674709 -579.56254246017124 0 0 0 0 -28.759758885425981 -85.01951627561175 0 -85.01951627561175 134.35293614987313 0 0 0 0 174.16560095088789 -4.4599778535448422 0 -4.4599778535448422 145.49896506732694 0 0 0 0 -3.5852893249323756 -4.3805777655501572 0 -4.3805777655501572 -1.780130709974113 0 0 0 0 -191.70628617642797 -129.24609138911546 0 -129.24609138911546 404.06970471693057 0 0 0 0 -370.85343074839329 522.91674568840244 0 522.91674568840244 -67.329241358194849 0 0 0 0 -185.90574142189871 -214.43481589556814 0 -214.43481589556814 165.53645060119379 0 0 0 0 569.07721244421555 -238.16905648801912 0 -238.16905648801912 -436.3890028300375 0 0 0 0 -11.861469784045767 29.642119966275459 0 29.642119966275459 -435.63170887274464 0 0 0 0 27.493505407153862 -104.31992988718048 0 -104.31992988718048 -402.9607447860526 0 0 0 0 -30.926804560891469 -72.134197768627928 0 -72.134197768627928 -524.63751631699415 0 0 0 0 37.354998483380768 1.446426376922318 0 1.446426376922318 -593.066263294706 0 0 0 0 -0.10152724635554478 -35.310151274725285 0 -35.310151274725285 -487.4546120963314 0 0 0 0 -64.143283922101546 -163.16131555790253 0 -163.16131555790253 -307.85865160249523 0 0 0 0 -14.0071442968474 -173.19814449726073 0 -173.19814449726073 -448.40382791951697 0 0 0 0 72.971187118295347 -81.893628511006682 0 -81.893628511006682 -392.72218159280965 0 0 0 0 -18.374433979923197 -131.64277986503112 0 -131.64277986503112 -231.06635918116808 0 0 0 0 1.8146895885729464 -134.66949035562402 0 -134.66949035562402 -88.100118903719704 0 0 0 0 -15.755813592142658 -195.23392371844966 0 -195.23392371844966 -241.40467731333092 0 0 0 0 -55.497045813481236 -258.14243529719442 0 -258.14243529719442 -334.95361311105444 0 0 0 0 -72.47219732200756 -229.03717744692676 0 -229.03717744692676 -91.747382011873924 0 0 0 0 -108.50393163099216 -315.83865051212888 0 -315.83865051212888 -141.79261167159348 0 0 0 0 -73.139174641981299 -251.03866416930896 0 -251.03866416930896 -303.56039268767381 0 0 0 0 -110.62462282725028 -257.75500408589505 0 -257.75500408589505 -302.30633647647119 0 0 0 0 -0.10011307012382754 -256.16021572380089 0 -256.16021572380089 -608.17852197733737 0 0 0 0 -32.286221125970769 -247.37279288967238 0 -247.37279288967238 -659.02564583311687 0 0 0 0 -2.4304869024146853 -1.5863242453793021 0 -1.5863242453793021 -0.11010918245611379 0 0 0 0 0.11567174165247707 -49.380449879870866 0 -49.380449879870866 -116.47722033711398 0 0 0 0 7.9998754440966877 -91.40379019941247 0 -91.40379019941247 -39.025550620310241 0 0 0 0 8.3369376737018683 -103.08118302940386 0 -103.08118302940386 87.116825042379787 0 0 0 0 85.088088852877263 -28.90160104359893 0 -28.90160104359893 -9.6367572912458854 0 0 0 0 -5.0077441813285191 -3.695685905812411 0 -3.695685905812411 -5.366300848814177 0 0 0 0 -8.9270458801638028 -14.042017575397608 0 -14.042017575397608 -26.19299905012079 0 0 0 0 74.185445509101555 90.808330665375252 0 90.808330665375252 -82.437494251104908 0 0 0 0 220.01047555973491 -114.49016500599373 0 -114.49016500599373 -133.25394875821803 0 0 0 0 222.11657443265722 -132.21837426676393 0 -132.21837426676393 13.580299277549784 0 0 0 0 -6.6270064421707957 -12.87199361401079 0 -12.87199361401079 -21.539307869510935 0 0 0 0 174.70861520570179 -194.66826840087379 0 -194.66826840087379 -9.7295078347360686 0 0 0 0 22.991929759875347 176.32266435007659 0 176.32266435007659 -164.5020389884412 0 0 0 0 -4.5161659818534758 -8.4814327809043846 0 -8.4814327809043846 -14.089006960448899 0 0 0 0 131.47518559700984 -44.385086520429468 0 -44.385086520429468 -6.035098738851957 0 0 0 0 182.71776027271335 -0.77018932543796836 0 -0.77018932543796836 13.10450005648454 0 0 0 0 140.94686986379384 -61.78980427055285 0 -61.78980427055285 20.442032470643881 0 0 0 0 143.71024910447886 -38.58934986514214 0 -38.58934986514214 19.851582191811758 0 0 0 0 127.32046556826026 -21.112569992974386 0 -21.112569992974386 1.2336120308318641 0 0 0 0 137.69142152483982 -60.286411442233657 0 -60.286411442233657 -18.896108794870088 0 0 0 0 36.677059019450098 -98.053214023228065 0 -98.053214023228065 -17.131687519970001 0 0 0 0 92.362526527736918 -39.36210828937692 0 -39.36210828937692 4.413450295876828 0 0 0 0 113.23333171222475 -50.437850145710399 0 -50.437850145710399 -5.0960018242767546 0 0 0 0 151.41082399110019 -11.495337119169562 0 -11.495337119169562 -13.515139211347559 0 0 0 0 131.23731428209294 -50.251227015039831 0 -50.251227015039831 -144.84488581150072 0 0 0 0 97.429583749253652 -103.87736456302446 0 -103.87736456302446 -50.921934422760387 0 0 0 0 47.682696319272509 -117.04487874289407 0 -117.04487874289407 15.057592912678956 0 0 0 0 30.87477132533968 -138.43398734606308 0 -138.43398734606308 -12.124684282414819 0 0 0 0 58.751710268290481 -289.58202068210812 0 -289.58202068210812 29.717153206132934 0 0 0 0 407.88365253110533 -265.79168666489568 0 -265.79168666489568 -272.93298685294576 0 0 0 0 -48.462942173424381 -30.670203098496131 0 -30.670203098496131 107.65963860423653 0 0 0 0 121.90792779112962 -275.20718924748508 0 -275.20718924748508 15.13245086045572 0 0 0 0 -8.4353188608583878 6.7499456685363839 0 6.7499456685363839 -52.338613135143532 0 0 0 0 -0.076287129682896193 -57.169306888605206 0 -57.169306888605206 104.18304803014325 0 0 0 0 30.641587855963735 -48.741068897941659 0 -48.741068897941659 69.774012522859266 0 0 0 0 409.28847287564349 -7.3621676263301197 0 -7.3621676263301197 -129.56215256808355 0 0 0 0 -3.0620008607526756 -4.386281366468296 0 -4.386281366468296 -5.6592775720937993 0 0 0 0 50.827195989040774 -133.83636083284 0 -133.83636083284 122.07046667116356 0 0 0 0 -111.64510202923339 65.259555025805639 0 65.259555025805639 413.30103065235016 0 0 0 0 18.955041574445204 -105.89806113381928 0 -105.89806113381928 -33.598249185110035 0 0 0 0 242.25398048444185 -25.659224320243084 0 -25.659224320243084 -231.78264862555807 0 0 0 0 -2.3099791010415061 -1.7348223505844658 0 -1.7348223505844658 -0.33889097607818996 0 0 0 0 0.095367005749722011 -27.555876963935589 0 -27.555876963935589 55.495944852280445 0 0 0 0 -84.569122738896112 132.65579580995472 0 132.65579580995472 -241.55750184218778 0 0 0 0 143.23034371968242 -134.34629792577834 0 -134.34629792577834 -382.58747590538587 0 0 0 0 128.0993016246357 -177.7652654098215 0 -177.7652654098215 -72.079865923304169 0 0 0 0 126.92434907682036 -110.2342737238796 0 -110.2342737238796 28.733438683702843 0 0 0 0 -0.15561929910652003 -255.14638306280708 0 -255.14638306280708 -9.7813055625665584 0 0 0 0 58.403781640110537 -71.969931082294352 0 -71.969931082294352 42.458968438317243 0 0 0 0 3.608535567617281 -15.049461144228061 0 -15.049461144228061 6.103164164869824 0 0 0 0 58.489317046321958 -66.610230308876453 0 -66.610230308876453 27.439230727046379 0 0 0 0 -14.222474137553945 7.1565550046507269 0 7.1565550046507269 -13.438335480168462 0 0 0 0 117.45581243049674 -71.653970751831366 0 -71.653970751831366 -3.1795086921883922 0 0 0 0 253.23249632380612 8.4926282480446389 0 8.4926282480446389 -42.173336653373553 0 0 0 0 79.925919350789627 -35.457063881141949 0 -35.457063881141949 -38.086372627578385 0 0 0 0 19.520391835976625 -88.685451450086475 0 -88.685451450086475 -69.255019109117711 0 0 0 0 21.929393097067077 4.6861211236318923 0 4.6861211236318923 3.4527119210470119 0 0 0 0 6.248217113844305 -6.4868312294736654 0 -6.4868312294736654 6.2828641257515585 0 0 0 0 14.849885840842035 -32.9544586480406 0 -32.9544586480406 -102.70502672055227 0 0 0 0 -103.8447620386396 -146.84271672624891 0 -146.84271672624891 -84.25484943723859 0 0 0 0 220.05586656308515 -15.139382208286406 0 -15.139382208286406 1.7151666048084735 0 0 0 0 2.6203543401819331 -2.6930003699065139 0 -2.6930003699065139 1.5408675382691968 0 0 0 0 491.42008012204315 248.86295872546543 0 248.86295872546543 -23.212938069933443 0 0 0 0 -226.87630364919551 -84.678155394470195 0 -84.678155394470195 44.077437316955184 0 0 0 0 -217.00029123386776 -276.00841846065305 0 -276.00841846065305 33.002231210833997 0 0 0 0 -50.949023623892572 -133.02581618056138 0 -133.02581618056138 13.702648203976423 0 0 0 0 75.135265018182622 -91.568102976083708 0 -91.568102976083708 -49.679977339852485 0 0 0 0 83.110372037335765 -3.5969153981859563 0 -3.5969153981859563 -12.837308507303533 0 0 0 0 -117.01467365190911 -3.8341884296278295 0 -3.8341884296278295 -27.757087433768902 0 0 0 0 28.357024933764478 -60.618220822492731 0 -60.618220822492731 -35.87063689623028 0 0 0 0 1.8242178287764546 -35.525118020847003 0 -35.525118020847003 8.2583474367856979 0 0 0 0 39.175364610448014 -56.217283450503601 0 -56.217283450503601 1.8658153526212118 0 0 0 0 26.891080039640656 -40.834700562435046 0 -40.834700562435046 1.9124349874618929 0 0 0 0 104.76031380801578 -5.0460043722196133 0 -5.0460043722196133 0.46297993214102462 0 0 0 0 83.592871973087313 -8.6850803890738462 0 -8.6850803890738462 27.581170259247301 0 0 0 0 131.41060697748617 -23.87764581173542 0 -23.87764581173542 -13.66091379293357 0 0 0 0 173.56953269254882 8.2493191231842502 0 8.2493191231842502 -28.702347711419861 0 0 0 0 170.74477283010492 46.699218762601959 0 46.699218762601959 4.294909315998666 0 0 0 0 -258.49807673293981 51.439806935815795 0 51.439806935815795 51.04986774129793 0 0 0 0 75.410495092578799 -60.362040751720258 0 -60.362040751720258 31.812015241317567 0 0 0 0 108.26974878423789 31.595682575316459 0 31.595682575316459 61.36667828449572 0 0 0 0 49.925432167081453 -34.112755888287211 0 -34.112755888287211 -20.995840747295915 0 0 0 0 33.078002492798987 -53.106964305839938 0 -53.106964305839938 -17.020627723519283 0 0 0 0 -205.37297267554823 -57.139214352639101 0 -57.139214352639101 -42.26970391762552 0 0 0 0 -9.511162348410128 -42.000033756978908 0 -42.000033756978908 -22.402562977927758 0 0 0 0 -13.533251177156878 -6.7297620645851737 0 -6.7297620645851737 -14.800864948154299 0 0 0 0 136.59842446647963 -55.064493041161768 0 -55.064493041161768 -103.47890600606479 0 0 0 0 18.086377789201833 -41.464873012157568 0 -41.464873012157568 -21.287728909916041 0 0 0 0 32.127924720101873 -76.825897309090578 0 -76.825897309090578 -26.909541656053307 0 0 0 0 3.1709740768491486 -8.8962913662682439 0 -8.8962913662682439 -4.3417262342312739 0 0 0 0 -8.951032032252872 -32.527058315512676 0 -32.527058315512676 -16.829069765538605 0 0 0 0 6.3902308387055768 -26.678197786610141 0 -26.678197786610141 -10.393460770370439 0 0 0 0 28.404273413165356 -55.969330827703743 0 -55.969330827703743 -71.760611236837576 0 0 0 0 4.3799852596732052 -21.364383717620484 0 -21.364383717620484 -26.255450659076615 0 0 0 0 -4.5130927311078608 -49.582213642634919 0 -49.582213642634919 -34.09893475000392 0 0 0 0 61.640782772924751 -16.127044612275569 0 -16.127044612275569 -31.247253573169672 0 0 0 0 101.97132798284292 -100.1395652916799 0 -100.1395652916799 -19.993831410141865 0 0 0 0 71.765205261937808 -78.993002743674879 0 -78.993002743674879 -34.794733501208611 0 0 0 0 68.875122548881336 -88.884358964618514 0 -88.884358964618514 -30.14191995674264 0 0 0 0 34.470359301183635 -65.865123713685307 0 -65.865123713685307 -9.2232764014588611 0 0 0 0 53.930559026681294 -79.675511734285465 0 -79.675511734285465 -2.1708255450321303 0 0 0 0 54.519964307526607 -75.397845665369459 0 -75.397845665369459 28.520911112478643 0 0 0 0 66.354758327477612 -76.917191875254503 0 -76.917191875254503 20.203472832639818 0 0 0 0 47.297888089095068 -48.136530713839875 0 -48.136530713839875 56.705933600511344 0 0 0 0 39.365404026808392 -40.70657815584309 0 -40.70657815584309 -1.0339198115862587 0 0 0 0 47.897330562926072 -50.10050522345 0 -50.10050522345 6.8891198154015001 0 0 0 0 49.580955488389009 -37.028604974924747 0 -37.028604974924747 -29.105525372839111 0 0 0 0 63.147421741145081 -12.028783839217795 0 -12.028783839217795 20.408013091095199 0 0 0 0 65.691987419239013 -18.247296503344842 0 -18.247296503344842 -15.963915524445838 0 0 0 0 60.078592588159154 -32.439740216027303 0 -32.439740216027303 -37.962870614472195 0 0 0 0 26.825793325580889 -67.849745841835102 0 -67.849745841835102 -33.167900572516373 0 0 0 0 42.402484385002026 -63.092143803711224 0 -63.092143803711224 -56.750483428193547 0 0 0 0 53.100227375543909 -44.988956908093314 0 -44.988956908093314 -26.371551282260043 0 0 0 0 43.181948039578856 -39.065185392058993 0 -39.065185392058993 -24.631602833575016 0 0 0 0 231.49174640494311 -2.788436866907432 0 -2.788436866907432 -38.395837752694206 0 0 0 0 -163.38354726929902 -143.98690433280262 0 -143.98690433280262 -72.988413754312205 0 0 0 0 1.170950725180619 -2.1910209654420356 0 -2.1910209654420356 -8.2881687683261305 0 0 0 0 -16.75926809945615 -44.202852715569406 0 -44.202852715569406 -19.975271354345324 0 0 0 0 187.56907178308757 -44.649116815591697 0 -44.649116815591697 -11.922634303562518 0 0 0 0 249.48140180334303 -28.089947884807771 0 -28.089947884807771 -23.525218134556781 0 0 0 0 -0.21517201041043837 -1.2052394306262926 0 -1.2052394306262926 -2.4476080241755938 0 0 0 0 -404.20246399379539 79.352804645797733 0 79.352804645797733 139.18927846647239 0 0 0 0 68.559228366917523 -56.004729967753519 0 -56.004729967753519 -31.532293057844072 0 0 0 0 -15.560646975196796 -43.323151377172309 0 -43.323151377172309 -16.311245537448784 0 0 0 0 56.60868812323497 -51.885388263021014 0 -51.885388263021014 -18.329476122122287 0 0 0 0 -59.693281513660622 -191.88452642142693 0 -191.88452642142693 -168.24307442570716 0 0 0 0 -64.675079054184607 -144.46068503974311 0 -144.46068503974311 108.84777142861276 0 0 0 0 -25.227156236942392 32.010596864693071 0 32.010596864693071 2.0436017450738291 0 0 0 0 142.50731136326795 -180.84009317580785 0 -180.84009317580785 70.580019730017739 0 0 0 0 49.605041401016933 -70.576953721065365 0 -70.576953721065365 -18.37120487231914 0 0 0 0 49.437363570592424 -29.992714420750417 0 -29.992714420750417 53.419735572217178 0 0 0 0 -15.763019723577308 -40.060181762847861 0 -40.060181762847861 -10.378662600305461 0 0 0 0 8.4970476046291878 -85.828779975967336 0 -85.828779975967336 -13.250253042987424 0 0 0 0 4.1102413720873301 -80.894583734389016 0 -80.894583734389016 -11.8099837344962 0 0 0 0 33.187146674099495 -72.682287268661184 0 -72.682287268661184 -39.250170748113305 0 0 0 0 33.287578015326289 -73.548759679786599 0 -73.548759679786599 -32.697809666720332 0 0 0 0 48.608493628871656 -52.932673122542838 0 -52.932673122542838 -6.6215633907959273 0 0 0 0 -90.676395493495875 -30.805666089976512 0 -30.805666089976512 -8.1852724080672488 0 0 0 0 -102.94633570554106 -90.84947710037477 0 -90.84947710037477 -11.933505596833129 0 0 0 0 -34.218728362946422 -95.239619785734249 0 -95.239619785734249 -36.642553814908752 0 0 0 0 -1.6200574915710604 -93.281162113231403 0 -93.281162113231403 -31.65283700749842 0 0 0 0 -34.123621067650674 -93.462696537768352 0 -93.462696537768352 -30.792737632536046 0 0 0 0 -36.795579907528008 -83.605383663065368 0 -83.605383663065368 -2.4856736246365472 0 0 0 0 -30.430427913728636 -72.992549268299626 0 -72.992549268299626 -9.3348305806030112 0 0 0 0 -57.505136520943779 -55.757035601016469 0 -55.757035601016469 7.4660036941422732 0 0 0 0 2.7924874684249517 -19.075555803658062 0 -19.075555803658062 0.86507775489553751 0 0 0 0 -57.213608893580385 -10.438762233228772 0 -10.438762233228772 0.067311520329894847 0 0 0 0 -40.029927869072708 -41.436935051129694 0 -41.436935051129694 -4.7700202687701676 0 0 0 0 843.54262940768967 -75.197125682891055 0 -75.197125682891055 -38.442577003498855 0 0 0 0 355.14809137291741 -10.734370384016074 0 -10.734370384016074 -41.292547859272872 0 0 0 0 8.1311278516659513 -198.20033115535261 0 -198.20033115535261 80.201218761518248 0 0 0 0 648.40033207787565 -135.11717911144206 0 -135.11717911144206 70.504064835571626 0 0 0 0 642.15854714218585 -98.748293981210736 0 -98.748293981210736 -138.35546028320823 0 0 0 0 406.98276446997625 -308.59336473180883 0 -308.59336473180883 16.217851283916389 0 0 0 0 -7.371689300769475 -10.58911878022445 0 -10.58911878022445 -2.439335623359014 0 0 0 0 -12.688405145134311 -102.2936992816467 0 -102.2936992816467 220.82518519612131 0 0 0 0 -72.362953335083148 -32.438509663839795 0 -32.438509663839795 -15.41238308246102 0 0 0 0 -79.105719963386946 -21.239493779205077 0 -21.239493779205077 -0.80362866453288007 0 0 0 0 -2.0195905816533752 -6.3712325871425293 0 -6.3712325871425293 -2.5074453298824295 0 0 0 0 -82.007936793088447 -37.867661024218251 0 -37.867661024218251 -4.6801320023643029 0 0 0 0 -78.465211348149751 -29.143804745737725 0 -29.143804745737725 -15.945108514977619 0 0 0 0 -177.2763165490469 -18.611615214005724 0 -18.611615214005724 -17.067720317836574 0 0 0 0 -1.050869397068702 -2.7617860747716065 0 -2.7617860747716065 -0.74797571167380283 0 0 0 0 577.36217314372698 -103.14014145768124 0 -103.14014145768124 -85.442045107618469 0 0 0 0 -387.67571192636387 -73.064964472708198 0 -73.064964472708198 18.05410864505393 0 0 0 0 256.13788507755817 -24.427674413276691 0 -24.427674413276691 47.99256786492333 0 0 0 0 -17.92514461563001 -41.350135054773006 0 -41.350135054773006 -19.845305495779314 0 0 0 0 558.64816999223694 24.180213548672327 0 24.180213548672327 -92.610272605536011 0 0 0 0 512.30210672170506 -177.29397347213308 0 -177.29397347213308 96.572255133985891 0 0 0 0 471.6706763896218 -168.99392713927409 0 -168.99392713927409 -73.334711634350242 0 0 0 0 -209.80716738474439 -204.90670638638767 0 -204.90670638638767 -95.465006605161761 0 0 0 0 32.846173195757729 -159.857262710746 0 -159.857262710746 -131.11823184387868 0 0 0 0 -1.2162254850700265 -116.3793328742031 0 -116.3793328742031 -94.104680848180578 0 0 0 0 -152.31806489642986 -140.63707193102118 0 -140.63707193102118 -52.283353678431013 0 0 0 0 22.681460159532435 -92.680562009420328 0 -92.680562009420328 -70.056814334631781 0 0 0 0 -10.588512852744316 -86.967096599546494 0 -86.967096599546494 -61.421584948591772 0 0 0 0 51.770291440390793 -75.224271854171548 0 -75.224271854171548 -88.257370957777312 0 0 0 0 41.129505528318987 -27.747510968056304 0 -27.747510968056304 -38.624402428959002 0 0 0 0 102.11852210860525 -58.952299224099988 0 -58.952299224099988 -26.031742965871672 0 0 0 0 121.73581868227484 -75.79561968912094 0 -75.79561968912094 -65.354903990792081 0 0 0 0 264.78471819606784 -43.395017148257466 0 -43.395017148257466 50.517782352432732 0 0 0 0 102.73058992831284 -227.87732108593627 0 -227.87732108593627 119.67802785680033 0 0 0 0 70.396115413954249 -99.701127926296067 0 -99.701127926296067 175.76040961404942 0 0 0 0 28.731881341871485 -70.410185715818443 0 -70.410185715818443 49.112895379774272 0 0 0 0 58.454070751715335 -72.11227488885379 0 -72.11227488885379 116.21044346949202 0 0 0 0 148.09744746374781 -187.72614424917629 0 -187.72614424917629 134.17963064310243 0 0 0 0 133.13121648270317 -138.75565928912692 0 -138.75565928912692 -4.0570914054442255 0 0 0 0 272.490984797907 -156.26572786178895 0 -156.26572786178895 -95.124805813924468 0 0 0 0 3.0946505188570654 -0.084712503522938576 0 -0.084712503522938576 -1.0071738069716503 0 0 0 0 208.45831961586737 -23.541025252668987 0 -23.541025252668987 -173.92180620826548 0 0 0 0 139.22758832038016 -50.881867629186218 0 -50.881867629186218 -84.426042526654783 0 0 0 0 18.581112008061609 -12.377638056714204 0 -12.377638056714204 -82.620306684482784 0 0 0 0 142.12873927957298 -45.151520585708568 0 -45.151520585708568 -125.24245402002998 0 0 0 0 101.38458163900941 -3.2820118919626111 0 -3.2820118919626111 -78.38069452689524 0 0 0 0 143.14050584236247 -90.267336617182082 0 -90.267336617182082 -50.884865511940006 0 0 0 0 102.04825756373066 -100.31789455724333 0 -100.31789455724333 -31.73168172770238 0 0 0 0 140.89030017523328 -52.623717373948239 0 -52.623717373948239 -82.60404815855145 0 0 0 0 -94.83765912844683 -242.01807896487298 0 -242.01807896487298 -134.03088790625043 0 0 0 0 19.986240984345272 -40.797237445792035 0 -40.797237445792035 -51.002636124838915 0 0 0 0 66.670460848879884 -1.8215421495660848 0 -1.8215421495660848 21.460073451737117 0 0 0 0 10.265345204400248 3.18869703279357 0 3.18869703279357 -2.1709376867098626 0 0 0 0 -31.142202607908985 -59.768077016149618 0 -59.768077016149618 -41.314727385855804 0 0 0 0 37.452161641777678 -34.883043961548701 0 -34.883043961548701 -28.222377350427799 0 0 0 0 175.33163605109439 -70.289476023532188 0 -70.289476023532188 -226.23095425081556 0 0 0 0 16.025937161728507 -219.13259796486091 0 -219.13259796486091 -258.61845028057178 0 0 0 0 92.739591288918746 -36.926403054225375 0 -36.926403054225375 -23.902844575430208 0 0 0 0 117.19851299887523 -14.357233849141267 0 -14.357233849141267 -162.00750133019028 0 0 0 0 47.71992458315799 -59.607898409340123 0 -59.607898409340123 -109.90124196053512 0 0 0 0 -10.446838571646367 -135.78760673091892 0 -135.78760673091892 -160.68315575097222 0 0 0 0 -35.599496700480813 -122.7052416803017 0 -122.7052416803017 -123.15448056192326 0 0 0 0 -267.53143742968678 -182.18916280242956 0 -182.18916280242956 -132.22277580301306 0 0 0 0 6.6383595252991654 -67.654046130694041 0 -67.654046130694041 -8.8878016313828994 0 0 0 0 -21.415688370543648 -29.85559858182387 0 -29.85559858182387 -0.39083529134950368 0 0 0 0 6.6383595253428211 -67.654046130719507 0 -67.654046130719507 -8.8878016314047272 0 0 0 0 0.59033549393782891 -7.4461051073825324 0 -7.4461051073825324 -5.2833831961135829 0 0 0 0 -34.108121131488588 -80.839753995018327 0 -80.839753995018327 256.57166808794682 0 0 0 0 6.6383595253573731 -67.654046130741335 0 -67.654046130741335 -8.8878016313574335 0 0 0 0 -3.7791221936604416 -42.730499253227208 0 -42.730499253227208 -14.03118207706575 0 0 0 0 104.18913350842195 -18.069688217318799 0 -18.069688217318799 52.799395234882468 0 0 0 0 24.894540986326984 -35.400707774394462 0 -35.400707774394462 -28.962591360442687 0 0 0 0 -0.12975760200424702 -44.856593323146626 0 -44.856593323146626 -40.557622772626928 0 0 0 0 -39.812917762000836 -42.108535524909527 0 -42.108535524909527 -3.4603788880869502 0 0 0 0 31.14256308269978 -114.91784004772671 0 -114.91784004772671 74.192614430790854 0 0 0 0 -16.641926505696674 -42.923369887876532 0 -42.923369887876532 -14.235618038495844 0 0 0 0 -25.644642515555461 -42.802628326799095 0 -42.802628326799095 12.577915826197568 0 0 0 0 18.491618235060741 -146.44069828444208 0 -146.44069828444208 67.610926599507366 0 0 0 0 19.796865827150214 -149.50472667107169 0 -149.50472667107169 34.638470351448632 0 0 0 0 -11.452810758693278 -40.755609379228645 0 -40.755609379228645 -18.096863699651593 0 0 0 0 235.31594149087323 -208.10220177959854 0 -208.10220177959854 -79.076926490112783 0 0 0 0 -35.467113987032462 -68.077511041200069 0 -68.077511041200069 -76.384214475321642 0 0 0 0 -26.29566955233895 -51.142505860785604 0 -51.142505860785604 -46.117803887984337 0 0 0 0 -57.154005363242582 -45.214592282293054 0 -45.214592282293054 -37.997290322275362 0 0 0 0 -69.697374738239944 -124.98863050849104 0 -124.98863050849104 26.371058386506775 0 0 0 0 -638.55516246456318 -729.93101290790582 0 -729.93101290790582 -193.31200577560548 0 0 0 0 294.96925841508346 -168.32524696711334 0 -168.32524696711334 -166.86878161019149 0 0 0 0 -72.163626835415926 -34.474697980485871 0 -34.474697980485871 18.981465220447717 0 0 0 0 -38.999936927617455 -19.525766586472855 0 -19.525766586472855 -24.550221478788444 0 0 0 0 -39.480182390306368 -42.961464975519789 0 -42.961464975519789 -32.29947035644701 0 0 0 0 -22.94396897435945 -332.06487373296113 0 -332.06487373296113 -93.794237287585929 0 0 0 0 -26.12164479227431 -61.938966234103646 0 -61.938966234103646 23.421923514015361 0 0 0 0 467.69817628019155 609.4635199819204 0 609.4635199819204 414.86817313857773 0 0 0 0 -342.85074757558505 -289.73092247626209 0 -289.73092247626209 120.93328377943362 0 0 0 0 -4.2153661909373668 -1.7869082748701608 0 -1.7869082748701608 -0.99232738553271815 0 0 0 0 -329.59226480252255 -337.59063582596752 0 -337.59063582596752 -34.587010947348972 0 0 0 0 -4.5638750179859926 -69.825341542066781 0 -69.825341542066781 65.746041795937344 0 0 0 0 232.51978079754281 123.87146230451435 0 123.87146230451435 -625.74822133287671 0 0 0 0 86.410197701890866 187.92618352078489 0 187.92618352078489 118.33223243958309 0 0 0 0 -279.34733113218317 -425.21965121038238 0 -425.21965121038238 -256.656112470484 0 0 0 0 123.0378216461977 54.64157946936939 0 54.64157946936939 -200.65614143846142 0 0 0 0 146.71993394370656 -20.302406268574487 0 -20.302406268574487 9.6032553445947997 0 0 0 0 -8.7659458585560586 -25.008025293258715 0 -25.008025293258715 -1.464421974104603 0 0 0 0 188.37960425737765 -156.21016677123862 0 -156.21016677123862 -36.312951248874015 0 0 0 0 20.608913110897184 -17.181513407468124 0 -17.181513407468124 -13.298881404032187 0 0 0 0 196.75334042853137 -119.80602141970849 0 -119.80602141970849 -163.55288312585253 0 0 0 0 32.259852647484877 12.480546058123693 0 12.480546058123693 7.2739624387577351 0 0 0 0 3.216398126045533 -67.561256670564944 0 -67.561256670564944 -134.47170282402112 0 0 0 0 28.152378353330278 -96.153414991957106 0 -96.153414991957106 -367.86351753090719 0 0 0 0 -3.7879214184472474 -4.1508954337468751 0 -4.1508954337468751 -6.1206136808252403 0 0 0 0 -360.81594981470744 65.219484877262403 0 65.219484877262403 -24.532494568624315 0 0 0 0 -496.22815478839948 -321.79990225921574 0 -321.79990225921574 40.531464181343836 0 0 0 0 -18.704782675678416 17.65965538996204 0 17.65965538996204 15.119947665971267 0 0 0 0 -23.004819804902581 -2.5990527291123726 0 -2.5990527291123726 -49.751308271077505 0 0 0 0 -10.796747700499139 -16.358852265245947 0 -16.358852265245947 -5.7501971663406408 0 0 0 0 -34.016552056560613 -83.103090757528662 0 -83.103090757528662 69.897666367870443 0 0 0 0 -94.671404851060288 -28.2322585516863 0 -28.2322585516863 18.317501776105928 0 0 0 0 -33.606560272881325 2.9254850611041547 0 2.9254850611041547 49.924987977347882 0 0 0 0 -56.714228711570286 25.76343648476859 0 25.76343648476859 93.970630065439764 0 0 0 0 13.641171005696378 64.16257961086194 0 64.16257961086194 8.0958770740598993 0 0 0 0 26.100306701624504 115.44350059556473 0 115.44350059556473 227.53892997301409 0 0 0 0 84.360258490389242 -288.13306041364922 0 -288.13306041364922 -205.01288187053615 0 0 0 0 -81.659717357089903 -54.307590185202571 0 -54.307590185202571 -28.433960027854482 0 0 0 0 259.61959453390591 102.02894896084763 0 102.02894896084763 21.034597940451476 0 0 0 0 -58.742563170167521 -53.936575004342458 0 -53.936575004342458 -28.740227230886259 0 0 0 0 -60.361012695875615 -91.780370161221981 0 -91.780370161221981 251.66983974493053 0 0 0 0 -11.045251985387949 -73.299216360592709 0 -73.299216360592709 -15.893061043454509 0 0 0 0 -20.945142169955943 -95.44184172722089 0 -95.44184172722089 15.220600041695434 0 0 0 0 -64.00368288205118 -131.37550677692934 0 -131.37550677692934 40.731742792258956 0 0 0 0 -10.454104561324559 -34.934871641552299 0 -34.934871641552299 41.023412827763124 0 0 0 0 -63.43342003476937 -99.221138553981291 0 -99.221138553981291 39.677618999736296 0 0 0 0 -37.268527810239902 -59.232378186549795 0 -59.232378186549795 1.8805633172596572 0 0 0 0 -42.60051598289283 -50.161961525576771 0 -50.161961525576771 -7.88270753150573 0 0 0 0 -32.140160687900789 -65.412580570209684 0 -65.412580570209684 -2.7003256350435549 0 0 0 0 -54.01418715697946 -58.152454158334876 0 -58.152454158334876 4.4411646447479143 0 0 0 0 -44.934485647454139 -39.865522770029116 0 -39.865522770029116 26.65678885651522 0 0 0 0 -28.425800205045732 -50.55693550566987 0 -50.55693550566987 0.50120370367248768 0 0 0 0 -29.547249482121259 -41.055918670630533 0 -41.055918670630533 7.1766908067541308 0 0 0 0 -34.076137499607285 -63.569308639751398 0 -63.569308639751398 2.2038770904109697 0 0 0 0 -41.236047096008406 -68.616756741683275 0 -68.616756741683275 -1.3533020254290022 0 0 0 0 -35.352448244557308 -68.55230299669347 0 -68.55230299669347 -5.2531279059840017 0 0 0 0 -7.8961548164843407 -42.825623748038197 0 -42.825623748038197 -17.222059857249405 0 0 0 0 -97.556868369458243 -83.03463926385848 0 -83.03463926385848 -36.498522854068142 0 0 0 0 17.769706364665744 -29.75737226188819 0 -29.75737226188819 -10.669385245623801 0 0 0 0 -64.116691061877646 -85.199476030822552 0 -85.199476030822552 -50.48769252521015 0 0 0 0 -42.716741025167451 -28.719707955202392 0 -28.719707955202392 31.081304812276983 0 0 0 0 -32.911495523687336 -72.233250338009384 0 -72.233250338009384 -9.2470104643143713 0 0 0 0 -59.798158467012399 -50.083331638097661 0 -50.083331638097661 -12.52938633562735 0 0 0 0 -50.755114163956023 -30.720523868400051 0 -30.720523868400051 -17.648299840013351 0 0 0 0 -236.72640380098892 -46.212055524207244 0 -46.212055524207244 28.217120134697325 0 0 0 0 -30.434704233866796 -34.646030198371591 0 -34.646030198371591 -20.061293634982576 0 0 0 0 -0.12198039776164649 0.53694038034618075 0 0.53694038034618075 -0.51988149146035312 0 0 0 0 -67.075337882650274 -46.974981450079667 0 -46.974981450079667 -27.681170418993133 0 0 0 0 -17.478113529046446 -9.9608084893392643 0 -9.9608084893392643 -5.9199197483632702 0 0 0 0 -128.80800641874521 -91.104970634403799 0 -91.104970634403799 -13.694754793745233 0 0 0 0 -88.710769575598533 -42.352637221487385 0 -42.352637221487385 -21.265519505250268 0 0 0 0 -89.263084053789498 -31.690407498077548 0 -31.690407498077548 24.933680324007582 0 0 0 0 -50.631187463233729 -18.735926694221202 0 -18.735926694221202 29.242105966555101 0 0 0 0 -52.377726766830165 -55.734715569242326 0 -55.734715569242326 -30.311785683734342 0 0 0 0 -91.471952083607903 -81.847360850813857 0 -81.847360850813857 -36.973800077044871 0 0 0 0 -99.199124107100943 -78.374576371137664 0 -78.374576371137664 -18.767020494831741 0 0 0 0 -13.382544684582918 -13.9452169407121 0 -13.9452169407121 26.059530349143515 0 0 0 0 -16.680775148764951 -93.77306321280048 0 -93.77306321280048 -2.3450041962787509 0 0 0 0 -103.86210818637483 -60.926085871356918 0 -60.926085871356918 -3.3263723182244576 0 0 0 0 -116.75304233036877 -68.417545401578536 0 -68.417545401578536 10.165721004474108 0 0 0 0 -15.026443524701449 -5.7937403870720203 0 -5.7937403870720203 1.6515393057730847 0 0 0 0 -84.908635734886047 12.453789443759888 0 12.453789443759888 21.401743116846774 0 0 0 0 -80.957320513753345 -6.0594364660280604 0 -6.0594364660280604 23.980086511313488 0 0 0 0 -116.33043909431581 -131.20203134280382 0 -131.20203134280382 -62.160923392562836 0 0 0 0 -167.7426528816286 -59.279036264924798 0 -59.279036264924798 10.508348882867722 0 0 0 0 25.920819109666809 -24.402544455524957 0 -24.402544455524957 -3.7085475118040563 0 0 0 0 -89.130926484991505 -94.463186044304166 0 -94.463186044304166 -35.259296857421759 0 0 0 0 -1.4375543074331461 -24.548204521205623 0 -24.548204521205623 25.018951959761893 0 0 0 0 84.994244884092041 -35.617550743742868 0 -35.617550743742868 -5.0102949499923852 0 0 0 0 -63.617832582523988 -58.981023006832402 0 -58.981023006832402 -8.3244053900161816 0 0 0 0 163.3542981748833 -253.65047107525243 0 -253.65047107525243 -356.52185124025345 0 0 0 0 7.5196322769224935 -219.12551063871433 0 -219.12551063871433 -215.16389292692475 0 0 0 0 -449.74697087739696 69.894700408738572 0 69.894700408738572 147.01831765774477 0 0 0 0 51.105665857998247 -122.76760319353343 0 -122.76760319353343 -271.11866689669841 0 0 0 0 3.9076351431917118 -16.37210160177635 0 -16.37210160177635 18.924389362645954 0 0 0 0 -19.026840776743484 -23.481394067050132 0 -23.481394067050132 0.046367075425223447 0 0 0 0 -45.656819741256186 -45.001356949789624 0 -45.001356949789624 -1.4818290708280983 0 0 0 0 -52.036735193265486 -75.596553571587719 0 -75.596553571587719 -15.684766821286757 0 0 0 0 -103.21596408000187 -103.64337106711537 0 -103.64337106711537 -30.847307628624549 0 0 0 0 21.674598739731607 -20.040650146674899 0 -20.040650146674899 0.73823787412504771 0 0 0 0 -6.6858557216473855 -62.726320102614409 0 -62.726320102614409 -41.973723205177521 0 0 0 0 -45.146936434772215 -111.57917830124643 0 -111.57917830124643 59.403524404275231 0 0 0 0 -50.091819832117835 -125.40846203637375 0 -125.40846203637375 21.282179387810174 0 0 0 0 -106.07029260201125 -70.372566014542826 0 -70.372566014542826 77.302275358859333 0 0 0 0 -188.14546628067001 -31.192028277494501 0 -31.192028277494501 82.270064510135853 0 0 0 0 -279.11509105760342 -226.89739179849312 0 -226.89739179849312 4.7209149429618265 0 0 0 0 -3.0776923463801324 -2.8932403623518326 0 -2.8932403623518326 -2.3512624983184054 0 0 0 0 -20.584514374804712 -113.40527992172974 0 -113.40527992172974 5.3067329836048884 0 0 0 0 32.389945354568873 -41.171045990345306 0 -41.171045990345306 36.780146220649215 0 0 0 0 -22.352571924788208 -125.13115041999845 0 -125.13115041999845 -47.270844966020377 0 0 0 0 -233.27178459676725 -63.097006962778323 0 -63.097006962778323 82.772626958038018 0 0 0 0 -14.982913038263717 -8.0401736486682189 0 -8.0401736486682189 9.1337214778118891 0 0 0 0 -243.25542168745596 -68.556458272505552 0 -68.556458272505552 123.20251968551747 0 0 0 0 -251.16206273755233 -108.00953375676909 0 -108.00953375676909 -17.665630077586684 0 0 0 0 -200.10528696069377 -173.82905602072424 0 -173.82905602072424 -82.127450318810588 0 0 0 0 -269.00336363903625 -104.83576950695533 0 -104.83576950695533 85.9785461097199 0 0 0 0 -89.499021210140199 -414.11857792600313 0 -414.11857792600313 329.68310598544485 0 0 0 0 70.515641966849216 -265.28677892885025 0 -265.28677892885025 -21.050608796675078 0 0 0 0 67.497812223267829 -241.25530328690638 0 -241.25530328690638 -185.37674103287281 0 0 0 0 -24.272830067351606 -97.915344169286982 0 -97.915344169286982 2.7435165601091285 0 0 0 0 26.754304338688051 -52.627513472738116 0 -52.627513472738116 33.721133999414121 0 0 0 0 61.051729791943217 -216.84291944000506 0 -216.84291944000506 -94.634690156461147 0 0 0 0 -61.738492345701161 -110.30783881139359 0 -110.30783881139359 46.978858114860486 0 0 0 0 -31.512493328979275 -63.725423650740979 0 -63.725423650740979 1.0424423551906159 0 0 0 0 -31.82219941906078 -101.50319266862061 0 -101.50319266862061 88.112813014515268 0 0 0 0 37.738984676005202 -71.585274814977311 0 -71.585274814977311 65.538604936693446 0 0 0 0 -33.235361423183349 -110.03043309185887 0 -110.03043309185887 44.993673441291321 0 0 0 0 -15.961400982785563 -63.674282937361568 0 -63.674282937361568 37.92903370087879 0 0 0 0 -16.227383875360829 -80.437475974125846 0 -80.437475974125846 36.569695895395853 0 0 0 0 -23.00909070308262 -51.703501941763506 0 -51.703501941763506 -16.365582566020773 0 0 0 0 -26.000836468010675 -75.209479891767842 0 -75.209479891767842 56.83557659966209 0 0 0 0 -53.302066536640268 -81.389218813090338 0 -81.389218813090338 108.41926354177122 0 0 0 0 -16.877917002904724 -47.392991247688769 0 -47.392991247688769 81.834677451239259 0 0 0 0 -8.8188337843494082 -58.309177779090533 0 -58.309177779090533 13.501012110893498 0 0 0 0 114.48304246032058 -51.779011736551183 0 -51.779011736551183 -7.9984528756103828 0 0 0 0 -4.854434284377021 -67.416083296602665 0 -67.416083296602665 21.591438828589162 0 0 0 0 -3.6175546442013911 -47.015233604437071 0 -47.015233604437071 -1.3627602610285976 0 0 0 0 -67.553628684927389 -53.414312497628998 0 -53.414312497628998 15.275786208883801 0 0 0 0 -3.2102628230531991 -45.46090756949161 0 -45.46090756949161 -52.601624212838942 0 0 0 0 28.541359049745552 -73.535806498037346 0 -73.535806498037346 -59.675294498127187 0 0 0 0 15.68108914772165 -58.653404650038283 0 -58.653404650038283 -26.765904989686533 0 0 0 0 -38.260297799901309 -63.882916307928099 0 -63.882916307928099 -19.648579806802445 0 0 0 0 18.47098573949188 -101.73961126337235 0 -101.73961126337235 -38.539369546429953 0 0 0 0 -59.305741289252182 -111.06295501105706 0 -111.06295501105706 -0.13601610081968829 0 0 0 0 -2.1131799536166938 0.19341782009848174 0 0.19341782009848174 2.5175551057368182 0 0 0 0 8.5813542305004376 -68.163475838515296 0 -68.163475838515296 -0.040302932691702154 0 0 0 0 -0.35847529912219933 1.9915911128422223 0 1.9915911128422223 0.1961262252459619 0 0 0 0 -149.82137958999374 -80.362968097593694 0 -80.362968097593694 11.296415707322012 0 0 0 0 109.69319817620271 -26.444436680609215 0 -26.444436680609215 -20.646324746063328 0 0 0 0 -0.2933984033837298 1.7872987985307915 0 1.7872987985307915 0.05819001348038455 0 0 0 0 -1.469533829127613 -53.399219859722507 0 -53.399219859722507 -29.254172533925157 0 0 0 0 -7.2402578031469602 -36.962923334838706 0 -36.962923334838706 4.4955851213271671 0 0 0 0 0.35742660210235044 -51.525481197612862 0 -51.525481197612862 -45.87679871590808 0 0 0 0 -33.901470533432075 -83.268675746683584 0 -83.268675746683584 -35.486526745662559 0 0 0 0 -22.466749307161081 -54.795869648081862 0 -54.795869648081862 -17.719531074035331 0 0 0 0 -132.85829652754819 -84.475546895168009 0 -84.475546895168009 -10.545921800439828 0 0 0 0 -22.452070008410374 -112.67616487215128 0 -112.67616487215128 -6.5910008054488571 0 0 0 0 -0.29570987507533708 1.7596753273416113 0 1.7596753273416113 0.1681527628224444 0 0 0 0 -35.361677493063326 -84.864819102018373 0 -84.864819102018373 11.096700280162622 0 0 0 0 -18.579301277017294 -67.835824680942096 0 -67.835824680942096 -40.620030462945579 0 0 0 0 80.705204314006551 -56.212269969662884 0 -56.212269969662884 -2.7330807145917788 0 0 0 0 364.47528748149489 -29.462500674515468 0 -29.462500674515468 -29.534009787297691 0 0 0 0 7.8126521571387713 -10.380686625797246 0 -10.380686625797246 16.775067449097946 0 0 0 0 -91.042513956304902 -117.716676251639 0 -117.716676251639 -72.10131937998085 0 0 0 0 -57.442068665783154 -61.910447126334475 0 -61.910447126334475 -38.490145264951025 0 0 0 0 -83.289869620261015 -15.018295237190614 0 -15.018295237190614 -58.607643184115659 0 0 0 0 -209.13162207897039 -205.42621107771447 0 -205.42621107771447 72.568902096973034 0 0 0 0 -94.613205650974123 -76.093304009595158 0 -76.093304009595158 0.20208749051380437 0 0 0 0 -52.40604432850887 -44.965908709775249 0 -44.965908709775249 13.034602498628374 0 0 0 0 -52.814138224079215 -61.088303442138567 0 -61.088303442138567 0.30643552861147327 0 0 0 0 350.144968265442 -660.79871826218732 0 -660.79871826218732 211.96535324165961 0 0 0 0 481.88351091717777 -487.10578615665872 0 -487.10578615665872 187.08844317901821 0 0 0 0 1580.3481840819004 -312.22778871963965 0 -312.22778871963965 0.81777961930659526 0 0 0 0 2.4045464504517327 -3.4930061057400579 0 -3.4930061057400579 5.5746318502884833 0 0 0 0 1534.6108448287923 -402.61411066663641 0 -402.61411066663641 -164.44197712958703 0 0 0 0 -248.62931924348959 -253.04574524719283 0 -253.04574524719283 109.55793226115929 0 0 0 0 -431.82662891220571 102.12039413252933 0 102.12039413252933 11.618903723356198 0 0 0 0 -2.6374104360737505 -4.3585355417992844 0 -4.3585355417992844 -0.36832551335785979 0 0 0 0 -142.19604376405914 -71.675304939417401 0 -71.675304939417401 89.470966186578153 0 0 0 0 215.61583155814878 -255.03977980752097 0 -255.03977980752097 2.970596350474807 0 0 0 0 -88.746905865875306 -184.39387179956975 0 -184.39387179956975 56.394585368587286 0 0 0 0 111.9870015405686 -157.45909202692565 0 -157.45909202692565 24.407411337720987 0 0 0 0 -87.356130862112821 -83.643396159254166 0 -83.643396159254166 41.543976068103802 0 0 0 0 -76.829448716605839 -100.17394165782753 0 -100.17394165782753 58.276107925354154 0 0 0 0 3.6244300999946972 -78.837367491788882 0 -78.837367491788882 54.667086021290743 0 0 0 0 5.4164627168783852 -44.94922036476737 0 -44.94922036476737 -13.305480199017268 0 0 0 0 42.255423904593044 -88.653932056524354 0 -88.653932056524354 18.90098228725401 0 0 0 0 12.173448280665497 -43.646017049006161 0 -43.646017049006161 -12.148493900124173 0 0 0 0 1.1627537641907111 -59.592779216538474 0 -59.592779216538474 57.537687330228437 0 0 0 0 6.5591222849752739 -114.13115417160361 0 -114.13115417160361 9.1330077130842255 0 0 0 0 19.053000342653831 -52.610839386245061 0 -52.610839386245061 -19.106070467540121 0 0 0 0 27.936646252244827 -77.678015691250039 0 -77.678015691250039 -3.2824513572923024 0 0 0 0 28.699201565524163 -67.031817588886042 0 -67.031817588886042 -27.801803802052746 0 0 0 0 -68.804301775744534 -84.327235623044544 0 -84.327235623044544 38.205953095020959 0 0 0 0 8.3620087859661965 -23.584870450488907 0 -23.584870450488907 22.308304915332656 0 0 0 0 -13.90490679564391 -96.530896926498826 0 -96.530896926498826 -16.326287907322694 0 0 0 0 -3.1722134612299655 -22.564935409408974 0 -22.564935409408974 11.031114145326569 0 0 0 0 34.576330988427799 -62.256809827820689 0 -62.256809827820689 61.674796378276369 0 0 0 0 29.885726566652011 -56.807372593808395 0 -56.807372593808395 -42.565322287955496 0 0 0 0 61.035969230484625 -61.860324196844886 0 -61.860324196844886 34.307463284414553 0 0 0 0 58.737468904051639 -210.20194264334532 0 -210.20194264334532 -90.653783261339413 0 0 0 0 21.57328447040868 -49.930689335724082 0 -49.930689335724082 -16.479568695942334 0 0 0 0 40.498898075064062 -55.328074331198877 0 -55.328074331198877 68.773511360399425 0 0 0 0 -45.383607247495092 -57.257581954007037 0 -57.257581954007037 -22.943889359943569 0 0 0 0 61.789878699278134 -126.01650636824029 0 -126.01650636824029 -91.469165423903206 0 0 0 0 18.938706810906297 -48.145868645846349 0 -48.145868645846349 50.585719571234222 0 0 0 0 21.438561909901182 -56.53831431817116 0 -56.53831431817116 37.267935421776201 0 0 0 0 36.910783669183729 -58.09479200305941 0 -58.09479200305941 31.1511166261771 0 0 0 0 16.044069171039155 -45.302475548778602 0 -45.302475548778602 25.932318691411638 0 0 0 0 -4.6073215101132519 -50.636436021064583 0 -50.636436021064583 36.813010106496222 0 0 0 0 17.568107333187072 -42.935324519228743 0 -42.935324519228743 13.837955467257416 0 0 0 0 76.000753659212933 -99.233368692735894 0 -99.233368692735894 -130.15786745617515 0 0 0 0 6.8931436064704528 -22.617866776766945 0 -22.617866776766945 -7.5042885602495062 0 0 0 0 52.657650486660714 -42.149541990116631 0 -42.149541990116631 9.727169560661423 0 0 0 0 37.230135199359211 -28.831685338904208 0 -28.831685338904208 -1.3366375797049841 0 0 0 0 1153.1465554127644 244.79560211698117 0 244.79560211698117 -935.10858598112827 0 0 0 0 421.35223349009175 -529.93558930271683 0 -529.93558930271683 32.304713608136808 0 0 0 0 918.1578617050036 -161.01624983501824 0 -161.01624983501824 16.099966392095666 0 0 0 0 2.7734476791397498 -2.0413812432686456 0 -2.0413812432686456 9.8191231366991474 0 0 0 0 6.0965732876757102 -23.25218114782183 0 -23.25218114782183 1.6682189449347788 0 0 0 0 -3.8110893077037034 -5.7400419216045577 0 -5.7400419216045577 -5.2980096028285004 0 0 0 0 661.24134432812571 -168.84612259702044 0 -168.84612259702044 184.30118304252392 0 0 0 0 745.56832796025265 -775.69777354735561 0 -775.69777354735561 855.98274256194418 0 0 0 0 14.659230858553201 -19.535945242037997 0 -19.535945242037997 1.3138459286619764 0 0 0 0 -24.110557933381642 -34.862242013528885 0 -34.862242013528885 13.131432314330596 0 0 0 0 5.0825373567058705 -43.120289900943135 0 -43.120289900943135 15.336888184028794 0 0 0 0 -8.4305012555778376 -58.370351806923281 0 -58.370351806923281 7.541892781146089 0 0 0 0 -23.057442649380391 -65.829558414585335 0 -65.829558414585335 16.588934059818712 0 0 0 0 -2.0959190474241041 -73.562456521276545 0 -73.562456521276545 -0.090744528568393434 0 0 0 0 -5.5490902962555992 -84.80028290838527 0 -84.80028290838527 1.3807832696693367 0 0 0 0 -0.33415184421937738 -70.840347087960254 0 -70.840347087960254 27.523668115471082 0 0 0 0 7.8239120944199385 -65.089262059311295 0 -65.089262059311295 16.072606144462952 0 0 0 0 10.475046615720203 -52.131384404102391 0 -52.131384404102391 32.160449661590974 0 0 0 0 1.5139679061103379 -72.384103052179853 0 -72.384103052179853 -2.5737359057202411 0 0 0 0 6.9952162855697679 -69.57595235093504 0 -69.57595235093504 -15.734954296098294 0 0 0 0 5.6899844643266988 -65.790771306270472 0 -65.790771306270472 6.6432228029034377 0 0 0 0 14.231288117349322 -79.747969235975688 0 -79.747969235975688 -6.8600090497238853 0 0 0 0 0.9631944234133698 -78.720506805639161 0 -78.720506805639161 7.0523303434711124 0 0 0 0 14.879738709399135 -64.624338275813443 0 -64.624338275813443 1.8184558760476648 0 0 0 0 91.020226993365213 -117.61703761133685 0 -117.61703761133685 29.778384726175318 0 0 0 0 89.003941256787584 -5.8312734586015722 0 -5.8312734586015722 -17.520709643722512 0 0 0 0 94.529967380862217 -37.44887420768282 0 -37.44887420768282 11.369528774983337 0 0 0 0 75.966225594422212 -81.288722658447568 0 -81.288722658447568 8.2096785097528482 0 0 0 0 -0.13456355348080251 -23.619849274910678 0 -23.619849274910678 -19.909115330781418 0 0 0 0 55.675188206178575 -25.663304569568879 0 -25.663304569568879 -23.117521590307916 0 0 0 0 -9.1319206355393305 -49.275167483992718 0 -49.275167483992718 0.68223918421935537 0 0 0 0 68.574583402452845 -79.993785699109139 0 -79.993785699109139 37.213541675293527 0 0 0 0 46.435761526917872 -37.257251553076117 0 -37.257251553076117 -12.323032791019919 0 0 0 0 141.7451325114971 -156.85477354991417 0 -156.85477354991417 117.43223039910663 0 0 0 0 43.220295597151562 -58.072146048230934 0 -58.072146048230934 14.215633050382166 0 0 0 0 5.6639341855818088 -18.505882627983652 0 -18.505882627983652 -10.041526189320734 0 0 0 0 415.8434068011893 -776.2155455151219 0 -776.2155455151219 1420.676667846521 0 0 0 0 392.84294966320158 -604.65424363147031 0 -604.65424363147031 1004.601739283069 0 0 0 0 1.9945869889095604 -16.322176237885827 0 -16.322176237885827 8.1236834680276502 0 0 0 0 148.80666842270875 -111.00371399674623 0 -111.00371399674623 50.578007748987147 0 0 0 0 729.79103244838188 -924.75604883374763 0 -924.75604883374763 907.33058833554969 0 0 0 0 499.25073629938561 -1041.3539789605093 0 -1041.3539789605093 1320.8918664791563 0 0 0 0 604.39445530938974 -1205.2397719611981 0 -1205.2397719611981 1272.9046894198545 0 0 0 0 783.49561493506189 -1112.0379765239923 0 -1112.0379765239923 1065.7943038504745 0 0 0 0 685.02868440483871 -1216.9863599613891 0 -1216.9863599613891 1172.0750040753774 0 0 0 0 -13.082413404656108 -167.40637840401905 0 -167.40637840401905 205.84457541402662 0 0 0 0 -3.6384941902490482 -2.4996083457470775 0 -2.4996083457470775 0.944845196911416 0 0 0 0 974.02403129839877 -1189.3801616409373 0 -1189.3801616409373 1039.0093311627279 0 0 0 0 984.04018277680734 -1106.9116602849899 0 -1106.9116602849899 1036.4298909744102 0 0 0 0 932.78725528073846 -1195.445768490943 0 -1195.445768490943 1071.560263436912 0 0 0 0 930.9914808193862 -1185.5408494990188 0 -1185.5408494990188 1072.1653126225719 0 0 0 0 1003.4461489046807 -1144.068646669577 0 -1144.068646669577 1038.2998113571521 0 0 0 0 1086.9147519182879 -1128.1407094943424 0 -1128.1407094943424 1037.9507006175409 0 0 0 0 970.72322716290364 -1163.8187105885736 0 -1163.8187105885736 1053.9405390995817 0 0 0 0 1406.2173830457032 -1114.8300827191779 0 -1114.8300827191779 858.25912364662508 0 0 0 0 -44.937181918357965 -33.787734254394309 0 -33.787734254394309 44.91466148287509 0 0 0 0 1327.5964374323958 -995.92030098190298 0 -995.92030098190298 957.38826959439029 0 0 0 0 916.7947606901871 -892.36607481577084 0 -892.36607481577084 1011.0313529262203 0 0 0 0 -4.0935160191479767 1.3425234943407816 0 1.3425234943407816 0.043237959095279166 0 0 0 0 1996.3417807057267 -1023.4961280132702 0 -1023.4961280132702 270.12401240505278 0 0 0 0 -9.0224214656254844 -64.388193719557421 0 -64.388193719557421 101.40482414674625 0 0 0 0 0.87835086779651306 -52.585099534145456 0 -52.585099534145456 -7.3767292292715503 0 0 0 0 -11.127316793755369 -29.774979617591441 0 -29.774979617591441 35.782690805671791 0 0 0 0 -12.667808368030819 -93.012715279735858 0 -93.012715279735858 94.523993779799639 0 0 0 0 2.87992108346225 -44.833702323820035 0 -44.833702323820035 43.769740426723729 0 0 0 0 -36.480457874866261 -30.666263634810093 0 -30.666263634810093 11.751175524215796 0 0 0 0 -13.89330537465176 -16.16541920056531 0 -16.16541920056531 3.1223114932303702 0 0 0 0 1274.3594949645412 -1135.4626239555218 0 -1135.4626239555218 925.73855357433786 0 0 0 0 1142.1211113478057 -1148.0509109281629 0 -1148.0509109281629 924.69411195069551 0 0 0 0 1348.0122105766259 -1141.639989429777 0 -1141.639989429777 886.24692631234939 0 0 0 0 1285.3442557874223 -1157.1640408026869 0 -1157.1640408026869 885.8631119681595 0 0 0 0 1487.7823170864722 -1100.6620310383587 0 -1100.6620310383587 843.32193290481518 0 0 0 0 1357.0178041931795 -1279.6673928195523 0 -1279.6673928195523 799.22767634884804 0 0 0 0 -185.58915327997238 15.642553797923028 0 15.642553797923028 32.688473480131506 0 0 0 0 -11.444911861637266 -11.260134359909244 0 -11.260134359909244 1.4596941112487229 0 0 0 0 1778.8187859311693 -1439.1290826205422 0 -1439.1290826205422 849.29074489056075 0 0 0 0 1532.29226186507 -1080.8609994597355 0 -1080.8609994597355 865.87344458871098 0 0 0 0 2085.6582727933019 -1522.087056938497 0 -1522.087056938497 521.35322804618772 0 0 0 0 1532.6439908144057 -1195.2596264477961 0 -1195.2596264477961 419.68079317917 0 0 0 0 1528.6858802023089 -1200.2167852614075 0 -1200.2167852614075 417.84269817641325 0 0 0 0 827.63611475774815 -1314.4379831936531 0 -1314.4379831936531 518.83714687341126 0 0 0 0 1649.4334406835806 -1090.9354127408806 0 -1090.9354127408806 0.10739292418293189 0 0 0 0 1237.0244468628516 -1443.4481262632144 0 -1443.4481262632144 487.50454299806006 0 0 0 0 1455.8242163958712 -1379.2323618395603 0 -1379.2323618395603 0.37394256865523967 0 0 0 0 1089.6329745719704 -1475.0498453515393 0 -1475.0498453515393 486.0811709366958 0 0 0 0 866.04373867419599 -1468.6507493285999 0 -1468.6507493285999 871.83763701329008 0 0 0 0 902.21849365594971 -1364.4214930541857 0 -1364.4214930541857 990.89254473123583 0 0 0 0 972.67260885789437 -1484.0658449888833 0 -1484.0658449888833 865.19570536652463 0 0 0 0 1214.9255126462231 -1285.0426807769654 0 -1285.0426807769654 753.60561968415277 0 0 0 0 1213.5484006702536 -1277.0835387943807 0 -1277.0835387943807 820.76580480613484 0 0 0 0 1149.9061250274767 -1290.0043974120611 0 -1290.0043974120611 921.8294024017523 0 0 0 0 1018.2129232166917 -1403.5613911995388 0 -1403.5613911995388 825.44812534680386 0 0 0 0 1167.2769458410621 -1245.663175983369 0 -1245.663175983369 922.70630717835593 0 0 0 0 1149.6301013531338 -1231.14124916734 0 -1231.14124916734 931.93559822041425 0 0 0 0 946.16306770537631 -1292.1370144529792 0 -1292.1370144529792 975.59418146320968 0 0 0 0 992.49696229520487 -1223.9454506913025 0 -1223.9454506913025 1007.6089630697679 0 0 0 0 1094.763077124444 -1206.6184696672426 0 -1206.6184696672426 1001.6428708151361 0 0 0 0 950.76772710948717 -1309.3908320178161 0 -1309.3908320178161 1034.5069661246525 0 0 0 0 821.23128043681209 -1315.3371649728942 0 -1315.3371649728942 1054.0068319865532 0 0 0 0 755.24420268382528 -1294.5659375741452 0 -1294.5659375741452 1182.5338060301337 0 0 0 0 690.22320244659932 -1406.2580835966364 0 -1406.2580835966364 1111.6888178803929 0 0 0 0 642.15672461555368 -1441.9256676862969 0 -1441.9256676862969 1327.8617387708218 0 0 0 0 605.26865457472741 -1526.0754346851318 0 -1526.0754346851318 1166.5695118882686 0 0 0 0 700.87785947148222 -1541.0798024527248 0 -1541.0798024527248 1168.921774906803 0 0 0 0 696.31297953038302 -1509.4376289057182 0 -1509.4376289057182 1121.8188266744728 0 0 0 0 486.59471431957354 -1597.7201277222157 0 -1597.7201277222157 1536.8216871149998 0 0 0 0 573.70258337813357 -1635.9618011109178 0 -1635.9618011109178 1183.8988217363803 0 0 0 0 662.09579060734541 -1697.1327137312674 0 -1697.1327137312674 950.80544884422852 0 0 0 0 743.6818770943355 -1680.9616790552245 0 -1680.9616790552245 941.99174548480914 0 0 0 0 887.4583425832825 -1651.0766581412754 0 -1651.0766581412754 537.98427365426323 0 0 0 0 645.90297198414191 -1881.6570711235254 0 -1881.6570711235254 581.91369043746818 0 0 0 0 844.28179929100952 -1751.946319375953 0 -1751.946319375953 484.50706412400177 0 0 0 0 1176.0150777402414 -1633.5873466588982 0 -1633.5873466588982 0.28836252560722642 0 0 0 0 848.17659342702245 -1767.7528124458659 0 -1767.7528124458659 528.28955041096197 0 0 0 0 2.1289259459081222 -614.89214214503954 0 -614.89214214503954 926.48856986223836 0 0 0 0 -818.79911683488172 -1614.4386095708342 0 -1614.4386095708342 847.54830369541742 0 0 0 0 1513.904191414229 -2306.8796294422609 0 -2306.8796294422609 -1.0338894309243187 0 0 0 0 0.047609383011419482 -4.7500958634344101 0 -4.7500958634344101 0.79581272640601242 0 0 0 0 573.13075588762877 -2116.6916287544809 0 -2116.6916287544809 0.69986872218079199 0 0 0 0 385.27420785975119 -1704.5952385604505 0 -1704.5952385604505 1001.1302557889285 0 0 0 0 863.49986747255025 -1494.2939578843725 0 -1494.2939578843725 802.29071869693325 0 0 0 0 1665.9309630915595 -2014.7633150275178 0 -2014.7633150275178 701.48360021573899 0 0 0 0 0.031839722038569107 -4.8129892429631127 0 -4.8129892429631127 0.85423277072627002 0 0 0 0 424.72705564250646 -2084.9105727546339 0 -2084.9105727546339 697.58541534381948 0 0 0 0 4.079081654890615 -2094.0207495360191 0 -2094.0207495360191 1225.7950538742589 0 0 0 0 703.29616490103945 -1754.1748808020966 0 -1754.1748808020966 1042.8443858386163 0 0 0 0 689.96817865026242 -1722.2047379024734 0 -1722.2047379024734 979.90006855396496 0 0 0 0 522.57617783188471 -1738.7696586032507 0 -1738.7696586032507 1233.4541523922035 0 0 0 0 146.93387179926503 -1940.0979109048822 0 -1940.0979109048822 1336.7642469542152 0 0 0 0 430.67844401943148 -1565.7678128768421 0 -1565.7678128768421 1636.2148883968839 0 0 0 0 -0.70312655202724272 -1826.9438045443421 0 -1826.9438045443421 1876.9528487181306 0 0 0 0 395.38100575752469 -1190.0331528691713 0 -1190.0331528691713 2559.5384022638591 0 0 0 0 1.2167761599266669 -1650.64012761911 0 -1650.64012761911 2760.5843212355821 0 0 0 0 236.04987152176182 -1130.9679697912579 0 -1130.9679697912579 2317.5281975611406 0 0 0 0 223.58832117068596 -1531.8230432051296 0 -1531.8230432051296 2227.2176818580629 0 0 0 0 459.3691926673564 -1415.5921955790873 0 -1415.5921955790873 1539.3443655480692 0 0 0 0 480.9699996911877 -1372.38909126215 0 -1372.38909126215 1620.1056853454138 0 0 0 0 509.69986333313864 -1310.1731792794817 0 -1310.1731792794817 1304.1894181081771 0 0 0 0 181.42882907159219 -795.52818556481361 0 -795.52818556481361 1625.9548193594273 0 0 0 0 346.23237720605721 -1043.6890116110417 0 -1043.6890116110417 1797.620245011618 0 0 0 0 401.65757531987038 -962.93858414006536 0 -962.93858414006536 1257.9189968030551 0 0 0 0 67.948125139213516 -28.363516454161072 0 -28.363516454161072 -102.92050886788638 0 0 0 0 22.701677802540843 -10.644558525767053 0 -10.644558525767053 -0.17157259088568466 0 0 0 0 138.50214635524753 -973.94736223224027 0 -973.94736223224027 2887.3282587602225 0 0 0 0 1.5766937619003443 -14.992231384813209 0 -14.992231384813209 -3.3639725217210525 0 0 0 0 84.284866553498432 -79.175619315632503 0 -79.175619315632503 -13.17464476331952 0 0 0 0 402.16473951053922 -781.61020810679111 0 -781.61020810679111 1432.8856759323753 0 0 0 0 40.029180092046516 -15.486968377409468 0 -15.486968377409468 -5.7979373666183491 0 0 0 0 109.90765391011519 -139.37776473290796 0 -139.37776473290796 -10.915858496082365 0 0 0 0 21.547767723826837 -10.276458909402209 0 -10.276458909402209 50.077395758984494 0 0 0 0 96.16763450934377 -122.24209353251354 0 -122.24209353251354 33.766521725912753 0 0 0 0 5.8597488955929293 -34.66655309816997 0 -34.66655309816997 8.5509031609508384 0 0 0 0 22.247802494457574 -10.725161053145712 0 -10.725161053145712 -124.40435408143821 0 0 0 0 -0.12885302124050213 -55.312267379325931 0 -55.312267379325931 0.0054112832694954704 0 0 0 0 72.367187145093339 -969.60624159637155 0 -969.60624159637155 4254.54650997094 0 0 0 0 6.9560567700177671 -4.1740207541096481 0 -4.1740207541096481 2.9491608434015788 0 0 0 0 -91.776286983631508 -79.732139668878517 0 -79.732139668878517 14.957632448327786 0 0 0 0 -68.081446119542306 -130.56650989821628 0 -130.56650989821628 -107.30350880046899 0 0 0 0 -75.318900054242249 -51.02296283898977 0 -51.02296283898977 -36.107971908189938 0 0 0 0 -80.502022736390245 -79.390016036311863 0 -79.390016036311863 20.598634190049779 0 0 0 0 -40.84957284468328 -35.462886395587702 0 -35.462886395587702 27.613587309902869 0 0 0 0 -18.753917984675354 -28.319134334171395 0 -28.319134334171395 -0.18153422295290511 0 0 0 0 6.0526504417121032 -66.238235550466925 0 -66.238235550466925 57.058905817527375 0 0 0 0 -128.48219825421438 -87.306091098367688 0 -87.306091098367688 -34.097466055653058 0 0 0 0 -117.80849918855529 -101.08265792528982 0 -101.08265792528982 -24.98808890231885 0 0 0 0 0.44499918176853726 -55.2349822682406 0 -55.2349822682406 16.541256682533472 0 0 0 0 -73.531988035942149 -20.39707960323733 0 -20.39707960323733 35.914123754549024 0 0 0 0 14.018592748907395 -78.630207025933487 0 -78.630207025933487 49.919518575777147 0 0 0 0 98.341582211851346 0.5248627161308832 0 0.5248627161308832 41.949938580357411 0 0 0 0 27.523817459180908 -87.700606708620654 0 -87.700606708620654 10.02805243116228 0 0 0 0 18.091272992685845 -75.432142346428918 0 -75.432142346428918 -47.069666635710746 0 0 0 0 13.427606356932392 -60.806051953638871 0 -60.806051953638871 -27.026522251029732 0 0 0 0 179.11839344625696 -80.874799973151312 0 -80.874799973151312 -82.545711503418715 0 0 0 0 42.244459191978422 2.6483993607325829 0 2.6483993607325829 -72.314487095827644 0 0 0 0 -71.248804931060477 -185.05905027119479 0 -185.05905027119479 -240.67855681932997 0 0 0 0 -117.83301572194114 -81.544494851550553 0 -81.544494851550553 -139.49602893605334 0 0 0 0 -158.81459285404435 -127.09768636399167 0 -127.09768636399167 -15.114656300254865 0 0 0 0 -201.93927877543638 -124.08271823783434 0 -124.08271823783434 -84.783403171721147 0 0 0 0 -108.26989725996555 -168.91267017260088 0 -168.91267017260088 -285.30689511720993 0 0 0 0 50.433630101509152 -693.06526627061976 0 -693.06526627061976 -638.70231538346525 0 0 0 0 115.91325755059188 -190.13628042546043 0 -190.13628042546043 -460.61288424314989 0 0 0 0 -164.48477071687921 -279.09838380359361 0 -279.09838380359361 -250.38484985959076 0 0 0 0 14.688019611414012 -7.7839624549497159 0 -7.7839624549497159 1.1654928692696558 0 0 0 0 -45.366740247871348 -102.34348744039744 0 -102.34348744039744 -207.3327276661621 0 0 0 0 -189.16752514127029 -63.260398909042124 0 -63.260398909042124 178.06271930439107 0 0 0 0 -100.41453822560686 -119.8210024306718 0 -119.8210024306718 -94.394004726542335 0 0 0 0 -130.18780284946388 -90.540696266514715 0 -90.540696266514715 88.497789513538009 0 0 0 0 -93.689002663124484 -45.874959622924507 0 -45.874959622924507 -11.136711526211002 0 0 0 0 -102.43212130876464 -84.887764045117365 0 -84.887764045117365 65.427788698943914 0 0 0 0 -22.137165702652055 -131.07350922569822 0 -131.07350922569822 61.102135860928684 0 0 0 0 81.320523985957607 -185.16118902143353 0 -185.16118902143353 -3.0386282977706287 0 0 0 0 -81.882021378761593 -104.54822232232254 0 -104.54822232232254 83.312684065575013 0 0 0 0 -72.020185300797266 -90.211437323630889 0 -90.211437323630889 62.068529050826328 0 0 0 0 39.363797217511092 -340.95428594495752 0 -340.95428594495752 264.86982707064453 0 0 0 0 -139.52759443598643 -207.58991446561413 0 -207.58991446561413 199.03958929618238 0 0 0 0 96.367728487650311 -279.05302782701438 0 -279.05302782701438 182.33248697538511 0 0 0 0 84.930093135353673 -305.1041300825018 0 -305.1041300825018 133.36432165213773 0 0 0 0 137.30405050264199 -393.56407164345728 0 -393.56407164345728 176.60828482652869 0 0 0 0 143.06517900836479 -389.77502195943453 0 -389.77502195943453 166.81691918650176 0 0 0 0 224.70927667866158 -419.05545383784647 0 -419.05545383784647 164.39238403957279 0 0 0 0 139.97080816429116 -351.91414615633403 0 -351.91414615633403 165.29466427558691 0 0 0 0 193.58974584176281 -279.85297099024228 0 -279.85297099024228 262.00450482047745 0 0 0 0 279.72255136762237 -137.2721442864422 0 -137.2721442864422 1.2882688511526794 0 0 0 0 -2.9233279945902293 -14.369173771337657 0 -14.369173771337657 10.567462297449509 0 0 0 0 -130.92385044525963 -92.117440529666055 0 -92.117440529666055 89.456506193120731 0 0 0 0 14.12691489698409 -216.3976380406275 0 -216.3976380406275 122.5601475219446 0 0 0 0 109.76151778547501 -333.76565985441994 0 -333.76565985441994 217.85202775192738 0 0 0 0 150.55701386953479 -308.13594328885665 0 -308.13594328885665 94.402892654110474 0 0 0 0 95.045232353131269 -278.24621841066983 0 -278.24621841066983 278.43440879126138 0 0 0 0 137.81915650139217 -273.40492726422235 0 -273.40492726422235 190.09919190019718 0 0 0 0 -6.6375806049105517 2.0335151200509074 0 2.0335151200509074 13.334753605989292 0 0 0 0 -75.476444820737925 -147.20817867961887 0 -147.20817867961887 -60.908196983669768 0 0 0 0 296.06882275869975 -224.68851117655504 0 -224.68851117655504 229.32273680538856 0 0 0 0 -69.055767014056471 -137.32219374686792 0 -137.32219374686792 -88.250328173598973 0 0 0 0 17.68296924904627 -28.681517405870594 0 -28.681517405870594 41.081726640901167 0 0 0 0 -82.915190779231807 -132.84338068617944 0 -132.84338068617944 -64.833440857510141 0 0 0 0 -65.352301320635888 -87.782805457514769 0 -87.782805457514769 44.004405872405187 0 0 0 0 8.4378776007415581 -52.784144459432355 0 -52.784144459432355 20.752658325247467 0 0 0 0 -96.593437846307779 -103.48467546816937 0 -103.48467546816937 -78.525419769866858 0 0 0 0 11.173783553072553 -54.595861877071911 0 -54.595861877071911 18.691223689587787 0 0 0 0 -28.52400162707454 -75.98443535908882 0 -75.98443535908882 47.348793163146183 0 0 0 0 -97.3241687159599 -54.4515597983318 0 -54.4515597983318 51.517210717836861 0 0 0 0 -122.08311080263684 -100.6987006807467 0 -100.6987006807467 -6.619761832531367 0 0 0 0 -137.85895983497039 -106.47404902020025 0 -106.47404902020025 0.36860795665415935 0 0 0 0 4.5941728644102104 -14.343758739299332 0 -14.343758739299332 -19.26004037390851 0 0 0 0 12.611644987439281 -34.974726743447327 0 -34.974726743447327 38.343348015064933 0 0 0 0 5.6421403517097133 6.5662729227005912 0 6.5662729227005912 65.370107806938449 0 0 0 0 -63.636051743503231 -184.6708427213307 0 -184.6708427213307 -39.739978319325019 0 0 0 0 -38.971679747034614 -126.23257342939905 0 -126.23257342939905 -94.647925749741262 0 0 0 0 -46.584107815711377 -170.40612045611488 0 -170.40612045611488 31.388431392872008 0 0 0 0 -106.23174877342717 -107.03955297118227 0 -107.03955297118227 -33.996595912074554 0 0 0 0 -56.017666552887079 -104.01053822182621 0 -104.01053822182621 -36.159411824060953 0 0 0 0 -2.4724015828392112 -89.586919939280051 0 -89.586919939280051 -107.37177399385837 0 0 0 0 -0.15036931502146489 -11.0460621954483 0 -11.0460621954483 -6.1139892891558532 0 0 0 0 -24.395572447686845 -132.72923835467009 0 -132.72923835467009 -153.06110425852967 0 0 0 0 -57.154596261689676 -112.75133110908064 0 -112.75133110908064 -86.86493294002139 0 0 0 0 -364.37905408273537 0.28628305098391138 0 0.28628305098391138 75.311821367569792 0 0 0 0 -112.94252243272271 -50.890767484531281 0 -50.890767484531281 11.256269807391519 0 0 0 0 -416.48618599749534 -73.477970784322679 0 -73.477970784322679 -0.54909723612217931 0 0 0 0 -16.177451714302073 -70.281786933130675 0 -70.281786933130675 -48.658237252653066 0 0 0 0 -428.70656967625837 -56.326679503210471 0 -56.326679503210471 -21.255216004072281 0 0 0 0 -453.52604566744412 -25.135581363472738 0 -25.135581363472738 54.283134121971671 0 0 0 0 -452.76227405107056 -34.593204432356288 0 -34.593204432356288 8.401452968668309 0 0 0 0 -447.65976918990782 -68.839765905264358 0 -68.839765905264358 35.931732709083008 0 0 0 0 -471.79285682034606 -70.177200250911483 0 -70.177200250911483 44.678629615445971 0 0 0 0 -478.21909388852509 -63.612176683123835 0 -63.612176683123835 66.898351886295131 0 0 0 0 -459.30475122388452 -46.780465010000626 0 -46.780465010000626 79.973568817396881 0 0 0 0 -504.2930342519976 -78.59016903337033 0 -78.59016903337033 100.42059568371042 0 0 0 0 -474.96840161035652 -71.85719403490657 0 -71.85719403490657 77.0877259965946 0 0 0 0 -494.42797991778207 -88.849827482299588 0 -88.849827482299588 70.62914159646607 0 0 0 0 -510.82222514580644 -113.53698631474981 0 -113.53698631474981 44.159077786760463 0 0 0 0 -485.13487891145633 -89.022176546641276 0 -89.022176546641276 60.014229366126528 0 0 0 0 -419.16290798741829 -83.108830934645084 0 -83.108830934645084 11.699616023775889 0 0 0 0 -253.7296784869809 -158.94635683791876 0 -158.94635683791876 -141.33707777244854 0 0 0 0 -488.97088335982698 -131.55401831740164 0 -131.55401831740164 17.426811160421494 0 0 0 0 -10.596097418280051 -65.288669430240319 0 -65.288669430240319 -28.438228850945364 0 0 0 0 -462.2831045150233 -110.65802254976006 0 -110.65802254976006 13.599048217829477 0 0 0 0 -341.71853971025848 -88.548979750179569 0 -88.548979750179569 -29.525517384769046 0 0 0 0 -445.34766040751128 -72.927284314500866 0 -72.927284314500866 10.016824606966111 0 0 0 0 -116.77261034172611 -15.610380096167574 0 -15.610380096167574 15.150615905669405 0 0 0 0 -251.64087327631933 -13.850552615422203 0 -13.850552615422203 -27.394872567325365 0 0 0 0 -247.223541931623 -24.344822778351954 0 -24.344822778351954 -20.543619543022942 0 0 0 0 -269.53010060659608 -8.1031739154423121 0 -8.1031739154423121 -15.792876974970568 0 0 0 0 -265.66798926228535 -18.779628610922373 0 -18.779628610922373 -8.5905908095301129 0 0 0 0 -308.47301286234506 -9.8870293899381068 0 -9.8870293899381068 49.060867421329021 0 0 0 0 -318.16770276679017 -21.406949932708812 0 -21.406949932708812 53.431020202551736 0 0 0 0 -309.2370122326065 -6.1940026291285903 0 -6.1940026291285903 55.683290726679843 0 0 0 0 -309.11466658667996 -13.872086268704152 0 -13.872086268704152 50.562642889504787 0 0 0 0 -354.38455493487709 -24.342990537494188 0 -24.342990537494188 62.063771770510357 0 0 0 0 -332.22649007407017 -25.579102934949333 0 -25.579102934949333 53.679293669994877 0 0 0 0 -324.31790994032053 -10.40362525897217 0 -10.40362525897217 56.289237422519363 0 0 0 0 -375.28115813148906 -35.724431759022991 0 -35.724431759022991 57.873944357030268 0 0 0 0 -936.37362920395026 -29.842921140254475 0 -29.842921140254475 -20.305499669513665 0 0 0 0 -106.69542478652147 -44.837494524843805 0 -44.837494524843805 13.657807031630258 0 0 0 0 -418.45059825376666 -39.807980000492535 0 -39.807980000492535 67.890026002307422 0 0 0 0 -11.171624345807295 -20.926997859079705 0 -20.926997859079705 -17.500938901385339 0 0 0 0 -420.87972805839399 -282.09621305666951 0 -282.09621305666951 -98.554377700447731 0 0 0 0 -452.85147534544376 -29.685268629027632 0 -29.685268629027632 77.237134251889074 0 0 0 0 -410.81873332902614 -39.111935878783697 0 -39.111935878783697 70.414220610604389 0 0 0 0 -461.97674444083532 -45.618249398146872 0 -45.618249398146872 89.363644414319424 0 0 0 0 -448.43404880522576 -45.032770211473689 0 -45.032770211473689 103.55706449512581 0 0 0 0 -412.47788459641743 -24.068812463330687 0 -24.068812463330687 95.559731787259807 0 0 0 0 -456.82382515104109 -37.454155600316881 0 -37.454155600316881 101.87787896415102 0 0 0 0 -401.13050716170255 -2.589545965740399 0 -2.589545965740399 126.70475034626725 0 0 0 0 -367.96796328561322 -21.375886439054739 0 -21.375886439054739 102.8382816566882 0 0 0 0 -356.52326955356693 -4.3873168338323012 0 -4.3873168338323012 93.657565636676736 0 0 0 0 -391.51091595499565 -18.16216899245137 0 -18.16216899245137 90.084003730240511 0 0 0 0 -384.06936514304834 -28.65292688315094 0 -28.65292688315094 69.359150811535073 0 0 0 0 -347.0244293918513 -10.79408587445505 0 -10.79408587445505 74.498793646373088 0 0 0 0 -358.82596959141665 -20.263757298154815 0 -20.263757298154815 64.766862989141373 0 0 0 0 -393.14461990672862 -28.144470304672723 0 -28.144470304672723 80.821497239783639 0 0 0 0 -405.66671436534671 -20.176293647906277 0 -20.176293647906277 83.679870215113624 0 0 0 0 -495.13163187222381 -338.08878628620369 0 -338.08878628620369 -55.857357757393402 0 0 0 0 -21.521432197792279 -24.751445270144529 0 -24.751445270144529 32.853656191740441 0 0 0 0 -298.31812647425249 -28.058388004883454 0 -28.058388004883454 77.737164495512843 0 0 0 0 -329.6139558506693 -7.6428572392251226 0 -7.6428572392251226 64.62828502067714 0 0 0 0 -319.73278041933372 -8.6391965373622952 0 -8.6391965373622952 62.182500524591887 0 0 0 0 -320.29646904653055 -12.425075122795533 0 -12.425075122795533 54.790427314794215 0 0 0 0 -320.04504227394682 -13.745518642555908 0 -13.745518642555908 77.644770583050558 0 0 0 0 -316.31251711421646 -3.85256443182152 0 -3.85256443182152 68.004935976874549 0 0 0 0 -346.45240681465657 -13.399747902207309 0 -13.399747902207309 72.454777215840295 0 0 0 0 -323.16745719537721 -0.11360380546830129 0 -0.11360380546830129 78.145707571849925 0 0 0 0 -353.65006225977777 -11.643061664282868 0 -11.643061664282868 92.972257383022225 0 0 0 0 -364.01480650025769 -8.7716636950499378 0 -8.7716636950499378 117.82652123594016 0 0 0 0 -317.97444554598769 9.1298769713175716 0 9.1298769713175716 103.97115595461219 0 0 0 0 -304.83244617849414 -15.070349904388422 0 -15.070349904388422 87.281622645736206 0 0 0 0 -299.98486806784058 -4.1261659841256915 0 -4.1261659841256915 89.818924367893487 0 0 0 0 -299.12240200839005 -4.6161855683021713 0 -4.6161855683021713 80.973377826543583 0 0 0 0 -265.53441160069633 -56.769422283388849 0 -56.769422283388849 98.258964287233539 0 0 0 0 -264.8770145112212 -19.62832200723642 0 -19.62832200723642 95.460560498642735 0 0 0 0 -305.28605611292005 -10.784944732382428 0 -10.784944732382428 100.10164769302355 0 0 0 0 -31.937861895828974 77.794568466415512 0 77.794568466415512 154.59138694444118 0 0 0 0 -266.21414207860653 57.270584411438904 0 57.270584411438904 170.57858514475811 0 0 0 0 -91.04204722103259 -33.785936225515798 0 -33.785936225515798 104.4505956855719 0 0 0 0 -201.47040436453244 -96.324114320981607 0 -96.324114320981607 120.54358341911575 0 0 0 0 -261.86868505985331 -10.642102501504269 0 -10.642102501504269 121.16581055693678 0 0 0 0 -312.52070790460857 22.870247287286475 0 22.870247287286475 134.23587254833546 0 0 0 0 -314.24820246433956 -31.612923311433406 0 -31.612923311433406 146.8897069833165 0 0 0 0 -372.04180650407579 19.877365191507124 0 19.877365191507124 171.41292208537925 0 0 0 0 -466.21152733136842 -48.681963706818351 0 -48.681963706818351 146.61700195232697 0 0 0 0 -461.31368363582806 -53.461897107332334 0 -53.461897107332334 116.48599055493833 0 0 0 0 -500.84989334261627 -66.198318313916388 0 -66.198318313916388 125.10495685191563 0 0 0 0 -551.93497327368095 -83.692044614144834 0 -83.692044614144834 171.34316291985306 0 0 0 0 -503.21345787364407 -92.148935552933835 0 -92.148935552933835 153.1000912167583 0 0 0 0 -656.79689211519894 -99.470255340763345 0 -99.470255340763345 227.47588833152258 0 0 0 0 -635.36718869153265 -166.90055071358438 0 -166.90055071358438 189.06983069759735 0 0 0 0 -523.25976029344019 -44.441542500040669 0 -44.441542500040669 218.14359155877901 0 0 0 0 -313.93524026693194 35.189368384395493 0 35.189368384395493 193.55713587359787 0 0 0 0 -678.08537687095668 2.4507812346928404 0 2.4507812346928404 295.79828238245682 0 0 0 0 -319.83445152302556 50.218954099504117 0 50.218954099504117 231.37733682399266 0 0 0 0 -103.60015999614234 -21.618538568313056 0 -21.618538568313056 -32.162732956581749 0 0 0 0 -442.75441568133829 -329.70211799052777 0 -329.70211799052777 -201.68225668389641 0 0 0 0 -588.92268434488506 -312.77835899940692 0 -312.77835899940692 -62.77165676408913 0 0 0 0 -360.22454607773398 -250.70131261879578 0 -250.70131261879578 -220.32714151333494 0 0 0 0 -422.97638871432719 -159.72162181742169 0 -159.72162181742169 -78.209048875869485 0 0 0 0 -459.76076870247925 -202.10830622087087 0 -202.10830622087087 -57.341704356658738 0 0 0 0 -486.12892684851249 -231.64859971441911 0 -231.64859971441911 -90.331655318586854 0 0 0 0 -481.05207660510496 -122.63430498496746 0 -122.63430498496746 25.119124374250532 0 0 0 0 -518.31303226664022 -144.8177996274062 0 -144.8177996274062 44.765689243737143 0 0 0 0 -530.57906847694539 -181.72205184836639 0 -181.72205184836639 16.002609304821817 0 0 0 0 -538.95754795445828 -176.08897735350183 0 -176.08897735350183 12.262353744994471 0 0 0 0 -499.86858620940939 -92.160158648396646 0 -92.160158648396646 81.916310269705718 0 0 0 0 -538.27322446198377 -137.52040394427604 0 -137.52040394427604 68.666369659698375 0 0 0 0 -525.91553029570787 -102.94237156234885 0 -102.94237156234885 122.90945470279257 0 0 0 0 -611.04873024598055 -234.5886212548794 0 -234.5886212548794 46.058606415579561 0 0 0 0 -565.3847604403727 -151.74268032885539 0 -151.74268032885539 88.783251938642934 0 0 0 0 -588.38206503557012 -169.95283557139192 0 -169.95283557139192 160.6245915255422 0 0 0 0 -577.06332468347682 -249.2606222001632 0 -249.2606222001632 17.172161164184217 0 0 0 0 -554.31629282479116 -226.14356979481818 0 -226.14356979481818 -18.172522043008939 0 0 0 0 -574.93833498003369 -198.18130638654111 0 -198.18130638654111 76.875600484883762 0 0 0 0 -569.87302677058688 -246.56801045831526 0 -246.56801045831526 18.030268977745436 0 0 0 0 -721.73519234095875 -324.05358311658347 0 -324.05358311658347 104.94096780492691 0 0 0 0 -654.80232115294768 -221.35384457476709 0 -221.35384457476709 134.6427549758082 0 0 0 0 -674.54358868410782 -247.31840117582033 0 -247.31840117582033 222.4945551433193 0 0 0 0 -778.12956166845834 -239.96682502617477 0 -239.96682502617477 221.9789982233824 0 0 0 0 21.333638562316466 -58.196495667795645 0 -58.196495667795645 79.625810649623389 0 0 0 0 -65.527619182674243 -251.62706031058224 0 -251.62706031058224 -42.370702857875585 0 0 0 0 -553.19471131298633 -170.62793979927665 0 -170.62793979927665 389.76640698964184 0 0 0 0 -19.233390756016718 -11.177731478590545 0 -11.177731478590545 2.7272821049009792 0 0 0 0 -598.19344591635308 -412.34234055587149 0 -412.34234055587149 -95.967685994670319 0 0 0 0 -141.36640738730785 -27.824021104061103 0 -27.824021104061103 -82.437159494256775 0 0 0 0 184.66304496935845 4.0047811372132855 0 4.0047811372132855 -202.02861251823197 0 0 0 0 303.77357881080206 -100.59748269268675 0 -100.59748269268675 -214.41069589343533 0 0 0 0 -485.23181349556762 -272.06459083498339 0 -272.06459083498339 -288.9406160849976 0 0 0 0 -1134.0679860815362 -689.76738455687882 0 -689.76738455687882 -81.719327346805585 0 0 0 0 -359.51803671363086 -565.30126201426174 0 -565.30126201426174 -4.2791008031090314 0 0 0 0 44.862771560999114 -67.538560413485158 0 -67.538560413485158 100.28424159054457 0 0 0 0 269.99047883639651 -559.17573033783992 0 -559.17573033783992 -159.03219260389778 0 0 0 0 383.92130281203208 8.9950838456352358 0 8.9950838456352358 -84.524348968978302 0 0 0 0 160.43088130941942 40.499924740086499 0 40.499924740086499 37.680478917114669 0 0 0 0 226.7968800252097 14.145159816303476 0 14.145159816303476 43.191614754156035 0 0 0 0 246.48369621370148 -89.12926833395295 0 -89.12926833395295 -151.4280884220716 0 0 0 0 140.35066511903841 -114.34332718321761 0 -114.34332718321761 -8.5646910229261266 0 0 0 0 140.63719571605287 -204.80721417915791 0 -204.80721417915791 -93.97210775923304 0 0 0 0 -708.37360096134216 -140.6594449146869 0 -140.6594449146869 376.08686375792604 0 0 0 0 -353.90152502534329 154.70469918298477 0 154.70469918298477 305.00928811086487 0 0 0 0 -643.90070275667676 -180.84498398191863 0 -180.84498398191863 8.578898781677708 0 0 0 0 -738.10818153624132 -91.081846378739101 0 -91.081846378739101 134.65116742708051 0 0 0 0 -897.95771996375697 -362.73183931009407 0 -362.73183931009407 87.723372545200618 0 0 0 0 -749.45497959102795 -538.89109858205848 0 -538.89109858205848 -259.25032345070576 0 0 0 0 -1159.08453905851 -279.65579491329777 0 -279.65579491329777 168.9445033291413 0 0 0 0 -955.32674098391362 -155.28956849437964 0 -155.28956849437964 61.163465671794256 0 0 0 0 -235.05475567568647 1.8541998500913905 0 1.8541998500913905 275.72106854274898 0 0 0 0 -963.90453876805987 -410.78475210690158 0 -410.78475210690158 550.14649715309497 0 0 0 0 -530.29127117252392 -441.9022849935227 0 -441.9022849935227 287.38706563075903 0 0 0 0 48.542737682562901 -75.453487416393585 0 -75.453487416393585 107.62820307417988 0 0 0 0 -1725.2801673107315 -970.68836962038768 0 -970.68836962038768 144.13812264788248 0 0 0 0 97.672680845631476 39.754668821965424 0 39.754668821965424 -39.066011898865327 0 0 0 0 -768.51467294083341 -355.51270898227085 0 -355.51270898227085 -288.72606120099226 0 0 0 0 -759.69307018219115 -1711.1573146473165 0 -1711.1573146473165 -296.86496734280178 0 0 0 0 443.30957007980078 -216.46186471962915 0 -216.46186471962915 248.3898776754686 0 0 0 0 432.20732356816649 -419.57369604784202 0 -419.57369604784202 488.76769955824784 0 0 0 0 228.04541242093546 102.1896523396972 0 102.1896523396972 50.036296038868386 0 0 0 0 10.520457635091148 -6.0075640677117406 0 -6.0075640677117406 -0.93432365796587646 0 0 0 0 -123.79613394088483 119.8140454288241 0 119.8140454288241 165.57496217665175 0 0 0 0 -122.98760300225695 59.5235002453569 0 59.5235002453569 685.450888631005 0 0 0 0 948.54201324310998 -525.46764595763761 0 -525.46764595763761 -353.28726758592165 0 0 0 0 284.01862677284907 -242.75542033152817 0 -242.75542033152817 378.12002534097701 0 0 0 0 306.69094873365248 -57.763170875254218 0 -57.763170875254218 199.1491414985494 0 0 0 0 -84.485783641896887 -24.49745902449331 0 -24.49745902449331 54.646469482648172 0 0 0 0 -7.0488497527006118 -3.02952248288954 0 -3.02952248288954 10.519777119252041 0 0 0 0 -226.53207411411506 49.841031692478509 0 49.841031692478509 139.40542690159782 0 0 0 0 -290.09567512640547 35.597707262840231 0 35.597707262840231 136.97355317143592 0 0 0 0 -196.69201338555627 113.86154273390707 0 113.86154273390707 -156.99411577799401 0 0 0 0 -200.70230027411526 -157.21103483790466 0 -157.21103483790466 148.49732489495364 0 0 0 0 -51.045553103920916 -29.872880937013608 0 -29.872880937013608 -7.714843981341982 0 0 0 0 -143.92032230947734 -140.49243788404783 0 -140.49243788404783 10.441190935594932 0 0 0 0 -275.23641039502581 68.850453670915158 0 68.850453670915158 449.15683496508154 0 0 0 0 -12.649178952778692 -49.657958735260038 0 -49.657958735260038 -11.487927988159143 0 0 0 0 6.7404065048031043 -2.0334212541762469 0 -2.0334212541762469 -1.3792850491910116 0 0 0 0 -298.72922807876375 385.98995927102487 0 385.98995927102487 664.76879635168007 0 0 0 0 41.890255082293152 -367.86241315391271 0 -367.86241315391271 -697.4632195446211 0 0 0 0 -260.25112196952887 -122.87198289559274 0 -122.87198289559274 395.73929899145151 0 0 0 0 -289.14547006015869 -37.564913709694338 0 -37.564913709694338 303.50375899345454 0 0 0 0 -244.74035464938061 9.4656779628821823 0 9.4656779628821823 121.51047726165416 0 0 0 0 -221.60169465182662 10.134789513695068 0 10.134789513695068 295.86548972149149 0 0 0 0 -250.35977875805202 -302.64869293661832 0 -302.64869293661832 -209.48775269892303 0 0 0 0 -51.743047668996041 -180.81694343557683 0 -180.81694343557683 -391.53213575640257 0 0 0 0 -40.676255750740893 -320.54882512040058 0 -320.54882512040058 -365.11325889448199 0 0 0 0 -151.12335966178034 -210.9287759855506 0 -210.9287759855506 1.5534528041216618 0 0 0 0 -190.51438033262116 -344.0441345468937 0 -344.0441345468937 -260.72199037189421 0 0 0 0 -4.6936743493442492 -49.261442122981421 0 -49.261442122981421 -19.445718127674922 0 0 0 0 -50.030183860970737 -269.37537011383392 0 -269.37537011383392 329.70456659402407 0 0 0 0 1754.3517317819947 -514.34276608475921 0 -514.34276608475921 89.850698281985387 0 0 0 0 120.59464642978401 41.426397002869635 0 41.426397002869635 756.35248560948639 0 0 0 0 271.97608800713726 -587.41624982241774 0 -587.41624982241774 416.94394678334356 0 0 0 0 914.11900821820973 -169.39507941162992 0 -169.39507941162992 -300.52196375319909 0 0 0 0 -395.36432610389193 -113.53576737358344 0 -113.53576737358344 270.52758297106629 0 0 0 0 -440.03811162407851 -495.92554715752703 0 -495.92554715752703 -0.15485335926859989 0 0 0 0 -246.63062778116569 -54.322920245176647 0 -54.322920245176647 145.72794046769923 0 0 0 0 12.087617680951496 -7.0716610019289732 0 -7.0716610019289732 1.9648171559549468 0 0 0 0 -256.76651052032355 -147.93358234437073 0 -147.93358234437073 352.73137210519781 0 0 0 0 -305.10542928141058 55.774186155298594 0 55.774186155298594 434.6133251121928 0 0 0 0 498.48560932982809 -109.52109243457198 0 -109.52109243457198 284.33614844638578 0 0 0 0 293.98090207682344 -539.07824777150563 0 -539.07824777150563 677.54871447058395 0 0 0 0 -65.777812334476721 144.24533831450299 0 144.24533831450299 611.84381838751142 0 0 0 0 93.205072819766883 -132.22502466240985 0 -132.22502466240985 305.42401931122731 0 0 0 0 -103.03129787462058 -26.881813849942773 0 -26.881813849942773 501.03306018103285 0 0 0 0 -29.583285976529623 178.48889946556119 0 178.48889946556119 196.41322699005195 0 0 0 0 -27.513756747163484 28.436126886370857 0 28.436126886370857 132.05536566123556 0 0 0 0 -33.95503782476036 -12.572755794988822 0 -12.572755794988822 -5.6521083612140401 0 0 0 0 -356.17647203197191 208.17150361908898 0 208.17150361908898 174.57105529410546 0 0 0 0 -204.61669364764518 309.78264784135899 0 309.78264784135899 -361.89056985153729 0 0 0 0 -116.75347262264245 -25.120960509928409 0 -25.120960509928409 -86.372424653083726 0 0 0 0 -663.99127365399454 -505.08025131533486 0 -505.08025131533486 199.86091311262317 0 0 0 0 315.41179014055069 -381.84060140582733 0 -381.84060140582733 -10.931455845118762 0 0 0 0 -118.90423250676395 22.14182542264507 0 22.14182542264507 527.02001172699238 0 0 0 0 -83.464035543087903 -215.76197300493368 0 -215.76197300493368 785.11860016319042 0 0 0 0 -1.657277963963951 -4.1701896111387562 0 -4.1701896111387562 -2.6921499078107516 0 0 0 0 431.19796001854047 -354.26133265760654 0 -354.26133265760654 510.40176277523278 0 0 0 0 146.16227606399502 -725.89602007668282 0 -725.89602007668282 789.49788476002141 0 0 0 0 475.70088308292907 -121.26454741007637 0 -121.26454741007637 -227.44033499967554 0 0 0 0 513.733358337558 -480.89887903432782 0 -480.89887903432782 423.49566904281528 0 0 0 0 -0.91194027740997008 -5.0533737403980297 0 -5.0533737403980297 -5.3149630943853055 0 0 0 0 530.50674649708753 -453.69174421971729 0 -453.69174421971729 376.54292533526677 0 0 0 0 443.34349656124959 -204.27589422845631 0 -204.27589422845631 178.75475208892385 0 0 0 0 446.80466609395171 -316.77909037404243 0 -316.77909037404243 301.80769825967218 0 0 0 0 19.891211667822063 -18.024297104750076 0 -18.024297104750076 10.376013756605971 0 0 0 0 16.900782939498708 -2.953504330424952 0 -2.953504330424952 7.1110123569008366 0 0 0 0 142.39894541009016 -540.18882040749304 0 -540.18882040749304 544.42720968739013 0 0 0 0 509.15155310325645 -315.67481540959852 0 -315.67481540959852 435.5924603681633 0 0 0 0 7.546707485635058 0.5128478792431892 0 0.5128478792431892 -3.518795119541096 0 0 0 0 28.987393613386665 -25.722178599611787 0 -25.722178599611787 2.6906509438718871 0 0 0 0 4.9637988762415262 -20.799860981607708 0 -20.799860981607708 11.843994999891947 0 0 0 0 78.365208027286371 -59.087142062255793 0 -59.087142062255793 -23.685178918385645 0 0 0 0 531.00712757965448 -529.81976080177446 0 -529.81976080177446 476.19218750881055 0 0 0 0 557.3467857980072 -513.88340613727996 0 -513.88340613727996 411.96628532839532 0 0 0 0 69.911594692403014 23.021230924452539 0 23.021230924452539 -169.32604463919961 0 0 0 0 40.703138594428637 19.645344357747927 0 19.645344357747927 6.1643598471647181 0 0 0 0 -2.9447176302855951 -7.1017034628730471 0 -7.1017034628730471 -102.89433531476971 0 0 0 0 161.38887298880218 -111.70092824709263 0 -111.70092824709263 -121.29739407779562 0 0 0 0 592.47653976931542 -220.13599593212894 0 -220.13599593212894 -114.32213066422628 0 0 0 0 -23.8615279468744 -37.872163858128602 0 -37.872163858128602 3.0743975318341086 0 0 0 0 70.31725775281302 -138.42653932152916 0 -138.42653932152916 17.334484247341607 0 0 0 0 18.758223631901274 -100.28777827255999 0 -100.28777827255999 51.882517065858337 0 0 0 0 31.389096015947871 -79.569583764547133 0 -79.569583764547133 -14.75940491296933 0 0 0 0 8.1884832978312261 -51.129654116490201 0 -51.129654116490201 5.7008540206443286 0 0 0 0 -33.974803027681901 -52.119316028081812 0 -52.119316028081812 -1.3455007942729935 0 0 0 0 -7.7370541295993096 -34.793611880054179 0 -34.793611880054179 -9.4064035333911384 0 0 0 0 75.585998128653955 -232.57326856589498 0 -232.57326856589498 337.62984373173822 0 0 0 0 1.3168915332705211 -7.8968304212096427 0 -7.8968304212096427 -4.9209153666667085 0 0 0 0 476.31008433676107 -71.577281133089855 0 -71.577281133089855 -31.140362646560789 0 0 0 0 293.22609258550801 -286.93550983007299 0 -286.93550983007299 103.07864548272028 0 0 0 0 161.76768209023066 196.16819443087661 0 196.16819443087661 204.34352277413018 0 0 0 0 -283.44234777949532 166.57620535951719 0 166.57620535951719 11.277208697092647 0 0 0 0 107.14672951144894 -83.569144545512245 0 -83.569144545512245 -79.640294856202672 0 0 0 0 244.95305553686194 27.743776713479747 0 27.743776713479747 -47.680050515637049 0 0 0 0 5.8674726723641335 4.2862972575900997 0 4.2862972575900997 4.623673573052784 0 0 0 0 165.24195616826364 138.94946345159769 0 138.94946345159769 -182.71698732578079 0 0 0 0 -20.703741863508185 514.9814206358169 0 514.9814206358169 -303.57515655014595 0 0 0 0 503.86084789253619 348.69277810234053 0 348.69277810234053 -262.92586438984017 0 0 0 0 -2.1948775476557536 -1.5343153855325653 0 -1.5343153855325653 1.6745870126323865 0 0 0 0 652.27053697187785 30.663241874113737 0 30.663241874113737 517.5345225314959 0 0 0 0 1000.8315668478494 -1123.0160159922889 0 -1123.0160159922889 1111.6927697455903 0 0 0 0 96.686320103276103 -548.73012625849697 0 -548.73012625849697 1238.5619555182129 0 0 0 0 23.424998041567719 11.640875267295755 0 11.640875267295755 6.0848239840060572 0 0 0 0 643.80618322822284 -867.15878455305028 0 -867.15878455305028 510.46449208183196 0 0 0 0 157.3466310574504 340.77237401538696 0 340.77237401538696 -408.54513463683179 0 0 0 0 7.1044693546009512 -80.881838516512289 0 -80.881838516512289 -255.94547213782789 0 0 0 0 23.963954651358975 -25.410429479356708 0 -25.410429479356708 22.088219187677169 0 0 0 0 -52.640233048294249 -63.612781559544601 0 -63.612781559544601 19.057424507250289 0 0 0 0 23.351677881943033 -92.356558054324523 0 -92.356558054324523 43.792384422885334 0 0 0 0 -14.727201870640783 -64.208143062349109 0 -64.208143062349109 -5.8185806503424828 0 0 0 0 1.3821078115453034 -19.724008364978328 0 -19.724008364978328 27.104038397719641 0 0 0 0 -12.700668563698969 -20.021363304826878 0 -20.021363304826878 -3.5055412318406525 0 0 0 0 -61.546326604019669 -78.600878907186143 0 -78.600878907186143 -67.675170560029528 0 0 0 0 -65.876659838864725 -84.407587681864243 0 -84.407587681864243 -19.646409051618775 0 0 0 0 5.4112537406477781 -8.6076813203686129 0 -8.6076813203686129 16.0735824683461 0 0 0 0 210.80788407764584 24.511545321641506 0 24.511545321641506 -56.072257369731233 0 0 0 0 -21.636796675533787 -56.249673987169444 0 -56.249673987169444 42.545735261702248 0 0 0 0 -4.5720544258933842 -74.857160552688583 0 -74.857160552688583 12.388289003940372 0 0 0 0 24.819487404120395 -31.124073965233947 0 -31.124073965233947 16.191413145897968 0 0 0 0 -84.715991977582519 -57.484735887245733 0 -57.484735887245733 47.463684897731582 0 0 0 0 -106.84084188343695 -91.392981598626648 0 -91.392981598626648 49.497898878909837 0 0 0 0 -81.703662098636869 -69.576331136440785 0 -69.576331136440785 57.013151442566596 0 0 0 0 -69.132714395190305 -32.859405057432014 0 -32.859405057432014 41.019639775045562 0 0 0 0 -176.63548572098534 -26.63284351475977 0 -26.63284351475977 41.818817158200545 0 0 0 0 -143.98844593610897 -71.57020176032438 0 -71.57020176032438 30.212033788127883 0 0 0 0 -349.08852631270236 103.08533487345676 0 103.08533487345676 1.3415904438006692 0 0 0 0 -162.72742236758677 -86.905033664237635 0 -86.905033664237635 52.791437046083047 0 0 0 0 -17.157864454669863 -123.14033839488741 0 -123.14033839488741 -24.617383157863514 0 0 0 0 -280.61676178219727 -210.65713416181097 0 -210.65713416181097 30.592620775483738 0 0 0 0 102.87935941320143 -221.15480640115402 0 -221.15480640115402 -69.482060012716829 0 0 0 0 -351.12341382959573 -27.29696068399744 0 -27.29696068399744 42.971956311013855 0 0 0 0 -1.5167348502271505 -0.96278370974631322 0 -0.96278370974631322 -0.20614241035615066 0 0 0 0 -401.95572178246266 -50.336130671144929 0 -50.336130671144929 75.621669221780394 0 0 0 0 92.762215439393458 -79.675629222474527 0 -79.675629222474527 17.114505312456458 0 0 0 0 24.736888446178909 -67.225946902752185 0 -67.225946902752185 39.074143162561086 0 0 0 0 -27.14955725860932 -23.123116534155997 0 -23.123116534155997 50.390777538454131 0 0 0 0 -0.89997462266514083 -10.579524888227548 0 -10.579524888227548 14.448701903559289 0 0 0 0 63.800901100320061 6.4460395659607457 0 6.4460395659607457 0.50052505186249618 0 0 0 0 -72.987031382596797 30.752687195963517 0 30.752687195963517 -5.2157586785324384 0 0 0 0 -34.388758588512246 -34.897621531517871 0 -34.897621531517871 9.6049625519008259 0 0 0 0 6.0447177359319912 -16.342860156549794 0 -16.342860156549794 12.992882253868792 0 0 0 0 97.926616445238324 -52.08422042876191 0 -52.08422042876191 17.869553532043938 0 0 0 0 8.4336058891154693 -9.5972068897611891 0 -9.5972068897611891 3.0707175987215081 0 0 0 0 57.753948795970928 -70.096007106953039 0 -70.096007106953039 44.459978819376374 0 0 0 0 -14.799678140427831 -26.796975108822046 0 -26.796975108822046 3.8576131579538497 0 0 0 0 -38.97571195335621 -48.816754979322468 0 -48.816754979322468 -6.4086758714765892 0 0 0 0 -47.845751681311114 -40.577668581780749 0 -40.577668581780749 23.1921025475649 0 0 0 0 -67.947674540178923 -35.03074139734963 0 -35.03074139734963 25.246384986396151 0 0 0 0 -15.768756411430786 -29.677659804079667 0 -29.677659804079667 25.795517485881646 0 0 0 0 -13.001993198840729 -17.03674679897469 0 -17.03674679897469 23.860795046346944 0 0 0 0 -44.475266303365061 -42.362938375121303 0 -42.362938375121303 5.9338189580084872 0 0 0 0 -27.833713473602621 -25.861412546576787 0 -25.861412546576787 10.752824051718438 0 0 0 0 -20.533707811111526 -53.554617057823634 0 -53.554617057823634 -15.717730595499233 0 0 0 0 -8.7856266252131121 -22.956733919170286 0 -22.956733919170286 13.328455412666194 0 0 0 0 -621.40351857529004 -124.18916426135729 0 -124.18916426135729 121.59982768076407 0 0 0 0 256.93234144812004 53.486074183532764 0 53.486074183532764 -79.898767809188939 0 0 0 0 229.74050289658388 -457.39280540348841 0 -457.39280540348841 -349.67995324610092 0 0 0 0 -481.37699609506069 -93.368724795011303 0 -93.368724795011303 63.856340590675245 0 0 0 0 -466.20721974426488 -208.5050554513291 0 -208.5050554513291 57.053852164513955 0 0 0 0 -332.43035549027354 -225.02523325501534 0 -225.02523325501534 59.086067518715936 0 0 0 0 -239.60986559814 -16.011781052544393 0 -16.011781052544393 52.099646795119043 0 0 0 0 -171.31874144951749 -112.23933889369982 0 -112.23933889369982 60.67213676292522 0 0 0 0 -45.427724108180428 -121.1757882509537 0 -121.1757882509537 40.58329282647901 0 0 0 0 -63.441329845188193 -85.440690531753717 0 -85.440690531753717 51.916049608431422 0 0 0 0 -39.053911907664769 -87.668799426211535 0 -87.668799426211535 33.162782636361953 0 0 0 0 -87.942117369428786 -88.953272441810213 0 -88.953272441810213 55.330442379949091 0 0 0 0 -84.547062925877981 -61.698205930493714 0 -61.698205930493714 49.631416347881895 0 0 0 0 -118.31978440342027 -57.894924936765165 0 -57.894924936765165 50.412087176737259 0 0 0 0 -122.26503404428524 -83.929126377939383 0 -83.929126377939383 55.379813949803065 0 0 0 0 -112.0253153293188 -100.37274034723305 0 -100.37274034723305 63.01988096007517 0 0 0 0 -137.70694777995732 -74.764665756720206 0 -74.764665756720206 56.970624892579508 0 0 0 0 -77.978411349462476 -55.109346685425407 0 -55.109346685425407 48.281330977519247 0 0 0 0 -93.998157879509108 -38.939631951277988 0 -38.939631951277988 66.870954950245505 0 0 0 0 -41.152846010124222 -21.177201768987288 0 -21.177201768987288 22.337933962076931 0 0 0 0 4.2573774921916083 -53.239664574040944 0 -53.239664574040944 8.9256443821013818 0 0 0 0 15.588367858218447 -60.729145264401268 0 -60.729145264401268 29.133652009313664 0 0 0 0 32.789277643807395 -30.255050662020949 0 -30.255050662020949 14.435430354038544 0 0 0 0 -103.55504086627434 57.827256415468582 0 57.827256415468582 4.9073134053651302 0 0 0 0 -203.91563916636915 -51.805232959501154 0 -51.805232959501154 86.863045195073937 0 0 0 0 -163.91210153541999 -45.280124803430681 0 -45.280124803430681 68.977562897292955 0 0 0 0 -322.43805409936249 73.333559768954728 0 73.333559768954728 17.714249173805001 0 0 0 0 -2.8946933806679676 -1.8402793756420479 0 -1.8402793756420479 -1.0089383528090963 0 0 0 0 71.937528775943065 19.525983266663388 0 19.525983266663388 -77.72043733591272 0 0 0 0 -47.570535005742528 -35.274409277702979 0 -35.274409277702979 16.408128005132273 0 0 0 0 92.332128322452263 -14.946726436308381 0 -14.946726436308381 -98.032341553898732 0 0 0 0 -15.248900110232171 -84.452744963897658 0 -84.452744963897658 -64.02306521157152 0 0 0 0 139.3953958811353 -68.349567599751026 0 -68.349567599751026 -58.745612756640185 0 0 0 0 -31.186466749086062 -44.408528339586894 0 -44.408528339586894 -23.100021587771579 0 0 0 0 1.4481849035696541 -35.078179192379139 0 -35.078179192379139 14.01228887817706 0 0 0 0 -26.87108067151803 -35.9586249965364 0 -35.9586249965364 -10.523202532378491 0 0 0 0 -156.97892153465364 -122.17211412529286 0 -122.17211412529286 -10.694731178857182 0 0 0 0 -94.247230043685704 -70.86896598990279 0 -70.86896598990279 -28.491457790152708 0 0 0 0 -67.685886585957633 -43.014848824899673 0 -43.014848824899673 8.4465640739072114 0 0 0 0 -16.722573246377578 -63.639105486297922 0 -63.639105486297922 10.393960232711834 0 0 0 0 -30.229741641662258 -9.8170604376427946 0 -9.8170604376427946 2.3908001166855684 0 0 0 0 -52.812456447856675 -34.2183694427913 0 -34.2183694427913 5.8659100338518328 0 0 0 0 -69.937049321586528 -54.398784827671989 0 -54.398784827671989 6.9744633823953563 0 0 0 0 -11.093992121173759 -14.117398373925667 0 -14.117398373925667 24.424069931203135 0 0 0 0 -28.064302691558687 -32.52120662770534 0 -32.52120662770534 3.4647899261975823 0 0 0 0 2.5066359609165705 -14.27948657178289 0 -14.27948657178289 2.8211513014100973 0 0 0 0 65.059045951404187 -70.398576512701766 0 -70.398576512701766 32.505494276045283 0 0 0 0 10.295199374107966 -37.588931674595642 0 -37.588931674595642 40.047040553301485 0 0 0 0 -6.4502970711376406 -10.122034344422097 0 -10.122034344422097 10.433197294835622 0 0 0 0 -26.367667051866647 -45.213095598169275 0 -45.213095598169275 17.788794903535745 0 0 0 0 -2.078201957672718 -27.16068830727454 0 -27.16068830727454 15.274022606274229 0 0 0 0 -35.671931365754716 -29.857245779480138 0 -29.857245779480138 -7.5327959727181621 0 0 0 0 -27.206322871788871 -75.624904672466073 0 -75.624904672466073 52.017691166431177 0 0 0 0 -11.03284501637804 -13.466826603682378 0 -13.466826603682378 -1.5784180717675156 0 0 0 0 8.9655181904672645 -124.45371560489002 0 -124.45371560489002 33.132624467754795 0 0 0 0 -204.73103967493807 -59.119747384393122 0 -59.119747384393122 47.628017030532646 0 0 0 0 15.595635414523713 164.47724390555231 0 164.47724390555231 81.039692353806458 0 0 0 0 -41.204125259731882 -103.93069265576923 0 -103.93069265576923 156.54148819284455 0 0 0 0 120.03607209930487 -110.64865079663286 0 -110.64865079663286 -8.5305713971647492 0 0 0 0 -232.83834613769432 -165.25017013822799 0 -165.25017013822799 75.027824644608813 0 0 0 0 -46.679567890547332 -122.46861105175412 0 -122.46861105175412 -90.05731198463036 0 0 0 0 -3.6649333846923611 -8.4803720849031947 0 -8.4803720849031947 -5.5432846548360288 0 0 0 0 -40.388740518665145 -63.175783940776455 0 -63.175783940776455 108.62452000208941 0 0 0 0 -38.549180833779246 -46.66908456731835 0 -46.66908456731835 73.390288587201212 0 0 0 0 -5.5307963465893408 -56.18616333452519 0 -56.18616333452519 56.015616975077137 0 0 0 0 -85.999370930861915 -40.148108289096854 0 -40.148108289096854 22.341340623308497 0 0 0 0 -80.969971551639901 -26.317936586870928 0 -26.317936586870928 28.229943100493983 0 0 0 0 -50.162675045372453 -67.069031314711538 0 -67.069031314711538 19.157724536591559 0 0 0 0 -34.537350439440573 -17.554190707592046 0 -17.554190707592046 39.142819550035654 0 0 0 0 -36.543415449959127 -32.753183421043687 0 -32.753183421043687 31.550427585647014 0 0 0 0 6.4307830041725538 0.79719800741440849 0 0.79719800741440849 52.110871822849731 0 0 0 0 3.4698389776431213 -43.038700872645904 0 -43.038700872645904 -65.081023423641454 0 0 0 0 -11.553667633344872 -22.284108235762101 0 -22.284108235762101 44.000715354759478 0 0 0 0 -9.1434682559920475 -64.585121816853643 0 -64.585121816853643 -116.37942458148609 0 0 0 0 -11.531989175058698 -13.454881334733727 0 -13.454881334733727 -60.119990659906762 0 0 0 0 -3.5937248609439862 -18.725914044272148 0 -18.725914044272148 19.65255737085684 0 0 0 0 -9.3379473671375308 -29.144231891637901 0 -29.144231891637901 52.057336164871231 0 0 0 0 -3.0391563532654544 -0.45003834193477132 0 -0.45003834193477132 6.7410145085744233 0 0 0 0 -14.099222599084897 -64.333277518526302 0 -64.333277518526302 -59.898570045028862 0 0 0 0 -5.4007344315017605 -1.5654268200000843 0 -1.5654268200000843 14.425741051920426 0 0 0 0 -4.8085163652082059 -5.8045203192938715 0 -5.8045203192938715 2.1321566167699189 0 0 0 0 -293.96616188555345 9.3176511856290745 0 9.3176511856290745 72.645348657049908 0 0 0 0 -161.12141712086122 -47.013219656493675 0 -47.013219656493675 123.13364131358685 0 0 0 0 -97.156712170675746 21.120072444886318 0 21.120072444886318 9.8188817944610491 0 0 0 0 -34.185302171987132 -47.697526942138211 0 -47.697526942138211 13.542846533190186 0 0 0 0 5.6013995350949699 -20.879836075873754 0 -20.879836075873754 -14.005231175891822 0 0 0 0 -12.849833550775653 -46.417974635979817 0 -46.417974635979817 -17.102998849832986 0 0 0 0 -4.8090559176608707 -0.3251073573730423 0 -0.3251073573730423 9.3685391261269331 0 0 0 0 -35.40784498101857 -38.283129832299892 0 -38.283129832299892 9.4461872652391321 0 0 0 0 -76.468688444294457 -120.35742580322039 0 -120.35742580322039 113.72241758498421 0 0 0 0 -17.14509488234944 -68.670761376662995 0 -68.670761376662995 7.8950983391259797 0 0 0 0 -46.983674299273744 -39.217200539631719 0 -39.217200539631719 -16.233587163272915 0 0 0 0 -53.489931009044085 -47.25389223043021 0 -47.25389223043021 -2.460523003799608 0 0 0 0 -16.49522821986983 -41.940432819747116 0 -41.940432819747116 -5.1241163811428123 0 0 0 0 1.9252928788430381 -191.43496938594672 0 -191.43496938594672 50.943847561109578 0 0 0 0 -7.9086377134372015 -67.262112734679249 0 -67.262112734679249 11.999627201954354 0 0 0 0 -10.671586962253059 -60.127896457295719 0 -60.127896457295719 23.780650511827844 0 0 0 0 -25.593982235892362 -37.144402677066267 0 -37.144402677066267 -27.860896169841325 0 0 0 0 34.051956004134809 -54.713857152492892 0 -54.713857152492892 -27.783401298838726 0 0 0 0 -4.4063985106531618 -153.85267736152855 0 -153.85267736152855 -243.8778392852837 0 0 0 0 -23.183118298809859 -5.9887838470313 0 -5.9887838470313 29.316513156867586 0 0 0 0 -166.21700919858085 -111.32503398782137 0 -111.32503398782137 -38.163311518041155 0 0 0 0 -39.496176213418948 46.766406344850111 0 46.766406344850111 -138.56455878970883 0 0 0 0 -239.28687708316647 -178.13152191962945 0 -178.13152191962945 -9.8722976632852806 0 0 0 0 16.679700152661098 -101.03084056937951 0 -101.03084056937951 -140.27271194283094 0 0 0 0 10.84465480750805 -87.995838334965811 0 -87.995838334965811 -155.35819223552608 0 0 0 0 0.6650593012891477 -76.288235943335167 0 -76.288235943335167 -147.66204092687985 0 0 0 0 -81.503016571012267 -108.24594358156173 0 -108.24594358156173 -134.56811914403806 0 0 0 0 67.746158984984504 -78.384273489704356 0 -78.384273489704356 -153.13922172218918 0 0 0 0 -2.479194637387991 -160.80414220693638 0 -160.80414220693638 -168.05119034288964 0 0 0 0 -17.448721136242057 -27.36992202005149 0 -27.36992202005149 17.750511448815814 0 0 0 0 5.6853394642748754 -188.59886657562674 0 -188.59886657562674 -73.463313240630669 0 0 0 0 0.62506045971181834 -16.254186962874712 0 -16.254186962874712 23.428521678431252 0 0 0 0 29.777175714669283 -66.206489406293258 0 -66.206489406293258 -37.282093190180603 0 0 0 0 -12.239455850802187 -151.4404112226548 0 -151.4404112226548 -142.05986734891485 0 0 0 0 -0.25664637768733911 -2.0341317659519689 0 -2.0341317659519689 -3.3224124435067779 0 0 0 0 -70.736528948611522 -155.63148846358672 0 -155.63148846358672 -129.0735268239514 0 0 0 0 587.22516667460695 -465.23365662194192 0 -465.23365662194192 3.2038012428738512 0 0 0 0 -42.156371819389868 -34.30734600502182 0 -34.30734600502182 -5.8317523483860327 0 0 0 0 286.98016717993778 -191.40245430838331 0 -191.40245430838331 551.0442530415603 0 0 0 0 -72.00380494703677 -385.65538377496068 0 -385.65538377496068 517.40788895259902 0 0 0 0 9.5603693807420242 -2.6099222080721347 0 -2.6099222080721347 -2.1981657624858855 0 0 0 0 635.98229430835636 -123.04671586426412 0 -123.04671586426412 -479.16413607240429 0 0 0 0 235.10014298832721 139.89397950001876 0 139.89397950001876 -300.57825122923532 0 0 0 0 378.85459240858472 39.724876575088274 0 39.724876575088274 -236.85855204774271 0 0 0 0 352.24418891582536 -190.65338422267087 0 -190.65338422267087 -92.619076131326437 0 0 0 0 356.40739515149005 -169.46645706503682 0 -169.46645706503682 -63.265937538686558 0 0 0 0 -43.845145317792898 -37.399196928565274 0 -37.399196928565274 -10.16526650576391 0 0 0 0 -34.03578139225791 -46.740781502323799 0 -46.740781502323799 -6.1732162317130133 0 0 0 0 297.11342192596931 -127.76602702965829 0 -127.76602702965829 -45.503366462453414 0 0 0 0 -35.476939399196908 -49.397308008437903 0 -49.397308008437903 -9.0284084102022462 0 0 0 0 -8.538988734375069 -38.43340618236882 0 -38.43340618236882 -13.861045654131203 0 0 0 0 -21.873331109060018 -48.060636339374469 0 -48.060636339374469 -8.2229333938594209 0 0 0 0 -33.28863427267197 -44.51079917899915 0 -44.51079917899915 -8.9904903124843258 0 0 0 0 -29.620522702523544 -48.541353272976266 0 -48.541353272976266 -17.474940715375851 0 0 0 0 -18.458067085775276 -38.053558660385391 0 -38.053558660385391 -4.0174124636716044 0 0 0 0 -46.190498519055836 -47.01253698792425 0 -47.01253698792425 -6.4721242443483789 0 0 0 0 -24.948924355727343 -40.767275417110795 0 -40.767275417110795 -10.674379583771497 0 0 0 0 -31.227123199338394 -33.045680864232963 0 -33.045680864232963 20.730568439474155 0 0 0 0 -17.992105934910377 -8.0443752485005433 0 -8.0443752485005433 -2.7504784143537933 0 0 0 0 -14.439591320784189 -35.911000033909204 0 -35.911000033909204 -6.5068070312584325 0 0 0 0 30.740371897889418 -29.139982845183113 0 -29.139982845183113 -1.8225260504113976 0 0 0 0 111.5737298277636 -85.603871065981366 0 -85.603871065981366 -107.56082257055095 0 0 0 0 -14.657642503980453 -20.996707109458299 0 -20.996707109458299 -12.030333861287986 0 0 0 0 -2.9139590283957659 -19.37394265621333 0 -19.37394265621333 13.549443279276602 0 0 0 0 -1.2647152984711738 -11.681102602015017 0 -11.681102602015017 17.174620094745478 0 0 0 0 -24.689319532702939 -39.857640498928959 0 -39.857640498928959 -215.5752233928506 0 0 0 0 30.90081436907758 -18.724762309122525 0 -18.724762309122525 -26.732610678918718 0 0 0 0 7.440572480553783 21.076213568660023 0 21.076213568660023 -100.06181178278348 0 0 0 0 -3.9222287164629961 23.678987672421499 0 23.678987672421499 -26.715337738994947 0 0 0 0 -6.7712570872805173 -2.5119341141974161 0 -2.5119341141974161 -0.036976069892233454 0 0 0 0 -23.302728647140611 26.930029893803294 0 26.930029893803294 30.477832806427614 0 0 0 0 619.41823202890191 -440.44267648474488 0 -440.44267648474488 -55.068399666219193 0 0 0 0 507.73133611783487 -755.8865746506126 0 -755.8865746506126 366.39579963190045 0 0 0 0 949.96466585110829 -601.64637920241876 0 -601.64637920241876 -1.0435833144001663 0 0 0 0 247.00889063477553 -597.33389342478768 0 -597.33389342478768 277.32849988441012 0 0 0 0 -41.786917797899584 -33.270755856741104 0 -33.270755856741104 -2.4076414881541837 0 0 0 0 -546.5250195724002 -544.45584609067009 0 -544.45584609067009 120.26317677873885 0 0 0 0 416.16453843588988 -300.80790998543307 0 -300.80790998543307 174.09598786771676 0 0 0 0 418.40705025669195 -377.09860699620913 0 -377.09860699620913 27.139231258370273 0 0 0 0 -51.534671015009735 190.88124558335403 0 190.88124558335403 56.651408545440063 0 0 0 0 -82.354982539945922 -160.06244440987939 0 -160.06244440987939 -256.40411387336644 0 0 0 0 -1634.0679025108147 334.98917515373614 0 334.98917515373614 515.86441439431655 0 0 0 0 -174.7247347234952 -246.50517543340538 0 -246.50517543340538 -193.97461503051454 0 0 0 0 98.459421188584201 -18.562060665241006 0 -18.562060665241006 6.4530313598224893 0 0 0 0 -204.75303656905908 -75.179425100053777 0 -75.179425100053777 46.669472796129412 0 0 0 0 -41.543627018758343 -29.652408099362219 0 -29.652408099362219 54.405029221914447 0 0 0 0 -94.690694142293069 -31.845097656128928 0 -31.845097656128928 63.667110688693356 0 0 0 0 -62.718630556769767 -86.228134021288497 0 -86.228134021288497 12.950532870963798 0 0 0 0 -58.885729290348991 -64.555728043018462 0 -64.555728043018462 10.547507541530649 0 0 0 0 -77.959629057861093 -96.157803231486469 0 -96.157803231486469 -30.86384870398615 0 0 0 0 -119.79232898676855 -156.1289811533934 0 -156.1289811533934 -45.375164955272339 0 0 0 0 -32.142762486524589 -74.663494373045978 0 -74.663494373045978 -111.20318159021554 0 0 0 0 -7.2880504840704816 -44.493077727063792 0 -44.493077727063792 -27.342948859585249 0 0 0 0 -18.061667209283769 -77.398910302756121 0 -77.398910302756121 -127.36913997358351 0 0 0 0 12.634361548076413 -26.655103949360637 0 -26.655103949360637 15.694203010425554 0 0 0 0 -2.4311233566395458 -64.556126966097509 0 -64.556126966097509 -55.388945411621535 0 0 0 0 38.389964016771955 0.21595408212897382 0 0.21595408212897382 10.519808668177575 0 0 0 0 -4.8721537246095608 -29.953074347907396 0 -29.953074347907396 10.598356603542072 0 0 0 0 49.191429476855319 -41.603631308407785 0 -41.603631308407785 -17.736400777928793 0 0 0 0 -21.926217646669102 -73.532554661385802 0 -73.532554661385802 19.044242693115393 0 0 0 0 -25.509360221947645 -55.658136243062472 0 -55.658136243062472 37.641992020573525 0 0 0 0 -24.531085253669517 -63.230706979637034 0 -63.230706979637034 57.318643849270302 0 0 0 0 0.14095385065365917 -56.618680291980127 0 -56.618680291980127 31.254027179216791 0 0 0 0 -1.2189785368968842 -35.765995480257061 0 -35.765995480257061 65.724400229220919 0 0 0 0 -14.335296757521945 -29.56866665120863 0 -29.56866665120863 30.313810610341363 0 0 0 0 -14.124692138431499 -19.588144124337632 0 -19.588144124337632 -2.278054046180074 0 0 0 0 13.086794890762008 -49.29054763834462 0 -49.29054763834462 -12.521110733507747 0 0 0 0 5.7165561237525253 -66.886552807893167 0 -66.886552807893167 69.832509519121231 0 0 0 0 -17.600106932837186 -30.78746143353213 0 -30.78746143353213 42.764757638643772 0 0 0 0 -0.45145710136330308 -35.250136201390433 0 -35.250136201390433 36.053872137534199 0 0 0 0 -27.994281125514952 -24.494546865696677 0 -24.494546865696677 2.8715843657098929 0 0 0 0 -18.53299476832035 -59.458876234319177 0 -59.458876234319177 55.422340231350972 0 0 0 0 -33.829416006919018 -45.328145976376618 0 -45.328145976376618 66.334397353195527 0 0 0 0 -33.112453987749177 -35.760393069718702 0 -35.760393069718702 42.824619839157094 0 0 0 0 -30.139625450940912 -40.791236218352424 0 -40.791236218352424 47.864680862226578 0 0 0 0 -31.954221586999211 -15.734116140015431 0 -15.734116140015431 15.646753214146884 0 0 0 0 -42.141691281848125 -27.768575432148282 0 -27.768575432148282 49.409545037327916 0 0 0 0 -56.079304330838568 -54.80391401295492 0 -54.80391401295492 48.309312645651517 0 0 0 0 -18.179590277764873 -48.693289984028524 0 -48.693289984028524 47.069046579883434 0 0 0 0 9.232615338438336 -14.549933468362724 0 -14.549933468362724 57.006586153336684 0 0 0 0 -9.5760650865552179 -7.2822906989310354 0 -7.2822906989310354 -4.7501685897887853 0 0 0 0 -35.509951143692888 -80.565803591254735 0 -80.565803591254735 103.62699316719227 0 0 0 0 20.550588176283782 -51.164236611719389 0 -51.164236611719389 70.802703629567986 0 0 0 0 16.417421628121929 -67.222384870213773 0 -67.222384870213773 85.358028097754868 0 0 0 0 -34.80118364736154 -53.415753731425866 0 -53.415753731425866 106.82848221026507 0 0 0 0 -12.578647818128957 -5.5789886304955871 0 -5.5789886304955871 26.158670497814455 0 0 0 0 -16.067776382452394 -9.3306760672011251 0 -9.3306760672011251 -6.801198998548756 0 0 0 0 21.088234853008544 -38.119054782110652 0 -38.119054782110652 -9.9498019772363477 0 0 0 0 13.007567692267912 -65.721400556303706 0 -65.721400556303706 66.945348692726839 0 0 0 0 15.449769072998606 -59.616579745514173 0 -59.616579745514173 63.048544969264185 0 0 0 0 1.0018604126407098 -49.211505066603749 0 -49.211505066603749 -14.086364285884052 0 0 0 0 10.58232342242809 -58.770020331369778 0 -58.770020331369778 73.28956876846496 0 0 0 0 13.69749879862502 -71.43538839962639 0 -71.43538839962639 82.132369119590294 0 0 0 0 -7.098398725160223 -51.944346908883745 0 -51.944346908883745 73.811494785444665 0 0 0 0 -23.53724921558387 -70.828958086975035 0 -70.828958086975035 11.661291149614044 0 0 0 0 -10.640354056481925 -52.000020641218669 0 -52.000020641218669 -13.965721152707168 0 0 0 0 -12.198613053818917 -52.792195147538223 0 -52.792195147538223 87.769274272759503 0 0 0 0 -67.96982051037412 -102.37013373682203 0 -102.37013373682203 8.3855524396931287 0 0 0 0 -1.9678867949645706 0.171283822696914 0 0.171283822696914 2.3960276170885209 0 0 0 0 7.4818928238237277 -88.700174762241659 0 -88.700174762241659 10.191700237344776 0 0 0 0 39.433118500153796 -97.419466741286669 0 -97.419466741286669 -45.863179256331932 0 0 0 0 23.854534307720314 -104.8605302721262 0 -104.8605302721262 -20.622030470069149 0 0 0 0 30.931307185186597 -100.38426739779243 0 -100.38426739779243 -33.549887940520421 0 0 0 0 18.971179043583106 -54.885646731461748 0 -54.885646731461748 -34.803332422658059 0 0 0 0 9.3025608895113692 -70.614175685746886 0 -70.614175685746886 -5.2746133778273361 0 0 0 0 4.1852919046896204 -50.925990763552363 0 -50.925990763552363 -50.524006116189412 0 0 0 0 17.36397546545777 -48.28750706882056 0 -48.28750706882056 -68.4348810393858 0 0 0 0 25.598872393049533 -75.927259181517002 0 -75.927259181517002 -33.576983736587863 0 0 0 0 32.627213888874394 -85.567785008948704 0 -85.567785008948704 -47.011230322961637 0 0 0 0 51.342058451493358 -96.359158735100209 0 -96.359158735100209 -45.686405026499415 0 0 0 0 48.952049519473803 -93.606748312642594 0 -93.606748312642594 -43.554027188773034 0 0 0 0 58.568661754312416 -68.523522298868556 0 -68.523522298868556 -64.305971147230593 0 0 0 0 72.16214990156368 -116.94661201851522 0 -116.94661201851522 -25.963456528392271 0 0 0 0 88.871457097862731 -138.19639920408372 0 -138.19639920408372 -14.721603086756659 0 0 0 0 51.2623204890333 -108.22368984616696 0 -108.22368984616696 -0.011022170619980898 0 0 0 0 116.84457681728236 -68.106820811590296 0 -68.106820811590296 23.555074177013012 0 0 0 0 20.547369327156048 -84.688780515229155 0 -84.688780515229155 -16.42439850235678 0 0 0 0 40.668245508022665 -110.81548604225827 0 -110.81548604225827 -29.951606099602941 0 0 0 0 25.903430147652671 -102.25016419251369 0 -102.25016419251369 -34.242290572292404 0 0 0 0 23.52017256537647 -80.874638358518041 0 -80.874638358518041 -54.721100279428356 0 0 0 0 4.0474584833864355 -95.608635050759403 0 -95.608635050759403 -0.014759791665710509 0 0 0 0 -64.844722774716502 -50.086466687222128 0 -50.086466687222128 -26.631036776889232 0 0 0 0 -85.206827207068272 -76.15831015378717 0 -76.15831015378717 -0.086134447702019001 0 0 0 0 -1.7397676724326629 -37.25437780089942 0 -37.25437780089942 -62.357275596019463 0 0 0 0 -2.723717328190105 -39.168203414505115 0 -39.168203414505115 -51.59700460870954 0 0 0 0 -2.0520956728469173 -37.056879992440372 0 -37.056879992440372 -49.986275296716485 0 0 0 0 3.6846760680200532 -45.698417339212028 0 -45.698417339212028 -55.185270484100329 0 0 0 0 -0.78510582358285319 -37.954618011783168 0 -37.954618011783168 -50.696847529354272 0 0 0 0 4.8169773705885746 -61.352447136792762 0 -61.352447136792762 -113.08732626537676 0 0 0 0 -4.0648668285721214 14.552760529244551 0 14.552760529244551 -95.385113019869095 0 0 0 0 -70.598759280357626 -33.427171984105371 0 -33.427171984105371 161.78762745005588 0 0 0 0 -10.646291425891377 -9.2200123567981791 0 -9.2200123567981791 -55.381780905634514 0 0 0 0 -21.682125546234488 -28.609861388680855 0 -28.609861388680855 -8.0606411256425829 0 0 0 0 -7.0844191412560207 -4.4209072082940111 0 -4.4209072082940111 12.267874928508093 0 0 0 0 -8.7876033300424012 -29.084629987135358 0 -29.084629987135358 -9.9501631152743855 0 0 0 0 -7.7771156794624403 -65.106016356759937 0 -65.106016356759937 95.231709179497557 0 0 0 0 -33.617769464165434 -13.092589498941038 0 -13.092589498941038 6.452635084991968 0 0 0 0 -8.5773355981218629 -32.44681652624422 0 -32.44681652624422 -40.876748251524987 0 0 0 0 -14.590358062640007 -23.38292703472689 0 -23.38292703472689 -51.32323501034989 0 0 0 0 -9.3368585716125381 -48.327707164069579 0 -48.327707164069579 -15.724187792846351 0 0 0 0 -18.341446252681621 -32.531491103467204 0 -32.531491103467204 2.6864297303763962 0 0 0 0 3.349071242599166 -62.353416109603131 0 -62.353416109603131 -63.106711819302291 0 0 0 0 -5.6179077455890365 -42.617726395634236 0 -42.617726395634236 -37.130503127031261 0 0 0 0 1.5345295832812553 -37.735927676607389 0 -37.735927676607389 -48.255336998088751 0 0 0 0 1.5516113532721647 -37.519771328719798 0 -37.519771328719798 -49.078566829048214 0 0 0 0 -8.2454585436553316 -31.800512077654275 0 -31.800512077654275 -40.714355811171117 0 0 0 0 7.5425324558018474 -46.726070526332478 0 -46.726070526332478 -64.695742794952821 0 0 0 0 9.5843702999645757 -38.944394054371514 0 -38.944394054371514 -113.35796627425589 0 0 0 0 -2.7018233687867976 -24.789977578516094 0 -24.789977578516094 5.4651302694887249 0 0 0 0 -9.4484638540398009 -56.253081917086092 0 -56.253081917086092 -55.271680918493075 0 0 0 0 4.9540144168640836 -46.393209532630863 0 -46.393209532630863 -48.542458274212549 0 0 0 0 7.506104611675255 -58.752270168391988 0 -58.752270168391988 -58.538013157427486 0 0 0 0 18.879173417029961 -55.898628665427168 0 -55.898628665427168 -54.608777790504973 0 0 0 0 22.004549767087155 -54.550367921139696 0 -54.550367921139696 -57.52816526585957 0 0 0 0 9.9448292532979394 -45.209817056165775 0 -45.209817056165775 -54.617365940095624 0 0 0 0 7.9487441491528443 -44.512007558772893 0 -44.512007558772893 -51.035337299486855 0 0 0 0 20.420489031050238 -46.346966387500288 0 -46.346966387500288 -54.499484740692424 0 0 0 0 33.968996321935265 -65.175787095533451 0 -65.175787095533451 -50.347547569021117 0 0 0 0 26.626905905714011 -46.303680833676481 0 -46.303680833676481 -62.24385748556233 0 0 0 0 -1.8679675983657944 -37.596515918718069 0 -37.596515918718069 -48.851634345381171 0 0 0 0 5.3332587449422135 -38.10096414333384 0 -38.10096414333384 -50.722285458992701 0 0 0 0 13.899732741803746 -36.295818354301446 0 -36.295818354301446 -55.211644083145075 0 0 0 0 5.0821192476214492 -37.656967453629477 0 -37.656967453629477 -51.064333013709984 0 0 0 0 -4.2616160630786908 -34.823046525460086 0 -34.823046525460086 -50.164808853347495 0 0 0 0 3.9212118253071822 -35.430048124850146 0 -35.430048124850146 -50.715231352049159 0 0 0 0 -5.9075555654490017 -37.057946705146605 0 -37.057946705146605 -48.840357942914125 0 0 0 0 -15.075228133653582 -24.881734230570146 0 -24.881734230570146 -55.436376074081636 0 0 0 0 8.0687234282959253 -31.13397393264313 0 -31.13397393264313 -53.748959619158995 0 0 0 0 11.90253088017198 -36.100868629564502 0 -36.100868629564502 -55.127118049451383 0 0 0 0 -6.0229429544415325 -2.3896594382749754 0 -2.3896594382749754 -83.56165313438396 0 0 0 0 26.148599443906278 -20.356671375418955 0 -20.356671375418955 -74.662577255439828 0 0 0 0 -34.446251969342484 -25.676812545611028 0 -25.676812545611028 -52.090445151450695 0 0 0 0 46.616513859553379 -57.574925928442099 0 -57.574925928442099 -72.240279980149353 0 0 0 0 31.425107114817365 -32.608526481475565 0 -32.608526481475565 -69.892853687051684 0 0 0 0 46.958775337683619 -53.394001102293259 0 -53.394001102293259 -60.470700307872903 0 0 0 0 54.581501905529876 -35.936744178259687 0 -35.936744178259687 -89.241964082713821 0 0 0 0 37.343137643656519 -36.817543434077379 0 -36.817543434077379 -68.185105790878879 0 0 0 0 77.065843114044583 -81.324539858100252 0 -81.324539858100252 -72.444383077410748 0 0 0 0 92.485301372871618 -72.680672037575277 0 -72.680672037575277 -69.636378120754671 0 0 0 0 63.399134770534147 -29.746495538027375 0 -29.746495538027375 -116.42126827225002 0 0 0 0 116.674325293957 -92.373997300791316 0 -92.373997300791316 0.11787114557955647 0 0 0 0 127.96861576481751 -120.26337286787748 0 -120.26337286787748 -49.378017538016138 0 0 0 0 119.77451652427408 -71.391654735503835 0 -71.391654735503835 -87.501639942473503 0 0 0 0 0.50597114716947544 -14.861952221930551 0 -14.861952221930551 47.320370542114688 0 0 0 0 -0.055315323040403541 -2.3998892211592278 0 -2.3998892211592278 0.77891957941590562 0 0 0 0 2.2387985352870601 -3.6680238418193767 0 -3.6680238418193767 -0.64148835444211727 0 0 0 0 1.9363798953454534 -3.3006158528514788 0 -3.3006158528514788 -0.016464325170090888 0 0 0 0 3.9509041972974046 -3.3564320266577852 0 -3.3564320266577852 -0.61039704247377813 0 0 0 0 0.84328184971366227 -3.1095388336681964 0 -3.1095388336681964 1.0228774543711978 0 0 0 0 7.9152379572296923 -46.476307907971204 0 -46.476307907971204 -51.311955115488672 0 0 0 0 -11.884458496773732 -44.050133684198954 0 -44.050133684198954 -45.677345529853483 0 0 0 0 -7.678222083165565 -43.721864188976724 0 -43.721864188976724 -50.552303698976175 0 0 0 0 -8.9977960249598254 -39.050116217978939 0 -39.050116217978939 -50.124443125678226 0 0 0 0 17.679039258709963 -32.470698936762346 0 -32.470698936762346 -51.55953543538817 0 0 0 0 1.0465115768506621 -2.7340753984062758 0 -2.7340753984062758 0.20588582642085385 0 0 0 0 0.77060692222221405 -3.5606700852440554 0 -3.5606700852440554 0.012699379032710567 0 0 0 0 2.3135021933321696 -3.1556570846332761 0 -3.1556570846332761 0.0058148041352978908 0 0 0 0 2.2925007907142572 -2.7525075876765186 0 -2.7525075876765186 -0.03173988049820764 0 0 0 0 3.3227996727255231 -3.0802355939740664 0 -3.0802355939740664 -0.31220042654604185 0 0 0 0 7.093870779595818 -2.2522395253945433 0 -2.2522395253945433 0.00016407362272730097 0 0 0 0 3.9514254301211622 -1.2514085418733885 0 -1.2514085418733885 2.159300004299439 0 0 0 0 3.8906500557771935 -3.2564610489245922 0 -3.2564610489245922 2.1318056083843544 0 0 0 0 -20.842522133232706 54.795655435758817 0 54.795655435758817 69.682723447374883 0 0 0 0 6.2456859695339517 -0.4762542625903734 0 -0.4762542625903734 2.3371084434111253 0 0 0 0 38.078309351678399 48.654793244593748 0 48.654793244593748 -20.758398196820053 0 0 0 0 -51.44532783550676 -92.589816463063471 0 -92.589816463063471 -11.901935048779706 0 0 0 0 1.8121932423734961 -3.1046629107286066 0 -3.1046629107286066 0.97674537725176691 0 0 0 0 -46.812487207760569 -20.575931387480523 0 -20.575931387480523 70.404877426561143 0 0 0 0 74.575648835118045 1.9092488971582497 0 1.9092488971582497 -18.012884906886029 0 0 0 0 -98.876883263363197 -114.68635619853012 0 -114.68635619853012 -0.17828059360621643 0 0 0 0 9.2659883946398622 -1.2192862247611629 0 -1.2192862247611629 0.30195050720794825 0 0 0 0 -201.09964052815121 46.026728307981102 0 46.026728307981102 66.470419929653872 0 0 0 0 1.892075786235182 2.093875378148141 0 2.093875378148141 -1.7825929819416046 0 0 0 0 -67.46258449792731 26.998082051155507 0 26.998082051155507 -48.558173191486276 0 0 0 0 -68.511332639400365 -20.283560598530357 0 -20.283560598530357 93.219484684013878 0 0 0 0 -21.685686798689858 -106.96290387017143 0 -106.96290387017143 51.083700210894676 0 0 0 0 -814.68198735592136 866.03827037817882 0 866.03827037817882 -65.574890842864988 0 0 0 0 -1416.8526218219558 332.37216653249925 0 332.37216653249925 -185.28997549286578 0 0 0 0 -12.254855051746286 -12.302917141769271 0 -12.302917141769271 -9.7292894833250045 0 0 0 0 -392.13893326028665 -137.37181774032069 0 -137.37181774032069 -940.99708166776691 0 0 0 0 -113.26929550770836 231.57637366687595 0 231.57637366687595 752.55807650533097 0 0 0 0 -72.434517041259369 391.75366553224012 0 391.75366553224012 -172.55156309052836 0 0 0 0 -4.03204173877754 -0.81157796940892979 0 -0.81157796940892979 1.1354815553233095 0 0 0 0 -434.63553524777672 -1120.9996613156109 0 -1120.9996613156109 188.06003232796502 0 0 0 0 -0.65305409493902111 -6.1528058842331319 0 -6.1528058842331319 1.5034188923338547 0 0 0 0 -36.520470771863984 -9.8486517855762941 0 -9.8486517855762941 35.816699295362923 0 0 0 0 79.172206676454152 -22.894953882791015 0 -22.894953882791015 -36.978244222744252 0 0 0 0 -7.1315568490172154 -77.943760325368203 0 -77.943760325368203 9.8049620431484072 0 0 0 0 -15.713039482612091 -14.290779608511087 0 -14.290779608511087 7.6147804724668333 0 0 0 0 -18.825267966055687 -16.103077669158459 0 -16.103077669158459 25.72479188255187 0 0 0 0 -8.0816969194574995 -22.697767686906445 0 -22.697767686906445 9.8151804756971615 0 0 0 0 -6.1365714863197631 -21.239681659767626 0 -21.239681659767626 0.98120272395986774 0 0 0 0 -1.0119238938415167 -1.4517818346834588 0 -1.4517818346834588 3.1238488992092073 0 0 0 0 31.113734356574241 -1081.2590888418999 0 -1081.2590888418999 97.917701398888312 0 0 0 0 -1.4709937100885906 -0.53488932368519215 0 -0.53488932368519215 10.109826106679066 0 0 0 0 -354.81889435632252 -676.05874680791385 0 -676.05874680791385 1824.4719514825701 0 0 0 0 1689.0930513890808 -279.90515148347913 0 -279.90515148347913 -9.1970210896106437 0 0 0 0 440.08988079658457 -610.41023532647159 0 -610.41023532647159 -11.495893427165356 0 0 0 0 -1202.1866774696348 230.48158915095701 0 230.48158915095701 -289.49869014613796 0 0 0 0 -1950.6007239758146 57.272711964542395 0 57.272711964542395 -266.41221360667259 0 0 0 0 1.697210179893899 -7.6785357868790669 0 -7.6785357868790669 -3.4809687654959376 0 0 0 0 7.856250029795774 13.321689582349791 0 13.321689582349791 -254.61011084942584 0 0 0 0 1.2989016539911802 -2.4302014006141235 0 -2.4302014006141235 -2.9425094686202726 0 0 0 0 -33.277062892777394 -33.658566782429261 0 -33.658566782429261 -43.56215157348197 0 0 0 0 -66.621391100292385 -132.05534840741893 0 -132.05534840741893 -188.54907907199959 0 0 0 0 -168.45816811685654 -0.34733234946725133 0 -0.34733234946725133 -21.54069794381212 0 0 0 0 47.003106810974714 33.045736588544969 0 33.045736588544969 -133.78744759124675 0 0 0 0 -16.974129849093515 -38.57974909330369 0 -38.57974909330369 54.575118636074876 0 0 0 0 -124.53244199651454 -153.16425331189384 0 -153.16425331189384 73.795959825358295 0 0 0 0 -5.8596312016028591 -26.085952771176053 0 -26.085952771176053 -3.9490472320807015 0 0 0 0 -14.420368745537417 -45.81850015422242 0 -45.81850015422242 48.035789088926322 0 0 0 0 36.261797657281932 122.84482246439802 0 122.84482246439802 -4.5736082832881948 0 0 0 0 -16.427380656010428 -34.444036713382957 0 -34.444036713382957 36.425718625818263 0 0 0 0 261.76898957932855 117.6372637330619 0 117.6372637330619 334.46764559265284 0 0 0 0 -31.983584862817807 -21.424711685731886 0 -21.424711685731886 17.569171819133544 0 0 0 0 54.099867969953721 -103.02831489839446 0 -103.02831489839446 102.41613293108821 0 0 0 0 -17.100678395985597 -30.711317312041501 0 -30.711317312041501 35.61488468589522 0 0 0 0 -14.75994975186947 -30.203221704745772 0 -30.203221704745772 35.603275549867249 0 0 0 0 -10.620059128249929 2.8867838653525588 0 2.8867838653525588 -1.1193841643522546 0 0 0 0 58.021012478220086 -542.32514919208188 0 -542.32514919208188 63.840794576259213 0 0 0 0 456.95534735918591 221.92699087380606 0 221.92699087380606 441.56527014916355 0 0 0 0 736.005698448148 -1002.8727886555644 0 -1002.8727886555644 186.18453762027093 0 0 0 0 -610.87422181513284 319.2960434120032 0 319.2960434120032 -394.79948198781494 0 0 0 0 -675.80491117366682 104.236078661801 0 104.236078661801 -273.96852279367158 0 0 0 0 -4.6849595520009775 -0.62759844346700078 0 -0.62759844346700078 31.343529232891569 0 0 0 0 -350.01827998359568 25.169717154896716 0 25.169717154896716 1471.36052516583 0 0 0 0 -248.24500904212277 127.96724594984698 0 127.96724594984698 -623.00013493237202 0 0 0 0 -1060.3686081089456 740.88106290232463 0 740.88106290232463 427.39598104270408 0 0 0 0 -3.5039680361006194 -2.6392804205167693 0 -2.6392804205167693 5.0010464876397123 0 0 0 0 347.64572161060772 -539.74198637814879 0 -539.74198637814879 -65.267768845878891 0 0 0 0 611.1185608495839 -147.78477871378709 0 -147.78477871378709 267.19653276625468 0 0 0 0 701.83327454089317 -345.36424144280318 0 -345.36424144280318 162.35416024610458 0 0 0 0 437.95482317027461 -445.8843052791126 0 -445.8843052791126 208.07360757004062 0 0 0 0 -1091.7259202629948 162.28495012119674 0 162.28495012119674 599.33282141530799 0 0 0 0 -7.3083692527370978 -0.38200067091364787 0 -0.38200067091364787 49.128657172076117 0 0 0 0 1004.4159336935199 -495.312190358105 0 -495.312190358105 -85.735195592002128 0 0 0 0 -83.513858126031096 -168.62951516951762 0 -168.62951516951762 209.79603129407042 0 0 0 0 -43.41124438562349 -33.103528567279682 0 -33.103528567279682 -111.16847364840214 0 0 0 0 -68.94691010730503 -192.20085022010608 0 -192.20085022010608 353.58654353908059 0 0 0 0 180.35798611557129 -222.70283895931061 0 -222.70283895931061 117.85757648221625 0 0 0 0 -7.7333816937316406 -3.2754915269848723 0 -3.2754915269848723 60.455396968758521 0 0 0 0 -444.84808530694886 -11.900075168319745 0 -11.900075168319745 292.28513081036363 0 0 0 0 -125.50144215776209 -379.6941805926399 0 -379.6941805926399 36.162918013025774 0 0 0 0 285.90995561846762 -244.50248545167415 0 -244.50248545167415 193.70437703166681 0 0 0 0 317.40843794526887 -332.85120930917037 0 -332.85120930917037 230.75964640557163 0 0 0 0 407.3675597391653 -241.44792374480312 0 -241.44792374480312 180.32352551726217 0 0 0 0 164.97279892493225 -337.23833362278674 0 -337.23833362278674 230.66651461724541 0 0 0 0 287.28333472936663 -262.96382517978054 0 -262.96382517978054 251.31811482224293 0 0 0 0 151.81540170117296 -322.68858857529995 0 -322.68858857529995 249.26150064146714 0 0 0 0 164.00888321498132 -306.27305727318162 0 -306.27305727318162 236.5732517582037 0 0 0 0 216.94478564789642 -265.22145348028062 0 -265.22145348028062 253.49821214428812 0 0 0 0 -39.437074482510802 -28.472767249283379 0 -28.472767249283379 4.5764493887830895 0 0 0 0 -4.3536486194111177 -2.7413267372682668 0 -2.7413267372682668 4.7052129579628001 0 0 0 0 397.74167651605745 -285.97381172905807 0 -285.97381172905807 257.92838090971054 0 0 0 0 165.36326742458368 -286.35581540843123 0 -286.35581540843123 134.64322971407091 0 0 0 0 -873.99929887334167 -271.33791817180827 0 -271.33791817180827 629.03868851505104 0 0 0 0 -442.71611723903698 -100.63211573736044 0 -100.63211573736044 18.965772349304189 0 0 0 0 -322.52699206447983 -52.603657148247294 0 -52.603657148247294 10.947933929288411 0 0 0 0 -418.6781475372527 -162.58262973725505 0 -162.58262973725505 195.97962880079467 0 0 0 0 -230.79081422346417 57.802562784381735 0 57.802562784381735 -16.881377913086908 0 0 0 0 -291.37083127663755 23.64590945818054 0 23.64590945818054 182.12316882552841 0 0 0 0 -247.19213044105288 -13.994751531066868 0 -13.994751531066868 -17.908599781425437 0 0 0 0 -22.19598474968582 -9.2130091041335476 0 -9.2130091041335476 -9.3712311584262977 0 0 0 0 -246.14154011498067 -15.999388829506643 0 -15.999388829506643 -25.890836064136238 0 0 0 0 -242.26801388876549 -17.964268984545924 0 -17.964268984545924 -24.993930130178342 0 0 0 0 -866.63678973021865 -123.75178738409977 0 -123.75178738409977 128.03178683537408 0 0 0 0 -856.93835493786628 -24.664906280333526 0 -24.664906280333526 -59.870200234279764 0 0 0 0 -516.39842001495754 -14.991766483217361 0 -14.991766483217361 21.89907502537244 0 0 0 0 -319.61698185845728 9.8316612940034247 0 9.8316612940034247 71.08670195358718 0 0 0 0 -273.68550887726752 17.656455639655178 0 17.656455639655178 8.6785984676971566 0 0 0 0 -281.04124659102854 -43.101876478162012 0 -43.101876478162012 -48.096249051228369 0 0 0 0 -251.6004474182082 1.6978114675875986 0 1.6978114675875986 -32.642786332085961 0 0 0 0 -289.67717701575918 -19.538009098385373 0 -19.538009098385373 13.328934536431916 0 0 0 0 -511.21408974802262 -87.379700682809926 0 -87.379700682809926 126.10268239327706 0 0 0 0 -448.18090758151902 -35.73376004344027 0 -35.73376004344027 73.579676516164909 0 0 0 0 -336.01339313826531 -46.737978953409765 0 -46.737978953409765 -15.593773280241294 0 0 0 0 -21.724507980035977 -12.869868181507409 0 -12.869868181507409 29.326667695125224 0 0 0 0 -391.2338077913837 233.15274089050945 0 233.15274089050945 398.90763830643118 0 0 0 0 0.31042795601812695 1.2880264719232439 0 1.2880264719232439 9.3211985935259918 0 0 0 0 -547.73239905997116 -104.5741739226869 0 -104.5741739226869 1039.1032606593362 0 0 0 0 -423.81950256150185 -165.15284784168762 0 -165.15284784168762 79.670277465844265 0 0 0 0 -427.93557923204821 -60.441777772361093 0 -60.441777772361093 440.3891431234515 0 0 0 0 -522.9473081548125 -92.076263365604973 0 -92.076263365604973 431.87607006900726 0 0 0 0 -417.48926032325687 -107.16728167510519 0 -107.16728167510519 359.85522336482973 0 0 0 0 -309.46493895118499 -388.653508303747 0 -388.653508303747 -17.283533854642883 0 0 0 0 53.809684894442853 -636.29860794031265 0 -636.29860794031265 466.48215301619348 0 0 0 0 -454.80776902415255 -162.73192390506301 0 -162.73192390506301 74.074693568065413 0 0 0 0 -611.31722146373158 226.5043378090777 0 226.5043378090777 -43.659360266297881 0 0 0 0 351.99402522761898 209.13082415157987 0 209.13082415157987 -175.24365721888898 0 0 0 0 -192.24168873760232 -175.35066344455845 0 -175.35066344455845 -208.15927403364913 0 0 0 0 -450.59003007690615 -107.4272837043427 0 -107.4272837043427 -453.28659041821084 0 0 0 0 -772.53215806767093 3.090757514910365 0 3.090757514910365 -239.82717250220412 0 0 0 0 -691.51055976537396 -237.58051050287258 0 -237.58051050287258 90.296093931043288 0 0 0 0 -4.9705957550694109 -1.4135679226899356 0 -1.4135679226899356 8.8909308561015905 0 0 0 0 -536.63504402520823 -232.7145733571233 0 -232.7145733571233 -87.377818470638886 0 0 0 0 -524.76374308412369 -251.06626126453921 0 -251.06626126453921 -255.59898264121148 0 0 0 0 -675.19934991963623 -148.07024927117891 0 -148.07024927117891 80.281876285254839 0 0 0 0 -887.68464477079692 -859.90162302641693 0 -859.90162302641693 -122.84820889598632 0 0 0 0 -337.74612990929165 229.77127221780756 0 229.77127221780756 662.74494172054756 0 0 0 0 -2.9826947622499231 -0.94224378724916846 0 -0.94224378724916846 5.0510030924654359 0 0 0 0 -875.75097803005428 -387.7701881196117 0 -387.7701881196117 253.92470450178371 0 0 0 0 -315.15390648883431 -182.56003307685751 0 -182.56003307685751 -91.36344437696971 0 0 0 0 -65.673552748518432 -248.3565894490057 0 -248.3565894490057 -84.760481771460036 0 0 0 0 -434.4754270685894 -641.85835022625542 0 -641.85835022625542 147.05729193425213 0 0 0 0 -51.158736537346158 -168.04233524829033 0 -168.04233524829033 57.912892228576311 0 0 0 0 -517.16056235444012 -315.22427547415828 0 -315.22427547415828 200.85392827559554 0 0 0 0 -284.80253375766506 -193.3197728839441 0 -193.3197728839441 61.511010540700227 0 0 0 0 -224.53957312761503 -716.94054405463294 0 -716.94054405463294 8.9802524416445522 0 0 0 0 -584.28326454503349 -396.50005799205974 0 -396.50005799205974 79.09229372896516 0 0 0 0 -668.53564414962739 -338.38414409871621 0 -338.38414409871621 42.399623928227811 0 0 0 0 -667.3367152839545 -188.8394023951405 0 -188.8394023951405 120.90566103212041 0 0 0 0 -639.22043040932658 -136.03763007942325 0 -136.03763007942325 193.66438396279409 0 0 0 0 -939.17916015275932 -313.76595453614209 0 -313.76595453614209 286.78638048900757 0 0 0 0 -824.30805199170675 -357.78638850381321 0 -357.78638850381321 169.40441723902768 0 0 0 0 -910.53345239420617 -548.59342710694 0 -548.59342710694 38.88938866922399 0 0 0 0 -651.95686477591971 -1235.8474417524412 0 -1235.8474417524412 749.20198949771293 0 0 0 0 -962.65515789100527 -184.13232044640972 0 -184.13232044640972 -450.48974706987792 0 0 0 0 -3.1111794198012945 -0.46766745337590976 0 -0.46766745337590976 4.4973004120479914 0 0 0 0 -163.99077999834117 113.15587742968637 0 113.15587742968637 241.19545441375521 0 0 0 0 -561.92969204957717 -216.56075570434768 0 -216.56075570434768 90.485019476213324 0 0 0 0 -793.45881764974047 -278.8051054094467 0 -278.8051054094467 216.75708504598879 0 0 0 0 -857.00681118995681 -28.000244341921643 0 -28.000244341921643 355.7507820212486 0 0 0 0 -537.55064984465935 -177.7365951247848 0 -177.7365951247848 330.26550120515458 0 0 0 0 -218.13278737087523 327.16100833784185 0 327.16100833784185 594.15194754916593 0 0 0 0 -308.40264802224647 -190.27148941747146 0 -190.27148941747146 811.57363914229791 0 0 0 0 -345.27162735507545 38.875248488169746 0 38.875248488169746 175.0413233198633 0 0 0 0 280.96828564729731 -546.88763011300762 0 -546.88763011300762 77.655796988110524 0 0 0 0 -253.87349044115444 -167.017911108509 0 -167.017911108509 169.66187658648471 0 0 0 0 -144.17897834655832 -4.7704697105946252 0 -4.7704697105946252 -63.262907163300042 0 0 0 0 -6.2052919047310997 -2.7876089417009808 0 -2.7876089417009808 -0.39884298199996238 0 0 0 0 -442.28075170442889 -173.072321682027 0 -173.072321682027 -830.51812431527651 0 0 0 0 -318.66722416772518 -7.0655003134088474 0 -7.0655003134088474 9.0474768272033543 0 0 0 0 -988.37578948285181 268.12229486392971 0 268.12229486392971 12.66134506421804 0 0 0 0 -1393.0058644301776 -442.6897321111428 0 -442.6897321111428 221.7013030287635 0 0 0 0 -1916.1685025617483 345.22275618426056 0 345.22275618426056 36.429184497115784 0 0 0 0 -598.10501035583911 -700.10567460490711 0 -700.10567460490711 -0.31301198853179812 0 0 0 0 -3.6167730558028062 -1.5405045466184504 0 -1.5405045466184504 -1.1126783802632758 0 0 0 0 74.327668610299426 -121.17195086035764 0 -121.17195086035764 0.19241648975003045 0 0 0 0 -482.82870138071848 672.26743142407213 0 672.26743142407213 158.65263453034277 0 0 0 0 -2.4794898881052241 -2.2693897553311473 0 -2.2693897553311473 -4.1822882281460068 0 0 0 0 -965.11224168062085 -682.79875351567171 0 -682.79875351567171 -50.43748578580562 0 0 0 0 -1003.8265153433072 -730.4036588707786 0 -730.4036588707786 -107.16754177297844 0 0 0 0 -1003.5038901182863 -525.83356135925715 0 -525.83356135925715 64.005149972144864 0 0 0 0 -1037.0831827663114 -261.00544347416144 0 -261.00544347416144 301.91653771552956 0 0 0 0 -1098.9448865773666 -520.70778814263758 0 -520.70778814263758 90.907828925017384 0 0 0 0 -1156.0886267885005 -553.41911702752259 0 -553.41911702752259 110.35788268377655 0 0 0 0 -1247.1265389808984 -723.41274754315964 0 -723.41274754315964 -0.94595058521372266 0 0 0 0 -1840.9803972443985 -526.32301620586759 0 -526.32301620586759 95.28245159384096 0 0 0 0 -1144.5284955125608 -666.7260958386978 0 -666.7260958386978 -51.195329300355297 0 0 0 0 -1038.2441444881147 -761.39710815155559 0 -761.39710815155559 0.72917601274821209 0 0 0 0 -972.32463689396036 -767.32875943780891 0 -767.32875943780891 -64.519743727971218 0 0 0 0 -3.0274535861588348 -4.0401510192555889 0 -4.0401510192555889 -2.2200762981800324 0 0 0 0 -120.53274838025391 -869.60334343840441 0 -869.60334343840441 -158.20569055880696 0 0 0 0 -908.29848198381592 -427.63853856926335 0 -427.63853856926335 552.30739772213565 0 0 0 0 273.14786477482812 -278.41989186122373 0 -278.41989186122373 -0.14550112225890457 0 0 0 0 272.85530186008259 -279.78508129018746 0 -279.78508129018746 0.62947187392273918 0 0 0 0 -978.16084432226853 -26.423122790925845 0 -26.423122790925845 639.7593961419625 0 0 0 0 -3.5144829271955018 -3.6448908202799544 0 -3.6448908202799544 -1.9443424624416394 0 0 0 0 -872.09602018483565 -173.20762621079484 0 -173.20762621079484 286.26949556554609 0 0 0 0 357.91572765384171 -201.04928428831772 0 -201.04928428831772 -46.876876685855677 0 0 0 0 -319.91973581657294 213.61328806721576 0 213.61328806721576 500.21562134257329 0 0 0 0 -526.72958603595362 -504.13556137278647 0 -504.13556137278647 -130.30921303388823 0 0 0 0 -396.30777949105686 -337.14947110697176 0 -337.14947110697176 -22.929020750976633 0 0 0 0 -648.91462907062487 -206.27372068787372 0 -206.27372068787372 291.11426057316203 0 0 0 0 -712.66647946107969 -307.52506678451027 0 -307.52506678451027 182.62121564656263 0 0 0 0 -618.76310655224643 -432.1054453257384 0 -432.1054453257384 -51.351208285566827 0 0 0 0 -599.45867411861582 -525.12401855297503 0 -525.12401855297503 -165.29329649719875 0 0 0 0 -689.62587796671323 -491.25380451501405 0 -491.25380451501405 -13.840642695452971 0 0 0 0 -837.18586111015566 -706.27287856386465 0 -706.27287856386465 -76.687714485364268 0 0 0 0 -783.86289647508511 -732.45418604929728 0 -732.45418604929728 -145.68425744826118 0 0 0 0 -816.16337151484322 -670.28209730490926 0 -670.28209730490926 37.134735213629028 0 0 0 0 -803.47391350366115 -687.85154559303737 0 -687.85154559303737 47.81157610254013 0 0 0 0 -1098.8308816074409 -726.39984203598942 0 -726.39984203598942 49.292227085781633 0 0 0 0 -870.39387371589237 -531.7752443033678 0 -531.7752443033678 -71.838949956247234 0 0 0 0 -370.81327627612472 -659.47102937948875 0 -659.47102937948875 -77.99895033435314 0 0 0 0 -864.83870116659637 -971.12585709404084 0 -971.12585709404084 -49.534340656162385 0 0 0 0 132.84433229861679 -375.82428903866457 0 -375.82428903866457 147.71242551902105 0 0 0 0 -36.233848321940968 -280.30900388939153 0 -280.30900388939153 165.08320913661009 0 0 0 0 -225.47039630706513 -485.82088309903156 0 -485.82088309903156 0.010012666883994825 0 0 0 0 -606.16947853093006 -457.14958539885265 0 -457.14958539885265 271.60687446533484 0 0 0 0 -461.62248090448065 -342.3741103370503 0 -342.3741103370503 240.58138536399929 0 0 0 0 -747.1497016777812 -633.12771966663786 0 -633.12771966663786 0.67959350723043666 0 0 0 0 -1250.0792811697174 -436.27948381976967 0 -436.27948381976967 505.15840256871888 0 0 0 0 -754.58565951121636 -350.98431270123547 0 -350.98431270123547 328.74145514935663 0 0 0 0 -799.6884145421327 -283.1160451079013 0 -283.1160451079013 410.18688730959548 0 0 0 0 -716.32204891465881 -433.61541659037903 0 -433.61541659037903 141.9601624374227 0 0 0 0 -697.17499395595769 -397.05948958898807 0 -397.05948958898807 152.38499881478492 0 0 0 0 -625.63566777882625 -365.64859554256145 0 -365.64859554256145 306.83380988234421 0 0 0 0 -668.85518576961658 -454.84326751116532 0 -454.84326751116532 247.68098276248929 0 0 0 0 -760.7302767234778 -369.78413376240951 0 -369.78413376240951 291.76136626479274 0 0 0 0 -396.1099778253265 -417.05811061259374 0 -417.05811061259374 206.80065014785941 0 0 0 0 -353.25571216742946 -241.13846755471968 0 -241.13846755471968 528.40792626846815 0 0 0 0 -475.13743711190909 -388.49673947452175 0 -388.49673947452175 94.909669062784815 0 0 0 0 -527.54252633968463 -546.56589244104907 0 -546.56589244104907 160.17577308956606 0 0 0 0 -255.73235006120558 -617.43989386563044 0 -617.43989386563044 332.94155965251412 0 0 0 0 27.124872893202337 -419.37657746120385 0 -419.37657746120385 -18.045248322814587 0 0 0 0 -594.06444595500943 -344.22781606602803 0 -344.22781606602803 -101.52304954789906 0 0 0 0 -389.64776564096246 -249.3969542680934 0 -249.3969542680934 -99.809395722423233 0 0 0 0 -391.37960555839891 -242.55523071750213 0 -242.55523071750213 -115.66009698918788 0 0 0 0 -287.42466564766073 -270.98116197137279 0 -270.98116197137279 -120.46881823787407 0 0 0 0 -368.31593679229627 -304.53070081592159 0 -304.53070081592159 -40.689831010851776 0 0 0 0 -300.8147604459964 -431.91700033837878 0 -431.91700033837878 -48.395235012489138 0 0 0 0 -550.05087111432476 -401.7083066881205 0 -401.7083066881205 -51.739356272708392 0 0 0 0 -555.92479837540486 -377.13189622853679 0 -377.13189622853679 -105.25105864663783 0 0 0 0 -697.10905832952267 -462.65015442120784 0 -462.65015442120784 -112.14951143162034 0 0 0 0 -589.26767846697089 -534.26173345141342 0 -534.26173345141342 -134.66586624082993 0 0 0 0 -756.21291871062567 -535.79995273883105 0 -535.79995273883105 -123.25054557005205 0 0 0 0 -704.71457220352931 -485.82040322614921 0 -485.82040322614921 12.262513567846327 0 0 0 0 -599.99203494595349 -435.15235186142672 0 -435.15235186142672 1.0682527706376277 0 0 0 0 -673.18967053477354 -572.69705834322122 0 -572.69705834322122 -128.31717962975381 0 0 0 0 -681.33238109966078 -543.66151869086207 0 -543.66151869086207 -137.75482845018269 0 0 0 0 -667.92314046530373 -546.20919794297515 0 -546.20919794297515 61.851182304904796 0 0 0 0 -712.07640788530989 -485.37682445125392 0 -485.37682445125392 2.2494242360044154 0 0 0 0 -801.12267825540039 -642.44722479457414 0 -642.44722479457414 -232.4601712149306 0 0 0 0 -711.95299837135826 -529.21553396376112 0 -529.21553396376112 -165.38690631463396 0 0 0 0 -736.78733378609832 -605.57496218097367 0 -605.57496218097367 -367.02988308390923 0 0 0 0 -866.25054822478614 -742.77095035183447 0 -742.77095035183447 -433.42113566937041 0 0 0 0 -787.5124976365405 -608.10521384144886 0 -608.10521384144886 -499.42270379187539 0 0 0 0 -937.96106506267461 -751.06407595388737 0 -751.06407595388737 -501.53459690058889 0 0 0 0 -828.81786547945376 -674.93029298894544 0 -674.93029298894544 -312.20963380140893 0 0 0 0 -704.32258956998521 -541.40185277267665 0 -541.40185277267665 -308.37661620431754 0 0 0 0 -666.9240656987422 -445.92890088005515 0 -445.92890088005515 -221.96132453728933 0 0 0 0 -744.75342109072881 -576.96130854510557 0 -576.96130854510557 -269.39751087200057 0 0 0 0 -892.09592695951142 -682.48278539003513 0 -682.48278539003513 -435.10079636798037 0 0 0 0 -794.59370866993913 -502.0846788684803 0 -502.0846788684803 -356.90957861866627 0 0 0 0 -844.24625579986423 -422.85593481936667 0 -422.85593481936667 -400.84652094768535 0 0 0 0 -709.94666079818671 -514.68417118391153 0 -514.68417118391153 -339.0286552255493 0 0 0 0 -781.41076589464365 -391.75906848185969 0 -391.75906848185969 -144.14915863251372 0 0 0 0 -557.64144182694326 -343.39661126973442 0 -343.39661126973442 -178.50327582791215 0 0 0 0 -848.04382058011743 -493.80536685045809 0 -493.80536685045809 -258.43598318466684 0 0 0 0 -731.61549403302342 -593.24642271917037 0 -593.24642271917037 -202.66619126523437 0 0 0 0 -14.692848953338968 -11.655862256123655 0 -11.655862256123655 -1.7661666804081051 0 0 0 0 -1.7757933062330267 -163.3785855298338 0 -163.3785855298338 267.3092482562206 0 0 0 0 -744.55658371674872 -392.13111728205695 0 -392.13111728205695 -169.53668979389477 0 0 0 0 -17.186497953506997 -8.3013304813287281 0 -8.3013304813287281 -1.7859649572803846 0 0 0 0 -37.322751240323271 -372.14082334317982 0 -372.14082334317982 83.459316704334924 0 0 0 0 777.63569574644407 -409.30146777199116 0 -409.30146777199116 -99.028105690114899 0 0 0 0 -1920.9279142505513 -564.21594532109384 0 -564.21594532109384 -5.5974376648809994 0 0 0 0 -1.3244423817309616 -0.069592990608546401 0 -0.069592990608546401 -0.62395226292670714 0 0 0 0 -1141.9203868664317 -826.38655487156939 0 -826.38655487156939 -153.68746910011487 0 0 0 0 -791.36050356156738 -600.07771005548057 0 -600.07771005548057 -289.40610856907733 0 0 0 0 -1003.5016603238291 -443.84472645170899 0 -443.84472645170899 -50.315976954654616 0 0 0 0 -958.40703105105217 -654.59287723533544 0 -654.59287723533544 -217.45489841980452 0 0 0 0 -686.84676640451562 -573.53449833188279 0 -573.53449833188279 -220.19570653169649 0 0 0 0 -786.51852154267362 -634.85286776102294 0 -634.85286776102294 -156.36807380377286 0 0 0 0 -749.69281062167465 -552.14824356926692 0 -552.14824356926692 -39.881701012294343 0 0 0 0 -724.38885961009055 -608.51206180673398 0 -608.51206180673398 -308.20793897435942 0 0 0 0 -792.90515233400401 -621.86868378767758 0 -621.86868378767758 -140.51362661372696 0 0 0 0 -793.45326688391469 -647.70069105979201 0 -647.70069105979201 -222.34600188507534 0 0 0 0 -761.18226130401399 -656.08429114550745 0 -656.08429114550745 -334.78312877597637 0 0 0 0 -676.15251088102923 -553.98658576725575 0 -553.98658576725575 -375.66890984642305 0 0 0 0 -807.45385093383629 -713.09605681026733 0 -713.09605681026733 -357.18898575991989 0 0 0 0 -771.11083028397297 -633.61417687484573 0 -633.61417687484573 -486.49290842050686 0 0 0 0 -834.70714585548922 -866.80690850000974 0 -866.80690850000974 -820.46245768964582 0 0 0 0 -720.8983447857363 -658.83513944653896 0 -658.83513944653896 -693.49874878488481 0 0 0 0 -748.23118198398572 -735.90303582823481 0 -735.90303582823481 -607.41461779741803 0 0 0 0 -117.21518866759652 -30.558613384851924 0 -30.558613384851924 39.108488737183507 0 0 0 0 -54.458582451549681 8.2526914438784189 0 8.2526914438784189 25.16777983072916 0 0 0 0 -124.84117464512383 -60.545945695834234 0 -60.545945695834234 -33.559811114228069 0 0 0 0 -66.311995024394903 5.6624548999585613 0 5.6624548999585613 23.91889309071297 0 0 0 0 -656.13156905180222 -435.5967389336729 0 -435.5967389336729 -269.06229544162306 0 0 0 0 -5.694046174218907 -48.534088645038125 0 -48.534088645038125 -36.110267141997582 0 0 0 0 -143.32038479571202 -58.901924685593258 0 -58.901924685593258 -31.109930851809622 0 0 0 0 -255.93668899322574 -95.72736283989434 0 -95.72736283989434 8.2971714601153508 0 0 0 0 -106.45654685568157 -65.522308709017352 0 -65.522308709017352 -35.608485689910594 0 0 0 0 -10.988218335723937 -45.939176898379429 0 -45.939176898379429 -34.177702058923273 0 0 0 0 -252.13759154723357 -17.418729926313972 0 -17.418729926313972 -20.110227971148561 0 0 0 0 -242.01555195373749 -12.155129843111354 0 -12.155129843111354 -34.532637580938172 0 0 0 0 -251.55873885162373 2.9828419033729006 0 2.9828419033729006 -57.468281810870394 0 0 0 0 -125.44126842155971 -38.919010943370111 0 -38.919010943370111 -7.432383325934552 0 0 0 0 -18.636810136784334 -13.86572412220994 0 -13.86572412220994 3.1988660965143936 0 0 0 0 -72.689304726685847 -14.885164534744717 0 -14.885164534744717 11.964171007032725 0 0 0 0 -54.038352252892778 -18.006082820176999 0 -18.006082820176999 3.7201400054725866 0 0 0 0 -107.83903332127738 -129.49236461976398 0 -129.49236461976398 -116.11763342912673 0 0 0 0 -22.5471406680598 -57.322202734788419 0 -57.322202734788419 -174.73015045175998 0 0 0 0 -34.003486586021609 -83.57429745868285 0 -83.57429745868285 185.23046096091275 0 0 0 0 -24.489550374453486 -0.10177956697069135 0 -0.10177956697069135 -1.951303199987052 0 0 0 0 -31.805207049299497 -70.348311340967484 0 -70.348311340967484 194.88024970047991 0 0 0 0 -588.24128816355005 -201.68966594910307 0 -201.68966594910307 197.27647773424542 0 0 0 0 -16.083880347953794 -3.8243418940903524 0 -3.8243418940903524 8.5192123093729606 0 0 0 0 88.708466143049009 -136.05446923744603 0 -136.05446923744603 129.4760727496905 0 0 0 0 -187.99962457571206 808.58877510185562 0 808.58877510185562 -1226.9207893467392 0 0 0 0 -80.384331817233942 -139.17821859766354 0 -139.17821859766354 122.71434984236839 0 0 0 0 96.090707006362209 -19.711243510912027 0 -19.711243510912027 56.158498501143185 0 0 0 0 66.749967676623783 -1191.9139782224302 0 -1191.9139782224302 640.48803750292427 0 0 0 0 -611.01540357420527 -245.33368196109586 0 -245.33368196109586 172.67018861353972 0 0 0 0 -66.746974420439074 -227.25426145931488 0 -227.25426145931488 140.45941914872674 0 0 0 0 -264.19432243732081 -4.1210920026242093 0 -4.1210920026242093 190.84792092516727 0 0 0 0 -402.45544419157522 57.834940844062658 0 57.834940844062658 120.88517890133517 0 0 0 0 -123.72985700356003 142.87155697272465 0 142.87155697272465 318.23652849313657 0 0 0 0 5.8409747937323573 -9.1411722297093263 0 -9.1411722297093263 33.083506405193788 0 0 0 0 115.89440928682598 224.02557063976928 0 224.02557063976928 115.21853829010797 0 0 0 0 -124.5512365382092 88.49540210152918 0 88.49540210152918 161.08230459007609 0 0 0 0 -38.858338344085496 -197.5904912600563 0 -197.5904912600563 217.1676054781783 0 0 0 0 -220.99387428592854 -242.63328426691442 0 -242.63328426691442 577.78130684206553 0 0 0 0 -119.39804838510463 -15.900001057478221 0 -15.900001057478221 -75.03521308254858 0 0 0 0 -94.034065378946252 16.125039688391553 0 16.125039688391553 102.75967779592611 0 0 0 0 -171.00883045761293 66.814409081387566 0 66.814409081387566 191.8425069309742 0 0 0 0 -272.48920759695466 15.492844926935504 0 15.492844926935504 304.86071529770197 0 0 0 0 -445.57693381387799 79.22338804906758 0 79.22338804906758 311.04953808656865 0 0 0 0 -398.72105281797349 -314.48119863866168 0 -314.48119863866168 160.04852177962312 0 0 0 0 -232.93781966464303 172.16809426253167 0 172.16809426253167 286.24561428486777 0 0 0 0 -51.575816672884685 128.85062850924442 0 128.85062850924442 167.67423834804322 0 0 0 0 -6.8920199073071302 2.8256729021051967 0 2.8256729021051967 -0.67963175538011456 0 0 0 0 -133.06966624746565 -129.18223759067041 0 -129.18223759067041 34.413922940443172 0 0 0 0 -103.22924479502217 -254.16316832458142 0 -254.16316832458142 -352.56916231312061 0 0 0 0 -48.049648340821065 5.8635758552159984 0 5.8635758552159984 22.629719475347713 0 0 0 0 -904.62765223871611 -905.89183696253895 0 -905.89183696253895 -802.34023736247764 0 0 0 0 -530.38727799972185 153.59530597514458 0 153.59530597514458 451.31797772871505 0 0 0 0 -895.71030663780039 -780.77304390513018 0 -780.77304390513018 -761.2672172333223 0 0 0 0 -757.17329881996557 -741.77312774655547 0 -741.77312774655547 -780.39913584881288 0 0 0 0 -822.12382548131245 -624.30834842768854 0 -624.30834842768854 -625.4849133984244 0 0 0 0 -959.63987034254751 -1037.6235282238958 0 -1037.6235282238958 -1036.5161695533097 0 0 0 0 -1004.0469648044673 -815.53532611166156 0 -815.53532611166156 -806.55770202603162 0 0 0 0 227.91909095730716 295.37609165594404 0 295.37609165594404 214.99595994011906 0 0 0 0 -36.037054314522202 2.5029373077083648 0 2.5029373077083648 19.676635574406589 0 0 0 0 305.42747584555036 19.905216931532777 0 19.905216931532777 -572.72246889750386 0 0 0 0 -879.78192432673131 -639.12872846143 0 -639.12872846143 -516.10717377514629 0 0 0 0 -1062.5991557090929 -876.61750302231667 0 -876.61750302231667 -639.16247864726392 0 0 0 0 -1013.803578998959 -519.36094192392284 0 -519.36094192392284 -622.45938847654907 0 0 0 0 -1136.1427358328838 -827.48779603846197 0 -827.48779603846197 -998.08535133174155 0 0 0 0 -1427.4334577559948 -899.10825518183992 0 -899.10825518183992 -609.27182859503318 0 0 0 0 -1313.0200170525723 -1329.150650148662 0 -1329.150650148662 -1265.1928332373209 0 0 0 0 -21.983445253092221 -1.9317037112511173 0 -1.9317037112511173 16.458803743634832 0 0 0 0 141.2167523726057 383.92411718253061 0 383.92411718253061 1268.947749490304 0 0 0 0 -1682.6765366942236 -2267.7092439279368 0 -2267.7092439279368 -1415.517465084602 0 0 0 0 -6.5523407750725227 -1.8040344394195102 0 -1.8040344394195102 5.937595531371386 0 0 0 0 -92.113890507909673 -40.412434789202962 0 -40.412434789202962 403.31141970647877 0 0 0 0 -39.980704981397139 -50.219171134282078 0 -50.219171134282078 215.69303411451239 0 0 0 0 118.01685095244102 260.85244585794499 0 260.85244585794499 758.10133906751435 0 0 0 0 -207.68533474920332 -38.15950917932787 0 -38.15950917932787 814.84160829241864 0 0 0 0 -193.7592693601473 -270.98363996121043 0 -270.98363996121043 510.15465913023218 0 0 0 0 -164.14837282144254 -98.437808224909531 0 -98.437808224909531 897.43050419670908 0 0 0 0 -241.76564304219937 -563.23849197437085 0 -563.23849197437085 848.69044100868632 0 0 0 0 -364.25522258410456 -503.74119888189125 0 -503.74119888189125 1034.5130485365298 0 0 0 0 -563.37015726522804 -669.41901105128636 0 -669.41901105128636 896.96889296178051 0 0 0 0 -319.12564761579779 -585.23112913103978 0 -585.23112913103978 752.15835735574365 0 0 0 0 -316.64652450499807 -561.74768056897233 0 -561.74768056897233 853.30885677420156 0 0 0 0 -188.0554622211821 66.480840410706151 0 66.480840410706151 2192.487067913562 0 0 0 0 83.199888323280902 840.41248240006826 0 840.41248240006826 2622.719730221892 0 0 0 0 -851.94010400717161 -446.18089354120457 0 -446.18089354120457 1984.0765032532181 0 0 0 0 -4.5181457905599132 -1.4923454963968936 0 -1.4923454963968936 1.6380394953206334 0 0 0 0 -304.34569839123833 63.184381038363426 0 63.184381038363426 2386.6593000600769 0 0 0 0 -195.56271973230832 -166.46961275600552 0 -166.46961275600552 -87.132265218300745 0 0 0 0 -296.26054352990468 -431.58599021340342 0 -431.58599021340342 -415.24385678132603 0 0 0 0 -856.04604763784482 -616.20447707899621 0 -616.20447707899621 11.379043646418722 0 0 0 0 -651.75122620495313 -765.71084469648849 0 -765.71084469648849 -705.89903028135996 0 0 0 0 -790.63596740538196 -354.62121994710651 0 -354.62121994710651 -115.06114583822637 0 0 0 0 -804.515174324697 -391.3345412375038 0 -391.3345412375038 -178.04168973790365 0 0 0 0 413.12348089036823 -388.76856453839173 0 -388.76856453839173 282.13298711063544 0 0 0 0 3.0360193633016905 -6.4175130643119473 0 -6.4175130643119473 -1.7695180499402454 0 0 0 0 -1127.1561960732215 -372.56498252932579 0 -372.56498252932579 225.43271172565437 0 0 0 0 -1141.3157106812214 -750.3117522529501 0 -750.3117522529501 728.68826221373092 0 0 0 0 -933.29059727532149 -313.14255848871835 0 -313.14255848871835 0.51605006527506703 0 0 0 0 -1369.9087169230988 -772.04112428693043 0 -772.04112428693043 -425.84357206680579 0 0 0 0 -1081.344591408324 -514.83641827746033 0 -514.83641827746033 -135.48914998643886 0 0 0 0 -1186.3062804504079 -223.29935040908822 0 -223.29935040908822 -12.024195872071687 0 0 0 0 0.14699777390650581 -2.4268327875917777 0 -2.4268327875917777 3.2321967124166946 0 0 0 0 -982.34155096500763 -207.64236462931513 0 -207.64236462931513 -190.78319142048713 0 0 0 0 -824.6121600849292 -333.51543527130707 0 -333.51543527130707 -321.33588979035994 0 0 0 0 332.37361689700992 -147.61405312546049 0 -147.61405312546049 39.591544590897684 0 0 0 0 -1.1334776559796182 -14.670097809625716 0 -14.670097809625716 -2.0975398958224467 0 0 0 0 -68.757452745056071 -130.52163408939305 0 -130.52163408939305 -163.22287256446634 0 0 0 0 118.37723838934471 -459.00429969337711 0 -459.00429969337711 833.97646022959088 0 0 0 0 0.23942277694732184 -190.93595457581978 0 -190.93595457581978 495.26239078924846 0 0 0 0 27.438684658088732 -357.876342408038 0 -357.876342408038 688.67743368096126 0 0 0 0 576.25004987586362 -136.95548802196936 0 -136.95548802196936 751.12925681258639 0 0 0 0 421.37011998202433 -465.30068047652094 0 -465.30068047652094 617.35368003542681 0 0 0 0 -2.7306321262222752 -12.440436733284969 0 -12.440436733284969 -5.4185235783099017 0 0 0 0 402.38068212091457 -506.09040335324607 0 -506.09040335324607 530.171575081009 0 0 0 0 74.651984617670678 -336.50529531675784 0 -336.50529531675784 834.99952324253536 0 0 0 0 -509.74998680565113 -811.25425548938802 0 -811.25425548938802 513.53840471174772 0 0 0 0 -185.91035417731473 -213.65880967940029 0 -213.65880967940029 230.74334907687808 0 0 0 0 698.77546853877357 -476.61150757386713 0 -476.61150757386713 522.46702955778255 0 0 0 0 55.459371186410863 -635.86227084084021 0 -635.86227084084021 935.23215836074814 0 0 0 0 -284.29856134022702 123.76355320842413 0 123.76355320842413 1172.6172202349699 0 0 0 0 540.12138664315353 535.33808139682878 0 535.33808139682878 521.37748648468551 0 0 0 0 1.9070274709393402 -5.181533271002948 0 -5.181533271002948 10.914979941444642 0 0 0 0 -208.56805669877212 -618.54461058539528 0 -618.54461058539528 970.9326844889074 0 0 0 0 71.156382277627927 -685.41600973630739 0 -685.41600973630739 96.45942895776534 0 0 0 0 -135.31992639335658 -518.99921064875889 0 -518.99921064875889 486.80298799235788 0 0 0 0 -197.14362557508866 -589.98004218723509 0 -589.98004218723509 800.38447249548881 0 0 0 0 -40.955374959703477 -275.22576708657289 0 -275.22576708657289 1134.5610949182737 0 0 0 0 712.67627959231322 -559.29435199799627 0 -559.29435199799627 -674.72388571519332 0 0 0 0 550.68536459843563 -394.85063540232659 0 -394.85063540232659 -223.65162337091169 0 0 0 0 70.992996774079074 -1047.0872421314489 0 -1047.0872421314489 -444.2580887688182 0 0 0 0 198.30303250202655 -408.15221916992869 0 -408.15221916992869 -114.09718533339037 0 0 0 0 831.99161151995213 -727.95042926901078 0 -727.95042926901078 1.4822471220250009 0 0 0 0 698.38715963244795 -523.82735348484675 0 -523.82735348484675 -46.807430129731074 0 0 0 0 1167.8375602927954 -398.63599472792703 0 -398.63599472792703 -270.0020147438081 0 0 0 0 1024.7163584141872 106.84418023344915 0 106.84418023344915 -101.20732986588337 0 0 0 0 124.52124005857331 -44.525889332522638 0 -44.525889332522638 -22.217125555631355 0 0 0 0 83.141725478204535 -17.713636282844163 0 -17.713636282844163 -16.890006105459179 0 0 0 0 788.97621505877032 -207.9034869602292 0 -207.9034869602292 -153.1136722110532 0 0 0 0 594.33981140998549 -32.785107262679958 0 -32.785107262679958 -142.047843694927 0 0 0 0 -4.2508317614830418 -7.4587215164910248 0 -7.4587215164910248 -15.846203762868242 0 0 0 0 93.654068660222038 -534.89807259196459 0 -534.89807259196459 1.0293831895805852 0 0 0 0 56.804291568898407 99.064672698214054 0 99.064672698214054 -375.6034792749706 0 0 0 0 -2.3962278988183225 -4.6743289036795836 0 -4.6743289036795836 -4.5100739278396418 0 0 0 0 75.778565273808454 -49.151847135774005 0 -49.151847135774005 -40.030683103132105 0 0 0 0 98.462973953068285 -216.86263715238238 0 -216.86263715238238 -186.14078184844402 0 0 0 0 -12.57789920947107 -423.5629765189442 0 -423.5629765189442 -560.46956787910494 0 0 0 0 -338.90332689784236 -503.25876701511879 0 -503.25876701511879 -127.09041156199237 0 0 0 0 -69.9741763568436 -154.40544299378598 0 -154.40544299378598 -207.59781826358449 0 0 0 0 485.43449495690402 -545.80095470108063 0 -545.80095470108063 -580.94092256642762 0 0 0 0 285.15305537265976 -796.00661915096134 0 -796.00661915096134 -151.66073218442034 0 0 0 0 614.94029034971754 -1077.6520059279392 0 -1077.6520059279392 -2251.9590719564367 0 0 0 0 0.69484275727712941 -2.7465611669701531 0 -2.7465611669701531 -0.1635495477490565 0 0 0 0 487.0769162619406 -886.2916841073552 0 -886.2916841073552 164.90309056695696 0 0 0 0 48.044261628998356 -300.84619366562765 0 -300.84619366562765 221.69975483772942 0 0 0 0 34.158675130805932 -315.77057175755181 0 -315.77057175755181 240.79663868682474 0 0 0 0 -52.983140727026694 -195.14242355907481 0 -195.14242355907481 533.68954866730201 0 0 0 0 -3.5061240103886462 -9.1203772335350379 0 -9.1203772335350379 2.397699404092652 0 0 0 0 23.573934582393122 -351.7881459844175 0 -351.7881459844175 1386.4085666836836 0 0 0 0 -200.63554317269154 -467.04422623908249 0 -467.04422623908249 -199.43199478425777 0 0 0 0 6.3273324715592025 -398.06380515877026 0 -398.06380515877026 40.998453351028729 0 0 0 0 -6.0722634295525495 -90.183419405988388 0 -90.183419405988388 115.55580031744375 0 0 0 0 -121.33233217280576 -239.35463803788116 0 -239.35463803788116 -29.783965594368055 0 0 0 0 -8.6151659714913364 -7.5209348526247197 0 -7.5209348526247197 3.2798614508347441 0 0 0 0 -476.49766335129607 -460.60950267484441 0 -460.60950267484441 1461.795833700322 0 0 0 0 -164.60744234075992 -637.93389443973683 0 -637.93389443973683 793.55413058610429 0 0 0 0 -608.44268799058045 -1201.8008480555363 0 -1201.8008480555363 322.27249819081771 0 0 0 0 -368.34946521043912 -702.67067825940285 0 -702.67067825940285 989.83492279818165 0 0 0 0 -506.76179962692186 -634.60415656448095 0 -634.60415656448095 958.19828089865769 0 0 0 0 -299.13555381584956 -358.87700120963564 0 -358.87700120963564 -852.26962937841017 0 0 0 0 -245.37257702661373 -924.04700052241606 0 -924.04700052241606 -208.23758377564809 0 0 0 0 -177.8461903278112 -901.93104074801522 0 -901.93104074801522 -207.5590879762176 0 0 0 0 43.615174870446936 -1030.5569155370104 0 -1030.5569155370104 -211.87211206643406 0 0 0 0 358.64833758124223 -459.60991160452613 0 -459.60991160452613 36.84913790106657 0 0 0 0 344.59047457400175 -1043.451302687512 0 -1043.451302687512 -478.18320633566327 0 0 0 0 -219.64009102780619 -1180.9053691423833 0 -1180.9053691423833 1530.676067148841 0 0 0 0 -0.3799554285318294 -1.9721709286498026 0 -1.9721709286498026 0.8530939825931938 0 0 0 0 713.27621374925002 -532.59366444325497 0 -532.59366444325497 339.15867347989479 0 0 0 0 -554.75820663409831 -942.4210885158609 0 -942.4210885158609 -604.8375508640529 0 0 0 0 -1572.8842055594214 -1442.0934890868921 0 -1442.0934890868921 368.267859406762 0 0 0 0 -190.5423958885026 -1183.6857688157233 0 -1183.6857688157233 110.50582921711612 0 0 0 0 -526.13125896496422 -1151.402246960206 0 -1151.402246960206 348.86585605233267 0 0 0 0 -367.14897831695998 -387.37254234556167 0 -387.37254234556167 109.63329790783609 0 0 0 0 -1203.6246606556861 -674.02368465161089 0 -674.02368465161089 -68.315787669052952 0 0 0 0 -831.74982670017926 -263.82550773495313 0 -263.82550773495313 -250.37566599292313 0 0 0 0 -655.06621502607231 -743.60954695397231 0 -743.60954695397231 -299.87984875357506 0 0 0 0 -3.2602555117763714 -2.2866500759100603 0 -2.2866500759100603 -1.7961997445681277 0 0 0 0 -285.56377338311722 -689.79148929297662 0 -689.79148929297662 -349.58297116136964 0 0 0 0 123.80304552770031 -105.65151300498837 0 -105.65151300498837 -275.0735107404962 0 0 0 0 -892.94851256855611 -389.50503951683561 0 -389.50503951683561 -429.25289834165596 0 0 0 0 212.1523887615549 -548.19327691164654 0 -548.19327691164654 404.42991071721553 0 0 0 0 580.22575132833299 -474.73131698864017 0 -474.73131698864017 54.254380023339763 0 0 0 0 142.53393803568542 -281.11328754195711 0 -281.11328754195711 11.133390501987378 0 0 0 0 147.11426783227944 -741.29747396862149 0 -741.29747396862149 -125.18009483424976 0 0 0 0 318.50566288989648 -426.37310335661823 0 -426.37310335661823 -41.805122216537711 0 0 0 0 236.09935936234615 -148.32844615852082 0 -148.32844615852082 68.949273141741287 0 0 0 0 361.2220701876322 -328.47170845151049 0 -328.47170845151049 181.58350093876652 0 0 0 0 486.61041289923742 -422.36992613763869 0 -422.36992613763869 145.11808145840769 0 0 0 0 439.22685482953966 -258.51077999795234 0 -258.51077999795234 120.65043550079463 0 0 0 0 563.407527890653 -370.61173137282458 0 -370.61173137282458 189.59480677441752 0 0 0 0 574.22595741391069 -422.69412727709641 0 -422.69412727709641 329.82201964137494 0 0 0 0 568.82164689291676 -492.92855274543399 0 -492.92855274543399 356.54070174401568 0 0 0 0 664.35651402514486 -410.70195129675994 0 -410.70195129675994 276.78099719907914 0 0 0 0 482.13939312898765 -408.20501526982844 0 -408.20501526982844 267.16122089287092 0 0 0 0 579.48566054063849 -477.84425043177907 0 -477.84425043177907 186.03220604655507 0 0 0 0 817.787322411481 -341.50698114496481 0 -341.50698114496481 308.51493128031871 0 0 0 0 661.95324306238581 -419.6177549772051 0 -419.6177549772051 448.59347204986261 0 0 0 0 717.45430360307364 -532.59582829790452 0 -532.59582829790452 373.70963583290722 0 0 0 0 1093.3980498402634 -282.77447606503483 0 -282.77447606503483 237.35439291393413 0 0 0 0 583.98101368356572 -605.48413014384596 0 -605.48413014384596 320.79401433168096 0 0 0 0 673.66004165653794 -461.8520408718432 0 -461.8520408718432 343.26242184045259 0 0 0 0 489.70261784466857 -510.55696544730745 0 -510.55696544730745 380.57374098641594 0 0 0 0 532.32782321376362 -583.92399215199839 0 -583.92399215199839 436.9467291963374 0 0 0 0 449.984850004279 -535.05397874060145 0 -535.05397874060145 457.98709197040807 0 0 0 0 513.58569018110575 -903.22136754148596 0 -903.22136754148596 828.07517236621061 0 0 0 0 596.0176277910341 -219.21745257452312 0 -219.21745257452312 238.84727904427564 0 0 0 0 9.1159662657957767 0.058943068256553488 0 0.058943068256553488 0.18077226581203831 0 0 0 0 406.25247190953451 -478.94285308900726 0 -478.94285308900726 433.12432269022975 0 0 0 0 3701.3248333082156 -747.5021471903965 0 -747.5021471903965 1000.7717525331682 0 0 0 0 3000.3272343959943 -1346.5393507242188 0 -1346.5393507242188 214.68789317288611 0 0 0 0 -328.76988392595013 -1931.8448891898297 0 -1931.8448891898297 2546.8514566461999 0 0 0 0 -230.65911737645729 -538.75656331763457 0 -538.75656331763457 1020.1410558731295 0 0 0 0 105.41466399697492 -663.09303244675539 0 -663.09303244675539 1054.3422398302209 0 0 0 0 7.2892295223949404 -0.5563469127491345 0 -0.5563469127491345 0.94253789377187047 0 0 0 0 53.438882505560372 -6.955846822520698 0 -6.955846822520698 -5.4102644790773589 0 0 0 0 8.1847109830613718 -16.54427372289426 0 -16.54427372289426 -23.259840142289875 0 0 0 0 220.25773361229585 1.166655365301267 0 1.166655365301267 -20.527269836136838 0 0 0 0 101.83171595734984 -46.891005191715522 0 -46.891005191715522 -18.700298898853362 0 0 0 0 232.12435033718248 -56.115460941997299 0 -56.115460941997299 218.00711655672058 0 0 0 0 1640.5125197230682 845.08835596019344 0 845.08835596019344 64.99016012377524 0 0 0 0 20.447868684967979 -2.5169148946892221 0 -2.5169148946892221 1.14086918426176 0 0 0 0 1313.4603135300422 -2025.1087034560842 0 -2025.1087034560842 2258.6434167305752 0 0 0 0 627.10892826093186 -304.05557191932166 0 -304.05557191932166 533.14666548999958 0 0 0 0 542.23374786509521 -445.39138098316471 0 -445.39138098316471 307.43743869047648 0 0 0 0 18.760059034290265 -7.9651749371044964 0 -7.9651749371044964 1.0443168158363676 0 0 0 0 147.18199046105656 -67.140937935775582 0 -67.140937935775582 408.04271817313565 0 0 0 0 778.58754149495508 -685.0751267769956 0 -685.0751267769956 220.80332710195216 0 0 0 0 639.11000304770096 -994.53149467763706 0 -994.53149467763706 1175.5724465020467 0 0 0 0 1673.0293158060704 -1085.5885211939531 0 -1085.5885211939531 528.04880715609761 0 0 0 0 903.14140528503049 -742.70683283738254 0 -742.70683283738254 384.34205315264626 0 0 0 0 1004.1537759166749 -1049.3416138144976 0 -1049.3416138144976 1069.5955369645162 0 0 0 0 759.22449230628717 -387.49736217307691 0 -387.49736217307691 1037.8005367316073 0 0 0 0 838.85581481152622 -392.85086080555993 0 -392.85086080555993 178.19540865905583 0 0 0 0 697.36431158768937 -353.27514055737265 0 -353.27514055737265 449.16972575054388 0 0 0 0 897.11681190608579 -631.97926953908973 0 -631.97926953908973 557.71129332452256 0 0 0 0 668.56282580164407 -422.13598671361979 0 -422.13598671361979 341.46052016940666 0 0 0 0 460.48131031293451 -336.62466189594852 0 -336.62466189594852 272.91831684659701 0 0 0 0 551.10630772579498 -331.00400365925816 0 -331.00400365925816 225.34789189253934 0 0 0 0 567.83456987742102 -297.53271592335659 0 -297.53271592335659 290.2940397911625 0 0 0 0 385.35730597578004 -264.43860253890307 0 -264.43860253890307 295.57316385698505 0 0 0 0 363.75746858770071 -286.52467960728245 0 -286.52467960728245 239.1412220444472 0 0 0 0 568.56971044362945 -272.10074920449915 0 -272.10074920449915 199.40488637604722 0 0 0 0 572.59033753921176 -246.17863996142842 0 -246.17863996142842 336.71001141796398 0 0 0 0 726.60970113184885 -362.76168407892692 0 -362.76168407892692 294.98970153300615 0 0 0 0 572.23863243866981 -150.49745102039742 0 -150.49745102039742 267.9397050868065 0 0 0 0 372.24657411271983 -269.1895633293243 0 -269.1895633293243 294.78256401566097 0 0 0 0 642.91398488242157 -244.87602750657788 0 -244.87602750657788 176.35968203525408 0 0 0 0 -10.87381567499142 35.234748681381461 0 35.234748681381461 145.41629470293992 0 0 0 0 2.5359474493766214 1.4326443928392507 0 1.4326443928392507 1.1954126270512688 0 0 0 0 185.2553541394409 222.29573532738141 0 222.29573532738141 12.678318399219279 0 0 0 0 398.3259673340508 -97.615815486533393 0 -97.615815486533393 -463.55266432759527 0 0 0 0 -192.7264373304024 -134.20186424878557 0 -134.20186424878557 278.36596080168601 0 0 0 0 5.5596393171798013 -4.5169915280412596 0 -4.5169915280412596 2.3926454506565449 0 0 0 0 -129.11641500375481 -918.40061231697473 0 -918.40061231697473 85.68775568032288 0 0 0 0 927.84129579036198 -138.80527526134574 0 -138.80527526134574 -47.284430627827533 0 0 0 0 1061.3146404434701 -397.02262966307171 0 -397.02262966307171 171.35152019724228 0 0 0 0 773.26651632833273 -687.48141914759435 0 -687.48141914759435 138.66357284440164 0 0 0 0 -453.5108753459499 -259.90069067270088 0 -259.90069067270088 -161.49621440278133 0 0 0 0 -506.70371842724398 -167.34115190334342 0 -167.34115190334342 -24.311192273671622 0 0 0 0 -744.88104324338906 -289.18242427335326 0 -289.18242427335326 -51.053666478765081 0 0 0 0 -692.97447922350875 -472.30565611870043 0 -472.30565611870043 -395.03309118160541 0 0 0 0 -769.91845557731403 -116.02662318033754 0 -116.02662318033754 85.331394620501669 0 0 0 0 -37.958754720777506 41.417226066798321 0 41.417226066798321 -76.850415490793239 0 0 0 0 -476.43904222131096 -56.621199599670945 0 -56.621199599670945 13.198279022180941 0 0 0 0 29.733346279084799 54.474937061095261 0 54.474937061095261 -32.018480504512354 0 0 0 0 25.230661945116481 -105.77013232697664 0 -105.77013232697664 -16.10391504225845 0 0 0 0 115.09909047560723 -90.444950178571162 0 -90.444950178571162 148.33335018098205 0 0 0 0 -4.0467051402913086 -6.9468495256047902 0 -6.9468495256047902 -6.121671149598285 0 0 0 0 126.23674831450262 -201.87804246550149 0 -201.87804246550149 154.22199917412945 0 0 0 0 343.24896429721412 -171.28773706276843 0 -171.28773706276843 169.36209690910437 0 0 0 0 86.278059240099537 -263.1574178791634 0 -263.1574178791634 346.11838229969726 0 0 0 0 347.01201980404585 -280.98161816840002 0 -280.98161816840002 184.9985764039302 0 0 0 0 395.00821552974958 -230.55823283693644 0 -230.55823283693644 233.0674952197005 0 0 0 0 388.58771785766294 -294.28841572870442 0 -294.28841572870442 183.08929630249622 0 0 0 0 0.36886908417445596 -0.5569640737522974 0 -0.5569640737522974 -0.4850820881605955 0 0 0 0 311.98489439986588 -109.25732883222372 0 -109.25732883222372 112.08995871357183 0 0 0 0 8.992749623395305 4.0202941637690373 0 4.0202941637690373 0.43633229548760255 0 0 0 0 30.94810405811586 27.709160974998667 0 27.709160974998667 1.910942498336226 0 0 0 0 21.72599401943603 11.854805177648132 0 11.854805177648132 11.494184311392019 0 0 0 0 40.265543640249234 6.8859163663946674 0 6.8859163663946674 -30.79180948402427 0 0 0 0 21.966462090928417 8.7353112113864881 0 8.7353112113864881 -6.1816627617954509 0 0 0 0 15.519569920043949 -3.9664291540770904 0 -3.9664291540770904 -9.2596300855775269 0 0 0 0 29.261154784182509 22.535663576489242 0 22.535663576489242 -13.460638814794947 0 0 0 0 2.8028629690245452 -106.67614438862847 0 -106.67614438862847 -90.601350507407915 0 0 0 0 14.626920682093001 -6.9666455460106533 0 -6.9666455460106533 -8.8513000288588444 0 0 0 0 31.821123266228824 -21.013653336114658 0 -21.013653336114658 -17.947773430321831 0 0 0 0 7.9428503086492128 -23.314729397141491 0 -23.314729397141491 -75.883955172066635 0 0 0 0 4.1042162803673818 -0.895066935779532 0 -0.895066935779532 -1.8576657230881608 0 0 0 0 -483.98837179419024 -86.256381953444361 0 -86.256381953444361 -19.534895805438282 0 0 0 0 -340.12294267492325 -111.19915484291414 0 -111.19915484291414 11.524474277699483 0 0 0 0 -314.78277335343864 -110.45740491833749 0 -110.45740491833749 -93.511122300347779 0 0 0 0 59.88408126131435 -267.76270677080902 0 -267.76270677080902 200.66584705650894 0 0 0 0 60.228867209885721 -322.32415734218739 0 -322.32415734218739 508.4757919698277 0 0 0 0 -16.212277780663499 2.8206591688831395 0 2.8206591688831395 334.58392182322859 0 0 0 0 -62.989946907479862 -102.30113939261901 0 -102.30113939261901 -27.876703342582914 0 0 0 0 -5.2640862143234699 -37.823891627020203 0 -37.823891627020203 379.63150808486898 0 0 0 0 -1.1608951851071723 -4.3621089998037661 0 -4.3621089998037661 2.1938966497892238 0 0 0 0 30.955737810667415 -22.37014000318959 0 -22.37014000318959 -17.990405613971234 0 0 0 0 -6.039302592839789 -13.277916671028393 0 -13.277916671028393 -12.959823554920945 0 0 0 0 -6.7843232139565686 -7.6399980114433319 0 -7.6399980114433319 -7.0520973733220558 0 0 0 0 176.46867909177945 -365.96158976643528 0 -365.96158976643528 218.53282162620599 0 0 0 0 177.69886894326464 -337.81523959413335 0 -337.81523959413335 53.278042474994436 0 0 0 0 -70.523064604647516 -129.58175497712364 0 -129.58175497712364 -30.379930986436193 0 0 0 0 56.843238434754312 -33.937461971929224 0 -33.937461971929224 -52.462760024500312 0 0 0 0 121.36189890532114 -0.46820717460286687 0 -0.46820717460286687 -45.191843312808487 0 0 0 0 118.26686838988007 24.687025522948716 0 24.687025522948716 -239.99701874746825 0 0 0 0 272.99399250970464 -114.20325683637202 0 -114.20325683637202 -287.9867052124755 0 0 0 0 43.422694489232526 -713.13788771961845 0 -713.13788771961845 -128.45114794346591 0 0 0 0 -241.95441481708258 -381.18163651789655 0 -381.18163651789655 -201.43813194731047 0 0 0 0 -302.94021265000447 -335.64644000614862 0 -335.64644000614862 0.0068533131416188553 0 0 0 0 318.55238033640126 -466.61242466813565 0 -466.61242466813565 -22.496986669029866 0 0 0 0 -1.6556977000007578 -2.3500472350663202 0 -2.3500472350663202 -3.0401849154825697 0 0 0 0 443.58550976066545 -405.85346461593872 0 -405.85346461593872 -0.89893338635738473 0 0 0 0 -945.03513142000884 165.77539978290224 0 165.77539978290224 322.38759984992066 0 0 0 0 317.49456042517704 -241.94550488170171 0 -241.94550488170171 168.28664728240983 0 0 0 0 187.57824837167209 -315.22412502244515 0 -315.22412502244515 129.71992267129099 0 0 0 0 153.70368111764947 -384.34411658186946 0 -384.34411658186946 -0.015547426703120761 0 0 0 0 583.68626465430134 -563.75528621181729 0 -563.75528621181729 -276.27608364346088 0 0 0 0 566.59919370042417 -275.25227802146492 0 -275.25227802146492 -222.49390401689743 0 0 0 0 1199.6316021169951 -273.68047236761777 0 -273.68047236761777 -614.65857178341321 0 0 0 0 1177.4149201537875 -147.39828636930042 0 -147.39828636930042 -306.59415925460053 0 0 0 0 1283.8142245015533 -444.74324189489926 0 -444.74324189489926 -529.99461193312891 0 0 0 0 1083.6575290344899 -634.48849733973293 0 -634.48849733973293 -213.91828650594107 0 0 0 0 991.51634465995267 77.614332944105627 0 77.614332944105627 -582.72351310169324 0 0 0 0 10.56401949778602 -8.5689337602409239 0 -8.5689337602409239 4.0288473156289797 0 0 0 0 -260.77277968051021 -679.9365282353574 0 -679.9365282353574 -431.48663317164755 0 0 0 0 68.63484157872881 6.3219166944691096 0 6.3219166944691096 -202.04407488490688 0 0 0 0 -69.955474997346755 -414.235693309005 0 -414.235693309005 -509.18940503564227 0 0 0 0 4.1402829351524417 -4.1860125363055261 0 -4.1860125363055261 2.4539363730956154 0 0 0 0 210.68452196564613 -245.27552315546927 0 -245.27552315546927 -528.08104409585576 0 0 0 0 -69.315818003651657 -505.89995122576147 0 -505.89995122576147 41.95021742303652 0 0 0 0 -421.88194123767971 -766.1751732362718 0 -766.1751732362718 -15.387413926873705 0 0 0 0 -500.52296842112264 -320.7415447054118 0 -320.7415447054118 25.346861295103736 0 0 0 0 -159.50443298325627 -531.2473098777009 0 -531.2473098777009 -0.22684647589630913 0 0 0 0 174.26256367268434 -359.86141711832533 0 -359.86141711832533 41.434426516439999 0 0 0 0 391.9657033485164 -491.66499479987033 0 -491.66499479987033 0.58017475737142377 0 0 0 0 1058.4096970413011 -290.18238565835782 0 -290.18238565835782 -25.093798146283007 0 0 0 0 568.12772934052919 -554.36874781004735 0 -554.36874781004735 35.252606724388897 0 0 0 0 310.15818398835836 -271.04609088153302 0 -271.04609088153302 -202.46283644637151 0 0 0 0 1581.9822622070133 -591.04371914587864 0 -591.04371914587864 -54.489399084704928 0 0 0 0 1281.6387473262075 -279.11603770828515 0 -279.11603770828515 -280.80697240809968 0 0 0 0 1103.1911238769244 -134.0935483785579 0 -134.0935483785579 518.84476521024044 0 0 0 0 -168.4566802988702 -411.8459244203259 0 -411.8459244203259 86.915563613467384 0 0 0 0 1794.6837290388721 -135.08776557325837 0 -135.08776557325837 -0.46144758736045333 0 0 0 0 -196.00483761461146 -508.87030615003823 0 -508.87030615003823 -249.79565229099535 0 0 0 0 38.339863741541194 -6.1278766310897481 0 -6.1278766310897481 -144.78992870401999 0 0 0 0 -46.012186252853098 -247.35933510490668 0 -247.35933510490668 -395.41748169541825 0 0 0 0 5.701843219003834 -4.2364218795278674 0 -4.2364218795278674 5.7003096142465779 0 0 0 0 -32.935968846490141 -173.0864489517844 0 -173.0864489517844 -62.674486270854686 0 0 0 0 1996.2619974126455 480.81643662983333 0 480.81643662983333 -80.300082593123079 0 0 0 0 630.86724821958342 21.509156513573544 0 21.509156513573544 -187.67396777169597 0 0 0 0 497.18148510742867 -166.22019166797509 0 -166.22019166797509 -142.39526180794201 0 0 0 0 4.8756441000796862 -4.1724330180983671 0 -4.1724330180983671 -9.0222810753307385 0 0 0 0 12.694217589780806 -17.582779576541412 0 -17.582779576541412 10.697998870637406 0 0 0 0 5.1529642336621491 -8.758549441192045 0 -8.758549441192045 -18.582165565684932 0 0 0 0 486.89355593818254 -129.82822263119306 0 -129.82822263119306 -154.2778037270291 0 0 0 0 -302.85584693593046 -297.10038171872293 0 -297.10038171872293 46.032703189674066 0 0 0 0 514.672214850194 -327.24930742374272 0 -327.24930742374272 -325.32859784323591 0 0 0 0 447.94206800086977 -529.01848258433165 0 -529.01848258433165 -480.0889773289091 0 0 0 0 572.87537730804615 -1197.9934995775548 0 -1197.9934995775548 195.93869823017667 0 0 0 0 36.646795061620651 -8.9549356443130819 0 -8.9549356443130819 -131.84315954928024 0 0 0 0 -454.10053880634223 -688.11680550506571 0 -688.11680550506571 -158.13401482214977 0 0 0 0 8.7558660163879409 -19.971232331042472 0 -19.971232331042472 17.344882183178839 0 0 0 0 -437.79893938258465 -606.28898153300543 0 -606.28898153300543 178.17000424540311 0 0 0 0 -306.00121831311844 -336.27938078242732 0 -336.27938078242732 -224.5018287645853 0 0 0 0 -1213.7141556880888 -322.10272187326336 0 -322.10272187326336 179.45120908286844 0 0 0 0 586.60269965769476 -124.14431740108557 0 -124.14431740108557 29.748330443144368 0 0 0 0 -63.909664752422032 -620.80488853026145 0 -620.80488853026145 606.34621306361805 0 0 0 0 -266.28845195352915 -230.34201872437552 0 -230.34201872437552 57.989341182576027 0 0 0 0 -183.91341921417387 -522.69580277925979 0 -522.69580277925979 49.085141138610197 0 0 0 0 -183.77969767799675 -527.68066481265384 0 -527.68066481265384 -424.05261240256368 0 0 0 0 -169.64094235089578 -50.154940524684207 0 -50.154940524684207 -421.99139827554336 0 0 0 0 -831.28947115612755 -155.46596020058132 0 -155.46596020058132 0.46223422633192968 0 0 0 0 -168.99234783428392 -32.589134461160938 0 -32.589134461160938 35.607612974243239 0 0 0 0 688.5539268408611 -186.96733951158967 0 -186.96733951158967 -19.708422806223098 0 0 0 0 403.50623401522898 -345.54498342598527 0 -345.54498342598527 -0.38134806749667627 0 0 0 0 -2.7049545797121937 -5.561147839608978 0 -5.561147839608978 -6.5498724118429834 0 0 0 0 792.79918833608281 -358.01061289360587 0 -358.01061289360587 0.59480956672632601 0 0 0 0 892.22587105358252 -617.98734753756435 0 -617.98734753756435 235.55436593695777 0 0 0 0 868.40656479204699 -734.98552124767957 0 -734.98552124767957 210.75671303697527 0 0 0 0 -1093.9448113757135 -1594.1964176627862 0 -1594.1964176627862 0.015854370431043208 0 0 0 0 -1013.2242676055321 -1771.7334772555696 0 -1771.7334772555696 377.51449451000008 0 0 0 0 -1468.3514156387391 -1232.8969630625288 0 -1232.8969630625288 731.91243626847427 0 0 0 0 -960.05203283917217 -1751.9396206899764 0 -1751.9396206899764 -2.5955059584812261 0 0 0 0 -671.19018096964282 -810.82917437586002 0 -810.82917437586002 953.9858470087056 0 0 0 0 110.54714329660055 -774.24119430807332 0 -774.24119430807332 953.28724401978252 0 0 0 0 -381.72315446809807 -1201.5329122857802 0 -1201.5329122857802 612.9820061911596 0 0 0 0 -1017.1142927106703 -1828.5039743556117 0 -1828.5039743556117 410.70590882410033 0 0 0 0 -1647.6681590701628 -1764.9371288605107 0 -1764.9371288605107 706.80143127770862 0 0 0 0 -1730.6797985112353 -1246.6901012532726 0 -1246.6901012532726 424.73934051470133 0 0 0 0 -1638.4954836230297 -1224.6631210896496 0 -1224.6631210896496 422.55624819223885 0 0 0 0 -1.3262411652987964 -4.3003536458848828 0 -4.3003536458848828 2.8562650458358121 0 0 0 0 -2213.9818583079687 -1379.0588365039075 0 -1379.0588365039075 460.23528321356571 0 0 0 0 -1056.5194887511898 -1014.3006066613598 0 -1014.3006066613598 -1709.0272825320717 0 0 0 0 -2313.2498948015946 -649.7590411677993 0 -649.7590411677993 -178.075413380604 0 0 0 0 -1681.3522502044798 -512.62924734814442 0 -512.62924734814442 -1216.7308535897173 0 0 0 0 -464.57474263667245 -1925.7332010824684 0 -1925.7332010824684 -319.5210066975269 0 0 0 0 610.06702730469988 -1285.8713727511931 0 -1285.8713727511931 -1252.1279436386176 0 0 0 0 732.30853967645089 -790.85587918863166 0 -790.85587918863166 -1109.2821429333089 0 0 0 0 648.76005633577006 -1121.0884752400234 0 -1121.0884752400234 -322.19193167734193 0 0 0 0 831.43748992728979 -394.27111052188229 0 -394.27111052188229 -500.25151083082892 0 0 0 0 299.21337138046147 -1060.3465014833273 0 -1060.3465014833273 -158.55546636646613 0 0 0 0 649.62182766314072 -277.71289976617845 0 -277.71289976617845 34.545000655398326 0 0 0 0 873.17143201493309 -382.23594533381402 0 -382.23594533381402 -445.76256690963055 0 0 0 0 831.19694582280499 -559.28779429241331 0 -559.28779429241331 -131.24017887433001 0 0 0 0 -3.0505393828632847 -6.3767879830830907 0 -6.3767879830830907 -11.460157687263774 0 0 0 0 -2360.6848382444878 -694.48872403454061 0 -694.48872403454061 -142.30872678739252 0 0 0 0 -2215.4910642444065 -1305.6907638231178 0 -1305.6907638231178 -470.29706926252402 0 0 0 0 -2699.0864939920102 -1057.7470308682932 0 -1057.7470308682932 252.48312248624279 0 0 0 0 0.53426987955607785 -7.020159990552628 0 -7.020159990552628 1.259923680306315 0 0 0 0 -1230.6590602536744 -1413.7001483507483 0 -1413.7001483507483 -1437.1705541460124 0 0 0 0 1330.8364979932921 -1165.4370209503504 0 -1165.4370209503504 205.22472639558691 0 0 0 0 -3.7699468012375377 -11.159880075653227 0 -11.159880075653227 -14.362293513954938 0 0 0 0 820.97179872015113 -451.57407056570082 0 -451.57407056570082 419.57429675322601 0 0 0 0 1174.9338921463059 -406.6836198591991 0 -406.6836198591991 44.849716921286017 0 0 0 0 1205.0926210469347 -660.44429189373568 0 -660.44429189373568 -336.62399363360601 0 0 0 0 -0.66471720612636886 -5.7516540631254358 0 -5.7516540631254358 -7.7989199034400087 0 0 0 0 880.81092312551118 -1111.6075027391598 0 -1111.6075027391598 -449.51576132155606 0 0 0 0 934.35236038094445 -845.36391174490927 0 -845.36391174490927 344.55709748856316 0 0 0 0 720.8373045114713 -569.18096703942865 0 -569.18096703942865 -12.057189196570107 0 0 0 0 797.70385423178595 -405.616087106122 0 -405.616087106122 118.98324511483952 0 0 0 0 437.01786740185344 -288.4547667703373 0 -288.4547667703373 49.14557567355223 0 0 0 0 483.84011071858549 -400.66108142324447 0 -400.66108142324447 187.74438405537512 0 0 0 0 512.45787829344044 -535.01253476571583 0 -535.01253476571583 375.18008905013994 0 0 0 0 496.37507860119149 -346.56207347933014 0 -346.56207347933014 507.07935048712534 0 0 0 0 582.67488488116942 -682.24560755939092 0 -682.24560755939092 499.84284786842181 0 0 0 0 523.7469312560861 -568.84065134203411 0 -568.84065134203411 285.04501471064759 0 0 0 0 103.00772115998552 -26.782361540030251 0 -26.782361540030251 -349.73512822072371 0 0 0 0 -1307.704761293041 -821.13204992145847 0 -821.13204992145847 -876.37496889824979 0 0 0 0 -1405.845792820769 77.714981023547807 0 77.714981023547807 253.54570581871667 0 0 0 0 672.28102125135047 -214.07028189963239 0 -214.07028189963239 193.74736467398179 0 0 0 0 366.27569297799346 -240.88322866114686 0 -240.88322866114686 193.62550285598081 0 0 0 0 -4.6291549973283992 -13.990046500626214 0 -13.990046500626214 -28.637351289957309 0 0 0 0 -770.44701572091435 -352.22293196303508 0 -352.22293196303508 -127.40031851008098 0 0 0 0 -465.42830795209011 177.01577239471953 0 177.01577239471953 6.9880680456190021 0 0 0 0 -5.2981412402043588 -16.204962105553768 0 -16.204962105553768 -38.332464135829809 0 0 0 0 -40.253270694671301 4.4716724747395347 0 4.4716724747395347 -66.06594287793996 0 0 0 0 78.411323205120425 -76.186771998547556 0 -76.186771998547556 116.56832287198631 0 0 0 0 -270.06751270907989 69.89540342390319 0 69.89540342390319 -19.500097812117019 0 0 0 0 538.93704712391991 -374.31448113343504 0 -374.31448113343504 151.17607944222982 0 0 0 0 255.22874812277587 -264.85525383760978 0 -264.85525383760978 249.74580010304999 0 0 0 0 291.63044302829803 -228.54013697499977 0 -228.54013697499977 23.58221394631255 0 0 0 0 208.06040969360038 -22.67685646461905 0 -22.67685646461905 -71.417327908846346 0 0 0 0 151.90839227154356 -202.57813944639202 0 -202.57813944639202 139.22117874917967 0 0 0 0 423.97854298668244 -238.30647550807043 0 -238.30647550807043 83.320275904028676 0 0 0 0 144.58502020496962 -314.79739939163119 0 -314.79739939163119 248.7797632631009 0 0 0 0 381.63203457278132 -510.98589541310503 0 -510.98589541310503 319.75962383212755 0 0 0 0 539.85651523133856 -491.94204430475656 0 -491.94204430475656 287.11260351857709 0 0 0 0 675.93260625559924 -656.53464091654314 0 -656.53464091654314 386.64146804656775 0 0 0 0 310.02482993681133 -956.83674317908299 0 -956.83674317908299 514.33565085507871 0 0 0 0 60.330953122465871 -1060.8841150704175 0 -1060.8841150704175 859.22738358478637 0 0 0 0 -256.56099907333555 -437.07792240031995 0 -437.07792240031995 1109.5920149693829 0 0 0 0 940.28602032473282 -149.7438516707407 0 -149.7438516707407 370.4776615556475 0 0 0 0 1069.2283605671473 -628.80026144826297 0 -628.80026144826297 65.021935202501481 0 0 0 0 -0.85692979489344356 -0.29334524499370929 0 -0.29334524499370929 -4.5265353980834959 0 0 0 0 -1071.5005142048249 -185.44284879366023 0 -185.44284879366023 224.86580958480045 0 0 0 0 349.76346516593549 -437.77007442741524 0 -437.77007442741524 353.82794471235979 0 0 0 0 482.00150404950182 -910.26804443607762 0 -910.26804443607762 60.870982247907989 0 0 0 0 434.12940411247109 -487.30723536068399 0 -487.30723536068399 157.43175530865119 0 0 0 0 456.73529740206595 -436.71361301648994 0 -436.71361301648994 -111.88329331138084 0 0 0 0 -41.172721076538437 164.54698475352779 0 164.54698475352779 263.20720509403327 0 0 0 0 463.76861362229829 -390.81138120659307 0 -390.81138120659307 197.70240523512075 0 0 0 0 418.34704757090367 -1004.4452416036293 0 -1004.4452416036293 1052.5820934856929 0 0 0 0 -26.221199552349503 -404.11550614654436 0 -404.11550614654436 807.29321433059522 0 0 0 0 1276.3399670082144 -261.82453555175016 0 -261.82453555175016 -792.77729612005351 0 0 0 0 3.450431920953136 -5.8740409556799875 0 -5.8740409556799875 9.3023484073655709 0 0 0 0 518.8202775347163 -1835.3248924815125 0 -1835.3248924815125 972.20939515200735 0 0 0 0 1085.922193243694 -1053.0589433402802 0 -1053.0589433402802 704.98317310852872 0 0 0 0 685.26100855622644 -426.57390621503873 0 -426.57390621503873 1128.0951122584747 0 0 0 0 1290.8392074570802 -649.04491612215315 0 -649.04491612215315 472.74059224124358 0 0 0 0 881.70152034383136 -543.70533337469533 0 -543.70533337469533 447.83119587981491 0 0 0 0 622.54281261685901 -927.58048004270677 0 -927.58048004270677 672.27776263808482 0 0 0 0 691.47198837321775 -945.77520336907764 0 -945.77520336907764 497.22790709007677 0 0 0 0 1051.3757708807539 -763.77000185284169 0 -763.77000185284169 429.10855985885428 0 0 0 0 -8.9482593040114864 -7.3938340275716712 0 -7.3938340275716712 -2.5694530226545105 0 0 0 0 490.0183018253374 -379.96871950586501 0 -379.96871950586501 228.64948925865428 0 0 0 0 -181.17580860835733 -1258.4525047390634 0 -1258.4525047390634 -2906.2978825235068 0 0 0 0 -1217.1402956690727 -1575.1202734919498 0 -1575.1202734919498 -0.80180073226802051 0 0 0 0 1.1552944833478571 -1904.2433841617237 0 -1904.2433841617237 -1479.9617953068082 0 0 0 0 -579.53090410203004 -2050.8102847619484 0 -2050.8102847619484 -625.71518915632623 0 0 0 0 -1004.9480700484273 -1297.2803271960111 0 -1297.2803271960111 -1218.6710604282343 0 0 0 0 -1281.0887729834503 -1283.763046936414 0 -1283.763046936414 -847.8742907335909 0 0 0 0 -1214.925245929935 -1392.7885911123194 0 -1392.7885911123194 -848.27543028884247 0 0 0 0 21.501262131361869 -13.702263318440487 0 -13.702263318440487 2.1123595981734411 0 0 0 0 55.765013550555523 -65.260413831010737 0 -65.260413831010737 -28.936074379111233 0 0 0 0 -498.29758532002234 -1289.8308383107869 0 -1289.8308383107869 -1271.8429464350556 0 0 0 0 23.131721338567502 -22.801368746819833 0 -22.801368746819833 -4.3677976613325598 0 0 0 0 -20.564304001753044 -134.89883699525308 0 -134.89883699525308 36.672736073502165 0 0 0 0 -48.835312137790112 -25.851821133400037 0 -25.851821133400037 -2.2880234916175723 0 0 0 0 393.23718936157093 -390.04701320760068 0 -390.04701320760068 283.6261826696491 0 0 0 0 -35.795276663103607 -19.269703231026782 0 -19.269703231026782 -4.5551483518991347 0 0 0 0 435.38107269074499 -345.76221021792844 0 -345.76221021792844 108.83452415156353 0 0 0 0 -14.914253354501852 -662.6797790715973 0 -662.6797790715973 -77.342932948537054 0 0 0 0 337.9128070747538 -214.22583191802914 0 -214.22583191802914 -50.871203727138891 0 0 0 0 -1392.9345132279959 -955.23766969059216 0 -955.23766969059216 -1.8914586272221641 0 0 0 0 579.86848521907814 -66.948045615528827 0 -66.948045615528827 -204.65634122846677 0 0 0 0 2088.14877022375 288.16732878399489 0 288.16732878399489 -218.80921154905081 0 0 0 0 7.9044787562186798 -5.5330209917995887 0 -5.5330209917995887 1.2541031515545171 0 0 0 0 1144.893202735142 -1370.6173012407116 0 -1370.6173012407116 0.37250422028591856 0 0 0 0 1154.7683497595863 -690.89883278974412 0 -690.89883278974412 -257.3771803578129 0 0 0 0 -381.8552329128288 -909.21232909026367 0 -909.21232909026367 136.2786304342153 0 0 0 0 -1011.9426522416834 -1375.0860897732418 0 -1375.0860897732418 249.22731716113776 0 0 0 0 -1135.0336254732829 -983.89974303605413 0 -983.89974303605413 171.20865524458713 0 0 0 0 -431.98144011036857 -814.41668127815319 0 -814.41668127815319 32.382573500348371 0 0 0 0 -1280.9590098691187 -696.99833930512614 0 -696.99833930512614 -307.22572977776872 0 0 0 0 -1206.8800396671431 -1594.4456988780003 0 -1594.4456988780003 -734.71799646436557 0 0 0 0 -1619.5865190604745 -814.85089768256512 0 -814.85089768256512 -150.87629734323127 0 0 0 0 -4.4439681018120609 -709.21321479111793 0 -709.21321479111793 -304.68595421666396 0 0 0 0 -1361.4987909926567 -1187.592629908293 0 -1187.592629908293 490.14304668411933 0 0 0 0 -1289.3514765030559 -1859.9115459110908 0 -1859.9115459110908 -130.33002410596964 0 0 0 0 -877.90313584049727 -914.1434707020926 0 -914.1434707020926 1807.8800495239193 0 0 0 0 -1287.2340689360717 -2027.9579295851872 0 -2027.9579295851872 -1058.736105839198 0 0 0 0 -1347.6782657150179 -1825.1481138574163 0 -1825.1481138574163 -870.1146969576148 0 0 0 0 -1509.6627303322311 -1964.3016758406302 0 -1964.3016758406302 -301.7061314737075 0 0 0 0 -1351.9135096146638 -1795.4717097282555 0 -1795.4717097282555 -1074.1454764930386 0 0 0 0 -1086.9441297927842 -1357.7999162849264 0 -1357.7999162849264 -382.00457476332667 0 0 0 0 -1488.2268824229832 -151.34270783173997 0 -151.34270783173997 -610.43337242693087 0 0 0 0 -902.88644231478975 -167.41999989127726 0 -167.41999989127726 -206.65398832748178 0 0 0 0 -1183.3815330375073 -1743.7444714515805 0 -1743.7444714515805 -1947.102314937918 0 0 0 0 -13.348013877120422 -9.382635868838122 0 -9.382635868838122 -2.6736110832603792 0 0 0 0 -525.59775975158846 -1566.1085588060996 0 -1566.1085588060996 -2403.1416848114677 0 0 0 0 78.491299896355486 -1107.9570742573414 0 -1107.9570742573414 -3284.7817712633478 0 0 0 0 -598.40537225134904 -1335.1519790135553 0 -1335.1519790135553 -1134.186762755613 0 0 0 0 -1287.4876677746797 -888.10817599178336 0 -888.10817599178336 -520.5089314597717 0 0 0 0 -1.1695112020918543 -2.3055010951659938 0 -2.3055010951659938 0.15269027434760574 0 0 0 0 -593.99013277134873 -238.47846222232329 0 -238.47846222232329 -130.67207400240295 0 0 0 0 -370.46423483055696 -209.13460877758189 0 -209.13460877758189 -598.34129882074285 0 0 0 0 -339.71409088982182 -27.260697850608267 0 -27.260697850608267 109.23058016327559 0 0 0 0 -307.87035619289236 28.774793719483569 0 28.774793719483569 -14.165273987558976 0 0 0 0 -285.38443810721219 -283.44408352115352 0 -283.44408352115352 -142.12262302009367 0 0 0 0 -90.780248247196141 -64.778232804404979 0 -64.778232804404979 90.818011694434972 0 0 0 0 -466.68824356065306 -223.68753039668263 0 -223.68753039668263 -159.90928583031928 0 0 0 0 -108.65426923574705 -1199.5463586445549 0 -1199.5463586445549 -1436.3076606322647 0 0 0 0 220.96098544152483 -655.52938344719223 0 -655.52938344719223 -877.8567077267071 0 0 0 0 132.53137785257422 -640.72184372211632 0 -640.72184372211632 102.77208021851402 0 0 0 0 -3.8562449910292429 -7.1355752334942508 0 -7.1355752334942508 -12.844284725262611 0 0 0 0 1200.6868016097433 -85.227956916864059 0 -85.227956916864059 -698.10034029492817 0 0 0 0 -1114.8592071243984 -1176.9096857346813 0 -1176.9096857346813 -1015.7962901794963 0 0 0 0 -84.274138821281667 -792.33709497758537 0 -792.33709497758537 -2402.7520745209622 0 0 0 0 -109.55966767684504 -590.32709740087648 0 -590.32709740087648 -930.48584750027658 0 0 0 0 -312.49729803249647 -679.09161963421502 0 -679.09161963421502 -638.97859760831125 0 0 0 0 -287.01076394988922 146.53018141239954 0 146.53018141239954 -277.53925741136482 0 0 0 0 -136.55641069891863 -152.67291483662848 0 -152.67291483662848 94.083667911451812 0 0 0 0 146.37818905252789 -766.74984438143292 0 -766.74984438143292 -946.83001821030666 0 0 0 0 -2925.7452872175672 -1101.3383662852084 0 -1101.3383662852084 -722.68581225183152 0 0 0 0 -228.67829344480924 -493.67701813713757 0 -493.67701813713757 -2373.9632278083373 0 0 0 0 -904.22157764185977 -184.91037148420946 0 -184.91037148420946 -417.41422300933846 0 0 0 0 278.9307025921371 -809.36826548996032 0 -809.36826548996032 -1476.9668843017789 0 0 0 0 -43.942183159495471 -1206.4066651949888 0 -1206.4066651949888 -1658.9177283656245 0 0 0 0 -355.65560635776637 -535.17666146943884 0 -535.17666146943884 -1042.5178448553415 0 0 0 0 485.55439545428817 -1006.7507403558411 0 -1006.7507403558411 -1324.3578090650044 0 0 0 0 492.49764737874648 -51.090671330508485 0 -51.090671330508485 -2400.3371981682849 0 0 0 0 1.6416021441618796 -1432.8899554814197 0 -1432.8899554814197 -2068.3545266934907 0 0 0 0 542.74448006434977 -668.17138386407896 0 -668.17138386407896 -1086.4898816174609 0 0 0 0 589.68750369424379 -891.84489641038817 0 -891.84489641038817 -955.34392113976355 0 0 0 0 814.8852106219565 -400.65863651099789 0 -400.65863651099789 -365.59713076460321 0 0 0 0 -0.28046182380785467 -704.77747796269614 0 -704.77747796269614 -34.392353731833282 0 0 0 0 84.342786033117591 -482.82878177733437 0 -482.82878177733437 -506.76575526429224 0 0 0 0 468.58041185892216 -1033.3915214936496 0 -1033.3915214936496 168.18841655192227 0 0 0 0 -1.4635018022796658 -10.925204565003497 0 -10.925204565003497 0.23060502388543114 0 0 0 0 -43.07153933788868 119.5147443261385 0 119.5147443261385 493.6726631211277 0 0 0 0 -0.24324510785327777 -559.42341311826192 0 -559.42341311826192 885.11834983847803 0 0 0 0 227.52525780259748 -204.28239581336311 0 -204.28239581336311 844.87676364845538 0 0 0 0 -0.015938673104897758 -2.9424894450940502 0 -2.9424894450940502 -3.8803102145320736 0 0 0 0 494.84386267114314 48.71877758165283 0 48.71877758165283 -213.36380579983597 0 0 0 0 -0.61260349433737105 -2.958401349441985 0 -2.958401349441985 -2.3012268553941908 0 0 0 0 332.60527748377353 -162.04902678103826 0 -162.04902678103826 61.292153806993156 0 0 0 0 370.00771740602795 -229.48793397675399 0 -229.48793397675399 -432.69341617033569 0 0 0 0 247.58066553504614 -224.93231016884602 0 -224.93231016884602 287.88235132353111 0 0 0 0 0.69799013067296045 -481.30638779794612 0 -481.30638779794612 34.157779952292913 0 0 0 0 0.28327272860151648 -347.69931371295115 0 -347.69931371295115 377.35620377253508 0 0 0 0 -3.7788095802961266 -5.1847456197131017 0 -5.1847456197131017 -6.8964126651321465 0 0 0 0 469.09034553905894 -69.682546243023808 0 -69.682546243023808 26.946308892118395 0 0 0 0 -9.2341700397925024 -12.586231953725822 0 -12.586231953725822 -12.90443471100005 0 0 0 0 310.15120260726599 -470.95545115712866 0 -470.95545115712866 66.890126607497223 0 0 0 0 383.89123482398281 -1022.4768432043056 0 -1022.4768432043056 -187.1954089559149 0 0 0 0 610.85326525128585 -102.43623036230429 0 -102.43623036230429 -53.065562167015742 0 0 0 0 528.34857030873536 -412.50894112697279 0 -412.50894112697279 -1208.1986764584726 0 0 0 0 -508.57937337228213 -166.81246552374068 0 -166.81246552374068 4.4751296587637626 0 0 0 0 -375.71939563091291 -194.71809422016668 0 -194.71809422016668 -422.28665052061842 0 0 0 0 -1.7909413600063999 -646.58888955420116 0 -646.58888955420116 628.67573185943911 0 0 0 0 -88.680176334632051 74.400170686096772 0 74.400170686096772 34.378931069135433 0 0 0 0 -11.147538704969975 -11.714339634366251 0 -11.714339634366251 -9.9600208446920249 0 0 0 0 287.24253794573451 -100.35016036803063 0 -100.35016036803063 -6.5780644095102616 0 0 0 0 135.88787318237883 -46.170488703493902 0 -46.170488703493902 -17.254295099609408 0 0 0 0 103.35736031633132 39.948076691446204 0 39.948076691446204 -208.71717582841666 0 0 0 0 64.422598470700905 -152.2998009344301 0 -152.2998009344301 -572.19478136800171 0 0 0 0 -6.6226086452450943 -4.6295840820511032 0 -4.6295840820511032 -2.3263268726237811 0 0 0 0 -650.75885594599094 -179.66772788415801 0 -179.66772788415801 622.71028792733705 0 0 0 0 -651.61235431939713 -213.97686596588028 0 -213.97686596588028 83.205328562118666 0 0 0 0 -177.08291126761469 -468.4788124855404 0 -468.4788124855404 -292.03288438959862 0 0 0 0 -18.391643808360826 -37.585593869631253 0 -37.585593869631253 -67.816611193881727 0 0 0 0 416.65965564156068 -386.48885979058468 0 -386.48885979058468 -61.79023024419439 0 0 0 0 -979.25985259447043 80.594764563069475 0 80.594764563069475 365.17717620382609 0 0 0 0 -517.484266315696 -222.1839375666641 0 -222.1839375666641 5.9957787031744374 0 0 0 0 -1229.0600134278357 255.54002606913855 0 255.54002606913855 40.526970434948453 0 0 0 0 -9.8698346586088661 -21.05682672587362 0 -21.05682672587362 -32.787485988988863 0 0 0 0 1105.963994158712 -624.15369024488427 0 -624.15369024488427 -55.767130173670012 0 0 0 0 350.92622691774886 -129.17158715001278 0 -129.17158715001278 99.394507947406964 0 0 0 0 -15.231675454425762 -32.912613570282957 0 -32.912613570282957 -48.596066517299732 0 0 0 0 566.96022328603431 -426.30688968104369 0 -426.30688968104369 139.02945706486935 0 0 0 0 45.486970194324385 -283.15233219456422 0 -283.15233219456422 107.27848542574611 0 0 0 0 105.28288127639098 -304.79742548461945 0 -304.79742548461945 142.03775574133761 0 0 0 0 -243.97414688720164 -79.611971970523882 0 -79.611971970523882 185.07516223377024 0 0 0 0 -218.54284573657424 -66.409568787972603 0 -66.409568787972603 69.64988606931729 0 0 0 0 -141.14994367292456 -110.79122921089947 0 -110.79122921089947 -9.4591276172432117 0 0 0 0 -156.83701178637784 -157.60942351264566 0 -157.60942351264566 -146.41210115943977 0 0 0 0 -176.60358449763589 -196.75951094982156 0 -196.75951094982156 -91.978528072577319 0 0 0 0 -95.039189406925288 -296.94079290059744 0 -296.94079290059744 21.125136039001518 0 0 0 0 132.96496168695739 -274.50871258026746 0 -274.50871258026746 135.33896770107458 0 0 0 0 269.12652667523071 -113.20613193283134 0 -113.20613193283134 14.100027189488173 0 0 0 0 67.709556899390009 -160.05237720541118 0 -160.05237720541118 -59.035182552892365 0 0 0 0 233.86697231526705 -220.50067516952367 0 -220.50067516952367 -53.958305308624404 0 0 0 0 209.31348245847039 -282.21637873873806 0 -282.21637873873806 -199.7177074237552 0 0 0 0 -180.31938233809342 -341.18664422269103 0 -341.18664422269103 -42.182151652392349 0 0 0 0 -182.05554531206144 -261.67835242491856 0 -261.67835242491856 -264.12201775072026 0 0 0 0 -146.38743181865721 -209.80421539252711 0 -209.80421539252711 -1.8395691883124528 0 0 0 0 -500.45017387500411 221.23116623782698 0 221.23116623782698 973.7836353469902 0 0 0 0 -22.784765234795486 -329.5747422984241 0 -329.5747422984241 -168.84432812976593 0 0 0 0 2.3971687144475027 -3.0608668256398062 0 -3.0608668256398062 2.1986028541070368 0 0 0 0 60.411253441314329 -448.90875138609408 0 -448.90875138609408 -115.11669046759562 0 0 0 0 -5.8843518345643986 -62.324157658470085 0 -62.324157658470085 -70.910969150510027 0 0 0 0 118.24005626541475 -350.61657559233936 0 -350.61657559233936 47.183766880829353 0 0 0 0 -74.421822248277749 -136.31129592191428 0 -136.31129592191428 193.23245074263832 0 0 0 0 -78.361211041883507 -71.712355742727595 0 -71.712355742727595 88.232499113313679 0 0 0 0 15.225339950218086 -88.296518110022859 0 -88.296518110022859 57.066097683074496 0 0 0 0 -14.89375455139816 -119.92087177803478 0 -119.92087177803478 57.729101838795032 0 0 0 0 399.72411740069947 -362.04623740231182 0 -362.04623740231182 -220.75594040327996 0 0 0 0 -121.79464851263037 -143.40137565959867 0 -143.40137565959867 53.589232243091828 0 0 0 0 -96.082684608540148 -124.94499120660748 0 -124.94499120660748 27.571783525243518 0 0 0 0 -124.51972052629753 -79.463248777092303 0 -79.463248777092303 -31.946113681438874 0 0 0 0 -241.1179278215568 72.462673940703098 0 72.462673940703098 -23.682350346992393 0 0 0 0 52.156328280136222 -108.55179296838469 0 -108.55179296838469 99.382077474032485 0 0 0 0 133.54119330184039 -142.72981269483398 0 -142.72981269483398 49.08389794508912 0 0 0 0 4.7278565744146235 -16.342775997688889 0 -16.342775997688889 10.325157748369946 0 0 0 0 -114.8134542486514 -98.795087444267665 0 -98.795087444267665 75.838234572725469 0 0 0 0 99.560329351123073 -86.261306286178296 0 -86.261306286178296 -24.742224497642383 0 0 0 0 40.654153943098208 -102.07205627614121 0 -102.07205627614121 82.168349879975722 0 0 0 0 42.279215102484159 -93.112772146454517 0 -93.112772146454517 83.134975108501294 0 0 0 0 -45.875257505965976 -14.020040917669299 0 -14.020040917669299 57.612307863960794 0 0 0 0 -218.71956990404578 -28.166236244738684 0 -28.166236244738684 44.609978427397436 0 0 0 0 41.579725906070962 -95.780983307267888 0 -95.780983307267888 77.685973810107498 0 0 0 0 -226.73866489178727 -54.548874007597533 0 -54.548874007597533 110.69063869952515 0 0 0 0 -390.18382066782215 -118.73958881503131 0 -118.73958881503131 152.45676109562919 0 0 0 0 67.185795799612919 -51.834938258416798 0 -51.834938258416798 29.027306111290816 0 0 0 0 -647.66098527950817 496.32992018110963 0 496.32992018110963 203.00310093909502 0 0 0 0 -186.52617413617554 -160.05616266427387 0 -160.05616266427387 25.907197251261096 0 0 0 0 41.304095512557979 -103.55918972412633 0 -103.55918972412633 71.522554099748959 0 0 0 0 -12.724802476609142 -10.216795439656835 0 -10.216795439656835 18.538866077452397 0 0 0 0 0.17739399031685821 -7.4232163972193916 0 -7.4232163972193916 9.8431335649170535 0 0 0 0 -1425.2027120016865 -581.14758148961118 0 -581.14758148961118 -111.03328175304341 0 0 0 0 -1457.650457860902 -515.41048958015017 0 -515.41048958015017 -227.22834843580495 0 0 0 0 -93.645265943134291 -165.41308734005179 0 -165.41308734005179 -169.32705459583667 0 0 0 0 50.440341969573637 -810.51130561450555 0 -810.51130561450555 -627.59042165736901 0 0 0 0 -724.09736467094626 -220.91969319338386 0 -220.91969319338386 -27.144760647643125 0 0 0 0 -503.71923977142433 -318.7943442917167 0 -318.7943442917167 -7.8806001798948273 0 0 0 0 -444.7653500463025 -303.41181399582808 0 -303.41181399582808 24.899928839382483 0 0 0 0 -280.3716952130635 -183.8005097122259 0 -183.8005097122259 55.805865677961265 0 0 0 0 -453.45004973704636 -265.02157539212931 0 -265.02157539212931 45.169076445250539 0 0 0 0 68.168765231558297 -59.51709896816844 0 -59.51709896816844 19.837779842422691 0 0 0 0 -116.50241911259945 -283.63782624706073 0 -283.63782624706073 -34.50748886112342 0 0 0 0 -4.8001626734330785 37.05740942580087 0 37.05740942580087 31.757890136133938 0 0 0 0 218.78069988916104 -118.93695600144201 0 -118.93695600144201 -126.61475759837776 0 0 0 0 -237.16278433907428 191.32771168746331 0 191.32771168746331 -156.9095578193519 0 0 0 0 -369.80211955078994 -545.09606104092563 0 -545.09606104092563 -398.66382471883117 0 0 0 0 -748.07602764862531 -296.86965281234734 0 -296.86965281234734 48.655031301932013 0 0 0 0 -143.96223555520555 -230.43202290702175 0 -230.43202290702175 -77.612655767334218 0 0 0 0 -27.601391595337191 -295.94987616842627 0 -295.94987616842627 -297.67065881450799 0 0 0 0 102.31197264233924 -65.728027941555411 0 -65.728027941555411 -28.31383492686291 0 0 0 0 134.47466849505145 -235.32737127107248 0 -235.32737127107248 -96.191742519149557 0 0 0 0 -119.17653943735058 -154.68615392433276 0 -154.68615392433276 -32.758792103741143 0 0 0 0 -338.4197663803352 -294.65127474105248 0 -294.65127474105248 -57.105181167833507 0 0 0 0 -120.34161728223262 -172.29873773135114 0 -172.29873773135114 -117.81951558879518 0 0 0 0 -363.59920720773516 -297.48922662323457 0 -297.48922662323457 -55.025697991768538 0 0 0 0 -443.53337409441338 -277.82928036190992 0 -277.82928036190992 -23.526739866356365 0 0 0 0 -343.62363621755503 -226.79891933454201 0 -226.79891933454201 -3.1186585857794853 0 0 0 0 -565.89722772035748 -175.16402156796539 0 -175.16402156796539 -8.8491972436895594 0 0 0 0 -391.32108722190605 -190.75950492052652 0 -190.75950492052652 -99.968684127074084 0 0 0 0 -613.14572058490012 -260.41144078898651 0 -260.41144078898651 -280.46147545042913 0 0 0 0 -671.42833576840349 -67.107063755625859 0 -67.107063755625859 -148.56631789416133 0 0 0 0 -180.18360298228799 -236.7819017261063 0 -236.7819017261063 -168.45603224172373 0 0 0 0 -384.83465463343236 -164.31631742085483 0 -164.31631742085483 -86.687926630111178 0 0 0 0 -156.80971963428601 -298.56774885906998 0 -298.56774885906998 -27.62650814576773 0 0 0 0 -117.9760629596567 -156.29208472176106 0 -156.29208472176106 -87.227915705036139 0 0 0 0 -242.16576927294955 -222.10946039627379 0 -222.10946039627379 2.4790617482358357 0 0 0 0 -468.08369660147582 -176.43346883005142 0 -176.43346883005142 88.738690806596423 0 0 0 0 -755.35105786277563 -72.961870113977056 0 -72.961870113977056 -163.53808333736379 0 0 0 0 -383.04567712850985 -192.3622764100146 0 -192.3622764100146 -103.93424586868787 0 0 0 0 -387.62957132019801 -221.55185577440716 0 -221.55185577440716 -284.61576735704148 0 0 0 0 -279.7568117499759 -302.45494999700895 0 -302.45494999700895 -149.53077624989237 0 0 0 0 -505.47524896617324 -276.7790604962147 0 -276.7790604962147 -115.92802362708608 0 0 0 0 -102.35826151128276 -113.02084367921816 0 -113.02084367921816 198.21764211441769 0 0 0 0 -273.00045484594011 -159.76266633043997 0 -159.76266633043997 89.909037547797197 0 0 0 0 -79.857821777237405 -286.19039854411676 0 -286.19039854411676 -35.683119694542256 0 0 0 0 -302.35258564060496 -180.28494142485579 0 -180.28494142485579 133.53307163224963 0 0 0 0 -106.03832920416608 -206.50618234714784 0 -206.50618234714784 0.85728848187136464 0 0 0 0 -204.98464066130691 -212.40797009703601 0 -212.40797009703601 130.6424724683925 0 0 0 0 -263.81981868976436 -102.46245547967555 0 -102.46245547967555 152.59634954434296 0 0 0 0 130.35312888678163 -254.84116246666053 0 -254.84116246666053 171.9177328379883 0 0 0 0 146.4451394307689 -261.76022988279874 0 -261.76022988279874 41.386421580042224 0 0 0 0 -29.498131406769971 -214.04249943863397 0 -214.04249943863397 51.423606261875648 0 0 0 0 172.0707417576923 -269.96438791876426 0 -269.96438791876426 -47.176249998548883 0 0 0 0 72.514304016309325 -160.14209956077866 0 -160.14209956077866 23.01676666935964 0 0 0 0 20.820284900240949 -251.85472737225064 0 -251.85472737225064 -118.57488001553793 0 0 0 0 570.53658639619971 -186.92048483588769 0 -186.92048483588769 -97.706714194766391 0 0 0 0 252.43807106919121 -157.04010323692637 0 -157.04010323692637 71.310767572060286 0 0 0 0 212.48409446260484 -171.46258866352946 0 -171.46258866352946 116.32171859954542 0 0 0 0 148.46531712797878 -243.61566249396492 0 -243.61566249396492 35.044193061283295 0 0 0 0 -3.1802841357412746 -8.1215218041838568 0 -8.1215218041838568 -6.8968832271992824 0 0 0 0 0.0033164904671139084 -5.7112798916186875 0 -5.7112798916186875 5.1887307304950809 0 0 0 0 -31.000630020214885 28.210725016206197 0 28.210725016206197 49.439496077928197 0 0 0 0 43.845297493768157 -6.252386066613326 0 -6.252386066613326 -40.777548475216463 0 0 0 0 68.617285383443232 -23.338827673487685 0 -23.338827673487685 -95.929409787226177 0 0 0 0 -2.2038534743261096 -1.6597728853787999 0 -1.6597728853787999 1.5961471167014167 0 0 0 0 -1.9274564142340438 -7.4182426134537138 0 -7.4182426134537138 -8.4265656607208257 0 0 0 0 -0.06185090031083923 -27.749469150415099 0 -27.749469150415099 27.34913930449693 0 0 0 0 312.44822861483408 -191.59135698733371 0 -191.59135698733371 81.536620825620048 0 0 0 0 314.62644200539944 -142.60314995240333 0 -142.60314995240333 -141.5155804503629 0 0 0 0 343.24640172126237 -59.53427619346985 0 -59.53427619346985 -217.51726901579968 0 0 0 0 341.24564751319849 -84.398666268318721 0 -84.398666268318721 26.315297036904667 0 0 0 0 -1.2655957557807938 -5.4739222343766585 0 -5.4739222343766585 -6.9116077545699284 0 0 0 0 0.050051473901053113 -3.0077997110413319 0 -3.0077997110413319 -4.0262609291821718 0 0 0 0 641.30214415578666 -70.875632180463072 0 -70.875632180463072 -123.28059678732643 0 0 0 0 12.066546816517075 -26.880333797635103 0 -26.880333797635103 21.03579922690551 0 0 0 0 136.69010236630857 46.07125360363716 0 46.07125360363716 -183.9293544650136 0 0 0 0 -6.5062486458482454 -146.35263608576497 0 -146.35263608576497 152.00396043678484 0 0 0 0 57.672560217695718 50.284992846754903 0 50.284992846754903 -91.532105818274431 0 0 0 0 0.72890468015083343 -3.6438078759964867 0 -3.6438078759964867 2.7727168311720476 0 0 0 0 43.576718274583982 -64.609196384670213 0 -64.609196384670213 -150.67927188352041 0 0 0 0 5.6124650066698507 -8.1304137802487162 0 -8.1304137802487162 -11.980832114137058 0 0 0 0 -11.280945796526339 6.9790597411458748 0 6.9790597411458748 -69.557846085604979 0 0 0 0 -10.551646142455866 -89.456559489299252 0 -89.456559489299252 -147.53868751773553 0 0 0 0 -8.8228176335687749 -40.531978163140593 0 -40.531978163140593 -119.46061393222772 0 0 0 0 -44.202546978391183 -17.219002999641816 0 -17.219002999641816 -142.93495518178679 0 0 0 0 -30.35746109043248 -42.36247178769554 0 -42.36247178769554 -100.58238905243343 0 0 0 0 -49.579381765681319 -9.8431598456227221 0 -9.8431598456227221 -16.308682639322797 0 0 0 0 0.66619954471050846 1.8949014507457207 0 1.8949014507457207 -19.02644675737087 0 0 0 0 2.8116092297714204 -27.638909155240981 0 -27.638909155240981 -204.74137732206145 0 0 0 0 13.324309894956684 -61.966640809384721 0 -61.966640809384721 22.997777280877813 0 0 0 0 118.82711263567762 -25.479151758096123 0 -25.479151758096123 -305.34577776450897 0 0 0 0 -57.597066163791169 -53.672097767252126 0 -53.672097767252126 189.59720323574038 0 0 0 0 8.8139410875946567 -74.255009454616669 0 -74.255009454616669 -0.41813233293212093 0 0 0 0 -1.9931499907580559 -5.1795350722397302 0 -5.1795350722397302 24.303478410103473 0 0 0 0 51.539239301193447 -110.73644708245956 0 -110.73644708245956 -111.70607016957729 0 0 0 0 -14.712358447086473 -81.023829111379172 0 -81.023829111379172 14.950631827289133 0 0 0 0 -6.8886108940787381 -135.31887616400854 0 -135.31887616400854 -21.19820736003021 0 0 0 0 -8.548054895885798 -228.02357867583487 0 -228.02357867583487 -142.96689926450199 0 0 0 0 119.53432551839978 -67.265847002439841 0 -67.265847002439841 -8.1688536800384099 0 0 0 0 61.549860408917482 -38.403092388633752 0 -38.403092388633752 -5.1138734942401882 0 0 0 0 265.24491877862238 -243.23159951119669 0 -243.23159951119669 116.12251326293335 0 0 0 0 46.991465975730534 -36.020386430631333 0 -36.020386430631333 18.314633973014679 0 0 0 0 1.5078980062036222 -16.86887230616739 0 -16.86887230616739 36.583209347094339 0 0 0 0 -57.487757864655578 -176.42683262367791 0 -176.42683262367791 -148.04045348596992 0 0 0 0 -379.11238736058294 -219.91920396926434 0 -219.91920396926434 171.35011833673343 0 0 0 0 100.95688747123586 -385.45548733130909 0 -385.45548733130909 119.60155632407987 0 0 0 0 18.798585647135042 -36.459009870923182 0 -36.459009870923182 162.65243855043536 0 0 0 0 82.095717598880583 -90.597433692397317 0 -90.597433692397317 -111.24782643416984 0 0 0 0 -127.92847464259103 -289.05524559193509 0 -289.05524559193509 -51.410169327704352 0 0 0 0 249.98879382164523 -221.28605002141921 0 -221.28605002141921 177.23874256981071 0 0 0 0 0.53395377664927313 1.9776271639805429 0 1.9776271639805429 14.506722394500855 0 0 0 0 1685.2227550033094 -934.61932305251321 0 -934.61932305251321 460.3986122719507 0 0 0 0 -595.71530429001996 79.27420109724909 0 79.27420109724909 530.04366584921081 0 0 0 0 95.807269135042588 -215.38812732537554 0 -215.38812732537554 263.37972603555681 0 0 0 0 191.13384655561094 -345.0671005718068 0 -345.0671005718068 237.46799318539706 0 0 0 0 178.94608831917139 -251.13299268400442 0 -251.13299268400442 95.369696087436751 0 0 0 0 267.46741428847963 -228.9927920357004 0 -228.9927920357004 10.342594336019829 0 0 0 0 77.001668323361628 -92.500342817944329 0 -92.500342817944329 52.152662491571391 0 0 0 0 182.86461842518474 -201.78154719282611 0 -201.78154719282611 46.197024233930279 0 0 0 0 28.409017890284304 -113.15857887150196 0 -113.15857887150196 30.586061668989714 0 0 0 0 39.188779315292777 -117.09466828226869 0 -117.09466828226869 20.776949672552291 0 0 0 0 311.51268779189195 -251.56858094026029 0 -251.56858094026029 61.681470044859452 0 0 0 0 81.378025635611266 -114.21115167646349 0 -114.21115167646349 56.560664964276157 0 0 0 0 -49.502382403683441 -36.906352039521153 0 -36.906352039521153 31.238624340447132 0 0 0 0 86.468295161852438 7.1188369055307703 0 7.1188369055307703 -100.75906429957831 0 0 0 0 -6.0578911894183136 -22.41465482499995 0 -22.41465482499995 -56.914143931353465 0 0 0 0 -52.717925978700805 12.275823452015175 0 12.275823452015175 -32.25863841138198 0 0 0 0 114.81857254393526 -113.08301976683288 0 -113.08301976683288 -19.239646685178741 0 0 0 0 1.4801982331628096 -26.551162996664061 0 -26.551162996664061 -38.610963231012647 0 0 0 0 -50.50100341182042 -40.435226096971746 0 -40.435226096971746 -13.086877302011999 0 0 0 0 -5.7287128083393668 -17.495500631073682 0 -17.495500631073682 -47.918320995454195 0 0 0 0 -202.60066841356456 -69.760420160528156 0 -69.760420160528156 -16.210313872572442 0 0 0 0 22.939296002499759 37.033747598077753 0 37.033747598077753 -142.44840194612334 0 0 0 0 -67.876184169945191 -107.82542848121375 0 -107.82542848121375 -278.37122627479403 0 0 0 0 -315.59778830234427 -178.64660877536517 0 -178.64660877536517 -85.905509719028487 0 0 0 0 -342.02200459790038 -21.472774692003441 0 -21.472774692003441 65.66660452727956 0 0 0 0 -170.25473574988428 -174.785586209342 0 -174.785586209342 4.3082429062623646 0 0 0 0 -337.29069640731905 -198.82042708783047 0 -198.82042708783047 4.3467765496025095 0 0 0 0 -244.92580629797885 -266.64498430320964 0 -266.64498430320964 -68.61477278622624 0 0 0 0 -212.03193700577685 -28.022574223374249 0 -28.022574223374249 108.2281735411234 0 0 0 0 60.825315446243621 -20.409694751608185 0 -20.409694751608185 -74.252439198622596 0 0 0 0 -2.2560433217070397 -0.20572083251201434 0 -0.20572083251201434 0.029130170010006395 0 0 0 0 51.980262067694639 -76.045126809216526 0 -76.045126809216526 -36.10336968608317 0 0 0 0 18.492829721915768 -32.58578645624948 0 -32.58578645624948 -62.749769664289488 0 0 0 0 -68.198306955207954 -2.57963939277397 0 -2.57963939277397 34.676289106828335 0 0 0 0 5.8775889890675899 -30.834256903151982 0 -30.834256903151982 -52.001969520020793 0 0 0 0 -4.1853325540031108 -4.1847386734675638 0 -4.1847386734675638 1.4039781434693452 0 0 0 0 13.37393218075519 -11.398110197644087 0 -11.398110197644087 1.1302571984336964 0 0 0 0 -256.01449005590985 -12.213664208597038 0 -12.213664208597038 40.576762126103858 0 0 0 0 -0.60738457979346094 -2.8133072179919054 0 -2.8133072179919054 1.7370501266182501 0 0 0 0 -61.454415988468099 -10.598152788283187 0 -10.598152788283187 -48.549671354216116 0 0 0 0 -67.504178057803074 -199.22867914491508 0 -199.22867914491508 -370.50462701276047 0 0 0 0 -213.38760362257017 12.488701166555984 0 12.488701166555984 146.85410717140257 0 0 0 0 227.70036701693607 -72.524843769911968 0 -72.524843769911968 -50.752613484335598 0 0 0 0 -1.5993329818829523 -0.47758626429524043 0 -0.47758626429524043 -0.10716598858160253 0 0 0 0 9.7321189037860734 -7.8354949008584072 0 -7.8354949008584072 4.8550843357407132 0 0 0 0 -61.221744943554711 -68.709417317275012 0 -68.709417317275012 -214.3637475905125 0 0 0 0 4.3477587267334457 -6.0458541354164481 0 -6.0458541354164481 -127.49175963541347 0 0 0 0 -23.371554981073132 -25.16855548825697 0 -25.16855548825697 -88.844079712969688 0 0 0 0 53.576710844417903 -46.225436602286209 0 -46.225436602286209 -84.847554296109593 0 0 0 0 0.24077006152583635 -37.543031274333771 0 -37.543031274333771 -102.22420096994028 0 0 0 0 65.839422104647383 -19.332981483934418 0 -19.332981483934418 -85.274652544263517 0 0 0 0 1.8869474596421867 -7.0918700953899787 0 -7.0918700953899787 -15.559053894253154 0 0 0 0 7.315613571627182 -72.070423977020255 0 -72.070423977020255 23.727394648289192 0 0 0 0 -0.38109334449066523 -30.321493170023018 0 -30.321493170023018 -27.192409372329422 0 0 0 0 8.1494036231943028 -27.672842791498624 0 -27.672842791498624 -31.909580423147418 0 0 0 0 7.6277538418944459 -26.253305491351057 0 -26.253305491351057 6.3931991397112142 0 0 0 0 1.9871644770568082 -30.103778023345782 0 -30.103778023345782 -17.049305742692781 0 0 0 0 -17.542073922522832 7.7915090917376801 0 7.7915090917376801 200.39237951057294 0 0 0 0 1.055671093972478 -8.5326430092482326 0 -8.5326430092482326 15.309781660616306 0 0 0 0 -10.317749163456028 -39.602821518099518 0 -39.602821518099518 -3.0672626703162678 0 0 0 0 5.9655561729362887 -41.725721450555099 0 -41.725721450555099 5.7557677112363592 0 0 0 0 -20.347515802626731 -41.260092627257109 0 -41.260092627257109 -2.5650783904129639 0 0 0 0 4.1508735643437831 -42.672002974766656 0 -42.672002974766656 -17.083685615216382 0 0 0 0 19.722262344235787 -21.876401912915753 0 -21.876401912915753 -53.479376434046571 0 0 0 0 -9.6546302881833981 -40.058979298011764 0 -40.058979298011764 19.211719237122452 0 0 0 0 -17.193145354129229 -47.54756145954525 0 -47.54756145954525 -15.027201888762647 0 0 0 0 -1.2791284996691559 -42.748750559784852 0 -42.748750559784852 24.429480506797972 0 0 0 0 -18.409173918612652 -74.302060088706753 0 -74.302060088706753 72.046109591426784 0 0 0 0 35.648700822850515 -73.946774748255848 0 -73.946774748255848 -62.276435321637109 0 0 0 0 -0.97833107256155927 -27.13665979335201 0 -27.13665979335201 -58.086552537075477 0 0 0 0 2.980420728358439 -30.854599261626049 0 -30.854599261626049 -7.0078458474227183 0 0 0 0 48.454260191821959 -69.676905162225012 0 -69.676905162225012 18.854053861261491 0 0 0 0 30.042520924315767 -49.645991113786664 0 -49.645991113786664 -19.629510578297058 0 0 0 0 -9.7552818756063573 -33.948752041430112 0 -33.948752041430112 19.894960650785634 0 0 0 0 3.2956572349939961 -32.089784652765957 0 -32.089784652765957 23.163013281737221 0 0 0 0 19.141304304892969 -35.45169804649953 0 -35.45169804649953 -4.5118010403253805 0 0 0 0 32.015929728164338 -59.81214130128501 0 -59.81214130128501 -23.347877148611587 0 0 0 0 39.262980472187337 -79.429752331405325 0 -79.429752331405325 -92.973515984897858 0 0 0 0 4.2886153425168345 1.5759965537556866 0 1.5759965537556866 -16.189521326102479 0 0 0 0 1.2470457606791285 -19.647760477716389 0 -19.647760477716389 -26.177080192633696 0 0 0 0 2.7370650423935672 -40.04356750262022 0 -40.04356750262022 6.2366255187890687 0 0 0 0 83.016260092172161 -100.86952568230845 0 -100.86952568230845 -112.41735225990487 0 0 0 0 -10.269396666927001 -63.728157924853065 0 -63.728157924853065 -75.286631549983895 0 0 0 0 45.683478109807766 -184.1658735343417 0 -184.1658735343417 -166.73300863589247 0 0 0 0 29.023971667611477 -186.61371227883319 0 -186.61371227883319 -101.38444163687018 0 0 0 0 -11.53402303359897 -76.412420679751747 0 -76.412420679751747 60.099067522993089 0 0 0 0 138.25495448480797 -146.70842928190723 0 -146.70842928190723 -41.572439293760226 0 0 0 0 10.482915287851938 -149.40931452102268 0 -149.40931452102268 -41.152392217572924 0 0 0 0 42.904333646085433 -83.587788636617915 0 -83.587788636617915 -82.164565961866174 0 0 0 0 48.460984532270231 -93.591617770814082 0 -93.591617770814082 -89.736126449985022 0 0 0 0 -50.3989878041466 -208.9955335906925 0 -208.9955335906925 -26.282666822573447 0 0 0 0 7.4075084770130388 -79.485242146060386 0 -79.485242146060386 67.744030898330607 0 0 0 0 190.31139752388481 -231.64324603439673 0 -231.64324603439673 146.37015169789083 0 0 0 0 37.311002716989606 -105.0304049986953 0 -105.0304049986953 191.14647130155845 0 0 0 0 -143.00340710670571 178.31562493869569 0 178.31562493869569 394.45852641941747 0 0 0 0 25.268145165799069 -133.57601458015233 0 -133.57601458015233 -132.8880570557194 0 0 0 0 -34.115642670411034 -191.59096526648318 0 -191.59096526648318 0.81659302950129131 0 0 0 0 -79.135458281190949 -178.25902755809693 0 -178.25902755809693 -0.0058170795455225743 0 0 0 0 -53.241070181888063 -177.29190930595178 0 -177.29190930595178 -5.1836543662320764 0 0 0 0 -62.226775347997318 -207.67739845030519 0 -207.67739845030519 67.106184815344022 0 0 0 0 -101.53803121380042 -181.28050206353328 0 -181.28050206353328 80.013380349953877 0 0 0 0 -90.375321374493069 -165.65105480428247 0 -165.65105480428247 62.882848867979192 0 0 0 0 -59.345371337265533 -214.68757222436898 0 -214.68757222436898 96.832963539847697 0 0 0 0 14.521034049579612 -253.78191229328331 0 -253.78191229328331 75.822124588161387 0 0 0 0 -63.139046011405298 -218.35376179160903 0 -218.35376179160903 115.76844458781488 0 0 0 0 -152.22287683961622 -167.42724160859507 0 -167.42724160859507 221.83254329117335 0 0 0 0 -224.33483042583975 -21.73986231618801 0 -21.73986231618801 181.36108268259159 0 0 0 0 -158.95687817070575 -105.8001544314302 0 -105.8001544314302 52.993854831092904 0 0 0 0 -154.97786912299489 -132.34418447535199 0 -132.34418447535199 91.38149842198618 0 0 0 0 -19.604395901520395 -49.04307621241567 0 -49.04307621241567 -77.051176521953593 0 0 0 0 251.11444522926467 -247.94151538837241 0 -247.94151538837241 -20.217860349614057 0 0 0 0 151.88924883612708 -405.41148244797478 0 -405.41148244797478 75.461016532124631 0 0 0 0 305.44427187162364 -160.8814086124321 0 -160.8814086124321 26.578463036318681 0 0 0 0 -6.458642433903151 -67.310096157811131 0 -67.310096157811131 -55.96543061239521 0 0 0 0 580.70873179300179 -380.48313966854039 0 -380.48313966854039 -5.5078299372835318 0 0 0 0 -18.183939008784087 -48.974612260403759 0 -48.974612260403759 -71.428803699247581 0 0 0 0 -1.1760534746772464 -74.363196989614153 0 -74.363196989614153 -48.29077925470483 0 0 0 0 14.549146455068694 -64.525041915194379 0 -64.525041915194379 -44.618948844137776 0 0 0 0 -9.8509343568257464 -80.199185357605529 0 -80.199185357605529 -40.700150881835725 0 0 0 0 16.356013532880752 -76.262362848294288 0 -76.262362848294288 -56.209071983975946 0 0 0 0 6.7727940670829412 -90.53924219941473 0 -90.53924219941473 -65.942170726732002 0 0 0 0 -16.64635322355025 -97.001475716653658 0 -97.001475716653658 -66.152489524289422 0 0 0 0 16.835913682138198 -71.561968833462743 0 -71.561968833462743 -55.24839515414169 0 0 0 0 -11.299985013731202 -95.640974917558196 0 -95.640974917558196 -104.29042601110996 0 0 0 0 -45.169331158169371 -78.75248931657552 0 -78.75248931657552 -47.620170659443829 0 0 0 0 17.378314904235594 -79.053672006728448 0 -79.053672006728448 -270.94041819774429 0 0 0 0 -98.731086290597887 -61.561249648786543 0 -61.561249648786543 -88.418758666943177 0 0 0 0 -78.745208912730959 -146.86523334321009 0 -146.86523334321009 -128.06580534859677 0 0 0 0 29.787518944627664 -112.97547526085873 0 -112.97547526085873 -133.7476460861144 0 0 0 0 15.50927028647493 -56.465348874629854 0 -56.465348874629854 -111.19608121399506 0 0 0 0 145.30354379995333 -58.540447183178912 0 -58.540447183178912 -29.464321001098142 0 0 0 0 126.76602762842344 -41.463686370536379 0 -41.463686370536379 -42.697191958708572 0 0 0 0 8.9718897081233528 -68.35212846177977 0 -68.35212846177977 -57.467179928199812 0 0 0 0 36.087708940569428 -116.7375190110688 0 -116.7375190110688 -94.996889583926531 0 0 0 0 7.1063856984692393 -56.06478208162298 0 -56.06478208162298 -218.45287759401617 0 0 0 0 -4.7909574363438878 -81.930129928670794 0 -81.930129928670794 -94.393908575653768 0 0 0 0 -4.4826459774194518 -35.438187189112796 0 -35.438187189112796 -48.447068243098329 0 0 0 0 87.086174443073105 -47.359075439519074 0 -47.359075439519074 -74.633374417066079 0 0 0 0 -0.073072975938512558 -55.249205064087143 0 -55.249205064087143 -54.935971406998334 0 0 0 0 220.32651042669386 -20.111707901793125 0 -20.111707901793125 -58.435700692574756 0 0 0 0 100.69435387507087 23.84680597976876 0 23.84680597976876 -23.671527440470527 0 0 0 0 14.870814896250522 -64.706574976644333 0 -64.706574976644333 -39.093787733389036 0 0 0 0 30.507302712992896 -78.195306025479113 0 -78.195306025479113 -42.125644081705104 0 0 0 0 79.164935623655765 -54.214518676117223 0 -54.214518676117223 -50.821407191269827 0 0 0 0 292.64856784297535 -86.292952204279572 0 -86.292952204279572 -200.09063853069165 0 0 0 0 31.35135978868675 -106.01065414599361 0 -106.01065414599361 -14.921117785030219 0 0 0 0 0.33212291157692408 -57.573208912039483 0 -57.573208912039483 -50.862018312442473 0 0 0 0 5.9749911431440061 -62.888844467295641 0 -62.888844467295641 -44.561272995092537 0 0 0 0 16.09531105485803 -122.72599107964197 0 -122.72599107964197 55.042715083647636 0 0 0 0 139.81302902807525 -168.12567586657786 0 -168.12567586657786 -67.093723576486809 0 0 0 0 32.585590128488548 -60.299832349643111 0 -60.299832349643111 -37.217006994030271 0 0 0 0 95.773420531557349 -66.822131900074965 0 -66.822131900074965 -60.286799720441195 0 0 0 0 294.23764813641174 -112.69519214334559 0 -112.69519214334559 -299.62717525809603 0 0 0 0 34.324181920008414 -79.430312455731837 0 -79.430312455731837 -45.409281548450963 0 0 0 0 40.750701624418298 -61.970389931358255 0 -61.970389931358255 -10.754373459086271 0 0 0 0 -6.3568968567856423 -10.114917019547931 0 -10.114917019547931 -17.565658451800712 0 0 0 0 10.163219132908026 -15.956532525512809 0 -15.956532525512809 -100.12250596843759 0 0 0 0 -558.16435308014786 -427.45287277555929 0 -427.45287277555929 -189.27785132660938 0 0 0 0 -19.008083222423821 10.866993993159006 0 10.866993993159006 -121.90791644477576 0 0 0 0 476.96371699457632 -325.03138508675056 0 -325.03138508675056 258.25632838314777 0 0 0 0 1440.5100853296535 -1033.2583431328239 0 -1033.2583431328239 320.8629182693935 0 0 0 0 -365.32338815188996 183.23639022600037 0 183.23639022600037 311.46979908725916 0 0 0 0 635.46586671880141 -263.9783570707441 0 -263.9783570707441 -306.98660537810611 0 0 0 0 -781.05487650366467 -190.11936690084076 0 -190.11936690084076 -333.35593771492859 0 0 0 0 -1727.9686576818949 -266.28103280657888 0 -266.28103280657888 688.83762421143911 0 0 0 0 -2.4463443879822302 -3.6617390997423094 0 -3.6617390997423094 -42.762588324506638 0 0 0 0 -1011.8492504623136 -13.742246734323999 0 -13.742246734323999 29.391945149249295 0 0 0 0 -150.17150522799056 1.4205961750267306 0 1.4205961750267306 -22.91871768909914 0 0 0 0 -7.2193732363348602 -12.078039771514028 0 -12.078039771514028 -21.111127317665272 0 0 0 0 863.65371709495957 -427.84263831028147 0 -427.84263831028147 -9.5811051149867126 0 0 0 0 902.01402609897332 -886.39094769171754 0 -886.39094769171754 94.183740202184708 0 0 0 0 428.09504253080377 -690.00505792356125 0 -690.00505792356125 214.61837842028262 0 0 0 0 134.93884845865978 -164.39686248174621 0 -164.39686248174621 15.858310702768449 0 0 0 0 -1092.2584539530581 -1300.68299451948 0 -1300.68299451948 -177.28082464181352 0 0 0 0 -898.31552652167011 -1242.0787653559298 0 -1242.0787653559298 1122.5934782485238 0 0 0 0 1570.2645125278214 -1734.4018226801891 0 -1734.4018226801891 -1175.0041811240444 0 0 0 0 524.56427366899152 1269.1356737453962 0 1269.1356737453962 89.768679978013097 0 0 0 0 -4.8385770453533041 -63.223322140074742 0 -63.223322140074742 -72.935303281379674 0 0 0 0 -24.707667351237419 -44.280822701534134 0 -44.280822701534134 13.616913508408564 0 0 0 0 -38.357007343449368 -50.271289945652825 0 -50.271289945652825 -53.198345614819118 0 0 0 0 8.6796971371531981 -47.069433280597877 0 -47.069433280597877 -53.848188819654752 0 0 0 0 13.804515410251042 -78.420987272642378 0 -78.420987272642378 -47.205686001863796 0 0 0 0 -1.031242497072526 -55.677360764052537 0 -55.677360764052537 -63.48130633441906 0 0 0 0 327.42666889935936 -384.04022985973461 0 -384.04022985973461 42.115652380128267 0 0 0 0 321.96748315923469 -340.03957354175327 0 -340.03957354175327 89.992177574869856 0 0 0 0 -461.61691636705655 -129.60132308136417 0 -129.60132308136417 132.22724726148408 0 0 0 0 222.65520416376512 -488.18895612902031 0 -488.18895612902031 210.26023926237758 0 0 0 0 1222.228036845816 -648.6733971518197 0 -648.6733971518197 8.1105623453731823 0 0 0 0 1085.3804021475735 41.334826017721753 0 41.334826017721753 -64.189775076971273 0 0 0 0 -14.633684696102407 -46.719484130234797 0 -46.719484130234797 -65.696777365653503 0 0 0 0 211.00419245963667 -646.56199194054011 0 -646.56199194054011 982.50154939265121 0 0 0 0 1.9494845778692707 -23.543187028860039 0 -23.543187028860039 -13.778918644644833 0 0 0 0 3.9941183434275445 148.71813307583579 0 148.71813307583579 261.43588828368047 0 0 0 0 -149.4657978261821 102.8700158287138 0 102.8700158287138 304.47793516679849 0 0 0 0 -185.14162215524448 -49.379516609108123 0 -49.379516609108123 200.47712112317458 0 0 0 0 -178.56452060230731 -17.314912193420241 0 -17.314912193420241 294.04015355020965 0 0 0 0 -443.55453199714975 -128.49271882194444 0 -128.49271882194444 375.90671292228944 0 0 0 0 -280.54519267269643 -108.31821351604231 0 -108.31821351604231 213.34532367956626 0 0 0 0 -222.15425673661957 -671.27464600170697 0 -671.27464600170697 116.82742532568773 0 0 0 0 -384.30685397474736 -50.684723897064032 0 -50.684723897064032 469.98974111233838 0 0 0 0 -780.33863727351854 -457.83313867927791 0 -457.83313867927791 51.37530653941576 0 0 0 0 -290.37305266923795 121.35161263664486 0 121.35161263664486 580.66607253303482 0 0 0 0 -4.778600591295401 1.13271125617851 0 1.13271125617851 -1.1840941371661611 0 0 0 0 -420.75619566809473 -445.57201874176644 0 -445.57201874176644 -457.76293054344023 0 0 0 0 -666.88440074247774 -213.65685009304434 0 -213.65685009304434 2392.1209633019462 0 0 0 0 -207.80563002677809 -67.216297498089261 0 -67.216297498089261 -99.108212150562395 0 0 0 0 -528.36508390094968 -434.58155534223988 0 -434.58155534223988 -105.51477782477423 0 0 0 0 -583.86688858161506 -330.57707536356975 0 -330.57707536356975 -88.794359689345583 0 0 0 0 -371.18264999802705 -107.46622319777543 0 -107.46622319777543 48.748698308918392 0 0 0 0 -434.32896890482516 -445.53318693838082 0 -445.53318693838082 -52.114531571094858 0 0 0 0 -465.12656268029241 -135.13252301614557 0 -135.13252301614557 -341.60612608621523 0 0 0 0 -540.21056262378988 -247.20578610577286 0 -247.20578610577286 69.490248227433312 0 0 0 0 -391.08954645062295 -364.14671472883379 0 -364.14671472883379 -292.30952908951076 0 0 0 0 -404.43125240415793 -422.77996620122644 0 -422.77996620122644 -283.74003772040305 0 0 0 0 -2.7743009107695968 3.0689048046153289 0 3.0689048046153289 -2.1754798528394801 0 0 0 0 -570.89812660471034 -506.49276076508795 0 -506.49276076508795 -223.43737283742666 0 0 0 0 -438.82443230638455 -479.86072359168611 0 -479.86072359168611 -362.46611177263185 0 0 0 0 1241.6334825482754 99.664605257070662 0 99.664605257070662 -124.01535605899699 0 0 0 0 803.19815050797479 -453.95573932161824 0 -453.95573932161824 -632.04256782644734 0 0 0 0 2728.7937570070499 -253.26432503093929 0 -253.26432503093929 -40.842945136435446 0 0 0 0 467.9502767106751 -357.97263048034438 0 -357.97263048034438 5240.8902014741752 0 0 0 0 1017.0520972833183 624.95132336843744 0 624.95132336843744 995.95653376293649 0 0 0 0 850.59779504896142 378.30676373520691 0 378.30676373520691 -204.4643917602466 0 0 0 0 266.26777665173722 -280.82332316196153 0 -280.82332316196153 -35.513506939951185 0 0 0 0 -469.6920903102 52.95350755679101 0 52.95350755679101 336.55211663387854 0 0 0 0 166.1202614829017 118.19694936581254 0 118.19694936581254 -265.41547818764593 0 0 0 0 154.14831518560095 112.45165715923576 0 112.45165715923576 -59.33435155477855 0 0 0 0 323.86429581246193 -23.431771716115691 0 -23.431771716115691 -146.73139880535564 0 0 0 0 157.59820733586821 -372.63258223932098 0 -372.63258223932098 -264.50306873291356 0 0 0 0 248.21675582460739 -414.27775105482215 0 -414.27775105482215 -288.75883443225393 0 0 0 0 36.780094929388724 -125.21551956375697 0 -125.21551956375697 -72.79592836514712 0 0 0 0 91.967547888183617 0.2825882428278419 0 0.2825882428278419 -17.763473663612785 0 0 0 0 134.54453400681086 -64.465185335249771 0 -64.465185335249771 -136.82994520885222 0 0 0 0 47.115440111818316 -80.149665619068401 0 -80.149665619068401 -21.879443181316674 0 0 0 0 35.894458492953163 -116.47168284853456 0 -116.47168284853456 -22.045195774768217 0 0 0 0 -132.79161903633212 -192.48338408005657 0 -192.48338408005657 -313.54874015563996 0 0 0 0 -5.3742471734176718 3.0997703009353188 0 3.0997703009353188 -14.627557808532885 0 0 0 0 64.822677834035858 -27.195578887589363 0 -27.195578887589363 -45.571170183478898 0 0 0 0 32.599882627815532 -30.511520811673108 0 -30.511520811673108 -41.546024730926547 0 0 0 0 -5.3718320512123796 -30.033547661075271 0 -30.033547661075271 -30.196090694880979 0 0 0 0 1.8506973425368045 -14.649424344355211 0 -14.649424344355211 10.535444518770404 0 0 0 0 0.78100735354382778 -14.657056482834378 0 -14.657056482834378 237.3830099579518 0 0 0 0 -180.61766296253336 -38.703164973601815 0 -38.703164973601815 234.22393124689734 0 0 0 0 -38.057307693496114 -78.812407221427748 0 -78.812407221427748 172.13460117083923 0 0 0 0 30.608960409605061 -122.30872089114291 0 -122.30872089114291 190.70522136931049 0 0 0 0 -100.96429954042833 -327.76887946870738 0 -327.76887946870738 264.96848881478695 0 0 0 0 -72.418503035241883 -128.6069554528699 0 -128.6069554528699 238.22554481932093 0 0 0 0 29.853456527564504 -86.573311865884421 0 -86.573311865884421 9.5715634015286923 0 0 0 0 27.364244355449046 -110.03953781337987 0 -110.03953781337987 4.5777907519095606 0 0 0 0 -15.083244079634511 -33.420737059814456 0 -33.420737059814456 -35.534343340104115 0 0 0 0 22.627031257702356 -211.57183558804573 0 -211.57183558804573 117.51246348727364 0 0 0 0 106.58386398356379 -153.10146827628159 0 -153.10146827628159 92.606355279317995 0 0 0 0 95.844004812810454 -106.44833237165903 0 -106.44833237165903 -25.820062942048025 0 0 0 0 -13.134252660081216 -48.357066281596815 0 -48.357066281596815 -30.858691172497814 0 0 0 0 30.557057438927586 -154.8615563406147 0 -154.8615563406147 32.392191467972225 0 0 0 0 1.5743341079287347 -117.3694904009717 0 -117.3694904009717 69.027988140916023 0 0 0 0 -6.4541475185396848 -97.790185240995925 0 -97.790185240995925 64.247293245790388 0 0 0 0 0.73765184958483587 -74.406009358829124 0 -74.406009358829124 18.29667184353093 0 0 0 0 -24.655230415970436 -82.218255550356844 0 -82.218255550356844 15.8971505568461 0 0 0 0 -103.42869503534348 -171.90356480765558 0 -171.90356480765558 86.731394342587009 0 0 0 0 26.236212815334284 -66.400809957961741 0 -66.400809957961741 38.81076464025827 0 0 0 0 21.160517904521839 -101.57314731539554 0 -101.57314731539554 38.389783643056944 0 0 0 0 -19.889309587995967 -15.173553018190063 0 -15.173553018190063 -1.2484937178668076 0 0 0 0 -95.487141299396171 -43.305374075687723 0 -43.305374075687723 -41.083412889696774 0 0 0 0 -31.100364963773245 -67.463808969124329 0 -67.463808969124329 8.9706386259567807 0 0 0 0 14.293508932389159 -118.99686014951658 0 -118.99686014951658 -0.53524156299681636 0 0 0 0 -6.4107845523176366 -111.52781719975246 0 -111.52781719975246 86.168663091961207 0 0 0 0 29.173671726106477 -159.9663980190694 0 -159.9663980190694 57.51301830695229 0 0 0 0 72.791383023330127 -164.58656817343581 0 -164.58656817343581 -8.0559543712952291 0 0 0 0 70.947270664346433 -176.83578737579046 0 -176.83578737579046 -74.119920772598562 0 0 0 0 338.53095317437328 -1148.8773643872555 0 -1148.8773643872555 834.17957747659239 0 0 0 0 -20.83259709915173 -41.582880278048194 0 -41.582880278048194 -69.128252519392049 0 0 0 0 92.302817386906099 -120.49996660882607 0 -120.49996660882607 -48.517356153687615 0 0 0 0 69.667925130517688 -121.52516835684946 0 -121.52516835684946 -47.462387821768061 0 0 0 0 100.03572364681168 -99.638816847422277 0 -99.638816847422277 -38.733699870157579 0 0 0 0 83.712363082937372 -76.718847792955785 0 -76.718847792955785 -11.074657718781964 0 0 0 0 -551.1125538832348 -263.9015955999057 0 -263.9015955999057 1630.5281958414125 0 0 0 0 28.591108306583919 -74.414296413740885 0 -74.414296413740885 -45.30243428477479 0 0 0 0 60.760503754529964 -93.183208388004459 0 -93.183208388004459 -28.390526068687905 0 0 0 0 36.300003025524347 -103.75119230662312 0 -103.75119230662312 0.99679578702239269 0 0 0 0 29.889651527504611 -104.56916959636146 0 -104.56916959636146 1.6032529342774069 0 0 0 0 43.942550120547821 -91.68986464219779 0 -91.68986464219779 9.5247589962455095 0 0 0 0 64.366558474386693 -98.124011442989286 0 -98.124011442989286 -30.565854812353791 0 0 0 0 30.065661599663144 -112.3615938740295 0 -112.3615938740295 -36.086702472472098 0 0 0 0 28.34977479302367 -54.874956641085404 0 -54.874956641085404 13.531334737630957 0 0 0 0 1943.2228042463412 -1252.3154469436467 0 -1252.3154469436467 771.87014845139493 0 0 0 0 18.461320281192457 -119.93265766329569 0 -119.93265766329569 -10.753247513137467 0 0 0 0 22.159539542190032 -110.65430999646924 0 -110.65430999646924 -1.9556829729372112 0 0 0 0 6.9360669340466146 -30.47118086320647 0 -30.47118086320647 -61.089136916192338 0 0 0 0 1732.2980983799789 -1842.5697561419365 0 -1842.5697561419365 -176.39585393498419 0 0 0 0 -0.46314542555526972 -1.7053777126267171 0 -1.7053777126267171 -8.4292595120600993 0 0 0 0 -2316.6228094053167 -504.00704570131347 0 -504.00704570131347 298.3356900415165 0 0 0 0 -344.93799628751276 -427.75304615257119 0 -427.75304615257119 660.99491260296782 0 0 0 0 -570.54585808327101 161.29220238919515 0 161.29220238919515 375.43723689715989 0 0 0 0 -823.40654050930607 -1093.8522861448364 0 -1093.8522861448364 -247.21719501764528 0 0 0 0 2415.1823798749101 397.71646424299979 0 397.71646424299979 166.90825004715589 0 0 0 0 -907.0436610418401 -276.29580704023101 0 -276.29580704023101 -151.31174312523217 0 0 0 0 -1138.9112509786792 302.10214409862601 0 302.10214409862601 -375.03211577883485 0 0 0 0 -1750.1197446470251 182.26628107280703 0 182.26628107280703 -12.10634141384071 0 0 0 0 -1224.4096102640742 -197.86024733605154 0 -197.86024733605154 -380.1895573760703 0 0 0 0 444.88000878757884 -771.83159408162828 0 -771.83159408162828 1040.2827199485328 0 0 0 0 -3.7207023869541054 -17.318483620877274 0 -17.318483620877274 -6.0166425303727351 0 0 0 0 3337.7689152080347 -1755.6425462046172 0 -1755.6425462046172 621.08724807016551 0 0 0 0 1190.248545532686 928.47046577186848 0 928.47046577186848 -522.31471258107922 0 0 0 0 11.774717953810068 -40.599690326762925 0 -40.599690326762925 -60.297919412732881 0 0 0 0 15.192801723474986 -79.954747049050638 0 -79.954747049050638 -35.998254599871871 0 0 0 0 -19.389380973655605 -44.278476881327549 0 -44.278476881327549 -44.947366192739707 0 0 0 0 -74.607043213203724 -158.58387060045425 0 -158.58387060045425 -18.617402807559301 0 0 0 0 -307.27036870862503 -205.41948991217214 0 -205.41948991217214 -15.236120798515913 0 0 0 0 -71.708276802797627 -41.933743216181028 0 -41.933743216181028 -18.256983907445829 0 0 0 0 -12.277896303727175 -118.46369676333052 0 -118.46369676333052 -11.182775766459599 0 0 0 0 -13.838370923758475 -72.973444399782522 0 -72.973444399782522 -5.2096861051686574 0 0 0 0 -15.596119403242483 -69.333610380672326 0 -69.333610380672326 -28.606948019076299 0 0 0 0 -23.504852676425799 -84.526869341203565 0 -84.526869341203565 -10.081885328421777 0 0 0 0 -17.792728018335765 -71.180242989161343 0 -71.180242989161343 -2.8967205325134273 0 0 0 0 -0.71926705854850326 -2.7149637102885293 0 -2.7149637102885293 0.78895290380482663 0 0 0 0 0.073373148814425804 -2.7319493127179157 0 -2.7319493127179157 0.87263189838631661 0 0 0 0 2.0363833781448193 -6.2725040842378803 0 -6.2725040842378803 0.94505480796397023 0 0 0 0 2.1854210776652394 -2.5271595003968343 0 -2.5271595003968343 2.8015161482937003 0 0 0 0 -35.345337235972693 -6.3585602127686798 0 -6.3585602127686798 22.590971650941356 0 0 0 0 10.880046496160503 -39.327292884290728 0 -39.327292884290728 -0.058660952036007075 0 0 0 0 -32.609464464883786 4.3341352425795776 0 4.3341352425795776 61.667279314700863 0 0 0 0 -2.4779000592028311 -7.8440314322716915 0 -7.8440314322716915 -7.5310566376746664 0 0 0 0 -423.97496399936426 35.750301642200611 0 35.750301642200611 172.38033455676486 0 0 0 0 0.26780246031557908 -7.4754302983128582 0 -7.4754302983128582 -1.0307158530195011 0 0 0 0 0.41251070709942894 -6.0484937937603434 0 -6.0484937937603434 3.3176592664702724 0 0 0 0 6.3856265057256678 -6.798673729528673 0 -6.798673729528673 -1.5008722239708732 0 0 0 0 -0.79666776379792736 -2.3226781537420607 0 -2.3226781537420607 0.74076968120884601 0 0 0 0 7.385339234926505 -3.1305799327401473 0 -3.1305799327401473 -4.4645278215575672 0 0 0 0 0.00054710986296413466 -2.6722991811184329 0 -2.6722991811184329 0.90135461001773365 0 0 0 0 2.1984857634633954 -3.4978317359600624 0 -3.4978317359600624 2.9606161885967595 0 0 0 0 6.3391064421739429 -6.0807101713762677 0 -6.0807101713762677 -9.1885324240720365 0 0 0 0 7.1750549744465388 -9.1949722468525579 0 -9.1949722468525579 -5.1582894054736244 0 0 0 0 6.8044376725738402 -10.366322336514713 0 -10.366322336514713 -6.2905855578283081 0 0 0 0 6.6472433443123009 -10.856019013284822 0 -10.856019013284822 -10.284725771423837 0 0 0 0 0.015407741628816704 -12.361096230477873 0 -12.361096230477873 -2.330782169039594 0 0 0 0 6.975759572046627 -10.829480507165272 0 -10.829480507165272 -0.48644456663896563 0 0 0 0 2.667411791117047 -8.9029247777434648 0 -8.9029247777434648 0.82440200644487049 0 0 0 0 -0.62406818637549577 -1.7362374784289756 0 -1.7362374784289756 -0.3133175893864717 0 0 0 0 4.6492487197101582 -11.902690097402228 0 -11.902690097402228 -0.95244474739592988 0 0 0 0 4.1492068333027419 -12.909130152998841 0 -12.909130152998841 -2.9559865836781682 0 0 0 0 7.3646501396724489 -5.8752186081073887 0 -5.8752186081073887 2.7140921502905258 0 0 0 0 22.037857502349652 -9.6069532317342237 0 -9.6069532317342237 9.8886114506749436 0 0 0 0 22.842201414518058 -19.954875506158714 0 -19.954875506158714 -0.096149033161054831 0 0 0 0 -6.3116885016282538 -9.5470896109045924 0 -9.5470896109045924 -4.6524673156170024 0 0 0 0 29.932660589714942 -23.607062403984855 0 -23.607062403984855 -10.478299831600452 0 0 0 0 -1.8649726202469807 -9.6672098243701612 0 -9.6672098243701612 -7.015359022760407 0 0 0 0 8.6805761705545592 -9.2208944336398417 0 -9.2208944336398417 -5.4662978643755196 0 0 0 0 0.84514104075060459 -28.883646651679555 0 -28.883646651679555 -6.9320812843507156 0 0 0 0 7.4033854860754218 -8.8643511646005209 0 -8.8643511646005209 -2.6607903374606394 0 0 0 0 8.1525121026206762 -9.7297513617304503 0 -9.7297513617304503 -5.7973080675656092 0 0 0 0 0.15337315988702471 -5.5404287192374682 0 -5.5404287192374682 0.1325186159783982 0 0 0 0 -83.612271905250964 -193.81836506777836 0 -193.81836506777836 -88.832988830455179 0 0 0 0 -226.57614614915656 -239.11489129969414 0 -239.11489129969414 37.065703546442819 0 0 0 0 -33.297285527416534 -128.8487874848297 0 -128.8487874848297 289.6651976089488 0 0 0 0 99.226821935044427 -299.68429989737342 0 -299.68429989737342 -65.277552454648685 0 0 0 0 2.1170577433690454 -2.1903398569135106 0 -2.1903398569135106 -0.45703995407231446 0 0 0 0 -178.84353647975877 -195.91791669817894 0 -195.91791669817894 77.279777729359921 0 0 0 0 -168.52583286905428 -240.23116742409547 0 -240.23116742409547 260.40734444542977 0 0 0 0 -1.2146649295573297 -242.5421966408021 0 -242.5421966408021 -284.60140920004778 0 0 0 0 -131.02760303398827 -323.91435456662657 0 -323.91435456662657 345.07397985392527 0 0 0 0 4.129187944874559 2.4721312538865874 0 2.4721312538865874 -1.7900503185366858 0 0 0 0 -159.29424256962375 -82.287491967150345 0 -82.287491967150345 596.98073768771428 0 0 0 0 -271.72220597174601 72.468009711668856 0 72.468009711668856 94.756865195953651 0 0 0 0 -84.730850957785151 -17.462106722767203 0 -17.462106722767203 56.610234790023242 0 0 0 0 -291.66514526504034 -73.076442289137049 0 -73.076442289137049 120.82766162780172 0 0 0 0 -1009.0159437122784 -34.06900216145732 0 -34.06900216145732 140.13646263884402 0 0 0 0 -37.24893256778887 -140.35617666137114 0 -140.35617666137114 -58.010304792221177 0 0 0 0 58.250198868074222 -119.17599923939997 0 -119.17599923939997 -54.103900258902286 0 0 0 0 -28.983108388827532 -35.53753949466045 0 -35.53753949466045 -12.815926807711094 0 0 0 0 -59.209823210272589 -47.966054902997712 0 -47.966054902997712 192.09695139419455 0 0 0 0 21.658619455454755 -34.51894918245398 0 -34.51894918245398 315.57065408060225 0 0 0 0 62.170494948426494 -125.08054126773277 0 -125.08054126773277 66.481888815253114 0 0 0 0 -93.584244440673501 -79.30251837155447 0 -79.30251837155447 -29.280974185574451 0 0 0 0 -94.068577376781832 -77.814988934698249 0 -77.814988934698249 39.193516894803906 0 0 0 0 -193.9902995662178 -27.597496969786789 0 -27.597496969786789 128.31229375565454 0 0 0 0 -218.85705106510432 -125.66683782301334 0 -125.66683782301334 164.47149906415143 0 0 0 0 29.926609921836643 -36.379763684308273 0 -36.379763684308273 45.395126031049585 0 0 0 0 -56.356696754875941 -19.615331059010956 0 -19.615331059010956 47.430458962996127 0 0 0 0 17.901498229091885 -107.65765115691943 0 -107.65765115691943 11.233016360536567 0 0 0 0 -10.493915994171402 -106.05120474375326 0 -106.05120474375326 17.557448531442787 0 0 0 0 6.2831600805051835 -9.3835922476168605 0 -9.3835922476168605 9.1180547317925651 0 0 0 0 25.21999806318945 -333.2501700167395 0 -333.2501700167395 406.70342237738441 0 0 0 0 274.48538048649061 -107.04088445473644 0 -107.04088445473644 62.831897827223656 0 0 0 0 -46.782398988107161 -0.87543816873949254 0 -0.87543816873949254 197.87471349474072 0 0 0 0 401.07941988994935 -345.2653565235837 0 -345.2653565235837 129.60432448211577 0 0 0 0 -1.2814734669664531 1.7747066311331139 0 1.7747066311331139 -0.46035181976839112 0 0 0 0 -532.18264866402023 48.465155557745675 0 48.465155557745675 257.05219927709186 0 0 0 0 -325.91652850342143 -197.46829699150749 0 -197.46829699150749 309.72425584265875 0 0 0 0 -285.086466186709 -1.6027319257300405 0 -1.6027319257300405 290.01787972115562 0 0 0 0 -17.576325780086336 9.8880725120743591 0 9.8880725120743591 35.304261225912342 0 0 0 0 -25.01437174601179 -9.7767215611785261 0 -9.7767215611785261 13.428269278889539 0 0 0 0 -73.59138594623073 -205.02392867443632 0 -205.02392867443632 209.77797342434496 0 0 0 0 114.23693124426063 -664.30008490820182 0 -664.30008490820182 201.2658666861862 0 0 0 0 117.37985432939604 -95.406393155499245 0 -95.406393155499245 230.32915481326199 0 0 0 0 85.268590834602946 0.88317747994005913 0 0.88317747994005913 223.89705303446681 0 0 0 0 -5.352520714789307 -4.6257707944458133 0 -4.6257707944458133 10.99029769311295 0 0 0 0 155.97273632338329 -169.18263800650857 0 -169.18263800650857 -172.14577330300381 0 0 0 0 95.56711637859371 129.56825938202587 0 129.56825938202587 -36.650307418378361 0 0 0 0 -667.60239395386907 -159.41316511573609 0 -159.41316511573609 3.3860319417144638 0 0 0 0 -160.32026881240745 45.178601448275003 0 45.178601448275003 60.566546852853207 0 0 0 0 -9.3926258908468299 -36.153387289708917 0 -36.153387289708917 23.529181681267801 0 0 0 0 -22.590373293037374 -19.64461691695486 0 -19.64461691695486 33.13716382647921 0 0 0 0 -26.871609522934818 -139.57346280591477 0 -139.57346280591477 61.736869855580153 0 0 0 0 50.874814778202563 360.14706963902427 0 360.14706963902427 40.97650886655174 0 0 0 0 39.885753690711255 -37.73625510945341 0 -37.73625510945341 26.155277632316228 0 0 0 0 5.475668132517896 -5.7702522288313389 0 -5.7702522288313389 3.4751828330654035 0 0 0 0 138.4727692471497 -448.45783704041423 0 -448.45783704041423 53.328892049597926 0 0 0 0 -895.40007260086713 -719.06981426687162 0 -719.06981426687162 -13.651717214317614 0 0 0 0 -7.7893534536346749 -5.3256740461165784 0 -5.3256740461165784 -3.1908103950218276 0 0 0 0 -262.90083157256231 -513.37647153821354 0 -513.37647153821354 -923.72867020099875 0 0 0 0 -31.179985076538287 -266.93360422206206 0 -266.93360422206206 140.48647115636709 0 0 0 0 -300.09784512646002 278.48106689791666 0 278.48106689791666 -883.96430629483075 0 0 0 0 -84.301153254607925 -353.61591302858051 0 -353.61591302858051 -128.89704248261114 0 0 0 0 -732.34868587164965 -790.31565045550451 0 -790.31565045550451 -418.81440290377395 0 0 0 0 -965.16578240708623 -1.3891336329470505 0 -1.3891336329470505 14.939175234630966 0 0 0 0 -195.68733362448984 -48.595271492318716 0 -48.595271492318716 7.8852814940205462 0 0 0 0 1.1526059333850611 -2.6057329063115446 0 -2.6057329063115446 6.6801738275806386 0 0 0 0 -738.78010336435545 -353.73698949572463 0 -353.73698949572463 65.773813402158339 0 0 0 0 36.316540662013722 345.96933297349551 0 345.96933297349551 898.39862378889848 0 0 0 0 -530.35266609853716 -360.52882132341438 0 -360.52882132341438 820.41205344258367 0 0 0 0 -456.88969551265473 -175.87711253954876 0 -175.87711253954876 673.66729058275905 0 0 0 0 -183.36001741222935 -458.63427283531792 0 -458.63427283531792 5.2783661748107988 0 0 0 0 -354.52231604229746 -442.33008536926718 0 -442.33008536926718 446.43642804447518 0 0 0 0 -309.21362195775509 -397.46011913387974 0 -397.46011913387974 34.927983919948019 0 0 0 0 -227.71162165576243 -234.44997149813389 0 -234.44997149813389 224.05250955984138 0 0 0 0 -457.41895105855178 -135.45796731504095 0 -135.45796731504095 183.23642925669628 0 0 0 0 -343.94726836813788 -35.100506068984032 0 -35.100506068984032 268.66233184968405 0 0 0 0 -302.57861197770399 45.349696580344244 0 45.349696580344244 -30.67916713969862 0 0 0 0 -123.99459640472196 -77.05292107221976 0 -77.05292107221976 51.190356762283045 0 0 0 0 -233.22688728877984 -135.19163904847119 0 -135.19163904847119 24.98106906232897 0 0 0 0 -78.724995763041079 -158.31789457825835 0 -158.31789457825835 -1.1354952188485186 0 0 0 0 -79.519436331782231 -65.636772802721907 0 -65.636772802721907 2.9595757270799368 0 0 0 0 40.741716093139416 -34.964172850104944 0 -34.964172850104944 15.799603712585451 0 0 0 0 -8.5899075301458652 -79.260638170953825 0 -79.260638170953825 5.5570032883006206 0 0 0 0 24.101818143062701 -141.4457320481124 0 -141.4457320481124 -5.2310477033406642 0 0 0 0 -84.113724068067199 -348.18181766464113 0 -348.18181766464113 -116.26409305598827 0 0 0 0 -45.287185333290836 -281.32263394049369 0 -281.32263394049369 -41.712334690097123 0 0 0 0 228.62930393733586 159.74068420074082 0 159.74068420074082 -229.61930032020609 0 0 0 0 46.83296753839079 -32.520464051033954 0 -32.520464051033954 18.471455392707895 0 0 0 0 19.438872152903059 -156.09709267292783 0 -156.09709267292783 -25.449105181338837 0 0 0 0 51.685021790322935 -79.213295920570999 0 -79.213295920570999 -61.211022925010184 0 0 0 0 60.36427207365341 -48.949489260750852 0 -48.949489260750852 -225.46161294990452 0 0 0 0 11.702889582178614 6.3058018641058879 0 6.3058018641058879 -26.827808566416934 0 0 0 0 -2.0543590876871747 -3.5276505565422838 0 -3.5276505565422838 -2.6164027760111424 0 0 0 0 -133.4144625016088 -362.94404719301929 0 -362.94404719301929 -425.44275432561335 0 0 0 0 -1104.9433811518393 -268.31160862778597 0 -268.31160862778597 -400.77904892284278 0 0 0 0 -1100.222918083382 -329.47338729301009 0 -329.47338729301009 -35.206750516495958 0 0 0 0 -3.3310656407126373 -2.4197404522576988 0 -2.4197404522576988 -0.61795705942105883 0 0 0 0 93.401974564170814 -23.106759981119467 0 -23.106759981119467 -369.43668940316365 0 0 0 0 38.00823315820162 -55.939047631099129 0 -55.939047631099129 37.539783016702813 0 0 0 0 -1663.3652693314943 -225.54389416474442 0 -225.54389416474442 26.089886258734623 0 0 0 0 15.192801338620484 -317.55312785487331 0 -317.55312785487331 -433.40783055208158 0 0 0 0 -672.29198270384222 -209.69868652449804 0 -209.69868652449804 79.118852740415605 0 0 0 0 5.55111222394072 -11.948537918933127 0 -11.948537918933127 1.4916796812567839 0 0 0 0 26.254203013268125 -17.444068521273948 0 -17.444068521273948 -60.117302710709879 0 0 0 0 44.572842532783397 -70.003100640518824 0 -70.003100640518824 24.417383574943415 0 0 0 0 41.213133471384936 -36.040609405759824 0 -36.040609405759824 22.146485622979526 0 0 0 0 -14.044308631752273 -27.781081632508105 0 -27.781081632508105 -7.2456723601488164 0 0 0 0 -123.0015042799314 -77.749274380909355 0 -77.749274380909355 1.6202754697478667 0 0 0 0 29.569298902482842 -62.902452385823381 0 -62.902452385823381 10.10743085496506 0 0 0 0 9.3250733556857028 -27.330218584597247 0 -27.330218584597247 19.610121177090395 0 0 0 0 -88.525469085536315 -19.130536801543712 0 -19.130536801543712 113.42735425085175 0 0 0 0 24.730791794453268 -55.087061878912579 0 -55.087061878912579 164.54888208627381 0 0 0 0 -0.73411179257989545 -8.3519920793997215 0 -8.3519920793997215 3.7814627232568157 0 0 0 0 24.49097193080442 -99.100980221022269 0 -99.100980221022269 108.45065417739897 0 0 0 0 9.6917659674616061 -17.031093914328224 0 -17.031093914328224 21.921884255496515 0 0 0 0 -586.52980084999581 -48.968106626361987 0 -48.968106626361987 88.470465741833323 0 0 0 0 0.89489963255152816 -6.1615587684178905 0 -6.1615587684178905 6.132130117262875 0 0 0 0 -279.91658054857544 37.949425345649615 0 37.949425345649615 4.922141444427325 0 0 0 0 -208.21978965212656 -293.84269204684733 0 -293.84269204684733 -33.757597999639984 0 0 0 0 -74.273419992969139 -243.68599088795236 0 -243.68599088795236 -46.726072657504119 0 0 0 0 -191.25922676413029 -179.5376391671798 0 -179.5376391671798 0.90237014057402121 0 0 0 0 -377.4718504785269 -147.54345221427138 0 -147.54345221427138 3.7629560086134006 0 0 0 0 -204.54619756812463 -266.35029901100279 0 -266.35029901100279 -26.782383686728281 0 0 0 0 -177.14751643920681 -169.0301377118376 0 -169.0301377118376 -49.2014296956404 0 0 0 0 -0.025659599923528731 -188.66328435733703 0 -188.66328435733703 -96.775930290841643 0 0 0 0 -75.643868756174925 -198.2407671175788 0 -198.2407671175788 -60.091852945635765 0 0 0 0 58.264424579552724 -214.65250018998631 0 -214.65250018998631 -80.345244312697105 0 0 0 0 -0.038856633195173212 -199.05579083773966 0 -199.05579083773966 77.03960955182265 0 0 0 0 -30.078544999349106 -330.25031360090725 0 -330.25031360090725 25.825059921786305 0 0 0 0 -74.163230176927755 -258.78543808158793 0 -258.78543808158793 -65.70078869027202 0 0 0 0 -232.24728272885841 -327.44000316870734 0 -327.44000316870734 -18.415570785022283 0 0 0 0 -523.83800869376864 -438.18285373588878 0 -438.18285373588878 -69.193360063858563 0 0 0 0 -324.21808526077075 -221.60618542095472 0 -221.60618542095472 -45.786493711077128 0 0 0 0 -118.92404810839798 -367.56951728841523 0 -367.56951728841523 -307.89534743154945 0 0 0 0 -208.34832257905509 -217.885518026711 0 -217.885518026711 -102.72497254783229 0 0 0 0 -26.299275571538601 -94.544024255439581 0 -94.544024255439581 -135.28567039689733 0 0 0 0 3.1545423672068864 -198.15304627472506 0 -198.15304627472506 -273.27002926046316 0 0 0 0 7.1622345816576853 -203.72360686583852 0 -203.72360686583852 -346.28940155567398 0 0 0 0 8.7372524939710274 -290.33450916144648 0 -290.33450916144648 -261.27776659218944 0 0 0 0 -134.72259650588967 -174.63534719842573 0 -174.63534719842573 145.75588433406665 0 0 0 0 -28.766819860611577 -18.376121851291828 0 -18.376121851291828 -5.6924381545686629 0 0 0 0 -113.5194096697378 -168.23418618128926 0 -168.23418618128926 -96.430316606776614 0 0 0 0 -59.987310335025541 -75.920574167274026 0 -75.920574167274026 -99.13050273200497 0 0 0 0 65.195531547405835 3.6494097606126559 0 3.6494097606126559 -57.310755414815503 0 0 0 0 66.254964822641341 -94.15475935093491 0 -94.15475935093491 -173.0101621576614 0 0 0 0 -0.14431491369032301 2.208032558854029 0 2.208032558854029 -40.41999584275618 0 0 0 0 -78.306469004513929 -128.34242058595191 0 -128.34242058595191 -142.71281566185644 0 0 0 0 0.22064081465941854 -70.556816954776878 0 -70.556816954776878 -141.36373394544717 0 0 0 0 7.3932334624987561 35.142484969146608 0 35.142484969146608 30.435919521321921 0 0 0 0 -19.031650536639063 -3.7739355917574358 0 -3.7739355917574358 -25.369359903183067 0 0 0 0 63.734934028907446 -103.86119260988744 0 -103.86119260988744 171.23284863914887 0 0 0 0 -0.00037558295681596067 -2.813995680274584 0 -2.813995680274584 0.84986872640729416 0 0 0 0 -22.486483333063006 9.4886295371884444 0 9.4886295371884444 8.767441552998207 0 0 0 0 -0.50803635790322943 -1.9496243300200291 0 -1.9496243300200291 2.0385701565154761 0 0 0 0 -24.011043620783312 -17.530486755897073 0 -17.530486755897073 -25.241431129397824 0 0 0 0 2.0153360328122716 -1.2421123018793878 0 -1.2421123018793878 -1.4758205389642853 0 0 0 0 -401.33818355763651 -206.92611533125591 0 -206.92611533125591 14.3152249344339 0 0 0 0 -832.70825806476932 -855.5750786110134 0 -855.5750786110134 146.85879311245839 0 0 0 0 -233.70803593721212 -335.80736794203631 0 -335.80736794203631 205.15562449690333 0 0 0 0 -514.16206975587193 -347.93888265253668 0 -347.93888265253668 1538.2673409341151 0 0 0 0 1.6602039641802548 -685.28789503800726 0 -685.28789503800726 396.4254240255932 0 0 0 0 2.8656871259985905 -2.9724204315723313 0 -2.9724204315723313 5.8509330308732359 0 0 0 0 198.49378800699196 744.12258386075882 0 744.12258386075882 1581.7781883016548 0 0 0 0 -0.18742657798429718 -107.88051317254394 0 -107.88051317254394 -115.4517480186114 0 0 0 0 -98.338403820610438 -132.01349648086227 0 -132.01349648086227 -108.55525533491527 0 0 0 0 6.3805552647144737 -10.12588735061621 0 -10.12588735061621 15.405560894595553 0 0 0 0 -103.29454376399372 -169.04642518674336 0 -169.04642518674336 -62.320961892939522 0 0 0 0 -40.596159313092357 207.0001576455752 0 207.0001576455752 662.89639569267456 0 0 0 0 -271.29830616434629 90.617178795881955 0 90.617178795881955 673.3051418449304 0 0 0 0 -111.58687210113567 -208.01065977565236 0 -208.01065977565236 659.88907892819589 0 0 0 0 -250.54666396285756 -123.5294040549561 0 -123.5294040549561 821.84129570604273 0 0 0 0 -229.48044673153709 -48.410956452688652 0 -48.410956452688652 695.07310585770756 0 0 0 0 -163.43880499101942 -103.75035735809615 0 -103.75035735809615 548.1283027637819 0 0 0 0 -40.287361415326586 85.285565251506043 0 85.285565251506043 425.12961522622754 0 0 0 0 61.987332945631351 -39.853393123036767 0 -39.853393123036767 114.95289598940133 0 0 0 0 171.84087486533099 -226.17822272954254 0 -226.17822272954254 330.42820404344411 0 0 0 0 43.543668194624843 -1.8824600952298169 0 -1.8824600952298169 209.10583511370169 0 0 0 0 -312.05748371462687 -230.13267000970518 0 -230.13267000970518 658.32796643747133 0 0 0 0 -68.965096730338701 -310.95949728368782 0 -310.95949728368782 585.65449225871998 0 0 0 0 -327.7308792519616 -502.36481780867598 0 -502.36481780867598 454.6333848910499 0 0 0 0 -444.14865523067419 -294.97860449291056 0 -294.97860449291056 777.93483349831376 0 0 0 0 -126.23442313662963 -299.68145799190643 0 -299.68145799190643 220.66790906437473 0 0 0 0 -59.857887545556878 -450.99908799315563 0 -450.99908799315563 84.512612398911642 0 0 0 0 -298.77742610730638 -311.38662287507577 0 -311.38662287507577 95.302885640735497 0 0 0 0 -52.526996885164408 -291.86570770521121 0 -291.86570770521121 464.12059428936664 0 0 0 0 -51.691760259167495 -443.00101615054041 0 -443.00101615054041 102.66653470586971 0 0 0 0 40.40677658614004 -496.33339074752985 0 -496.33339074752985 9.8306189891573013 0 0 0 0 147.46174224534479 -664.64981722409993 0 -664.64981722409993 56.639814072186937 0 0 0 0 641.83244794106213 -265.94382379527417 0 -265.94382379527417 370.87427938968904 0 0 0 0 107.64784952692571 -476.09263468824611 0 -476.09263468824611 692.46480394112132 0 0 0 0 130.05090819018369 -422.81768175556317 0 -422.81768175556317 438.63142309914588 0 0 0 0 -1.7205807377967801 -0.66798040321283736 0 -0.66798040321283736 0.29732189981956481 0 0 0 0 -124.26026108820952 -439.2724895228605 0 -439.2724895228605 716.8426421921813 0 0 0 0 -240.71811383303429 142.07480913909512 0 142.07480913909512 299.87080649829841 0 0 0 0 295.10781920372938 -583.2901846563567 0 -583.2901846563567 567.36210090474015 0 0 0 0 -21.822253926809609 -19.359361856766242 0 -19.359361856766242 -9.2270909373766727 0 0 0 0 -401.08196382317692 145.29436478559182 0 145.29436478559182 71.190993342919683 0 0 0 0 136.78434448525513 -148.63100157560825 0 -148.63100157560825 -118.61099833110256 0 0 0 0 -356.86371411207074 132.72348576988861 0 132.72348576988861 -17.52474737600096 0 0 0 0 -329.62854003364919 77.108323174130419 0 77.108323174130419 -80.460110792158957 0 0 0 0 -387.8110122218277 63.694244045820597 0 63.694244045820597 11.427593854576116 0 0 0 0 -382.71731768359314 144.45452409450991 0 144.45452409450991 153.50883857593362 0 0 0 0 371.54000629410439 -725.37733769623628 0 -725.37733769623628 437.70965628481372 0 0 0 0 -15.876662715414199 -15.804364299176555 0 -15.804364299176555 -7.1696482372954549 0 0 0 0 -577.95655847343369 206.35483110954829 0 206.35483110954829 -108.2727504108243 0 0 0 0 -372.83411999516102 -64.753115792746257 0 -64.753115792746257 -302.17074098336525 0 0 0 0 -414.92363863423088 218.08175787207711 0 218.08175787207711 467.29075589468675 0 0 0 0 154.42945773382962 -190.09806656485171 0 -190.09806656485171 18.007359206598267 0 0 0 0 -898.79360048056697 -37.094277517326191 0 -37.094277517326191 0.68734082634409788 0 0 0 0 -244.26686015427185 -737.82752976353595 0 -737.82752976353595 -735.8436252929605 0 0 0 0 -532.8941057144275 -638.8777927508786 0 -638.8777927508786 921.64249538414697 0 0 0 0 -517.82857673109538 -671.91102568245151 0 -671.91102568245151 -218.58512549256375 0 0 0 0 -6.1078718281297739 -6.3230044674563146 0 -6.3230044674563146 -3.522756328297536 0 0 0 0 -1214.8877128589083 -50.943344258300385 0 -50.943344258300385 -134.61702957383659 0 0 0 0 -2150.5337796935637 137.86597185432947 0 137.86597185432947 128.24277996447381 0 0 0 0 -588.42594928128528 -1213.8672147395609 0 -1213.8672147395609 78.582762162772269 0 0 0 0 1002.5908131562228 -1274.3178098236863 0 -1274.3178098236863 23.523088919793736 0 0 0 0 -924.12920941656921 -136.8773536567096 0 -136.8773536567096 -263.91390742948352 0 0 0 0 -398.20288555746083 -351.85005455125156 0 -351.85005455125156 -679.04547638388976 0 0 0 0 -319.75548944729962 -553.97395042724111 0 -553.97395042724111 -171.56093187566228 0 0 0 0 -1843.3832927754938 -674.53542900197613 0 -674.53542900197613 127.0234422620415 0 0 0 0 50.281300167051711 -32.118368115286927 0 -32.118368115286927 -14.041943489117104 0 0 0 0 101.72114567591052 -13.960222095553945 0 -13.960222095553945 -47.070999750265401 0 0 0 0 162.28141108158161 -9.1867476843162876 0 -9.1867476843162876 -51.026049335951029 0 0 0 0 -388.42947673024901 -74.337912638991838 0 -74.337912638991838 -225.03536526131359 0 0 0 0 -280.4257223895911 -353.18812387521029 0 -353.18812387521029 -263.2434901816232 0 0 0 0 11.01468332089155 -1.0154413627420951 0 -1.0154413627420951 -9.3808309642277052 0 0 0 0 -695.29072916589212 -625.32962530229088 0 -625.32962530229088 -16.993553879386582 0 0 0 0 -1249.1072164907164 -643.91372865657195 0 -643.91372865657195 -17.510773557027278 0 0 0 0 -385.43531322597119 -691.33949805586462 0 -691.33949805586462 -295.15725501261477 0 0 0 0 -683.55398859165143 -561.15157685308077 0 -561.15157685308077 -352.0076558880537 0 0 0 0 -716.89838818830322 -722.2666300020901 0 -722.2666300020901 -129.49524394571199 0 0 0 0 5.5178281642111244 -9.6119048657491533 0 -9.6119048657491533 3.1521601450274765 0 0 0 0 50.288283122805296 -68.36766607325626 0 -68.36766607325626 26.233231155309113 0 0 0 0 43.332735832777587 -51.40416248059914 0 -51.40416248059914 47.818526617952259 0 0 0 0 -234.87681872877874 -569.40817199913727 0 -569.40817199913727 -375.52859718715263 0 0 0 0 27.495487303465779 -76.91270735159469 0 -76.91270735159469 27.182412707584945 0 0 0 0 61.058386695898662 -76.122712862877961 0 -76.122712862877961 -2.5468089065016102 0 0 0 0 55.719536216420238 -85.294846112027699 0 -85.294846112027699 18.405123376400297 0 0 0 0 55.442672266559384 -73.738813301937626 0 -73.738813301937626 5.6458199919179606 0 0 0 0 53.321410225209547 -76.040931689703029 0 -76.040931689703029 8.8573160120795364 0 0 0 0 59.402135119726154 -85.094137647410662 0 -85.094137647410662 4.0617586978387408 0 0 0 0 57.176594400283648 -83.00466470531137 0 -83.00466470531137 6.6342196039961436 0 0 0 0 62.084985449047963 -103.6293825704372 0 -103.6293825704372 3.77457984179091 0 0 0 0 57.376497425515481 -113.75801854174597 0 -113.75801854174597 34.303465841152502 0 0 0 0 -1.4831158188389963 -104.83194056449565 0 -104.83194056449565 84.463661038161717 0 0 0 0 40.534050099660817 -93.311930554322316 0 -93.311930554322316 17.790493745829735 0 0 0 0 81.127530105517508 -108.60064549501431 0 -108.60064549501431 15.188078995701289 0 0 0 0 42.945326617537006 -54.834435955404615 0 -54.834435955404615 52.631564079173266 0 0 0 0 22.972739446693595 -76.283938733071182 0 -76.283938733071182 48.84933076492598 0 0 0 0 -26.546069487943896 -59.689082614037716 0 -59.689082614037716 50.353841077462675 0 0 0 0 6.5798599104527113 -17.093216850145922 0 -17.093216850145922 -5.6473843444664382 0 0 0 0 37.728451348323006 -50.841478888200818 0 -50.841478888200818 54.98502282100872 0 0 0 0 -155.72715283209982 -5.3876703553169136 0 -5.3876703553169136 27.767942888533071 0 0 0 0 12.456473231644708 -20.218137808314651 0 -20.218137808314651 7.9224122394320986 0 0 0 0 -809.16345456472482 -569.21939425459095 0 -569.21939425459095 -138.38319689108903 0 0 0 0 -239.96370229674358 -917.21795853493495 0 -917.21795853493495 -1124.9195414829483 0 0 0 0 -394.42743294311185 -99.872086135727727 0 -99.872086135727727 -1017.8362055861744 0 0 0 0 -663.07571664212446 -983.93749372497587 0 -983.93749372497587 -662.40765231645855 0 0 0 0 83.375620113605692 -261.25911981075342 0 -261.25911981075342 -1281.8003793907246 0 0 0 0 46.18621381324192 -200.85227187246164 0 -200.85227187246164 -432.27675339827874 0 0 0 0 -215.92213578258088 -592.26955563356 0 -592.26955563356 -744.1228520704808 0 0 0 0 -164.1715660351947 -614.97495582184217 0 -614.97495582184217 -389.552982875206 0 0 0 0 -82.588177515732241 -882.49566848429822 0 -882.49566848429822 -555.90966234167354 0 0 0 0 218.36808593667229 -949.2542832837853 0 -949.2542832837853 -342.85518586730541 0 0 0 0 -360.22826110438564 -872.28952157710501 0 -872.28952157710501 -353.04159105697363 0 0 0 0 -111.0707469774643 -752.64718470655771 0 -752.64718470655771 -314.60667235719848 0 0 0 0 -39.305279624764808 -355.94388064765099 0 -355.94388064765099 -344.80727141037823 0 0 0 0 -200.14024593267823 -509.60338646986838 0 -509.60338646986838 -351.28573121040949 0 0 0 0 247.33592789491013 -85.041095938398257 0 -85.041095938398257 -177.69999166851085 0 0 0 0 0.97657679512346363 -1.0751581028327308 0 -1.0751581028327308 -3.6425513780802312 0 0 0 0 -520.9910499627149 -406.43480602643831 0 -406.43480602643831 -41.919955226136153 0 0 0 0 -0.40616683440748602 -707.13452024990693 0 -707.13452024990693 -711.24834893081379 0 0 0 0 -19.010745296269306 -503.39516312560818 0 -503.39516312560818 -789.70942307278347 0 0 0 0 -95.08824496568559 -637.87571271568231 0 -637.87571271568231 -589.5755242863579 0 0 0 0 -39.920804588897226 -481.60248437893438 0 -481.60248437893438 -581.36756478477037 0 0 0 0 -58.72865112261934 -16.686895651036139 0 -16.686895651036139 -144.71164963665615 0 0 0 0 -1.089197973946284 -338.06351493706279 0 -338.06351493706279 -237.39348947664075 0 0 0 0 324.04335274406913 120.1682832297729 0 120.1682832297729 -585.4846469886088 0 0 0 0 216.12120144048822 -357.46470434879348 0 -357.46470434879348 -1124.8906644357157 0 0 0 0 150.03367243063258 -511.65485821557127 0 -511.65485821557127 -1390.4618032410781 0 0 0 0 -115.27764413920522 -776.94806522016643 0 -776.94806522016643 -753.47419208428073 0 0 0 0 -210.76217245088992 -1025.8375475972218 0 -1025.8375475972218 -1321.3665064396737 0 0 0 0 -1612.9255082438031 -64.735786996894149 0 -64.735786996894149 -356.81942872734089 0 0 0 0 -778.14652139878308 -1472.6999901516106 0 -1472.6999901516106 -1266.5963529527371 0 0 0 0 -1668.7739992809188 -1221.5541962225973 0 -1221.5541962225973 -673.31163575636674 0 0 0 0 -1.4095768788281973 -3.1888055281633569 0 -3.1888055281633569 -14.261196413660095 0 0 0 0 -860.56277654397127 -523.08413653749381 0 -523.08413653749381 -70.163598379528821 0 0 0 0 -1.6089312633421262 -182.14617323774667 0 -182.14617323774667 -227.30944707561594 0 0 0 0 -737.79160888632759 -1339.3678541601366 0 -1339.3678541601366 -1199.3760726009136 0 0 0 0 -358.9260528304585 -1110.9510612158679 0 -1110.9510612158679 -1485.9009230409272 0 0 0 0 2.3565048584426478 -1.4955165249486981 0 -1.4955165249486981 -8.7957910798403507 0 0 0 0 0.063856404529360589 -182.59981840674141 0 -182.59981840674141 -228.50764357096205 0 0 0 0 -439.97909498136869 -446.32852045310551 0 -446.32852045310551 -358.25880545853261 0 0 0 0 -131.74114185491635 -232.19787015487327 0 -232.19787015487327 -526.11651614910261 0 0 0 0 2.7366912452953898 -1.2455709746928392 0 -1.2455709746928392 -10.627981651384095 0 0 0 0 -0.73897651395964203 -470.02252317341436 0 -470.02252317341436 -426.73505858071803 0 0 0 0 1.9677938546613234 6.2769010217938401 0 6.2769010217938401 7.960331697174837 0 0 0 0 947.97683308914566 -631.8927842751591 0 -631.8927842751591 127.67089011197459 0 0 0 0 -201.00904619493667 52.862643249573921 0 52.862643249573921 135.33786678703473 0 0 0 0 229.9855899496979 -335.96147011904759 0 -335.96147011904759 657.73246977584768 0 0 0 0 -340.12713942261144 -386.35385191481373 0 -386.35385191481373 11.932903060915123 0 0 0 0 -441.68230827908701 -53.464241572593892 0 -53.464241572593892 510.39867577230689 0 0 0 0 -109.65215933733271 -52.640896411613539 0 -52.640896411613539 112.84667122968312 0 0 0 0 -73.722387714806246 -33.660431658414382 0 -33.660431658414382 -4.9754216340152198 0 0 0 0 601.39607915343731 -272.47407337248205 0 -272.47407337248205 79.79997890681625 0 0 0 0 224.7992072088382 -263.92928181726165 0 -263.92928181726165 157.94833249380554 0 0 0 0 231.8980169354254 -357.07175647765143 0 -357.07175647765143 213.58593497372567 0 0 0 0 108.3064293571806 -353.29377046530681 0 -353.29377046530681 309.22920923269703 0 0 0 0 160.58005038867122 -411.92180886202914 0 -411.92180886202914 178.973685036799 0 0 0 0 -112.64078627008348 -308.63357504140913 0 -308.63357504140913 470.33092753778328 0 0 0 0 59.413810295605799 -286.18991168305911 0 -286.18991168305911 210.83356054547039 0 0 0 0 35.934237988571113 -401.5618096818198 0 -401.5618096818198 281.71111398128414 0 0 0 0 -65.574927317822585 -333.77567085628107 0 -333.77567085628107 195.3979571073578 0 0 0 0 -51.249591781404888 -85.291648747922636 0 -85.291648747922636 -281.05730773078903 0 0 0 0 30.722616717419442 -360.09776262057858 0 -360.09776262057858 -163.73600333615468 0 0 0 0 66.373344596038805 -288.4064689108418 0 -288.4064689108418 -108.28878836882723 0 0 0 0 -87.444650345263653 -265.84758943468114 0 -265.84758943468114 -85.96543898849086 0 0 0 0 93.51575440572924 -290.69064174364303 0 -290.69064174364303 -225.50988658513779 0 0 0 0 134.0704564318039 -405.65938466642183 0 -405.65938466642183 336.03464072131464 0 0 0 0 8.0847483535908395 -333.46035517572818 0 -333.46035517572818 192.73363162930673 0 0 0 0 78.60110596344748 -197.15215165549216 0 -197.15215165549216 -55.450319133666198 0 0 0 0 191.30700892554887 -35.642675345470707 0 -35.642675345470707 -113.24588382128513 0 0 0 0 144.60607890151732 76.180050173916243 0 76.180050173916243 -505.21769326465073 0 0 0 0 251.02043201110064 37.916581779460103 0 37.916581779460103 -496.31076393884177 0 0 0 0 -39.61980752836098 -124.86297121059351 0 -124.86297121059351 -115.85908091260535 0 0 0 0 86.930348295611111 356.84270747950541 0 356.84270747950541 -1079.8564493238537 0 0 0 0 -13.941506022545042 -8.3321127013824103 0 -8.3321127013824103 -8.1010176990779108 0 0 0 0 -254.98212167579914 201.2191015913877 0 201.2191015913877 -274.60759567394746 0 0 0 0 -118.40163026270966 141.50410744444071 0 141.50410744444071 115.22135146791197 0 0 0 0 7.1150923723234882 -237.02940067007967 0 -237.02940067007967 205.34323157561448 0 0 0 0 -20.508321723635163 -171.9663261327014 0 -171.9663261327014 55.239608128117197 0 0 0 0 19.389025807051439 -129.3580405618186 0 -129.3580405618186 47.497275946174341 0 0 0 0 -40.100455862285308 -33.868361288935191 0 -33.868361288935191 -13.9057345737431 0 0 0 0 -15.457508083767607 -151.75502261995371 0 -151.75502261995371 69.840941128951272 0 0 0 0 0.75119288156565744 109.26171835214882 0 109.26171835214882 -486.88868208479198 0 0 0 0 -89.156426481618837 -54.504626047550119 0 -54.504626047550119 -370.74065589545899 0 0 0 0 -184.09331554852542 -19.067811410037393 0 -19.067811410037393 -239.40087889822826 0 0 0 0 -1.5791392806277145 -57.375379467768653 0 -57.375379467768653 -30.557000228458492 0 0 0 0 32.710765369529213 -54.679024583133597 0 -54.679024583133597 -24.426072277103088 0 0 0 0 -26.331227349661958 -56.483373099589905 0 -56.483373099589905 -8.7099801489569124 0 0 0 0 -8.826164719883522 -95.820685122436913 0 -95.820685122436913 29.637797669797301 0 0 0 0 -386.12475573750817 -614.43368856922234 0 -614.43368856922234 -264.6686815045432 0 0 0 0 159.37763804396673 -174.49759028335211 0 -174.49759028335211 -341.59295430257407 0 0 0 0 -41.760173564674915 -98.616537977979078 0 -98.616537977979078 -368.98967389910285 0 0 0 0 714.20799991191052 -667.20422674700421 0 -667.20422674700421 -507.59613865253414 0 0 0 0 424.50286233486986 165.93298495194767 0 165.93298495194767 -5.0422161428778054 0 0 0 0 0.35797681464320874 -1.3555299142591224 0 -1.3555299142591224 -8.315233509872165 0 0 0 0 -59.657496112697117 -257.76508300026399 0 -257.76508300026399 -139.86884272679163 0 0 0 0 211.20411065789085 -61.663762859368035 0 -61.663762859368035 -143.1648564254956 0 0 0 0 35.827902472454042 -42.267355944242269 0 -42.267355944242269 22.455342301714914 0 0 0 0 -12.847224258919596 -57.308105544877435 0 -57.308105544877435 23.447101884283256 0 0 0 0 31.0633830192819 -144.00171597939607 0 -144.00171597939607 -15.537210103530015 0 0 0 0 14.707696672037855 -73.613895086971183 0 -73.613895086971183 -37.844910974725281 0 0 0 0 64.110730993063044 -250.55093539737663 0 -250.55093539737663 -108.37023559514273 0 0 0 0 970.13195768666628 392.71134463940962 0 392.71134463940962 -28.877434987581637 0 0 0 0 214.45640923838164 -129.2050094171102 0 -129.2050094171102 -241.4164209127448 0 0 0 0 222.98273449880071 -76.233150982430743 0 -76.233150982430743 -90.5994268495906 0 0 0 0 25.432949416941881 -21.092045029900547 0 -21.092045029900547 18.235930054322509 0 0 0 0 -105.32988666777237 -184.48679906958478 0 -184.48679906958478 78.515648453214453 0 0 0 0 -355.9562873228715 -426.65166624491394 0 -426.65166624491394 31.724901298107852 0 0 0 0 -189.44976350953948 -494.83633701700865 0 -494.83633701700865 44.770407889142007 0 0 0 0 315.08492634804861 -246.2437155749567 0 -246.2437155749567 -109.10840346924556 0 0 0 0 134.56179703667294 -568.77363421181008 0 -568.77363421181008 -436.30222968177077 0 0 0 0 -423.72507147449505 -260.33828776472183 0 -260.33828776472183 -266.09415679353197 0 0 0 0 -221.90918545060413 74.698496692164554 0 74.698496692164554 -1179.0340790176624 0 0 0 0 335.1775712773524 144.16450548825105 0 144.16450548825105 -184.74894431781649 0 0 0 0 -1.9953803675177539 -4.4057059488230266 0 -4.4057059488230266 -4.4106230210586119 0 0 0 0 709.42808616283583 -734.72322447741681 0 -734.72322447741681 -586.45243369098716 0 0 0 0 1399.9924559080391 1218.38124843896 0 1218.38124843896 33.534415695246935 0 0 0 0 -3.9093080288013482 -13.586007209674307 0 -13.586007209674307 -14.258853299039785 0 0 0 0 283.31979416979448 -659.64009818552131 0 -659.64009818552131 650.41782938085089 0 0 0 0 -0.6006477787837099 -1.3061978831503609 0 -1.3061978831503609 -4.6724946586981915 0 0 0 0 588.1685705040727 -656.01800369159082 0 -656.01800369159082 -419.90529804368271 0 0 0 0 209.13635750478716 -20.668122974424477 0 -20.668122974424477 282.39160190780694 0 0 0 0 51.38865968474056 -52.136682143998769 0 -52.136682143998769 -244.69260619785746 0 0 0 0 -14.048717225494329 -141.75987373975022 0 -141.75987373975022 -41.420055457339913 0 0 0 0 -81.221657867405156 -325.00183742476474 0 -325.00183742476474 -17.660848216572049 0 0 0 0 -182.50404199281911 -267.93822321178413 0 -267.93822321178413 19.655644755879621 0 0 0 0 5.8851268979607312 -7.6072781539718619 0 -7.6072781539718619 8.8877562154075918 0 0 0 0 29.546273374340672 -105.84997838553863 0 -105.84997838553863 312.34657831159348 0 0 0 0 -419.72386839491082 271.79713308998362 0 271.79713308998362 964.46155309640017 0 0 0 0 -953.35429506831861 -282.27000120148841 0 -282.27000120148841 905.94375894448103 0 0 0 0 -446.61830858464236 -660.93318492880098 0 -660.93318492880098 38.691102210702411 0 0 0 0 -13.04777458306404 -24.311373113683256 0 -24.311373113683256 -24.468355115216742 0 0 0 0 239.07404739320918 -321.17006603633672 0 -321.17006603633672 199.46856340637714 0 0 0 0 315.07714525311167 -161.83667052076635 0 -161.83667052076635 187.09384465462881 0 0 0 0 32.006965104243136 -157.06805883926063 0 -157.06805883926063 46.135842087693618 0 0 0 0 -26.717085676194984 -316.05459733064345 0 -316.05459733064345 -379.63621740539929 0 0 0 0 100.20630525037996 -122.15116623765061 0 -122.15116623765061 131.73578675893987 0 0 0 0 151.30352388582105 -219.21119476828972 0 -219.21119476828972 162.07396028833136 0 0 0 0 160.30306340652533 -98.004781501398838 0 -98.004781501398838 52.776348733776103 0 0 0 0 189.17077346778024 -200.59046712023019 0 -200.59046712023019 164.87079527138849 0 0 0 0 296.04160624807992 -219.59895171696553 0 -219.59895171696553 83.916573672471714 0 0 0 0 182.53554261197132 -267.80157892273564 0 -267.80157892273564 235.88307421962054 0 0 0 0 -21.081673985073394 -74.650073758867165 0 -74.650073758867165 16.610775528381055 0 0 0 0 8.4960734871565364 -53.481533387502168 0 -53.481533387502168 -14.183344949882667 0 0 0 0 123.6690429214359 -81.344812420843482 0 -81.344812420843482 -14.950499888505874 0 0 0 0 9.5321377874497557 -39.426040194290181 0 -39.426040194290181 34.393798965812948 0 0 0 0 193.04319418460364 -269.87611203119559 0 -269.87611203119559 95.42756827098674 0 0 0 0 69.433498403872363 -41.099828627850911 0 -41.099828627850911 -10.673220040051092 0 0 0 0 108.20201076116064 -27.004217489404255 0 -27.004217489404255 -116.23994439865965 0 0 0 0 1.8043293005993775 -11.299182729666811 0 -11.299182729666811 -6.9771499741659433 0 0 0 0 49.890400340829871 -24.873556518161557 0 -24.873556518161557 -35.663563566607074 0 0 0 0 49.766108695184812 -44.926794546522615 0 -44.926794546522615 -47.382037085470074 0 0 0 0 67.170169614691986 -82.504617437904017 0 -82.504617437904017 -1.05818400021667 0 0 0 0 70.493313520240918 -115.38163734440832 0 -115.38163734440832 18.577120027124693 0 0 0 0 142.13914940418181 -99.425787560925528 0 -99.425787560925528 -45.945320017393897 0 0 0 0 91.383135762313032 -65.970305084203574 0 -65.970305084203574 -84.260130563277016 0 0 0 0 114.59917683434469 -43.340669011729688 0 -43.340669011729688 -64.047557901682012 0 0 0 0 115.47951109339192 -97.506482283067271 0 -97.506482283067271 -14.401825056639609 0 0 0 0 128.68522331640088 -62.415281889811467 0 -62.415281889811467 14.167232161795255 0 0 0 0 198.01688164604275 -202.57155431553565 0 -202.57155431553565 142.65029335807321 0 0 0 0 195.06060828175396 -192.55379678671306 0 -192.55379678671306 60.102476109724194 0 0 0 0 77.686817165551474 -18.408923666613191 0 -18.408923666613191 -113.12763765250929 0 0 0 0 28.651971024690283 25.820599442641651 0 25.820599442641651 -133.67890343806175 0 0 0 0 5.5248760940463058 0.85333796503903381 0 0.85333796503903381 -10.92401011039572 0 0 0 0 44.649613004992716 -27.386493025667733 0 -27.386493025667733 -115.55708252624936 0 0 0 0 27.829681807917069 -20.214043926438521 0 -20.214043926438521 -71.299089915436667 0 0 0 0 9.5949171514621412 18.029933371796233 0 18.029933371796233 -79.276330242619224 0 0 0 0 134.48892920650542 -19.572100611905626 0 -19.572100611905626 -85.64960046208239 0 0 0 0 10.450869257387694 -10.250994002987552 0 -10.250994002987552 1.2347206734364065 0 0 0 0 139.26544231926982 -20.659437972416526 0 -20.659437972416526 -25.550082739289792 0 0 0 0 -14.011947826977121 0.24257954122731462 0 0.24257954122731462 -18.578031810587163 0 0 0 0 640.86758034033119 -54.671794475729257 0 -54.671794475729257 478.32660560862496 0 0 0 0 108.59885161938109 -204.24419510682651 0 -204.24419510682651 -247.74937100008174 0 0 0 0 27.119784671040435 -27.342269682572777 0 -27.342269682572777 -66.341672004820651 0 0 0 0 791.24376040475181 -617.1081293564439 0 -617.1081293564439 686.31865094715613 0 0 0 0 -90.382592032983666 11.291246869133829 0 11.291246869133829 57.753728580231837 0 0 0 0 6.9901468628768413 -10.537742618896829 0 -10.537742618896829 12.055868446678062 0 0 0 0 -61.610112143827223 -286.98827136664954 0 -286.98827136664954 19.668669861090166 0 0 0 0 1.8427504248757032 -210.35832293014391 0 -210.35832293014391 20.504856821818066 0 0 0 0 -2.909092481888365 -221.44696506540095 0 -221.44696506540095 78.023859152326622 0 0 0 0 57.215346517605298 -75.899661743657262 0 -75.899661743657262 54.901054161710135 0 0 0 0 -61.579361535594217 -283.00437226741633 0 -283.00437226741633 406.90997586452067 0 0 0 0 -2.581258657399303 -222.92699409453053 0 -222.92699409453053 56.142902168365993 0 0 0 0 11.111023811308209 -26.499553680341403 0 -26.499553680341403 -90.327162315984225 0 0 0 0 63.897870342172595 -97.274296977288842 0 -97.274296977288842 62.336880883110545 0 0 0 0 1.1491132661758456 -169.50709775409996 0 -169.50709775409996 6.7141116913371661 0 0 0 0 251.06746801562167 -230.20352843416299 0 -230.20352843416299 -111.81384274403172 0 0 0 0 -131.67579764919356 -322.5021996424839 0 -322.5021996424839 40.410062951781583 0 0 0 0 445.63592472329037 -137.29747806138403 0 -137.29747806138403 -241.58749858172519 0 0 0 0 -147.02878011349821 -118.02758751291913 0 -118.02758751291913 270.43619459231013 0 0 0 0 -128.06584764445938 -199.387167831971 0 -199.387167831971 260.06042028177035 0 0 0 0 200.4130872052483 -58.692917452548045 0 -58.692917452548045 102.67381780744836 0 0 0 0 -62.595885181712219 -89.023211457904836 0 -89.023211457904836 92.895477081876834 0 0 0 0 -32.952834975352744 -166.74013947365529 0 -166.74013947365529 104.69134445689269 0 0 0 0 -61.52293487557472 -91.837608829513556 0 -91.837608829513556 41.843233097610209 0 0 0 0 -3.0207696232362071 -64.913853595529901 0 -64.913853595529901 15.52994597780863 0 0 0 0 -92.050003109587124 -105.80890434129105 0 -105.80890434129105 69.30522701783957 0 0 0 0 -11.709536920007849 -76.860348056789007 0 -76.860348056789007 -0.68061381164443446 0 0 0 0 -71.556777405814501 -107.1752446400933 0 -107.1752446400933 63.794581318587007 0 0 0 0 -123.43920001830247 -12.382364289448788 0 -12.382364289448788 4.6755113831968629 0 0 0 0 -129.82490019776742 -139.96556918321949 0 -139.96556918321949 54.117211305208912 0 0 0 0 -207.00690762384329 -63.724873671635578 0 -63.724873671635578 90.512037752640026 0 0 0 0 -62.827253908559214 -77.944337926986918 0 -77.944337926986918 -57.980858317197999 0 0 0 0 -14.986248435433225 7.5588112278858191 0 7.5588112278858191 15.646818564814954 0 0 0 0 -62.827253908617422 -77.944337926841399 0 -77.944337926841399 -57.980858317212551 0 0 0 0 -62.827253908501007 -77.944337926797743 0 -77.944337926797743 -57.980858317225284 0 0 0 0 -109.36567997214115 -64.594287663429441 0 -64.594287663429441 84.342795703778393 0 0 0 0 0.12854335251904558 -20.617643133087768 0 -20.617643133087768 48.671151119912793 0 0 0 0 0.43136828319900289 -1.3187522832771421 0 -1.3187522832771421 28.700652802904429 0 0 0 0 156.55234085084521 -201.47940898814886 0 -201.47940898814886 218.60298310620055 0 0 0 0 -58.028914809441545 -52.408126755377509 0 -52.408126755377509 8.6432311600665166 0 0 0 0 -76.862319606516394 -130.59335900267615 0 -130.59335900267615 113.65775815506277 0 0 0 0 131.62659538067601 -109.89398213091408 0 -109.89398213091408 68.544356514152241 0 0 0 0 -31.745022120790509 -36.859442426698841 0 -36.859442426698841 -26.981177336056444 0 0 0 0 100.49872293393491 -276.18414335837588 0 -276.18414335837588 465.78571333073342 0 0 0 0 115.47985304196203 -74.066780382495892 0 -74.066780382495892 421.57724914551363 0 0 0 0 116.04536555931554 38.080532710668194 0 38.080532710668194 667.37225355349074 0 0 0 0 18.982243166581611 -165.20976459652593 0 -165.20976459652593 680.32180925236389 0 0 0 0 9.5658584993980185 -282.19195484528518 0 -282.19195484528518 434.0457733084113 0 0 0 0 137.43914699578454 -220.90311561062481 0 -220.90311561062481 298.19363173188322 0 0 0 0 38.651076267781022 -24.496482884849726 0 -24.496482884849726 5.3480204715437516 0 0 0 0 80.638535698031774 -248.5321960327492 0 -248.5321960327492 315.34418802276582 0 0 0 0 129.70143994483806 -169.83202149315912 0 -169.83202149315912 256.55900637234936 0 0 0 0 55.105462383260601 -107.85274055461196 0 -107.85274055461196 -157.52133427146009 0 0 0 0 55.490369985098368 -207.27328570936515 0 -207.27328570936515 -62.248335937863885 0 0 0 0 -34.98859633047141 -60.213394366383909 0 -60.213394366383909 32.527501297288836 0 0 0 0 2.5541776467195731 -23.423963093928052 0 -23.423963093928052 -6.8640609276742115 0 0 0 0 93.62671254939778 10.645430597051018 0 10.645430597051018 -59.524030376740939 0 0 0 0 -918.58399574637588 -94.58110273573584 0 -94.58110273573584 927.23463720962536 0 0 0 0 5.7459304464401058 -2.3688819992731709 0 -2.3688819992731709 0.29790609836589965 0 0 0 0 251.4617071768298 -152.95242077666626 0 -152.95242077666626 -272.16973489623342 0 0 0 0 98.370632903393926 -363.63526852567338 0 -363.63526852567338 -395.57129620977503 0 0 0 0 -21.348985068816546 -367.84375158721059 0 -367.84375158721059 -353.34227801881934 0 0 0 0 -58.633032587727939 -342.47528283586507 0 -342.47528283586507 -328.47159844068892 0 0 0 0 33.934034937836259 -261.14348643600169 0 -261.14348643600169 -314.74979632749273 0 0 0 0 -135.22346876092706 -309.55681724397982 0 -309.55681724397982 -247.05909231623355 0 0 0 0 -112.96040229731852 -460.73558849919118 0 -460.73558849919118 -396.48960453076506 0 0 0 0 -54.748690721309686 -48.812016308384045 0 -48.812016308384045 -59.262692241924924 0 0 0 0 -246.42974290512348 -230.78690816500119 0 -230.78690816500119 -178.61295319545115 0 0 0 0 -106.78938206220482 -177.41436854790209 0 -177.41436854790209 -132.31926191505613 0 0 0 0 -168.04180489384089 -244.68704546040226 0 -244.68704546040226 -297.68732088710749 0 0 0 0 -284.22593137887452 -545.32174290429089 0 -545.32174290429089 -389.49653223404312 0 0 0 0 -249.48462523062699 -400.74129730744153 0 -400.74129730744153 -313.07372025506675 0 0 0 0 -227.8925865375204 -419.97719562232442 0 -419.97719562232442 -299.37843342404904 0 0 0 0 -136.19445772621839 -588.95313124573022 0 -588.95313124573022 -531.93922825290701 0 0 0 0 -102.57989098969028 -515.3219253994796 0 -515.3219253994796 -460.73709384952963 0 0 0 0 -183.68286770605846 -477.32670101215172 0 -477.32670101215172 -346.00522557300519 0 0 0 0 -161.92533829883178 -522.21128091887931 0 -522.21128091887931 -458.22963400760318 0 0 0 0 -202.05633549973209 -433.13310597096279 0 -433.13310597096279 -326.22237028631616 0 0 0 0 -319.8283269332951 -530.07127325344845 0 -530.07127325344845 -397.04402133955682 0 0 0 0 -205.47731624862899 -561.7708090584897 0 -561.7708090584897 -490.45319126380218 0 0 0 0 -156.41884736539578 -411.83467459003896 0 -411.83467459003896 -511.23678357770052 0 0 0 0 -153.08730033221218 -437.64068152616528 0 -437.64068152616528 -317.83750928315203 0 0 0 0 -600.36155647531814 -354.44781930300223 0 -354.44781930300223 48.763900647158152 0 0 0 0 -327.08075970090778 -323.75234568892063 0 -323.75234568892063 -168.0253126917105 0 0 0 0 -604.52101050453712 -552.45308329673026 0 -552.45308329673026 -355.89798133123531 0 0 0 0 -537.14845883670023 -419.39503592679921 0 -419.39503592679921 -425.71095306645839 0 0 0 0 8.8096052738806172 -12.562544922187335 0 -12.562544922187335 4.9784813676112307 0 0 0 0 -415.31363359830175 -276.53841864664537 0 -276.53841864664537 -93.475423484154817 0 0 0 0 5.6499958328735964 -8.7678482213715938 0 -8.7678482213715938 -0.95442857107413204 0 0 0 0 -395.52586484220365 -775.53144722161142 0 -775.53144722161142 -1334.2019391771482 0 0 0 0 -605.57191198539294 -578.61360731558125 0 -578.61360731558125 -433.11257666484909 0 0 0 0 -254.54860410574474 -911.33302590658423 0 -911.33302590658423 694.66353592673477 0 0 0 0 -1121.6241099407271 -618.04551269428839 0 -618.04551269428839 455.64494797076441 0 0 0 0 -1616.047109994126 -129.29629931399631 0 -129.29629931399631 143.88138043135405 0 0 0 0 -136.73454519148436 -420.65627022906665 0 -420.65627022906665 -382.87041779209085 0 0 0 0 -258.84139801363199 -336.7219034744594 0 -336.7219034744594 -372.06132859266836 0 0 0 0 -220.37273589775759 -353.63906175782813 0 -353.63906175782813 -820.48034799527613 0 0 0 0 -292.33773026483323 35.010847380346604 0 35.010847380346604 1938.3549559347948 0 0 0 0 6.655938768452458 -5.11637653863243 0 -5.11637653863243 0.87623064385732397 0 0 0 0 682.38291469235992 320.86627818428906 0 320.86627818428906 -753.72707686302056 0 0 0 0 241.60651517208316 -432.31253233743246 0 -432.31253233743246 405.57252699534547 0 0 0 0 24.549715319552362 -12.485722862978736 0 -12.485722862978736 0.91554826881589646 0 0 0 0 -98.967032380212913 -437.09481178479655 0 -437.09481178479655 987.6630330185053 0 0 0 0 -167.29176365354942 -150.40459682491746 0 -150.40459682491746 1192.6737874939172 0 0 0 0 -127.72101787187057 -202.94377167506627 0 -202.94377167506627 378.91807510962099 0 0 0 0 120.7568697899369 -293.22985635651276 0 -293.22985635651276 121.77826752090914 0 0 0 0 136.04353979500956 -369.44351814156289 0 -369.44351814156289 -843.44802022155091 0 0 0 0 -61.108065050189907 -476.60860504215816 0 -476.60860504215816 -162.96525641297012 0 0 0 0 -98.645637130715841 -184.20478330182914 0 -184.20478330182914 76.060695389880493 0 0 0 0 1047.913339578703 367.74093499420451 0 367.74093499420451 -2351.5243074029022 0 0 0 0 1.3402280198999694 1.3764084021715561 0 1.3764084021715561 -2.0529869056737411 0 0 0 0 -571.67002962946026 -163.33169156744043 0 -163.33169156744043 -36.357378362485179 0 0 0 0 -85.765173178602709 -329.03065386279013 0 -329.03065386279013 -527.28731006450107 0 0 0 0 173.0899865315132 158.14925195054275 0 158.14925195054275 -189.69033871141073 0 0 0 0 308.98435407227953 90.592640147790007 0 90.592640147790007 -599.83300307836316 0 0 0 0 -308.27512599037527 -1267.9215241759962 0 -1267.9215241759962 -769.76794002271163 0 0 0 0 169.63681564676153 145.96389723408902 0 145.96389723408902 -968.45781300015346 0 0 0 0 -8.4180124188715553 -7.8793914486229646 0 -7.8793914486229646 -8.174896870725 0 0 0 0 -1469.252594161675 -69.00431830602156 0 -69.00431830602156 112.18537359095535 0 0 0 0 169.44685061419477 85.184634108635692 0 85.184634108635692 -363.04388996263333 0 0 0 0 34.783281439277744 -59.726714915572757 0 -59.726714915572757 -37.657277365826303 0 0 0 0 -19.171872988245021 -21.18159894108145 0 -21.18159894108145 -24.262586934861005 0 0 0 0 -229.75609596179675 -97.830295751456333 0 -97.830295751456333 19.275830676735495 0 0 0 0 -223.45627570748115 -127.29444098121064 0 -127.29444098121064 -27.51052214419542 0 0 0 0 -533.50384429466794 -132.44885088937372 0 -132.44885088937372 96.623169676091493 0 0 0 0 -182.9195730826832 -222.0332273792792 0 -222.0332273792792 95.169800901818235 0 0 0 0 23.145545441677314 -56.769825329094601 0 -56.769825329094601 -1.0780821413063677 0 0 0 0 -136.96021396594369 -88.036329870248665 0 -88.036329870248665 54.334144378946803 0 0 0 0 29.986937170047895 -91.695343708081055 0 -91.695343708081055 0.81667521662893705 0 0 0 0 -149.04733046714409 -150.82042820830884 0 -150.82042820830884 159.52010500562756 0 0 0 0 -25.347229064134169 -35.496631383982191 0 -35.496631383982191 -29.138945806502484 0 0 0 0 -10.844862784927004 -14.763444406809846 0 -14.763444406809846 7.0587207580040001 0 0 0 0 412.84562014571929 -458.54011399202545 0 -458.54011399202545 208.21527839786359 0 0 0 0 133.89701244362732 -187.55070209738278 0 -187.55070209738278 -24.229662561810983 0 0 0 0 -504.74720945912122 -19.279364238976086 0 -19.279364238976086 1678.6358530535981 0 0 0 0 34.67942021824274 96.624533476709985 0 96.624533476709985 -90.28039001074103 0 0 0 0 95.914529973590106 -334.73504597161354 0 -334.73504597161354 -112.96534749185639 0 0 0 0 -125.89130789342016 -380.84923870278544 0 -380.84923870278544 -130.50261831927492 0 0 0 0 -125.51983698226468 -383.92545490158409 0 -383.92545490158409 -146.73326479010211 0 0 0 0 -134.26862075103895 -339.32697875492829 0 -339.32697875492829 -73.196129768544779 0 0 0 0 -312.42607600841438 -348.38566497711508 0 -348.38566497711508 88.541145165505441 0 0 0 0 -245.31451896665385 -440.62573609252831 0 -440.62573609252831 -66.252435069873172 0 0 0 0 -480.63440560542745 -499.11630389625827 0 -499.11630389625827 -35.262480049565056 0 0 0 0 -285.94506308161726 -434.52064294215415 0 -434.52064294215415 -127.48898545510019 0 0 0 0 -251.61221736973675 -502.48091141944292 0 -502.48091141944292 -229.75729397117721 0 0 0 0 -963.8761316173277 -938.27457030907226 0 -938.27457030907226 -482.44472288508405 0 0 0 0 2.967612992522394 -3.9298408791306869 0 -3.9298408791306869 -3.3331501340352858 0 0 0 0 -738.55797812610763 -501.60115412514369 0 -501.60115412514369 -1106.7383853623433 0 0 0 0 368.67033770312537 -22.380995081206947 0 -22.380995081206947 -174.23163066331836 0 0 0 0 201.02539338936185 -269.86349346082352 0 -269.86349346082352 -255.95808536883487 0 0 0 0 -104.26213251039735 -270.57674131641852 0 -270.57674131641852 -112.94631543448668 0 0 0 0 -29.946745434994227 -387.49773822725547 0 -387.49773822725547 -315.66188156954559 0 0 0 0 -162.77070425199054 -337.61243388369712 0 -337.61243388369712 -178.17496989589381 0 0 0 0 -87.263449733508423 -291.00964027846044 0 -291.00964027846044 -167.59034129211068 0 0 0 0 -142.99130829203204 -336.20175771187405 0 -336.20175771187405 -176.3333565403309 0 0 0 0 -202.13602508306576 -311.06478303904441 0 -311.06478303904441 -171.18291407920151 0 0 0 0 -46.339125228631019 -332.09615952483546 0 -332.09615952483546 -182.92257999599769 0 0 0 0 -149.07887368171214 -307.95006413663486 0 -307.95006413663486 -181.45316645640378 0 0 0 0 -113.26596680746297 -363.38167314609973 0 -363.38167314609973 -247.2205083979743 0 0 0 0 -198.30805746199985 -356.61316920119771 0 -356.61316920119771 -238.84678481041192 0 0 0 0 -135.015888506794 -345.34533099304667 0 -345.34533099304667 -248.30194101127927 0 0 0 0 -141.66356293796707 -273.4365704197653 0 -273.4365704197653 -154.34026370240554 0 0 0 0 -10.409319620212045 -147.49528145696331 0 -147.49528145696331 -49.868401318355609 0 0 0 0 -95.642191371975059 -273.90015795555837 0 -273.90015795555837 -179.72651426294851 0 0 0 0 -93.442656453791642 -178.15029624966382 0 -178.15029624966382 -129.43492394370696 0 0 0 0 -199.46516760593568 -360.54444520043444 0 -360.54444520043444 -250.48208357526073 0 0 0 0 -340.6034307322625 -219.95102139613846 0 -219.95102139613846 -102.80066651385573 0 0 0 0 -115.16382463352602 -416.12376930920595 0 -416.12376930920595 -392.0649218069093 0 0 0 0 -408.05092689629237 -603.70035369099094 0 -603.70035369099094 -404.97473430453738 0 0 0 0 -231.25854272647484 -395.1969958193547 0 -395.1969958193547 -228.71235650438609 0 0 0 0 -102.52966613025637 -374.18325533657071 0 -374.18325533657071 -307.28174073097443 0 0 0 0 -126.69135203921178 -328.82083793503261 0 -328.82083793503261 -307.8613773824427 0 0 0 0 -169.4078773434303 -319.35794588359295 0 -319.35794588359295 -345.43573162437497 0 0 0 0 43.927952422664617 -28.370456589022339 0 -28.370456589022339 9.7473895096950436 0 0 0 0 -305.89810103856689 -479.78312110237107 0 -479.78312110237107 -350.34957263263846 0 0 0 0 -229.58746669134416 -396.98133438976174 0 -396.98133438976174 -319.12988699544076 0 0 0 0 -206.41676578904298 -329.2799910444171 0 -329.2799910444171 -313.62628162602596 0 0 0 0 -330.59306286542414 -374.43622715163065 0 -374.43622715163065 -386.4491564747176 0 0 0 0 -272.70261663185966 -408.81241176781617 0 -408.81241176781617 -408.18158114402377 0 0 0 0 -0.11814119061115491 -1.0393765512708271 0 -1.0393765512708271 0.060993620565010787 0 0 0 0 -215.08745879044545 -402.28964951404316 0 -402.28964951404316 -646.97145969493533 0 0 0 0 -142.4093540418562 -269.86301288529319 0 -269.86301288529319 -282.37394646036978 0 0 0 0 -0.41442753467495663 -2.2132531244654636 0 -2.2132531244654636 0.87263803285433417 0 0 0 0 -5.4447132956356654 -163.85273599585003 0 -163.85273599585003 -192.40594018423883 0 0 0 0 -120.29267900757986 -331.9065710715272 0 -331.9065710715272 -364.08125372987615 0 0 0 0 -141.74653118590277 -262.92823805002928 0 -262.92823805002928 -423.06300796533924 0 0 0 0 -338.8854998649058 -335.78614872942649 0 -335.78614872942649 -304.26547356014748 0 0 0 0 -47.873832069284617 -168.04112312931989 0 -168.04112312931989 -400.1513079663082 0 0 0 0 -155.01810509523784 -527.11900544954983 0 -527.11900544954983 -288.88163306540901 0 0 0 0 -11.427355706018261 -437.47133264989338 0 -437.47133264989338 -291.70237330932196 0 0 0 0 -268.25396733872913 -353.50205347500196 0 -353.50205347500196 -207.57911101619175 0 0 0 0 57.957237394161545 -39.802133412416964 0 -39.802133412416964 21.74657429142783 0 0 0 0 -318.11231816230065 286.13945389608853 0 286.13945389608853 10.755573691665631 0 0 0 0 319.93480829826512 -521.11348994294485 0 -521.11348994294485 -228.79582980820578 0 0 0 0 2.5820805166187384 -1.5766820926726659 0 -1.5766820926726659 -0.12581297890440801 0 0 0 0 -287.2428701931567 -314.36372244381164 0 -314.36372244381164 -224.04248064940293 0 0 0 0 -292.32757187920834 -336.48408413996731 0 -336.48408413996731 -169.92123841133071 0 0 0 0 -260.09802001626667 -328.65640597344282 0 -328.65640597344282 -202.36694727970462 0 0 0 0 -257.56485350397998 -337.69026304279487 0 -337.69026304279487 -293.2346228122824 0 0 0 0 -279.39174975497735 -351.71269852878686 0 -351.71269852878686 -207.20313124657378 0 0 0 0 -203.3263106715674 -344.18888150834147 0 -344.18888150834147 -216.78800425009831 0 0 0 0 -240.35979722260527 -316.28122176098805 0 -316.28122176098805 -237.43973834663848 0 0 0 0 -300.07851178019337 -351.69560693544099 0 -351.69560693544099 -237.07404560099167 0 0 0 0 50.77236732717688 -35.475417318809562 0 -35.475417318809562 16.839524438868693 0 0 0 0 -292.24816646684849 -408.54342630098836 0 -408.54342630098836 -297.77022378608672 0 0 0 0 284.09031731415234 -104.52329523202889 0 -104.52329523202889 -330.6772346394265 0 0 0 0 489.68971436044194 -1.463632686445635 0 -1.463632686445635 -115.38320834896876 0 0 0 0 306.76149457834254 -177.97328579248142 0 -177.97328579248142 -119.53728259984837 0 0 0 0 200.17338975862367 5.0054268414962735 0 5.0054268414962735 -13.016053090662979 0 0 0 0 363.30613331172844 50.771582419996236 0 50.771582419996236 -101.91007944857756 0 0 0 0 -71.533233825146453 -36.409100107549705 0 -36.409100107549705 -100.57846357058224 0 0 0 0 187.01835946631672 60.29054883251132 0 60.29054883251132 -245.24392179445022 0 0 0 0 -3.7517452007414249 60.431126376062821 0 60.431126376062821 260.54259143337549 0 0 0 0 0.7175353083263758 0.29695458916094175 0 0.29695458916094175 -0.39853962837489121 0 0 0 0 -210.87187170588913 -62.332133101925137 0 -62.332133101925137 145.51690700848803 0 0 0 0 -0.016724044404426763 -1.4309941687825045 0 -1.4309941687825045 0.65102472685924573 0 0 0 0 -0.76520605900077499 -184.19846201752193 0 -184.19846201752193 -329.15384304695567 0 0 0 0 22.015228521944664 -25.117166830210635 0 -25.117166830210635 -204.63049137987127 0 0 0 0 -78.583840041933399 -237.96981109194144 0 -237.96981109194144 -155.15573739676438 0 0 0 0 -213.80676727622813 -302.95237419194109 0 -302.95237419194109 -158.69831167422035 0 0 0 0 -329.27164482356602 -399.8115594336291 0 -399.8115594336291 -177.52690451116825 0 0 0 0 -143.81606297620237 -448.96913721031706 0 -448.96913721031706 -453.90406232752366 0 0 0 0 -255.45977146455334 -606.01468471013368 0 -606.01468471013368 -672.47580334081886 0 0 0 0 -338.12731570502729 -629.34710594551007 0 -629.34710594551007 -332.70859698860431 0 0 0 0 -437.6934342959953 -352.84017769690968 0 -352.84017769690968 -137.28412143328023 0 0 0 0 -1014.9640237534477 -652.17724535421212 0 -652.17724535421212 -291.59670864228883 0 0 0 0 -508.37322861154553 27.242877801297254 0 27.242877801297254 -768.42866086186041 0 0 0 0 -57.401843024328628 115.52301686295891 0 115.52301686295891 -28.110915232231491 0 0 0 0 -357.16473919840973 -252.58801268026855 0 -252.58801268026855 -3.0762861951270679 0 0 0 0 12.720369198883418 -85.327014688289182 0 -85.327014688289182 -234.76399766798022 0 0 0 0 -69.844049619645375 142.04826183904925 0 142.04826183904925 159.75511428869504 0 0 0 0 -13.277054394286097 -114.21567831366019 0 -114.21567831366019 43.287540723753409 0 0 0 0 -460.28786558228967 -176.45877413556946 0 -176.45877413556946 -134.5472240832205 0 0 0 0 120.91847265593606 59.21288948014535 0 59.21288948014535 -394.45855163601664 0 0 0 0 685.15888683883259 -22.14586981895809 0 -22.14586981895809 -296.64011020192629 0 0 0 0 -0.9753287342211614 -6.4638899268794319 0 -6.4638899268794319 -27.685749176539908 0 0 0 0 243.41844265691543 -206.71416069322458 0 -206.71416069322458 -100.06722824928875 0 0 0 0 91.013754269387391 30.992817063865573 0 30.992817063865573 119.26709376463441 0 0 0 0 455.80245489240406 23.38834734807142 0 23.38834734807142 91.059913505285976 0 0 0 0 -1.3229669083154736 -4.1295350419291452 0 -4.1295350419291452 -9.9067594449529253 0 0 0 0 -377.92355606487217 -638.82742571399194 0 -638.82742571399194 -266.56174491112142 0 0 0 0 335.26664418823111 -63.589415022477056 0 -63.589415022477056 -496.95098544082248 0 0 0 0 -56.857034335995195 51.782745654406426 0 51.782745654406426 -26.55288502719668 0 0 0 0 -123.94738385443452 -84.695109592695189 0 -84.695109592695189 171.67312433039478 0 0 0 0 -449.74900682046791 -585.96047474985426 0 -585.96047474985426 -34.046597908835338 0 0 0 0 -461.02611394087216 -485.38189854081156 0 -485.38189854081156 -233.0227244857158 0 0 0 0 -445.5709821866094 -591.63583725988747 0 -591.63583725988747 -229.85635802986144 0 0 0 0 -421.42584814797738 -543.76973710346192 0 -543.76973710346192 -285.27489903577225 0 0 0 0 -343.30362464187601 -607.50546899895289 0 -607.50546899895289 -525.75809585852039 0 0 0 0 -369.20081397299873 -594.16146607324481 0 -594.16146607324481 -296.71384031148 0 0 0 0 -423.67821581926546 -520.04405573611257 0 -520.04405573611257 -396.27362669602371 0 0 0 0 -520.40819012569409 -534.28660552429119 0 -534.28660552429119 -271.2881940806692 0 0 0 0 -15.61680764218022 -5.1905024381621097 0 -5.1905024381621097 4.9102297296277442 0 0 0 0 -59.254087070115929 -25.662365796395534 0 -25.662365796395534 16.138164572385165 0 0 0 0 0.82863746482629352 -9.5784363311053404 0 -9.5784363311053404 2.7357635826606383 0 0 0 0 -28.438489422474959 -47.520854503985902 0 -47.520854503985902 -13.956165977317141 0 0 0 0 32.835124900407401 -29.347980437126242 0 -29.347980437126242 -14.935473327144553 0 0 0 0 -547.01102913693103 -342.85369161700328 0 -342.85369161700328 -162.72180600518914 0 0 0 0 2.9058756365787168 -6.2745856887303759 0 -6.2745856887303759 -6.6684224195228587 0 0 0 0 -1488.4544108512218 -547.22273856246329 0 -547.22273856246329 -113.77029265322926 0 0 0 0 -741.03022612602581 -682.4533204524123 0 -682.4533204524123 -205.95592662437593 0 0 0 0 -823.43427902631447 -852.31452967791029 0 -852.31452967791029 -665.32626274815073 0 0 0 0 -466.88881669433977 -446.65967284737781 0 -446.65967284737781 -398.66671526284699 0 0 0 0 -869.36948699218192 -323.79385334515518 0 -323.79385334515518 -160.99529155731852 0 0 0 0 51.173589800950268 -46.407071739430677 0 -46.407071739430677 23.255925565931008 0 0 0 0 -14.54532615512926 -106.55369129769412 0 -106.55369129769412 -53.697411976078911 0 0 0 0 -164.96414050245949 -156.95939065313723 0 -156.95939065313723 -62.251309230865445 0 0 0 0 7.3258234897676573 -8.0940768128805374 0 -8.0940768128805374 -0.50504778181036158 0 0 0 0 224.33796805236125 -150.20744722492327 0 -150.20744722492327 -106.40842485267785 0 0 0 0 6.2432344218241269 44.605944480194864 0 44.605944480194864 -426.27321291213775 0 0 0 0 -249.98718692058901 -190.35311905036724 0 -190.35311905036724 -10.486040441093792 0 0 0 0 -264.48802697543579 -180.23808307107174 0 -180.23808307107174 -12.311079612289177 0 0 0 0 -430.19273625688948 -237.94315027328594 0 -237.94315027328594 25.257426063377352 0 0 0 0 -294.43975785623479 -191.67264793957656 0 -191.67264793957656 26.51130860876583 0 0 0 0 -555.39544019409004 -282.04406976626342 0 -282.04406976626342 -90.984158678882523 0 0 0 0 1.334823983576686 -53.06809776655718 0 -53.06809776655718 24.775440857620083 0 0 0 0 -180.42555750377142 31.448260318917164 0 31.448260318917164 164.77194312939537 0 0 0 0 -43.349988521280466 -136.62669179047589 0 -136.62669179047589 -9.0962735630091629 0 0 0 0 -12.94247322973024 -6.4170870329880643 0 -6.4170870329880643 -0.63456850042842206 0 0 0 0 -768.68955238497438 -262.13492758580651 0 -262.13492758580651 -36.823203658201237 0 0 0 0 6.9728118212431802 -17.585684568918502 0 -17.585684568918502 -39.446053330810287 0 0 0 0 -61.7012713856966 -157.41834907381417 0 -157.41834907381417 0.83593041879476004 0 0 0 0 66.664916484081914 -143.26826301634537 0 -143.26826301634537 -313.54656743488522 0 0 0 0 -200.70365830418814 -208.47077020654433 0 -208.47077020654433 51.442020441176282 0 0 0 0 38.110345543331526 -55.906527813721219 0 -55.906527813721219 48.897959836559593 0 0 0 0 -88.476147420140705 42.21801559814611 0 42.21801559814611 276.72198415520688 0 0 0 0 -90.114706580832717 -16.772733841227819 0 -16.772733841227819 90.892143785174994 0 0 0 0 -89.290076942190353 -30.000959171506111 0 -30.000959171506111 52.522685724976327 0 0 0 0 -84.878873801681038 -72.003088630972343 0 -72.003088630972343 23.296290491350192 0 0 0 0 -49.06410226315711 -60.700345477853261 0 -60.700345477853261 14.805027148505701 0 0 0 0 2.7479505864559286 -2.1237904536403178 0 -2.1237904536403178 0.7791423784086291 0 0 0 0 41.694558484567096 113.40282999219016 0 113.40282999219016 190.40818795487576 0 0 0 0 -287.29025084917157 -373.25736941833384 0 -373.25736941833384 -431.47933085533305 0 0 0 0 -282.47557677291843 -360.89529847900576 0 -360.89529847900576 -756.38932085994384 0 0 0 0 -245.26857447714065 -153.09784358561592 0 -153.09784358561592 271.40681634715781 0 0 0 0 -150.50030423717908 -106.84813190306886 0 -106.84813190306886 -33.258334877002198 0 0 0 0 -195.98621948070104 -198.67432783357526 0 -198.67432783357526 67.518623122792633 0 0 0 0 58.169242926779134 -409.85184701791832 0 -409.85184701791832 -122.83151467374046 0 0 0 0 -301.25747318552567 -104.02708517847896 0 -104.02708517847896 212.22572640472936 0 0 0 0 -454.89010514455003 -292.6342701030535 0 -292.6342701030535 99.837510584154188 0 0 0 0 -434.3877052522148 -728.83344239317557 0 -728.83344239317557 -329.39272842636638 0 0 0 0 -1017.9376281932928 -233.25227249271848 0 -233.25227249271848 305.90918156208318 0 0 0 0 -257.14114136419084 -381.78013883323365 0 -381.78013883323365 -113.55455713966876 0 0 0 0 -292.36518372702994 -380.66093142911814 0 -380.66093142911814 -90.132555014423815 0 0 0 0 -291.0896609421543 -386.71054449188523 0 -386.71054449188523 -111.17619853855831 0 0 0 0 -163.67314817032843 -369.937665543256 0 -369.937665543256 -149.33714834565035 0 0 0 0 -225.37979796493892 -334.23641626598146 0 -334.23641626598146 -146.90145363608463 0 0 0 0 -256.3072432906738 -344.25561918710264 0 -344.25561918710264 -147.43810256985671 0 0 0 0 -295.6862359145598 -337.0174312414274 0 -337.0174312414274 -136.66831989457023 0 0 0 0 -283.86082705495573 -352.09576365582143 0 -352.09576365582143 -154.36969193967889 0 0 0 0 -277.19895851854017 -360.28776378644397 0 -360.28776378644397 -123.58484337743357 0 0 0 0 -271.44986059641815 -318.28181156567553 0 -318.28181156567553 -170.2753557849428 0 0 0 0 -298.38054105608899 -339.60809322661407 0 -339.60809322661407 -97.770852178182395 0 0 0 0 -158.24203783367557 -283.39348938046896 0 -283.39348938046896 -207.79260134103595 0 0 0 0 -270.75957346920438 -291.84076801774467 0 -291.84076801774467 -97.090837337320409 0 0 0 0 -207.48690375665319 -266.57257324182501 0 -266.57257324182501 -91.473865288376146 0 0 0 0 -336.5058489820949 -285.15347399526945 0 -285.15347399526945 -38.027032843790948 0 0 0 0 -376.79984487785259 -302.77096928282299 0 -302.77096928282299 -12.796002273002159 0 0 0 0 -319.62591185512429 -276.45029959341628 0 -276.45029959341628 -33.715304841374746 0 0 0 0 -305.62985689807829 -367.15017430343323 0 -367.15017430343323 -94.767309057879174 0 0 0 0 -320.0894917552796 -351.98879040523389 0 -351.98879040523389 -98.568975918987235 0 0 0 0 -308.9055803865449 -325.86751900280069 0 -325.86751900280069 -48.757363828230154 0 0 0 0 -405.32493540620635 -362.17210881491701 0 -362.17210881491701 -48.998708789117643 0 0 0 0 -337.6724461519043 -400.85032706806123 0 -400.85032706806123 -77.347578779554169 0 0 0 0 -347.95956216615014 -392.12059446677085 0 -392.12059446677085 -77.591300799271266 0 0 0 0 -588.68816671572131 -308.55883408177215 0 -308.55883408177215 -8.2360031401958622 0 0 0 0 -361.6037295587048 -293.51151845252753 0 -293.51151845252753 -7.7731870560855896 0 0 0 0 -418.46718275224339 -443.70859923912303 0 -443.70859923912303 -66.342644185020617 0 0 0 0 -162.65216872968449 -444.22368047715645 0 -444.22368047715645 -138.08866103568289 0 0 0 0 -314.72090073584513 -447.79327271300372 0 -447.79327271300372 -99.026469417298358 0 0 0 0 -204.7491100422485 -409.78699863071051 0 -409.78699863071051 -118.39103431568219 0 0 0 0 -205.62986137132611 -372.81155049377776 0 -372.81155049377776 -131.77885662739936 0 0 0 0 -128.61546447855062 -399.41639145745887 0 -399.41639145745887 -129.31302251424131 0 0 0 0 -181.76547095171554 -374.9215662923325 0 -374.9215662923325 -47.868820952044189 0 0 0 0 -29.729855833091278 -357.47908074253337 0 -357.47908074253337 -68.349944093730301 0 0 0 0 -212.19827623516539 -522.61623561941815 0 -522.61623561941815 315.01920307109685 0 0 0 0 -115.32463247793203 -275.64676035630328 0 -275.64676035630328 121.83937403431264 0 0 0 0 -147.48752198695729 -447.65430931757874 0 -447.65430931757874 26.810776563295803 0 0 0 0 -239.14742240235682 -362.60847712413488 0 -362.60847712413488 -52.068101745157037 0 0 0 0 -698.58405281286832 -404.37899204204041 0 -404.37899204204041 -39.492490972404084 0 0 0 0 -334.27764938403652 -543.71987218625918 0 -543.71987218625918 -158.51059576961416 0 0 0 0 -633.52544320356537 -291.82744534670837 0 -291.82744534670837 -86.461163412190217 0 0 0 0 -664.17869384932237 -138.19688205447392 0 -138.19688205447392 -755.69326251924213 0 0 0 0 -683.49651290828842 -166.34278864440057 0 -166.34278864440057 363.92300079483539 0 0 0 0 -429.24639056961314 -209.81870022512157 0 -209.81870022512157 -127.64909897845268 0 0 0 0 -673.99041652606684 -225.12919598090048 0 -225.12919598090048 431.05978578441136 0 0 0 0 -686.78430506008226 -260.17986615339123 0 -260.17986615339123 489.67404079355038 0 0 0 0 -1031.1559146275872 -368.68225651482459 0 -368.68225651482459 1620.6234955128748 0 0 0 0 -1039.496113320806 -61.440493485734351 0 -61.440493485734351 742.2724874040905 0 0 0 0 -726.53575309286316 -166.45952087191836 0 -166.45952087191836 770.0395476351041 0 0 0 0 -723.35681736021797 -111.38487246267869 0 -111.38487246267869 106.24263366267405 0 0 0 0 2.2346201161162753 -5.6790156445240001 0 -5.6790156445240001 7.2397435094093794 0 0 0 0 -851.23099983796783 18.671733427598156 0 18.671733427598156 923.32379623902671 0 0 0 0 346.60480128665222 -843.41734658020505 0 -843.41734658020505 262.41184630673524 0 0 0 0 -267.31487250678401 -546.23628628819824 0 -546.23628628819824 951.70295905583407 0 0 0 0 4.9246984566034371 -90.999769631212075 0 -90.999769631212075 534.87761943607256 0 0 0 0 264.03791548335357 -454.08359751877288 0 -454.08359751877288 197.38250638796671 0 0 0 0 -335.51275382962922 -691.49058481297288 0 -691.49058481297288 984.08001184508612 0 0 0 0 -224.31971380874529 -352.97491421009499 0 -352.97491421009499 -289.03344389904669 0 0 0 0 8.9406258775123462 -13.282108811860624 0 -13.282108811860624 17.107728514231297 0 0 0 0 -101.85043646149643 -273.77139947812066 0 -273.77139947812066 -317.59325791670926 0 0 0 0 -272.98898769833932 -235.96412715951124 0 -235.96412715951124 -79.443445334927674 0 0 0 0 -94.370915233215783 -387.78820270454889 0 -387.78820270454889 48.447823136190891 0 0 0 0 -250.61344534188811 -338.87615503818006 0 -338.87615503818006 -155.83478010796898 0 0 0 0 31.219464760937278 -34.749370418102487 0 -34.749370418102487 38.674044272107402 0 0 0 0 -487.33274796798287 199.98104572709599 0 199.98104572709599 518.18425706166909 0 0 0 0 159.57914400005757 -910.77986224555389 0 -910.77986224555389 -155.85752765508187 0 0 0 0 211.78970431163202 110.53593764367275 0 110.53593764367275 -267.64036236180618 0 0 0 0 -1660.5733290115895 -420.45752849237579 0 -420.45752849237579 -7.8344291500980034 0 0 0 0 -1.8704282054279204 -1.3737852687207237 0 -1.3737852687207237 -14.752774204338508 0 0 0 0 54.4770589725631 312.5985367355388 0 312.5985367355388 -518.36556453586309 0 0 0 0 -1334.3637039335165 -171.0721686990851 0 -171.0721686990851 2251.1910511163042 0 0 0 0 -1316.730633412888 488.58374378536791 0 488.58374378536791 637.70690019159156 0 0 0 0 -428.69417177718424 -832.63559629451083 0 -832.63559629451083 616.32670727966979 0 0 0 0 114.39147151173165 -1793.2962481639079 0 -1793.2962481639079 1886.3461383646109 0 0 0 0 7.6098083215984502 -13.408373850434771 0 -13.408373850434771 22.731612305635821 0 0 0 0 1426.6980375991643 -678.99509984090855 0 -678.99509984090855 -147.52930847870084 0 0 0 0 1354.7637204773928 -404.20337444788129 0 -404.20337444788129 -437.57449765049341 0 0 0 0 42.252577171133453 -1577.7071268695572 0 -1577.7071268695572 2694.102147593414 0 0 0 0 -545.87656003256234 -684.52121376527521 0 -684.52121376527521 1536.0624682281341 0 0 0 0 -889.22049531610901 -49.361248992039691 0 -49.361248992039691 1881.2245106318787 0 0 0 0 -605.9985974719857 264.73727217037231 0 264.73727217037231 320.87831914736125 0 0 0 0 -566.19522069010418 -475.97878917641356 0 -475.97878917641356 1638.4098204879883 0 0 0 0 18.399259959871415 -161.91403201011781 0 -161.91403201011781 502.57104310620707 0 0 0 0 -553.66724164601328 -564.65270437469735 0 -564.65270437469735 1754.8796881399248 0 0 0 0 -503.14365383813129 -595.3355544601618 0 -595.3355544601618 1669.3576087422862 0 0 0 0 -438.91201243949035 -113.3291952999989 0 -113.3291952999989 2307.3739010565441 0 0 0 0 -223.91015878471626 -573.54788377480145 0 -573.54788377480145 -519.67617863350461 0 0 0 0 -160.71215497692174 -440.01475833419681 0 -440.01475833419681 -547.75897685720338 0 0 0 0 -626.6429278724936 -296.50785377301509 0 -296.50785377301509 -240.02853713901459 0 0 0 0 -967.68233475269244 -998.88759712557749 0 -998.88759712557749 -77.363344948607846 0 0 0 0 -90.024916762464272 -591.70820278715019 0 -591.70820278715019 -131.46838324489363 0 0 0 0 -236.39824957165808 -859.31800826639028 0 -859.31800826639028 -312.50277604220901 0 0 0 0 63.079034645426873 -520.66688407220465 0 -520.66688407220465 423.2413849935765 0 0 0 0 -194.29119252920646 -232.58608509528494 0 -232.58608509528494 144.80536753312481 0 0 0 0 23.538611864371454 -37.265980170724873 0 -37.265980170724873 54.669842543431407 0 0 0 0 -206.07512004592354 -390.01909832257297 0 -390.01909832257297 -171.15089892085234 0 0 0 0 -724.10913755157526 -637.43280771209538 0 -637.43280771209538 -166.5257651954982 0 0 0 0 256.37331016171447 -538.65451082607433 0 -538.65451082607433 -471.20572162963435 0 0 0 0 -218.50045344926912 -389.26457401272 0 -389.26457401272 -83.718679678782792 0 0 0 0 35.30176272587596 -793.02020758859271 0 -793.02020758859271 42.373409766791156 0 0 0 0 64.336103696783539 -408.09856343173306 0 -408.09856343173306 -567.64647808043082 0 0 0 0 37.653707373152429 -91.719016104570983 0 -91.719016104570983 -454.92967592740752 0 0 0 0 9.4539486527319241 -196.78787594456389 0 -196.78787594456389 -769.37269682871556 0 0 0 0 -13.164871961749668 -540.89225898757832 0 -540.89225898757832 -1006.075972274426 0 0 0 0 -25.298056579558761 -427.88047514501886 0 -427.88047514501886 -398.31712902623258 0 0 0 0 -426.17970320161476 -819.09835092171124 0 -819.09835092171124 -2375.8817312573519 0 0 0 0 -154.00116597544911 -139.45114730110436 0 -139.45114730110436 -734.64391746591355 0 0 0 0 -2.6541092661988586 -4.7062448826128502 0 -4.7062448826128502 -1.8515723605966983 0 0 0 0 -669.98010077801155 -1281.7242194655228 0 -1281.7242194655228 1705.037441553588 0 0 0 0 -359.65343133256101 -1034.1690528683575 0 -1034.1690528683575 -2762.4634426888151 0 0 0 0 -1059.2396757143724 -1488.7648548619763 0 -1488.7648548619763 -2022.0753623718374 0 0 0 0 -773.93964708817657 -793.78229065638152 0 -793.78229065638152 -1626.4055114057483 0 0 0 0 -13.645601160405377 -9.5868817668886521 0 -9.5868817668886521 27.294354322183707 0 0 0 0 29.854967512937002 -55.23866974621923 0 -55.23866974621923 75.81338659281414 0 0 0 0 -416.51111022656733 -593.48821928497091 0 -593.48821928497091 -396.14147737187523 0 0 0 0 -312.56790094981261 -92.344916669120721 0 -92.344916669120721 254.58532997307339 0 0 0 0 3.8434519213155127 -11.692737941548671 0 -11.692737941548671 19.648320575421593 0 0 0 0 -566.46692881552372 -467.96219620800912 0 -467.96219620800912 -92.901699840072979 0 0 0 0 -109.87830199958626 -468.20344682908399 0 -468.20344682908399 -163.05654779204633 0 0 0 0 -27.85569675932129 -424.28562786446855 0 -424.28562786446855 -85.578972755374707 0 0 0 0 -452.48180015645994 -345.12607948846016 0 -345.12607948846016 -25.759320368430053 0 0 0 0 -794.07485430931956 -503.98117430837101 0 -503.98117430837101 92.022917819544091 0 0 0 0 -431.57851324054354 -447.88878057144029 0 -447.88878057144029 149.1368929277196 0 0 0 0 -439.16002436659619 -560.96516971087658 0 -560.96516971087658 356.16136486675532 0 0 0 0 -241.18430660436206 -486.4248099726974 0 -486.4248099726974 -290.03552438614861 0 0 0 0 -641.04932236377317 -312.49492105555782 0 -312.49492105555782 62.147419870714657 0 0 0 0 -228.42639700172731 -418.04431666461824 0 -418.04431666461824 -176.3699113601142 0 0 0 0 -393.66035382572954 -400.03852745792392 0 -400.03852745792392 -169.03083184410752 0 0 0 0 4.3320921518778235 -13.091825264265111 0 -13.091825264265111 25.980822286778988 0 0 0 0 -5.913023321016226 -428.24612377151061 0 -428.24612377151061 -276.98857928709367 0 0 0 0 -194.91042437420037 -291.08170004934436 0 -291.08170004934436 -176.96429824583174 0 0 0 0 -49.621631928772331 -118.91881865214236 0 -118.91881865214236 -175.31447285319882 0 0 0 0 2.6379960984509907 -14.875433397961402 0 -14.875433397961402 28.623202175365662 0 0 0 0 -832.7405018583795 -307.82685583064631 0 -307.82685583064631 -100.03820884109155 0 0 0 0 -580.38452185735514 -511.33172079750148 0 -511.33172079750148 -162.63524777837392 0 0 0 0 -558.46757712073668 -273.21115898546122 0 -273.21115898546122 -141.09604033660526 0 0 0 0 -888.16891853266497 -459.53760130210048 0 -459.53760130210048 -57.823717682775168 0 0 0 0 -212.87857658159555 -451.5354587829388 0 -451.5354587829388 -167.61348983297466 0 0 0 0 -491.56049847002487 -455.68565731908893 0 -455.68565731908893 -59.295472961530322 0 0 0 0 -492.41859529324574 -358.74639706165181 0 -358.74639706165181 -83.065070803611889 0 0 0 0 -104.1556429904731 -314.12233132848269 0 -314.12233132848269 -17.226383942892426 0 0 0 0 -12.670805126545019 -512.45953882088725 0 -512.45953882088725 -80.217770181042397 0 0 0 0 -212.80042376154961 -447.00876180782143 0 -447.00876180782143 -43.319809916618397 0 0 0 0 -149.33267962257014 -557.02918602165119 0 -557.02918602165119 65.776250168579281 0 0 0 0 -54.265320124970458 -548.19059595651925 0 -548.19059595651925 -75.269083834589765 0 0 0 0 -39.170231093855364 -497.39552142774392 0 -497.39552142774392 57.235574763966724 0 0 0 0 -112.41644450644162 -557.5029598084293 0 -557.5029598084293 179.70345806430487 0 0 0 0 -112.75342439630913 -565.2649055061338 0 -565.2649055061338 58.946138725473247 0 0 0 0 -54.532608504023301 -405.74423587776982 0 -405.74423587776982 148.89892374767805 0 0 0 0 -44.020973667102226 -506.87913206723169 0 -506.87913206723169 52.996350512417848 0 0 0 0 -53.692692778542551 -454.01302428956478 0 -454.01302428956478 88.299217661246075 0 0 0 0 79.529638142876138 -433.5982017839342 0 -433.5982017839342 32.709833069358865 0 0 0 0 38.30704681470479 -346.71334602139723 0 -346.71334602139723 55.610384971572785 0 0 0 0 9.8931131624976842 -499.83127200254421 0 -499.83127200254421 -13.038943285275309 0 0 0 0 45.114150561457791 -396.64443689557265 0 -396.64443689557265 -5.0262262581600226 0 0 0 0 182.18120214654664 -493.98167273863874 0 -493.98167273863874 50.520267114285161 0 0 0 0 247.80458589001955 -304.21958597179128 0 -304.21958597179128 8.5762144374239142 0 0 0 0 214.716922808866 -339.12356729984094 0 -339.12356729984094 146.37193313149965 0 0 0 0 305.00666598157568 -314.30839475732137 0 -314.30839475732137 -171.42480986745795 0 0 0 0 171.15680367604546 -172.83269793808358 0 -172.83269793808358 -28.442704890294408 0 0 0 0 130.14114523476383 -215.02602650173867 0 -215.02602650173867 18.377931186390924 0 0 0 0 166.37362983929779 -333.17227899216414 0 -333.17227899216414 -0.28485843635280617 0 0 0 0 -263.74438976262445 -374.82186323434507 0 -374.82186323434507 -97.797298322002462 0 0 0 0 -232.71937273194453 -470.56425259132811 0 -470.56425259132811 103.80799917385684 0 0 0 0 82.152915008257878 -435.49979186126347 0 -435.49979186126347 -153.18565086684248 0 0 0 0 -205.81424577782855 -427.020280359764 0 -427.020280359764 -95.811405106185703 0 0 0 0 478.20815670682168 -274.05318284575515 0 -274.05318284575515 -92.185106677094154 0 0 0 0 -545.25463729267221 -325.7296940236547 0 -325.7296940236547 -298.89654297419474 0 0 0 0 -1.6590005257348981 -3.8401757878908853 0 -3.8401757878908853 2.2098486865322968 0 0 0 0 -539.12951010246434 -300.9598319695433 0 -300.9598319695433 -712.56384736287873 0 0 0 0 -554.8713087310075 -275.87524263495197 0 -275.87524263495197 -163.64951751348417 0 0 0 0 -262.3876894897403 -151.17442126451351 0 -151.17442126451351 177.73270755026169 0 0 0 0 -179.70411161994889 -531.22904763897168 0 -531.22904763897168 -707.83413872742312 0 0 0 0 -702.42371933189861 -490.13562700885086 0 -490.13562700885086 103.17631559563506 0 0 0 0 -604.73435757085281 -277.80574605360016 0 -277.80574605360016 -129.68216618395672 0 0 0 0 301.43776054335831 90.801886653734982 0 90.801886653734982 -88.916544279896243 0 0 0 0 -60.118707822017313 -133.53015067058732 0 -133.53015067058732 545.00723476836356 0 0 0 0 -2.3603110595787538 -5.2780234216524295 0 -5.2780234216524295 5.042110696273113 0 0 0 0 -104.39227894799751 -1100.5850493661565 0 -1100.5850493661565 596.83120708841307 0 0 0 0 -1130.9073322561107 116.63003499896149 0 116.63003499896149 667.83966415868781 0 0 0 0 198.03817405057816 -147.42188714771146 0 -147.42188714771146 85.671118233422021 0 0 0 0 6.330861513137279 -203.2191339446872 0 -203.2191339446872 100.27853973650645 0 0 0 0 67.812742356740273 -206.39255861605307 0 -206.39255861605307 65.647391233294911 0 0 0 0 -97.129479618768528 -311.57032658011667 0 -311.57032658011667 91.238891325332588 0 0 0 0 54.910875975956515 -322.6413445119415 0 -322.6413445119415 81.693513248366799 0 0 0 0 -114.44784524458623 -287.72368426376272 0 -287.72368426376272 131.70103743963409 0 0 0 0 -125.74744434050609 -103.98047919565749 0 -103.98047919565749 12.576325296678988 0 0 0 0 -443.04479545462527 -72.468309194146059 0 -72.468309194146059 173.88657688583953 0 0 0 0 -1.8027037626698768 -4.2261861345092111 0 -4.2261861345092111 4.1162652265810351 0 0 0 0 -179.63128947165933 -251.67742375196576 0 -251.67742375196576 111.77507484985108 0 0 0 0 -295.42279188408247 -211.46708824755751 0 -211.46708824755751 254.90606076801123 0 0 0 0 -0.51984361429084647 -3.0053521326076371 0 -3.0053521326076371 12.007016987604089 0 0 0 0 -707.25400105898279 85.87558390828417 0 85.87558390828417 -257.21109902346507 0 0 0 0 1040.178291107426 -395.87145517277531 0 -395.87145517277531 -11.083666936779991 0 0 0 0 -998.99290584319397 -52.28662333525881 0 -52.28662333525881 -166.49506362174725 0 0 0 0 470.14049331155684 -354.37940617503409 0 -354.37940617503409 82.93035026841244 0 0 0 0 535.5261773970642 -453.18954526691414 0 -453.18954526691414 192.41149709059391 0 0 0 0 -0.20748124552450697 -2.3052803312307084 0 -2.3052803312307084 35.235278204637552 0 0 0 0 -966.75496318160003 144.27030311732597 0 144.27030311732597 394.91782011714531 0 0 0 0 462.56028774344122 -275.21528777384447 0 -275.21528777384447 217.38007124969954 0 0 0 0 -705.21302699916168 234.60572308598694 0 234.60572308598694 -95.794227189267986 0 0 0 0 641.68885818242234 -270.34976768910656 0 -270.34976768910656 -302.9483701508143 0 0 0 0 -533.45545639158422 359.4243079200146 0 359.4243079200146 311.49029556586902 0 0 0 0 238.83007228663701 -72.223970128250585 0 -72.223970128250585 47.76320824794675 0 0 0 0 199.8548203463115 -332.35974928475162 0 -332.35974928475162 348.81541102356277 0 0 0 0 111.53751560118144 -74.94406054850333 0 -74.94406054850333 4.2554736866886742 0 0 0 0 48.183542323723486 -170.46689302804316 0 -170.46689302804316 75.967180608597118 0 0 0 0 18.989517743804754 -147.43624193944606 0 -147.43624193944606 -1.1305426014369004 0 0 0 0 -528.20778357872587 -366.07093590694421 0 -366.07093590694421 380.64201024165232 0 0 0 0 -25.453713004157976 -50.815473157370121 0 -50.815473157370121 -66.319209565984139 0 0 0 0 -12.754868301826924 -15.849601536194488 0 -15.849601536194488 54.681783768385145 0 0 0 0 99.984143541589674 -101.5444985720635 0 -101.5444985720635 89.673807494509674 0 0 0 0 -226.66466918758124 -301.02541407173703 0 -301.02541407173703 279.46854709146646 0 0 0 0 5.1499470240762548 -291.05281579917482 0 -291.05281579917482 156.77549604196975 0 0 0 0 33.559031677119492 -135.34759774839767 0 -135.34759774839767 115.4151672971384 0 0 0 0 -242.53931537799508 -190.41292402760155 0 -190.41292402760155 129.76371872111304 0 0 0 0 -355.08293863076142 -320.17201423701772 0 -320.17201423701772 216.59639226134095 0 0 0 0 -280.038597478273 -361.21483127573629 0 -361.21483127573629 93.107024752494908 0 0 0 0 -290.73590745144247 -304.33770607261431 0 -304.33770607261431 226.74210876510188 0 0 0 0 -250.98129414909999 -261.94661852297031 0 -261.94661852297031 221.18231813232023 0 0 0 0 -243.84617005295331 -290.32142306726746 0 -290.32142306726746 175.7593433259226 0 0 0 0 -159.37465059736496 -319.66685980685361 0 -319.66685980685361 61.810544392434167 0 0 0 0 -236.40375776934752 -361.03512755061899 0 -361.03512755061899 130.30797287314272 0 0 0 0 -115.33697383924118 -273.19820197356421 0 -273.19820197356421 114.34978419564868 0 0 0 0 -140.21082781899531 -370.15864346036142 0 -370.15864346036142 -42.096478163872234 0 0 0 0 -125.89055888424991 -337.62837558276624 0 -337.62837558276624 160.73544868824865 0 0 0 0 -178.75927437604332 -261.26295290624694 0 -261.26295290624694 253.31539069484461 0 0 0 0 -227.62372019622126 -427.16921123749307 0 -427.16921123749307 379.88299179995556 0 0 0 0 -235.82304837429729 -436.74547361911755 0 -436.74547361911755 370.54959630184749 0 0 0 0 -94.015865591476086 -750.32920462813377 0 -750.32920462813377 418.59555955373071 0 0 0 0 -173.53197080821701 -377.14118523437355 0 -377.14118523437355 146.16440334707659 0 0 0 0 -146.344569125009 -453.10263004956869 0 -453.10263004956869 287.08447658455771 0 0 0 0 -168.59607537499232 -327.77744799991024 0 -327.77744799991024 194.78592549126188 0 0 0 0 -240.60056892097418 -378.60687418463021 0 -378.60687418463021 246.63871034306794 0 0 0 0 -194.14601562143071 -330.38997042086703 0 -330.38997042086703 214.87222488693624 0 0 0 0 
</DataArray>
<DataArray type="Float64" Name="cross_section_updated" format="ascii">
1 1 1 1 1 0.0078263605912194598 1 1 1 1 0.0092136779721663023 1 1 1 1 1 1 0.010453132446673202 1 0.0080280022371011783 1 1 1 1 1 1 1 1 1 1 1 1 1 1 1 1 0.010372163221044981 1 1 1 1 1 1 1 1 0.011065176580806982 1 1 1 1 1 1 1 1 1 1 0.0090142335019336717 1 1 1 1 1 1 1 1 1 1 1 1 1 1 1 1 0.009528897601994683 0.0086913723699231001 1 1 1 1 1 0.0079949665738506068 1 0.015455502092922164 1 1 1 1 1 0.016104773186031582 1 1 1 0.011722651843756543 1 1 0.010728929941283674 1 1 1 0.010038577611572074 1 0.012122902820353484 1 1 1 1 0.011321166573889143 1 1 0.010720767109171744 1 1 1 1 1 1 1 1 1 1 0.0018305594533911777 1 1 0.00062001783193574994 1 1 1 1 2.2798201174123456e-10 1 1 1 1 0.010647036616050201 1 1 1 1 0.01668709528625846 1 1 0.0030252414281501522 1 1 0.014956659700624373 1 1 1 0.0098422491334207753 1 1 1 1 1 1 0.013658837954733416 1 1 1 1 1 1 0.0099426317205150751 1 1 1 1 1 1 1 1 1 0.0079138298814205831 1 0.0091568616120078963 1 1 1 1 1 1 1 0.010294193204115752 1 1 1 1 0.0096758873437393436 1 1 1 1 0.0095136736351931796 0.0098447965501209343 1 1 1 1 1 1 1 1 0.0099042523894121662 1 1 1 1 0.0097535109712959429 1 0.0089926551846151535 1 1 1 1 1 0.009626922647125306 1 1 1 1 1 1 1 1 1 1 1 1 1 1 1 1 1 1 1 1 0.012091027912683305 1 1 1 1 1 0.012621909004320798 1 1 1 1 1 1 1 1 1 1 1 1 1 0.0088969013338079574 1 1 1 0.0090957824857089888 1 0.0080522066924879725 1 1 1 0.013187248348030901 1 1 1 1 1 1 1 1 0.0056889274223972854 0.0092339680356151067 1 1 1 1 1 1 1 1 1 1 1 1 0.013137302257353321 1 0.010050659997012306 1 1 1 1 1 1 1 1 0.01046702053818584 1 1 0.010554572848543949 1 1 1 1 0.010281188121572611 1 1 1 0.0099545546649392885 1 1 1 0.0097541218064927208 1 1 0.011574929605209023 1 1 1 1 0.0086367790786296833 1 1 1 1 1 1 1 1 0.0095462754274110509 1 1 1 0.0081909544303647372 1 0.011623454760812453 1 1 0.0057814055734942346 1 1 1 0.0086804979154803136 1 1 0.0036128670870576758 1 1 1 1 1 1 1 1 1 1 1 1 1 1 1 1 1 0.0073733213229047329 1 1 1 1 0.0099999618067097701 1 1 0.0098422775494476922 1 1 1 1 1 1 1 1 1 0.0067567516228004103 1 1 1 0.0070144267162990104 1 1 1 1 1 1 1 1 1 1 1 1 1 1 1 1 1 1 1 1 1 1 1 1 1 1 1 1 1 1 1 0.0087051197213059463 1 1 1 1 1 1 1 0.010502823733299121 1 1 1 1 0.011690673249597685 1 1 1 1 1 1 1 0.010253616622886848 1 1 1 1 1 1 1 1 1 1 1 1 1 1 1 1 1 1 1 1 0.013204889960963478 1 0.010803207923428568 1 1 1 1 1 1 1 1 0.012259218285485398 1 0.012066645192265021 1 1 1 1 0.012883252295407863 1 0.011296550154024348 1 1 0.0075755891106518217 0.007985308540982481 1 1 0.011495928229548289 0.0073472236496707824 1 1 1 1 1 1 1 1 1 1 0.0089159865295123653 1 1 1 1 1 1 1 1 1 1 1 1 1 0.0087092089435682283 1 0.009167608615030725 1 1 1 1 1 1 1 0.0070706103428372826 1 1 1 1 1 1 1 1 1 1 1 1 0.012835115222643656 1 0.010047531649805421 1 1 1 1 0.012052641951861908 1 1 0.0099982540463754346 1 1 1 1 1 1 1 1 1 1 0.0077403690463985347 1 1 1 1 1 0.010137333811166752 1 0.0039213140099319307 1 1 0.011098058715375489 0.011565330419178364 1 1 1 0.0059175120559333445 0.012202210831567251 1 1 1 1 0.010232744816714833 1 1 0.0078492900302821675 1 1 0.011693061093069286 0.0079768557962536027 0.0084566997922469016 0.011365159916320158 0.0069779808957266855 1 0.0078205414065265939 1 0.011517545429322486 1 1 0.0080931781095111305 1 0.011403209631134347 1 1 0.0073169077279705581 0.0060103068778088187 1 1 1 1 0.0051515414535971173 1 0.0099702548459734523 0.014995397825091629 1 1 1 0.004299438499393923 1 1 1 1 1 0.010052077929488971 1 1 1 1 1 1 1 1 1 1 1 0.012033593278290624 1 0.011651346325645819 1 0.013420175229266952 1 1 1 1 1 0.0087671106763632795 1 1 1 1 1 1 0.0095429146653631253 1 1 1 1 1 0.0090566430440925539 1 1 1 1 1 1 1 1 1 1 1 0.010529362990377593 1 1 1 1 1 1 1 0.011989590681626442 0.0070723953917015882 1 1 1 1 1 1 1 1 1 1 1 1 0.010199313111463755 1 1 1 0.010872844498947336 1 1 1 1 1 1 1 1 1 1 1 1 1 1 1 1 1 1 1 1 1 1 1 1 0.0093214204125968963 0.0062638763114950865 1 1 1 1 1 1 0.0048076938204680685 1 1 1 1 1 1 1 1 1 1 1 1 1 1 1 1 1 1 1 1 1 1 1 1 0.0085381992043982672 1 0.0087993334731386302 1 1 1 1 1 1 0.0096288389063239818 1 1 1 1 1 1 1 1 1 1 0.0086447796564392432 1 1 1 1 1 0.0093775914503169411 1 1 0.010046366834244905 1 1 1 1 1 1 1 1 1 1 1 0.0080307370196163186 1 1 1 1 1 0.01238246888455944 1 1 1 0.010935398195573326 1 1 1 0.0040726970729056296 1 1 1 1 1 1 1 1 1 1 0.0078925099403833257 1 1 1 1 1 1 1 1 1 1 1 1 1 1 1 1 0.010056236786152301 1 1 1 0.0069374979438012012 1 1 1 1 1 0.0098980076873519136 1 1 1 1 1 1 1 1 1 1 1 0.015963732467637388 1 1 1 1 1 1 1 1 0.0075209558517038231 1 1 1 1 1 1 1 1 1 1 1 1 1 1 1 1 1 1 1 0.012168404921941645 1 1 1 1 1 1 0.010818220553196534 1 1 1 1 1 1 1 1 1 1 1 1 1 1 1 1 1 1 1 1 1 1 1 1 1 0.0044917165459805244 1 1 1 1 1 1 1 1 1 1 1 1 1 1 1 1 1 0.0089746948635871047 1 0.0073229582805368169 1 1 1 1 1 0.0087745841504589007 0.0064021398569124831 1 1 1 1 1 1 1 1 0.0072212464372444461 1 1 1 1 1 1 0.011652673688023595 1 1 1 1 1 1 1 1 1 1 1 1 1 1 1 1 1 1 1 1 0.0066295291238343381 1 1 1 1 1 1 0.0066666918313300584 1 1 0.010703841146111179 1 1 1 1 1 1 1 1 0.010910488545028432 1 0.013025085760235297 1 1 0.0061510156644673884 1 1 1 0.0057557823575612324 1 1 1 1 1 1 1 1 1 1 1 1 1 1 1 1 1 1 1 1 1 1 1 1 1 1 1 1 1 1 1 1 1 1 0.0094265222379023936 1 1 1 0.011132298621362335 1 1 1 1 0.010607411986811068 1 1 1 1 1 1 0.010176587335688743 1 1 1 1 0.018344116183418434 1 1 1 1 0.017204416012483528 1 1 1 1 0.0063347669721318381 1 1 0.010052304343930535 1 1 1 1 1 1 0.010421910105882346 1 0.013614338484411608 1 1 0.010017816961972851 1 1 1 0.0098982028278790796 1 1 1 1 1 1 1 1 1 0.010459067653853136 1 1 1 1 1 1 1 1 0.0078235672634301718 1 1 1 1 1 1 1 1 1 1 1 1 1 1 1 1 1 1 1 1 1 1 1 1 1 1 1 1 1 1 1 1 1 1 0.010277089179890153 1 1 1 1 0.010140307606060476 1 1 1 1 1 1 1 1 1 1 1 1 1 1 1 1 0.010035642870019007 1 1 0.010136781573829676 0.0081955546350335022 1 1 1 1 1 0.0089729619578163625 1 1 1 0.011467767903404907 0.0078093811835803278 0.011246500915853714 1 0.0075912387964064921 1 0.0081106266723927206 0.014703904265452757 1 1 1 1 0.010062471030793229 1 1 1 1 1 1 1 1 1 1 0.013233054271043159 1 1 1 1 0.011206864181273844 1 1 0.013277592063608765 1 1 1 1 0.011241324788535022 1 1 1 1 1 1 1 1 1 1 1 1 0.010072928164227529 1 1 1 1 1 1 1 1 1 1 1 1 0.014202468095112109 1 1 1 1 1 1 1 1 1 0.014128311094336064 1 0.0095827685055661187 1 0.010042447727797908 1 1 1 1 1 1 1 1 1 1 1 1 1 1 1 1 1 1 1 1 1 1 1 1 1 0.010038145178760508 1 1 1 0.0099652170145329826 1 1 1 1 1 1 1 1 0.013848750030769569 1 1 1 1 1 1 1 0.01202561704091926 1 0.010640404316639087 1 1 1 1 1 1 1 1 1 0.010100652061585245 1 1 0.0091631761733060799 0.012295249844666012 1 1 1 1 1 1 1 1 1 1 0.008278342235135773 1 1 1 1 1 1 1 1 1 1 1 1 1 1 1 1 0.010080789995331598 1 1 1 0.010679576876989968 1 1 0.011922644169086651 1 0.0092416340820383434 1 0.0082769641978513338 1 1 1 1 1 1 1 1 0.0089559392805303156 1 1 1 1 0.0098432435442540149 0.011821677746249754 1 1 1 1 0.0099194674587739992 1 1 1 1 1 1 1 1 1 1 1 1 1 1 1 1 1 1 1 1 1 1 1 1 1 1 1 1 0.010846719320819501 1 0.0085227073943224436 1 1 1 1 0.0093245153208664205 1 1 1 1 1 1 1 1 1 1 1 1 0.013068788522542113 0.010730426208659473 1 1 1 1 1 1 1 1 1 1 1 1 1 0.011778125867187865 1 1 1 1 1 1 1 1 1 1 0.0094744880345473299 1 1 1 1 1 1 1 1 1 1 0.010071632814228536 1 1 1 1 0.010360029641877764 1 1 1 1 1 1 1 1 1 0.0081383280651485812 1 1 1 0.010524204905504354 1 1 1 1 1 1 1 1 1 1 1 1 1 1 1 1 1 1 1 1 1 1 1 1 1 1 1 1 1 1 1 1 0.0057751785183153149 1 1 1 1 1 1 1 1 1 0.0065454919126874183 1 1 1 0.0098226088618191612 0.0080998773188016814 1 0.0079866461321220685 1 1 0.010004697458949722 1 1 1 1 1 1 1 1 0.007493008527928214 1 1 0.01051494608517415 0.011237021644261588 0.0075749307423813184 0.0099485102882364493 1 1 1 1 0.01064855871021482 0.010127803713218718 0.010852494112475197 1 1 1 0.0091598200181332492 1 1 1 1 1 9.0081007930731261e-10 1 1 1 1 1 1 1 1 0.01018493122453188 1 0.010061512404793565 1 1 1 1 1 1 1 1 1 1 0.0079488874583817648 1 0.012243181642498548 1 1 1 1 1 1 1 1 1 1 1 1 1 1 1 1 1 0.0092983823555766593 1 1 1 1 1 1 1 1 1 1 1 1 1 1 1 1 0.0095144355837160754 1 1 1 1 1 1 1 1 0.0083899471934823257 1 1 1 0.0054459221394269203 1 1 1 1 0.008767617500941044 1 1 1 1 1 1 1 1 1 0.009584562316605174 1 1 1 0.010097774459940758 1 1 0.01247380968706005 1 1 1 1 1 1 1 0.0093369764303206978 1 1 1 1 1 1 1 1 1 1 1 1 1 0.0097507623271457979 1 1 1 1 1 1 1 1 1 0.017365970492091105 1 1 0.014896110835800096 1 1 1 1 1 1 1 1 1 0.0088902264054826104 1 1 1 0.0077033242132936858 1 1 1 1 1 0.008880772262968066 1 1 0.012304588740336181 1 1 0.013720083091084467 1 1 0.0070359933105035074 1 1 1 1 1 1 1 1 1 1 1 1 1 1 1 1 1 1 1 1 1 1 1 0.01077562798968006 1 1 1 1 1 1 1 1 1 1 0.0069813976312473828 1 1 0.008581565966247047 1 0.0051234743067793062 1 1 1 1 1 1 0.011738898863110192 1 0.012557028415724883 1 1 1 1 1 1 1 1 1 1 1 1 1 1 1 1 1 0.0095108282604908518 1 1 1 1 1 1 0.01023019454314404 1 1 1 0.0089680735422119871 1 1 1 1 1 1 1 1 0.010478728525607345 1 1 1 1 1 1 1 1 0.01012177706122299 1 1 1 1 1 1 1 1 1 1 1 0.0080134478999362331 1 1 1 0.010580492635775277 1 1 1 1 0.0096356772359866665 1 1 1 1 1 1 1 1 0.010053986364984783 1 1 1 0.0097683395357893513 1 1 1 0.010067521723671768 1 1 1 1 1 1 1 1 1 1 0.010722590583115003 1 0.010219592138089692 1 1 0.0099568720995028351 1 1 1 1 1 1 1 1 1 0.009271914547585202 1 0.011530993531741796 1 1 1 0.01197583512418984 0.0082012573182368188 1 1 1 0.0089341591897769586 1 1 1 1 1 1 1 1 1 1 1 1 0.0068496306551466303 1 1 1 0.009642919787745707 1 1 1 1 1 1 0.010328394594726347 1 1 1 1 1 1 1 1 1 1 0.010638705120539046 1 0.016918837929101829 1 1 1 1 1 1 0.010176580026986475 1 1 1 1 1 1 1 0.010383674855562523 1 1 1 1 1 1 1 0.010658083085304089 1 1 1 0.010086770006782861 1 1 0.0098859016421467185 1 1 1 1 1 1 0.010058293732782931 1 1 1 1 1 0.010033397210892097 1 1 1 1 1 1 0.0082106198746181788 1 1 1 1 1 1 1 1 0.010647058975609323 1 0.010333192075020583 1 1 1 1 1 1 1 0.015806469955936004 1 1 1 0.016665004653307783 1 1 1 1 1 1 1 1 1 1 1 1 1 1 1 1 1 1 1 1 1 1 1 1 1 1 1 1 1 1 1 0.0093439893315565275 1 0.0082879724096103034 1 1 1 1 1 1 1 1 1 1 1 1 1 1 0.010548414401182961 1 1 1 1 1 1 1 1 1 1 1 1 1 1 1 0.0081275547368684295 1 1 0.0093930852949000478 1 1 1 1 1 1 1 1 1 1 1 1 0.011563042541111146 1 1 1 1 1 1 1 1 1 1 1 1 1 1 1 1 1 1 1 0.010414169389515796 1 1 1 1 1 1 1 1 1 1 1 1 1 1 1 1 1 1 1 1 1 1 1 1 1 1 1 1 1 1 1 1 1 1 1 1 1 1 1 1 1 1 1 1 1 1 1 1 1 1 1 1 1 1 0.0099626081111997486 1 1 1 1 1 1 1 1 1 1 0.0099576978176712204 1 1 0.010018954622472185 1 1 0.01084646839539171 1 1 1 1 1 1 1 0.0092106029428946166 1 1 0.012555774811225964 1 1 1 1 1 1 1 1 1 0.0097761844724580989 1 0.0089252892100019424 1 1 1 1 1 1 1 0.01118396814140828 1 1 0.0099694213042711421 1 1 1 0.0097805018114809766 1 1 1 1 0.0073681915624772632 0.01485615611235162 1 1 1 0.0071776643625931641 1 1 1 0.01007481269969145 0.0059660292832270975 1 1 1 0.012563195090213475 1 0.0080393973011609905 1 0.010162218924303031 1 1 1 1 1 1 0.01386936131791904 1 1 1 1 1 1 1 1 1 1 1 1 1 1 1 1 1 1 1 0.0098679047497141625 1 1 1 0.011426823915916543 1 1 1 1 1 1 1 1 1 1 1 1 0.0103768677822124 1 1 1 1 0.012475818545302234 1 0.011052480876396504 1 1 1 1 1 1 0.0090941047865855107 0.0096896947446790654 1 1 1 1 1 1 1 1 1 1 1 0.008732430273628404 1 1 1 1 0.010047989188397465 1 1 0.010536396581292469 1 1 1 1 1 1 1 1 0.010594256008951267 1 1 0.010220118552462194 1 1 1 1 1 1 1 1 1 1 1 1 1 1 1 1 1 1 1 1 1 1 1 1 0.0097357619702153272 1 1 1 1 1 1 1 1 1 1 1 1 1 0.0072079071417325905 1 1 0.011260634528657051 1 1 1 0.016778262468864425 1 1 1 0.013066167586462785 0.0099974357666745527 1 1 1 1 1 1 0.013206823060185231 1 1 1 1 0.006740944908992315 0.012821339310343466 0.017693086580819663 0.010182113982990737 1 1 1 0.015351551810793968 1 1 0.0057166384466310477 1 1 1 0.0091759907148100603 1 1 1 1 1 1 1 1 0.014228242977856034 1 1 0.010396619784989253 1 1 1 1 1 1 0.0096575059290607973 1 1 1 1 1 0.0099812968338481266 1 1 1 1 1 1 1 1 1 1 1 1 1 1 1 1 1 0.010044284831354645 1 1 1 1 1 1 1 0.010363714706262987 1 1 1 1 1 1 1 1 1 1 1 1 1 0.0092198979441987933 1 1 1 1 1 1 1 1 1 1 0.010492022706939524 1 1 0.0098107504675259485 1 1 1 0.010012126001968609 1 0.010320338487741502 1 0.0092061100743104449 1 1 1 1 1 1 1 0.010974946244911852 1 0.0079350609681714899 1 0.011530332759649544 1 1 0.010134460823193666 1 0.010868407548249876 1 1 0.010003671452589435 0.0094982436163640795 1 1 0.010949532410796105 0.010230281865185549 1 1 1 1 1 1 1 1 1 1 1 1 1 1 1 0.0099421213301814759 0.0099787844554852928 1 1 1 0.0099999726696822361 0.01000997125550351 0.0099199234483159492 1 1 1 1 1 1 0.0097001881172725374 1 0.010003634520058849 0.012109580072092733 1 1 1 1 0.0073288476809029151 1 1 1 0.012548596386487809 1 1 1 0.010680509648389794 1 0.009876533029851196 1 1 1 0.00999426540452651 1 1 1 1 1 1 1 1 1 1 1 1 1 1 1 0.010170143851330216 0.0072004402301074025 1 1 1 1 0.0071995708421803157 1 1 0.010302380573131448 1 1 0.010194974276434388 1 1 1 1 1 1 0.012799857691342268 1 1 1 0.012773432952261793 1 0.011948410798784571 1 1 0.0075718402999667752 1 1 1 1 0.007672567844636771 1 1 0.011060989933677722 0.0096435403071431346 1 1 1 1 1 1 1 1 1 0.0084943860644025818 1 1 1 1 1 1 1 0.01411063131310198 0.0073684754684727478 1 1 0.0073886663022263259 1 1 1 1 0.010066070923059535 1 1 1 1 1 0.012576710164543358 1 1 1 1 0.012539138520556809 1 1 1 0.010654925808774319 1 1 1 1 1 1 1 0.0098566825745078392 1 1 1 1 0.010152779570350308 1 1 1 1 0.010477238966081071 1 1 1 1 1 1 1 1 1 1 1 1 1 1 1 1 1 1 0.01138284468412276 1 0.0098308537956440668 1 1 1 1 1 1 1 1 1 1 1 0.0104602984423483 1 1 1 1 1 1 1 1 1 1 1 1 1 1 1 1 0.010043388085391378 1 0.010179677079926968 1 1 0.011945676572961481 0.010272823151239282 1 1 1 1 1 1 1 0.011483546523729049 1 0.012609998327449117 0.0098183318826339083 1 0.010305601522394353 1 1 1 1 0.011213012731694248 1 0.0099708784077918305 1 0.0095591314329960125 0.010982771140696703 0.010457174879123577 1 1 0.01030553009196972 1 1 1 0.0099679396936578502 1 1 1 1 1 1 1 1 1 1 1 1 0.010544452976742689 1 1 1 1 1 1 1 1 1 1 1 1 1 1 1 1 0.0075095700620473795 1 0.010168021302988509 0.010357991352061455 1 1 1 1 0.0097622668459324963 1 1 1 1 1 1 1 1 1 1 1 1 1 1 1 1 1 1 1 1 1 1 1 1 1 1 1 1 1 1 1 1 1 1 1 1 1 1 1 1 1 1 1 1 0.013556855705617786 1 1 1 1 1 0.014804653028761666 1 0.0096507443668659449 1 1 1 0.0096247637351847097 1 1 1 1 1 0.01498886907473777 1 1 1 1 1 0.0069565091030058855 1 0.009996442705801023 1 1 0.006813248166872822 1 1 0.010083464112441263 1 1 1 1 1 1 1 1 1 1 1 1 1 1 0.011262498404340135 1 0.010402861864242299 1 1 1 1 1 1 1 1 1 1 0.0098355858372330494 1 1 1 1 1 1 1 1 1 1 1 1 1 1 1 1 1 1 1 1 1 1 1 1 1 1 1 1 1 1 1 1 1 1 1 1 1 1 1 1 1 1 1 1 1 1 1 1 1 1 1 1 1 1 1 1 1 1 1 1 1 1 1 1 1 1 1 1 1 1 1 1 0.0099964827019431227 0.010013693062639889 0.0057572247500883144 1 0.021408192790298722 1 1 1 1 0.0099788758085277811 1 1 1 1 1 1 0.014491777739095053 1 1 1 1 1 1 1 0.015968020258596737 1 1 1 1 0.010497215736357035 1 0.011372531662100076 1 1 1 1 1 1 1 1 1 1 1 1 1 1 1 1 1 1 1 1 0.012633132780972195 1 0.0098126325228083643 1 0.012888949526284079 1 1 1 0.0064756226850497655 1 0.015208761958310951 1 1 1 1 0.016871567460847871 1 1 1 0.010663755179369679 1 1 1 1 1 1 0.010317191486213909 1 1 1 1 1 1 1 1 1 1 1 1 0.010503337604137776 1 1 0.011418682382196559 1 1 0.00324593422804304 1 1 1 1 0.013204294003630261 1 1 0.0099668408788002802 1 1 0.0097925415560481885 1 0.013701964329973349 1 1 1 0.013705617997331439 1 0.009986272668880419 1 1 0.01075886710252107 0.0075899768307100043 1 1 0.01216913276570343 1 1 0.010655899367131252 0.0091850530174732523 1 1 0.010001738362305609 1 0.012053397667074955 1 1 1 0.015439321335321205 1 0.0012991539531206787 1 1 0.0098679019073155474 1 1 1 1 1 1 1 1 1 1 1 1 1 1 1 1 1 1 1 1 1 0.010062168680337442 1 1 1 1 1 1 1 0.010014464129638027 1 1 1 1 1 1 1 1 1 1 1 1 1 1 1 1 1 1 1 1 1 0.0099441738407429325 1 1 0.010236600665967814 1 1 1 1 1 1 1 1 0.013005740165919027 1 1 1 1 0.013398478912101717 0.012961117114225564 1 1 0.0087143358645008287 1 0.010714249265951437 1 1 1 1 0.014248639113942536 1 1 1 0.0099972846645231973 1 1 1 1 0.010641377636414963 1 1 1 1 1 0.011101390723575336 0.01381393944779661 1 0.0116251874734992 0.010134838294308664 1 1 0.011848066912532181 1 0.0080080737980849498 1 1 1 1 1 0.0052958800133155312 1 1 1 1 1 0.014250543723687415 1 0.0099949780105738004 1 0.0094249138844349108 1 1 0.0092420066092675276 1 0.015653085832075146 1 1 1 1 0.01642428159699957 1 1 1 1 1 0.010054471754078699 1 0.010741140932703779 1 1 1 1 1 1 1 1 1 1 1 0.01053366794754069 1 0.011915249455893073 1 1 1 1 1 1 1 1 1 0.0066577404144669179 1 1 1 1 1 0.007240478397848896 1 1 1 1 0.0057082890791316778 1 1 0.0061949941873653217 0.014677229745302433 1 1 0.014717448345576319 1 1 1 1 1 1 1 1 1 1 1 0.009913978088724679 1 1 1 1 1 1 1 1 1 1 1 1 0.0070710502976227586 1 1 1 1 1 0.0063241392161666327 1 1 1 1 1 1 1 0.0079906865638190994 1 1 1 1 1 1 1 1 0.0090309428235196797 1 1 1 1 0.010487099591307836 1 1 1 1 1 1 0.010949220327206452 1 1 1 1 0.010754653146586357 1 1 1 0.0072215400967294441 0.011428520535199122 0.0075128236711602282 1 1 1 1 1 1 1 1 1 1 0.0091610225273299085 1 0.011126814924145641 1 1 0.010462645333104911 1 1 1 1 1 1 1 0.0099822101897895626 1 1 0.010083947987953659 1 0.010064298069321995 1 1 1 1 1 1 1 0.011175310676979518 1 1 1 0.0094043071166217459 1 1 1 1 1 1 1 1 1 1 1 1 0.01111062805687292 1 1 1 1 1 1 1 1 1 1 1 1 1 1 1 1 1 1 1 1 1 1 1 1 1 1 1 0.0018514931221794532 0.010338850889849479 1 1 0.016222151436752107 1 1 1 1 1 0.013550076914433974 1 1 1 0.0099841168400489934 1 1 1 1 1 1 1 1 1 0.0013789603245765959 1 1 1 1 1 1 1 1 1 1 1 1 1 1 0.0097770043499258146 1 1 1 1 1 1 1 1 1 1 1 1 0.0041445549380891115 1 1 1 1 1 1 1 0.0079463958324040417 1 1 1 1 1 1 1 1 1 1 1 1 1 1 1 1 1 1 1 1 1 1 1 1 1 1 1 1 1 1 1 1 1 1 1 1 1 1 1 1 1 1 1 1 1 1 1 1 1 1 0.010004740424181102 1 1 1 0.010030634228741888 1 0.0084841823636351635 1 1 1 1 1 1 1 1 0.0095124298960329156 1 1 1 1 1 1 1 1 0.01078815250426126 0.010258783896757266 1 1 1 1 1 1 1 1 1 1 0.0086407951642872554 0.0099993588498042182 0.008610531741338745 1 1 1 0.0089366366779952168 1 1 1 1 0.0094071892296521877 1 1 1 1 1 1 1 1 1 1 1 1 0.010708859458413975 1 1 1 1 1 1 1 1 0.0082886549530137264 0.010620032417471658 1 1 0.0099947445435992297 1 1 1 1 1 1 1 1 1 1 1 1 1 0.0041558069733855715 1 1 1 1 1 0.01022896444861867 1 1 1 1 0.015675321712498455 1 1 1 1 0.010413180668708071 1 1 0.011620119723340292 1 1 1 0.001651765224793933 1 1 1 1 1 1 1 1 0.011951060471393007 1 1 1 0.010918208363375589 1 1 1 -2.8040112939886619e-10 0.012991393896851385 1 1 0.0061459842755001992 1 1 0.0061886374103182519 1 1 0.010003509291741304 1 0.012714271169753835 1 1 1 1 1 1 1 1 1 1 1 1 0.0074130976114309809 1 1 1 1 1 1 1 1 0.022516954659711721 1 1 0.010104231306752361 1 1 1 1 0.023747672996605289 1 1 1 1 1 1 1 1 1 0.0080508977087920403 1 1 1 1 1 1 1 1 0.0085678413951180751 1 1 1 0.016558032457965749 1 1 1 0.0092756798028808991 1 1 1 0.012058518169656722 1 1 1 1 1 1 1 1 1 1 1 0.010211628891479588 1 1 1 0.014584878220184467 1 1 1 1 1 1 1 0.011710585510200544 1 1 1 1 1 0.026065122409038178 1 1 1 0.025738137296691103 1 1 1 1 1 1 1 1 1 1 1 1 0.011544292523616018 1 1 0.014201615887062608 1 0.018385241320596296 1 1 1 1 1 1 1 1 1 1 0.010304587354629262 0.018714506596148428 1 1 1 1 1 0.0060713803975021002 1 0.018819535407506117 0.012620318984811842 1 0.0091055965101296561 1 0.010008633348489683 1 1 1 1 1 1 1 1 1 1 1 1 1 1 1 1 1 1 1 1 1 1 0.0099819975778670262 1 1 1 1 1 1 1 1 0.010526883733054373 1 1 1 1 0.011147230825377327 1 1 1 1 1 1 1 1 1 0.010415850926625126 1 5.0707768019242483e-10 1 1 1 1 1 1 1 1 1 1 1 1 0.0076333612494209561 1 1 1 1 1 1 1 1 1 0.0034562205124875831 1 0.0011822336089388798 1 1 0.016041256155258282 1 1 0.010091964200402627 1 1 0.012058907038074138 1 1 1 1 0.010016739722785686 1 1 1 1 1 1 1 1 1 1 1 1 1 1 1 1 1 1 1 1 1 0.0088530851642640539 1 1 0.0067012396152549454 1 1 0.0069312897310991909 0.00938919256750562 1 1 1 1 0.010692618774431326 1 1 0.0094028617026783601 1 1 1 1 1 1 1 0.0097354137250324872 1 1 1 1 1 1 0.0099335369619145478 1 1 1 0.01002784153199158 1 0.0088794027580675998 0.0098175675222488754 1 1 1 1 1 1 1 0.0095299036657070391 1 1 1 1 1 1 1 0.009829422319654009 1 1 1 1 1 1 1 1 1 1 1 1 1 1 1 1 0.0081628749720015336 1 1 1 1 0.010395214663159942 1 1 1 1 1 1 1 1 1 1 1 1 1 1 1 1 1 1 0.0091151032510396607 0.0083643707733733006 0.01139285016078985 1 0.011249185246020036 1 0.0095351488868229469 1 1 1 1 0.0095110240836823526 1 1 1 1 1 1 1 0.0099102071838665772 1 1 1 1 1 1 1 0.0098560477916822715 1 1 0.0098321193980959818 1 1 1 1 1 1 1 1 0.0099222791363772073 1 1 1 0.0081301825620733199 1 1 1 1 1 0.0074269399025947459 1 1 0.009909739044734564 1 1 1 1 0.0068254507353579293 1 1 0.010283505149542439 1 0.013598757167636288 1 1 1 1 1 1 1 1 1 1 1 1 0.010222922464050158 1 1 1 1 1 0.016193221784196448 1 1 1 1 1 1 1 0.015147644287136238 1 1 1 0.010368764845567216 1 1 1 1 0.0077677214437399684 1 1 1 0.0094255337740130028 1 1 1 1 1 0.011137422521384258 1 1 1 1 1 1 1 1 1 1 1 1 0.010326528621738836 1 1 1 1 1 1 0.013221668180616491 1 1 0.0084141046294421689 1 0.0094299217161386544 1 1 0.0098048658324759175 1 1 1 1 1 1 1 1 1 1 1 1 1 1 0.011205870778893061 1 1 0.023472749045655831 1 -8.7612727558972203e-09 1 1 1 1 1 0.0038668182437669712 1 1 1 1 1 1 1 1 1 1 1 1 1 1 1 1 1 1 1 1 1 1 0.021736251881431547 0.021473680550570799 1 1 1 1 1 1 0.021058225862468149 1 1 0.011169112839599362 1 1 1 1 0.017723526169194797 1 0.011726650045923102 1 0.011313549856110182 0.016667935631384662 1 1 1 1 1 0.0086051283706447268 1 1 0.010083742523436948 1 1 1 1 1 0.010371927988750241 1 0.018299627725518096 1 1 0.0048420713718219186 1 0.0099685939450366197 1 1 1 1 1 1 1 1 1 1 1 1 1 1 1 1 1 1 1 1 1 1 1 1 1 1 1 1 1 1 1 1 1 1 1 1 1 0.0044902988689804833 1 0.010031974712128026 1 0.0098379487724055813 1 1 1 0.0044505702582933928 1 1 1 1 1 1 0.010412828316909123 1 1 1 1 1 1 1 1 1 1 1 1 1 1 1 1 1 1 1 1 0.01547414004117708 1 1 1 1 1 1 1 1 1 1 1 1 1 0.0099912851426335846 0.010061878372735599 1 1 1 1 1 1 1 1 1 1 1 0.010691052928773214 1 1 1 0.01082879124349068 1 1 1 1 1 1 1 1 1 1 1 1 1 1 1 1 1 1 1 0.0064752389031237688 1 0.0053364327974113274 1 1 1 1 1 1 1 1 1 1 1 1 1 0.0085790795757436089 1 1 1 1 1 1 1 1 1 1 0.0095694803120340999 1 1 0.0098502534905418118 1 1 1 1 1 1 1 1 1 1 1 1 1 1 1 1 1 1 1 1 1 1 1 1 0.01158082241429771 1 1 1 1 1 1 1 1 1 1 1 1 1 1 1 1 1 1 1 1 1 1 1 1 1 0.014616203989827175 1 1 1 1 0.017472929610208285 1 1 1 1 1 1 0.0083744407778907834 1 1 1 1 1 1 1 1 1 1 0.010088738204994197 1 1 1 1 1 0.010207102149744438 1 1 0.0018328014265424162 1 1 1 1 1 1 1 1 1 1 1 1 1 1 0.0099948327844708827 1 1 1 1 0.0066494825634852654 1 0.01791489333548664 1 1 0.0098128669013732052 0.0099968673077818915 1 1 0.0044431413645270312 1 1 0.0046268989961880929 1 1 1 1 1 1 1 1 1 1 1 1 1 1 1 1 0.0060736510914740083 1 1 1 1 0.0059081784818746366 1 1 1 0.0080068340252093528 1 1 1 0.0082089681682914212 1 1 1 1 1 1 1 0.017745683307749737 1 1 1 0.0093614732449565363 1 1 1 1 1 1 1 1 1 1 1 1 1 1 1 1 1 1 1 1 1 1 1 1 1 1 1 1 0.012630039311243698 1 1 1 1 1 1 1 1 1 1 1 0.0080204098119430797 1 1 1 1 0.0080684480989722945 1 1 1 1 1 1 1 1 1 1 1 0.0059698472188149405 1 1 1 1 1 1 1 1 1 1 1 1 1 1 1 1 1 1 1 1 1 1 1 1 1 1 1 1 1 1 1 1 1 1 1 1 1 1 1 0.007223393008182798 1 0.009928940089834434 1 1 1 1 1 0.010172899375164576 1 1 1 0.0060482444256412769 1 1 1 1 1 0.01140891261827404 1 1 1 1 1 1 1 1 1 0.0083541245653148653 1 1 1 0.0094715184631247607 1 1 1 1 1 1 1 1 1 1 1 1 1 1 1 1 1 1 1 1 1 1 1 1 1 1 1 1 1 1 1 1 1 1 1 1 0.01077887842964334 1 1 1 1 1 1 1 1 0.0063199795373644271 1 1 1 1 1 1 1 1 1 1 1 1 1 0.011847816911066069 1 1 1 1 1 1 0.0086838643743464318 1 1 1 1 1 1 1 1 1 1 1 1 1 0.010248533982463309 1 1 1 1 1 1 1 1 1 1 1 1 1 1 1 1 1 1 1 1 1 1 0.0099112320341501609 1 1 1 1 1 1 1 1 1 1 0.0098338282961781091 0.0099225962620279485 1 1 1 1 1 1 1 1 1 1 1 1 1 1 1 1 1 0.0046122521636634776 0.0082190282467414274 1 1 1 1 1 1 0.0049839154617344929 1 1 1 1 1 1 1 1 1 1 1 1 1 0.0094279256106675792 1 1 1 1 1 1 1 1 1 1 1 1 1 1 1 1 1 1 1 1 1 1 1 1 1 1 1 0.010033313184595157 1 1 0.010043858639948292 1 1 1 1 1 1 1 1 1 1 1 1 1 1 1 1 1 0.010297421279806401 1 0.011040898297668435 1 1 1 1 1 1 1 1 1 1 1 0.010041194770358891 0.0099980331826933395 1 1 1 0.0098958956406189572 0.0098663003014834542 1 1 1 1 0.01071873513892755 1 1 0.01026089972198144 1 1 1 1 1 1 1 1 1 1 1 1 1 1 1 1 1 1 1 1 1 1 1 1 1 1 1 1 1 1 1 1 1 1 1 1 1 1 1 1 1 1 1 1 1 1 1 1 1 1 1 1 1 1 1 1 1 1 0.010110306825844932 1 1 1 1 1 1 1 1 1 1 1 1 0.007672231672364244 1 1 0.0097614371980390587 1 1 0.012313332109882594 1 1 1 1 1 0.0079194129463861368 1 1 1 1 0.0077759522212142145 1 1 1 1 1 1 1 1 1 1 1 1 1 1 0.010033342393827268 1 1 1 1 1 0.010269732998142831 0.009552051661722627 1 1 1 1 0.010736355531815706 1 1 1 1 1 0.0097192268214922797 1 1 1 1 1 1 1 1 1 1 1 1 1 1 1 1 1 1 1 1 1 1 1 1 1 1 1 1 1 1 1 1 1 1 1 1 1 1 1 1 1 1 1 1 1 1 1 1 1 1 1 1 1 1 1 1 1 1 1 0.010445598398876314 1 1 1 1 1 1 1 1 1 1 1 1 1 1 1 1 1 1 1 0.0083846345170800404 1 1 1 1 0.011107185523541464 1 1 0.011429999915105033 0.010335842534880443 1 1 1 1 1 1 1 1 1 1 1 1 1 1 1 1 1 1 1 1 1 1 1 0.010113458437916119 1 0.010068724598870128 1 1 1 1 1 1 1 1 1 1 1 1 1 1 1 0.010114443790380626 1 1 1 1 1 1 1 1 1 1 1 0.010247946346769354 1 1 1 1 1 1 1 1 1 1 1 1 1 1 1 1 0.010044733839045991 1 1 0.0099660449008183178 1 1 1 1 1 0.01020318819725931 1 1 1 0.010019619380191767 1 1 0.011696674668320048 1 1 1 1 1 1 1 1 1 1 1 1 1 1 1 1 1 1 1 1 0.012940123238600575 1 1 1 1 1 0.013914948792706723 1 1 1 0.0099965118717640529 1 1 1 1 0.008202466578238924 0.012401703859733038 0.013475183183687246 1 1 1 1 1 0.013579516734239006 1 0.014908314189130745 1 1 1 0.011150524453567014 0.011264455440018924 1 1 1 0.0058755260630325244 1 1 1 0.0077863687844154207 1 0.0077628579575858506 1 1 1 1 1 1 1 1 1 1 1 1 1 1 1 1 1 1 1 1 1 1 1 0.0058289899864177701 1 0.010015841787210175 1 1 1 1 1 1 1 1 1 1 1 1 1 1 1 1 1 1 1 1 1 1 1 1 1 1 1 1 1 1 1 1 1 0.010465731031233067 1 0.010904216915906199 1 1 1 1 1 1 1 1 1 1 1 1 1 1 1 1 1 1 1 1 1 1 0.010641991798940535 1 1 1 1 1 1 0.0095155455794077668 1 1 1 1 1 1 1 1 0.010041541064126889 1 1 1 1 1 1 1 1 1 1 1 1 1 1 0.0087097193276145495 1 1 1 1 0.010260506913911248 1 1 1 1 1 1 1 1 1 1 1 1 1 1 0.0083295177799624712 1 1 1 1 1 1 1 1 1 0.01119408680529853 1 1 1 1 1 0.010521089593634446 1 1 1 1 1 1 1 1 1 1 0.014775422734066145 1 0.01172135747289234 1 1 1 1 0.017222866908820848 1 1 1 1 1 1 1 1 1 1 1 1 1 1 1 1 1 1 0.01898634714761168 1 1 1 0.0080953335825565079 1 1 1 1 1 0.0067666201950104827 0.019850753629488113 1 1 0.0093725137266712066 1 1 1 1 1 0.01184478592925951 1 1 1 1 1 0.0099302313438719026 1 1 1 1 1 1 1 1 1 1 1 1 1 1 1 1 1 1 0.012143705497666236 1 1 1 1 1 1 0.012354793049994463 1 1 1 1 1 1 1 1 1 1 1 1 1 1 1 1 1 1 1 1 1 1 1 1 1 1 1 1 1 1 1 0.012519430322278577 1 1 1 1 1 1 1 1 1 1 1 1 1 1 1 1 1 1 0.010322685405774051 1 1 1 1 1 1 1 1 1 1 1 1 1 1 0.016608303541811583 1 1 1 1 1 1 1 1 1 1 0.0039547871785903937 1 1 0.010012138503190033 0.013054830231231747 1 1 0.00396943693067261 1 1 1 1 1 1 0.0040422635134508764 1 1 1 1 0.013776372694191883 1 1 1 0.011136192072813708 0.010376455877810544 1 1 1 0.0065454724909622414 0.011932603122660319 1 1 0.015095099860230768 0.0085816902374148494 1 0.0096426456834835268 1 1 0.012947695885959733 1 1 0.010173321627160855 1 1 0.0055452806801906812 1 1 0.010444229748241891 1 1 1 1 0.003939419305944966 0.012099698307140347 1 1 1 1 1 0.010020910163291348 1 1 1 0.010301028790055348 1 0.015929068647795384 1 1 0.014412072936491452 0.011315033426631618 1 1 1 1 1 1 1 0.010787417105328186 1 1 1 1 1 1 1 1 1 1 1 1 1 1 0.011292628520999265 1 1 1 1 0.011551303505352176 1 1 1 1 0.0096662702958609792 1 1 1 1 0.011107668192732302 1 1 1 1 1 1 1 0.011438046102136203 1 1 1 0.012005267093973246 1 1 1 0.0063750112255915288 1 1 1 1 1 1 1 0.0086457884095943911 1 1 0.0099450174423291737 1 1 0.0094762800034800566 1 1 1 1 1 1 1 1 0.007863222470249483 1 0.011009631854585223 1 1 1 0.011263299843137458 1 1 1 1 1 1 1 1 1 0.0085260769961338374 1 1 1 0.0093108639466693965 1 1 1 0.007916243224612601 1 1 0.0074022285538163195 1 1 1 1 1 0.0098112012637484036 1 1 1 1 1 1 1 1 1 1 1 1 1 1 1 1 1 1 1 1 1 0.010637201461186392 1 1 1 1 0.011829085857181064 1 0.0095209032699193185 1 0.010625928107821137 1 1 1 1 1 1 1 1 1 1 1 1 1 1 1 1 1 1 1 1 1 1 1 1 1 1 1 1 1 1 1 1 0.00963819788039234 1 1 1 1 1 1 1 1 1 1 1 0.0087571203038275588 1 1 1 1 1 1 1 1 1 1 1 0.010439070169063348 1 1 1 1 1 1 1 1 1 1 1 1 1 1 1 0.0093975127066601351 1 1 1 1 1 0.0081599126743490315 1 1 0.024968342085744062 1 1 1 1 1 1 1 1 1 1 1 1 1 1 1 1 1 1 1 1 1 1 1 1 1 1 1 1 1 1 1 1 1 1 1 1 1 1 1 1 1 1 1 1 1 1 1 0.010459200218789291 1 1 1 1 1 1 1 1 1 1 1 1 1 1 1 1 1 1 1 1 1 1 1 0.0095979694395577943 1 1 1 1 1 1 1 0.0087333134713134843 1 1 1 1 1 1 1 1 0.010672997211664091 1 1 1 1 1 1 1 0.0089705146105172016 1 1 0.0076491154858398898 1 1 1 1 1 0.011024419924716495 1 1 1 1 1 1 1 1 1 0.011044549974442437 1 1 1 1 1 1 1 1 1 1 1 1 1 1 1 1 1 1 1 1 1 1 1 1 1 1 1 1 1 1 1 0.010154328515000864 1 1 0.010078414789764178 1 1 0.0098177725520142544 1 0.010463272228115199 1 1 0.01004781549619257 1 1 1 0.010077985539099213 1 1 0.010994229567538611 1 1 1 0.010263498254818648 1 1 1 1 1 1 1 1 1 1 1 1 1 1 0.0095738416017584621 1 0.0094153067428674533 1 1 1 1 1 1 1 1 1 1 1 1 1 0.0085744772838518436 1 1 1 1 1 1 0.0062956611499418377 1 1 1 1 1 1 1 1 1 1 1 1 1 1 1 1 1 0.0095229537084456709 1 1 1 0.0083716968022696583 1 1 1 1 1 1 1 1 1 1 1 1 1 1 1 1 1 1 1 1 1 1 1 1 1 1 0.012383306045218923 1 1 1 1 1 0.0096517395444613088 1 0.0098695877143298062 1 1 0.013974500490983068 1 1 1 0.0067437128900915168 1 0.0062938305993679167 1 1 0.0058018500506354515 1 1 1 1 0.011958052518809976 1 1 1 0.013099239901421606 1 0.0097754938813575856 1 1 1 0.006773419280707905 1 0.017240016246184958 1 1 1 1 0.0066959896714427619 1 1 0.011358588704391142 1 0.010698344901945683 1 1 0.010980108627783015 1 1 1 0.012938316207996903 0.0010357583584430351 1 1 1 1 1 0.013738876326401736 0.0099599791388943464 1 1 1 1 1 1.8369656490380137e-11 0.015317398739767289 0.0093706687124963332 1 1 0.01226263654412834 1 1 1 -8.8804433893280299e-09 1 1 1 1 0.0099561050978224496 1 1 0.0092154733222544055 1 1 1 1 1 1 1 1 0.014373837126585992 1 9.4246575543799338e-09 1 1 1 1 1 1 1 1 1 1 1 1 0.0099857092690781978 1 1 1 1 1 1 1 1 1 1 1 1 1 1 1 1 1 1 1 1 1 1 1 1 1 1 1 0.004544768521376967 0.00997901973423178 1 1 0.012186782570681974 0.0099734700038323684 0.00084160044144321842 1 1 1 1 1 0.0024159846480991728 1 0.011579003365306224 1 1 1 1 1 0.010538232519531558 1 1 1 1 1 1 1 1 0.0048624144597999089 1 1 1 1 1 1 1 1 1 1 0.009357774966490838 1 1 0.010389382578255869 1 1 1 1 1 1 0.017880929263164883 1 1 1 0.009834109132171585 1 1 0.006160050165706258 1 1 0.018249508134594285 0.010192741705143513 1 1 0.0036830199353177842 1 1 1 1 1 1 1 1 1 1 1 1 1 1 1 1 1 0.019011031206658618 1 1 1 1 1 1 0.010288304045910905 1 1 0.010653076413559857 1 1 0.010220495513746566 1 1 1 1 1 1 1 1 1 1 1 1 1 1 1 1 1 0.017389245934202272 0.010433878522006307 1 1 1 1 0.018496969702950731 1 1 1 1 0.019128407420656319 1 1 1 1 0.0039984378720914968 1 1 1 1 1 1 1 0.0023040201474783147 1 0.010003762886275549 1 1 0.01002397286451092 1 1 0.0023502018410026804 1 1 1 1 1 1 1 1 1 1 1 1 1 1 1 1 1 1 1 1 1 1 1 1 0.010558524846731046 1 1 1 1 1 1 1 0.010048571819487602 1 1 0.010116687403921219 1 0.005224626427858408 1 0.010862544112917311 1 1 1 1 1 1 1 1 1 1 1 1 1 1 1 1 1 1 1 1 1 1 1 1 0.011930419643338267 1 1 1 1 1 1 1 1 1 1 1 1 1 0.0078967166415151203 1 0.010032318263135491 1 1 1 1 1 1 1 1 1 1 1 1 1 1 1 1 1 1 1 0.0097824451353893463 1 0.010622713707065266 0.01345751263204592 1 1 1 0.01426995966090721 1 1 1 0.011647869693287387 1 1 1 0.012745312568030145 1 1 1 1 1 1 1 1 1 1 1 1 0.0099824807812434174 0.0083721647205593219 0.013201668050739364 1 1 1 1 1 1 1 0.014434181663167379 1 1 1 1 1 1 0.013644958570434473 1 1 1 1 1 1 1 0.0094330821818112403 1 1 1 1 0.0082958916198405033 1 1 1 1 1 1 1 0.010364589604406841 0.0072748841918788033 1 1 1 1 1 1 0.010114686019430039 1 1 1 1 1 1 1 1 1 1 0.0098018634506953708 1 1 1 1 1 1 0.0094822041012916775 1 1 1 1 1 1 1 1 1 1 1 1 1 1 1 1 1 1 1 1 1 1 0.0097308726554141793 1 1 1 1 0.0091125585163500666 0.0066057376036937621 1 1 1 0.0071094369665374163 1 1 0.0080984730367405673 1 1 1 1 1 1 1 1 1 1 1 1 1 1 1 1 1 1 1 1 1 1 0.0091118080704132021 1 1 1 1 0.0097526601083652333 1 1 1 1 1 1 1 0.011840202443683268 1 1 1 1 1 1 1 0.011183668125669014 1 1 1 0.01041120415902963 1 1 1 1 1 1 1 1 1 1 1 1 1 1 1 1 1 1 1 1 1 1 0.0062670951310929025 0.00852234876510383 1 1 1 0.0099958589828495759 0.0083288639742642532 1 1 0.0066987342683285118 0.010774513810991353 0.0066072865930622907 1 1 1 1 1 1 1 1 1 1 1 1 1 1 1 1 1 1 1 1 0.0091719789356763653 0.0063956168935878459 1 1 0.0097556759868570927 1 1 0.0067856651307614153 1 1 1 1 1 1 1 0.0074770732781966158 1 1 1 1 1 1 1 1 1 1 1 1 1 1 1 1 1 1 1 1 1 1 0.010136833918236974 1 1 1 0.0094643716449371376 1 1 1 0.0097989441977352938 1 1 1 0.0067322367525973863 1 1 1 1 1 1 1 1 1 1 1 1 1 1 1 1 1 1 1 1 1 0.010218400731369912 1 1 1 1 1 1 1 1 1 0.01368676172479215 1 0.009913165772840668 1 0.010970774239133649 1 1 1 1 1 1 1 1 1 1 1 0.010553970515272758 1 1 1 1 0.0061350193858065016 1 0.012215717308072298 1 0.0072334389358460292 1 1 1 0.0069373504215823507 1 1 1 0.00064697811592771479 1 1 1 1 1 0.0022155927925763541 1 1 1 1 0.0095620009396518504 1 1 1 1 1 1 1 0.011350295914847756 1 0.0086361052381897264 1 1 1 1 0.0091149342576328091 1 1 1 1 0.0075176074726093309 1 1 1 1 1 1 1 1 1 3.2971557377997618e-05 1 1 1 1 0.015863896028296191 1 1 1 1 1 0.0041854589250542116 0.013604767226633872 0.010729149787215064 1 1 1 1 1 0.012028349509350405 1 0.0091122164889912011 1 1 1 1 1 0.0099280299526123533 1 0.0097609218978982198 1 1 1 0.0076766323462922614 1 1 1 0.013001065124834109 1 1 1 0.0099431990431749547 1 0.0041171650306810522 1 1 0.012306601653753978 1 0.012787117207039695 1 1 1 1 1 1 0.012272627491853948 1 1 1 1 0.012197750715916562 1 1 1 1 1 1 0.0094584000513611363 1 0.01699559273444157 1 1 0.0098899182104942081 1 1 1 1 1 1 1 1 0.017582964165985319 1 1 0.0051504493045778608 1 1 1 1 1 0.0062826517315635478 1 1 1 1 1 1 1 1 1 1 1 1 1 1 0.010061313499802106 1 0.009988667687550995 1 1 0.0099781351598600757 1 1 1 1 1 1 1 0.0099894893463916071 1 1 1 1 0.012340678688751024 1 1 1 1 1 1 1 1 1 1 0.010777209992924034 1 1 1 0.0095038466922091058 1 1 1 1 1 1 1 0.0092625049823093254 1 0.0099633189257166046 1 1 1 1 1 1 0.013879109551151975 1 0.010008425161949816 1 1 1 1 0.010702800207387231 1 1 0.01468519642585695 1 1 1 1 1 1 1 0.0081590000911871286 1 1 1 1 1 0.011034339261257652 1 0.0092191737334311099 1 1 1 1 1 1 1 1 1 1 1 1 1 1 1 1 1 1 1 1 1 1 0.0064397257580622418 0.014704492353899729 0.0082304831697177366 1 0.013499065711728181 1 1 0.007772359014673217 1 1 0.0089277906205640981 1 1 1 1 1 1 1 0.0096474730366349071 1 1 1 1 1 1 1 1 1 1 1 0.010039110982258619 1 1 0.0086179904962458941 0.012325593020908932 1 1 1 0.0083620113894532361 1 1 1 1 1 1 1 0.0087573517481277161 1 1 1 1 1 1 1 1 1 1 1 1 1 1 1 1 1 1 1 1 1 1 1 1 1 1 1 1 1 1 1 1 1 1 1 1 1 1 1 1 1 1 0.0097401615131612329 1 1 1 1 0.0097406137171784438 1 1 1 1 1 1 1 1 1 1 1 1 1 1 1 1 1 1 1 0.011931317142102018 1 0.0083919822914273051 1 1 0.013485464760099496 1 1 1 1 1 1 1 0.010572403227945316 1 1 1 1 1 1 1 1 1 0.016157552070183899 0.0095941407396071716 1 1 0.010241541737562686 1 0.0067749281261638757 1 1 1 1 1 1 1 1 1 1 0.011720221885408525 1 1 1 1 1 1 1 1 1 1 1 1 1 1 1 1 1 1 1 1 0.0099632085142159453 1 1 1 1 1 1 0.010031421377816613 1 1 1 0.015673159783103088 1 1 1 1 1 1 1 1 1 0.010024059186380718 0.015896947113197217 1 1 1 1 1 1 1 0.01022426125075712 1 1 1 1.5021076101712216e-09 1 0.0045276269785337869 1 1 1 1 1 1 1 1 1 1 1 1 1 1 1 0.0065903720553050684 1 1 1 -8.7427237324688711e-10 1 1 1 1 1 1 1 1 1 1 1 1 1 1.0488124032453916e-09 1 0.0098914096679144012 1 1 1 1 1 1 1 1 1 1 1 1 1 1 1 1 1 0.014154147229131244 1 1 1 1 1 1 1 1 1 1 1 1 1 1 1 1 1 1 1 1 1 1 1 1 1 1 1 1 1 1 1 1 1 1 1 1 1 1 1 1 1 1 1 1 1 1 1 1 1 1 1 1 1 1 1 1 1 1 1 1 1 0.021556590242501943 1 1 0.010175521765773987 1 1 1 1 1 1 1 0.0245398468847551 1 1 1 1 1 1 1 1 1 1 1 1 1 1 1 1 1 1 0.025881766402530496 1 1 1 1 1 1 1 0.010332582476259159 1 1 1 1 1 1 0.011022220886744854 1 1 1 1 0.003371785276305557 1 1 0.0084180564371095275 0.010570056819507095 1 1 1 1 1 1 1 1 1 1 1 0.0076287639436160501 1 1 1 1 1 1 1 1 0.011517149965877764 1 1 1 1 1 1 1 1 1 0.006169375788824219 1 1 1 1 1 1 1 0.0093658688350183681 1 1 1 1 0.0091848167113857161 1 1 1 1 0.011065960976974633 1 1 0.010003931728539386 0.013710487369209719 1 1 1 1 1 0.014736018834066054 1 1 1 0.0060011218435998123 1 1 1 1 1 0.010295139668639078 1 0.010360000639743162 1 1 1 1 1 1 0.010952067159765797 1 1 1 0.0098192500040249937 1 1 1 0.012846295366545048 1 1 1 1 1 1 1 0.013778735579408142 1 1 1 0.012085986251723373 1 1 1 1 1 1 1 1 1 1 1 1 1 1 1 1 0.0098508500884442064 1 1 1 1 0.011195207380749906 1 1 1 0.010933862642315197 1 0.0095870348392279644 1 0.0097778083832335203 1 0.011346934708890408 1 1 0.012478799692196436 1 0.0081081232740629824 1 0.012734972198949351 1 1 1 1 1 1 1 1 1 1 1 1 1 1 1 1 1 1 1 1 1 1 1 1 1 1 1 0.0096075804178781497 1 0.0064865750647103912 1 1 1 0.0042376050139047525 1 1 1 1 1 1 1 1 1 0.012830612300697129 0.007391527834598885 0.0088562130970055719 1 1 0.010002766569107995 1 1 0.0045648118062199868 1 0.010061603651779143 1 1 1 1 1 1 1 0.0098904347323906863 1 1 1 1 1 1 0.012907471888614276 0.0095678520531229262 1 1 0.014512782997053511 1 1 0.012918266745103438 1 0.010007452258457514 1 0.0099947664501294498 0.0096633885375590634 1 1 1 1 1 0.012917981993095811 0.0099916976150153658 1 1 1 0.002640276739917782 1 1 1 1 1 0.0038045781793985892 1 1 1 1 1 1 1 1 1 1 1 1 1 1 0.012149640956620991 1 1 0.0099760245391229962 1 1 0.005152680556926019 1 1 0.010773128739037848 1 1 1 1 1 0.004515290541578303 1 1 1 0.0077806887523634276 1 1 1 0.0087494818288795916 1 1 1 0.0079723048497797426 0.0085552096571969855 1 1 0.0066177670779947566 1 1 1 1 1 1 0.0093216962032276439 1 1 1 1 1 0.0054974694082600469 1 1 1 1 1 1 1 1 1 1 1 1 1 1 1 1 1 1 1 1 1 0.010386781945402468 1 1 1 1 1 1 0.012331484616794324 0.0071814966957750928 0.0098960999824019725 1 0.013530972119566298 1 0.0058525999708137766 1 1 1 1 1 1 1 1 1 0.0085304484300576244 1 1 1 1 1 0.0078160749826715059 1 1 1 0.0087102914543581954 1 1 1 1 0.00749190152797026 1 1 0.010061195599967642 1 1 1 1 1 1 1 1 1 1 1 1 1 1 1 1 1 1 1 1 1 1 1 1 1 1 1 1 1 1 1 1 1 0.0070673887431255203 0.0094004854909821058 0.0083149059033539151 1 0.0065201614973278733 1 1 1 0.0073074728756621025 1 1 1 1 1 1 1 0.0099950757039399853 1 1 1 1 1 1 1 1 1 1 1 1 1 1 1 1 1 1 1 1 1 1 1 1 1 1 1 1 1 1 1 1 1 1 1 0.010078687596669529 1 1 1 0.010190757377684809 1 1 1 1 1 1 1 1 1 1 1 1 0.010494704446838534 1 1 1 1 0.010284449002182318 1 1 1 1 1 0.0099247979150899127 1 1 1 1 1 0.0078177306678002805 1 1 1 0.0097925325313816692 1 0.0098862008252643616 1 1 1 0.0087355956820263283 0.011706977338917318 1 0.0088130249763761631 0.010055519804180088 1 0.01083785815556256 1 1 1 1 1 0.0099473509153639155 1 0.0098094888492954984 1 1 1 1 1 1 0.0086965926312575527 1 1 1 1 0.0082756663745944641 1 1 1 0.009964924519598994 1 1 1 1 1 0.0126630016327376 1 1 1 0.010003592489405947 1 1 1 1 1 0.014213515212928155 1 1 1 1 1 0.015017992885038115 1 1 1 1 1 1 1 1 1 1 0.0064963642736356655 0.0099480726852258575 1 1 1 1 1 1 1 1 1 0.0095441208704932015 1 1 1 1 1 1 1 1 1 1 1 1 1 0.012810745056054512 1 0.010941633691478572 1 1 1 1 1 1 1 1 1 1 1 1 1 1 0.010516383257661077 1 1 1 1 1 0.01030094635192547 1 1 1 1 1 1 1 1 1 1 1 1 1 1 1 1 1 0.010215436905735611 1 1 1 1 1 1 1 1 1 1 1 0.0094123121418315595 1 1 1 1 1 1 0.0096187392084327375 1 1 0.009424747345418814 1 1 1 1 1 1 1 1 1 1 1 0.0093872728967236713 1 1 1 1 1 0.0093862068990400727 1 1 1 1 1 1 1 1 1 1 1 1 1 1 1 1 1 1 1 1 1 1 1 1 1 1 1 1 1 1 1 1 1 1 1 1 1 1 1 1 1 1 1 1 1 1 1 1 1 1 1 1 1 1 1 1 1 1 1 1 1 1 1 1 1 1 1 1 1 1 1 1 1 0.010233153855527278 1 1 0.0098229837784882743 1 1 1 0.0099376179698485861 1 1 1 1 1 1 1 1 1 1 1 1 1 1 1 1 1 1 0.0071254050544602154 1 0.0066473032312225691 1 0.006398223359715384 1 1 1 0.0065909847975418705 1 1 1 0.0092641662875307482 1 0.0031707316089592003 0.00589178263449152 1 1 1 0.0077087157390343039 1 1 0.010852647658853569 1 1 1 1 1 1 1 1 1 1 0.01347675070816258 1 1 1 1 1 1 1 1 1 1 1 1 0.0092108810660645173 1 1 0.0076219318411494645 1 1 1 1 1 1 1 1 0.0085188554570371257 1 1 1 1 1 1 1 0.0096279918026311341 1 1 0.010054470282381045 1 1 1 1 1 1 1 1 1 1 1 1 1 1 0.0095959353954713032 1 1 1 1 1 1 1 1 0.010275881353940393 1 1 1 1 1 1 0.0099309701959619297 1 1 1 0.009299766830471564 1 1 1 1 1 1 0.0092215506225788186 1 1 1 1 1 1 1 1 0.011323937659119562 1 1 1 1 1 1 1 1 1 1 1 1 1 1 1 1 1 0.0080662439571242417 1 1 0.0092650640256110636 1 1 1 1 1 1 1 1 0.010137552374794391 1 1 1 1 0.0098896483268759976 1 1 1 1 1 0.0093480313475529132 1 1 1 1 1 1 1 1 1 1 1 1 0.0098246701069139002 1 1 1 1 1 1 1 1 1 0.0095144226574808578 1 1 1 1 1 1 1 1 1 1 1 1 1 1 1 1 1 1 1 1 1 1 1 1 1 1 1 1 1 0.010713047664694008 1 1 1 1 1 1 0.010537717771607899 0.015422288633137118 0.0069719493773447178 1 1 1 1 0.012074941097687929 1 1 1 0.0097989939208605065 1 1 1 1 1 1 1 1 1 1 1 1 1 1 1 1 1 1 1 1 1 1 1 0.010333703533300284 1 1 1 0.010866115567122725 1 1 1 1 1 1 1 1 1 1 1 1 1 1 0.0088046424954785537 1 1 1 1 1 1 0.010046151847713217 1 0.010899172952392726 1 1 1 1 0.010605495826792091 1 1 0.010885663527256943 1 1 0.0099185065929659824 1 1 1 1 1 1 1 1 0.010500272221380889 1 0.007688713950504451 0.0085938579719907881 1 1 1 1 1 1 1 1 1 1 1 0.0095213008108011397 1 1 1 1 1 1 1 1 1 1 1 1 0.011621851547237959 1 1 1 0.010755735980115243 1 1 1 1 1 1 1 1 1 1 1 1 1 1 1 1 1 1 0.010985170457246316 1 1 1 1 0.0090523696119478164 0.012872377118360624 0.0080444772147730114 1 1 1 1 1 1 1 0.013347701907911652 1 1 1 1 1 1 1 1 1 1 1 1 1 0.0089490299852253898 1 1 1 1 1 1 1 1 1 1 1 1 1 1 0.010554644526828451 1 1 1 1 1 1 1 1 1 1 1 1 1 0.0086163954746315153 1 1 1 0.010740593132675041 1 1 0.0078637482540419162 1 1 1 0.0089145581748042938 1 1 1 1 1 1 1 1 1 1 1 1 1 1 1 0.006643335016716205 1 1 0.0056224017965644767 1 1 1 1 1 1 1 1 1 1 1 1 1 1 1 1 1 1 0.0095451446507449755 1 1 1 1 1 1 1 1 1 1 0.011271703731231528 1 1 1 1 1 1 1 1 0.0089438080401238271 1 1 1 1 1 1 1 1 0.01247736542308811 1 1 0.01311314937900316 1 0.0045847059957700755 1 0.0060194777094503861 1 1 1 1 1 1 0.010985789076768837 1 1 1 1 1 1 1 1 1 1 1 1 1 1 1 1 1 1 1 1 1 0.0084638798347501584 1 1 1 1 0.010185948605846588 1 1 1 1 1 1 1 1 1 1 0.0083954581631808592 1 1 1 1 1 1 1 1 1 1 1 1 1 1 1 1 1 1 1 1 1 1 1 0.011034139907794401 1 1 1 1 1 0.0096615465675925459 1 1 1 1 1 0.0089495696039569236 1 0.007636613744729388 1 1 1 1 1 1 1 1 0.0077725888463087249 1 1 1 1 0.0090871830745378676 1 1 1 0.0015496337025311564 1 1 1 1 0.0057463931179724051 1 1 0.0035960660120637686 1 1 1 1 1 1 1 1 1 1 1 1 1 1 1 1 1 1 1 0.010420725591625747 1 2.9025748263244999e-09 1 1 1 0.018484660742640262 1 1 1 1 1 1 1 1 0.010079946458852915 1 1 1 1 0.010833597624850248 1 1 1 1 0.019856459039969802 1 1 1 0.009933003297470655 0.0099419596041825306 1 1 1 1 1 1 1 1 1 0.020351435695699006 1 1 1 1 1 1 1 1 1 1 1 1 1 1 1 1 1 1 1 1 1 1 1 1 1 1 1 1 1 1 1 1 1 1 1 1 1 1 1 1 1 1 1 1 1 1 1 1 0.0090093058779942836 1 1 1 1 0.0099485930491175559 0.0088946029074565766 1 1 1 1 1 0.0091183046340876997 1 1 1 1 1 1 0.010310986443827153 1 0.010872796660695058 1 1 1 1 1 1 0.01000313520277506 1 0.00725714796014988 1 1 0.012274600360208728 0.0097981140037726126 1 0.010084679918282912 1 1 1 0.01681990486874059 1 1 0.013671059480605437 1 1 1 1 1 1 1 0.011449152845180402 1 1 1 1 1 1 1 1 1 1 1 1 1 1 0.0035819438665781241 1 1 1 1 0.004653703362644911 1 1 1 1 1 1 1 1 1 1 0.0097907500923544652 1 1 1 1 0.0096776405483417795 0.011897341396265183 1 0.0099944672794492848 1 1 1 1 0.009852034989590034 0.011393247476847591 1 1 1 1 1 1 0.0094762105466374216 1 0.0075493760500174876 1 1 0.0070681801755612134 1 0.010279423433906285 1 0.013088830602745153 1 1 1 1 1 0.010432021442855838 0.013476220832438785 1 1 0.010687886954651095 1 0.01581097824564863 0.0096918724126860631 1 0.012561996160238977 1 1 0.010005965781137889 0.01102726064687241 0.0076037153913283053 1 -4.8580951934884542e-10 1 1 0.015407802352035272 1 1 1 1 1 0.017351236593987455 1 1 1 1 1 1 1 1 1 1 1 1 1 1 1 1 1 0.00043078146894073334 1 1 1 1 1 0.00097462316036379471 1 1 1 1 1 1 1 1 1 1 1 1 1 1 1 1 0.004305197881972575 1 1 1 1 1 0.0045483682642336737 1 1 1 1 1 1 1 0.0049575202194693663 0.0055916237957408226 1 1 1 1 1 1 0.015469587308707072 0.0095879393396787228 5.1463663660461512e-09 1 1 1 1 1 1 1 1 0.0057265752069616399 1 1 0.0072501830066695923 1 1 1 1 1 1 1 1 1 0.0086325697075030038 1 1 1 1 1 1 1 1 1 1 0.0016358843221270826 1 0.010730201597506161 1 1 1 1 1 1 1 1 1 1 0.0094936533470012414 1 1 1 1 1 1 1 1 1 1 1 0.0094808282141363512 1 1 1 1 1 1 1 1 1 1 1 1 1 1 1 1 1 1 1 1 1 0.0085356494056440801 1 1 0.0062723618137369049 0.012138480948859774 1 1 1 1 1 1 1 1 0.0051169989199226565 1 1 1 0.0040942012239494306 1 1 1 1 1 1 0.018203331804046614 1 0.010046921262854568 1 1 1 1 1 1 1 1 0.00090635345044986527 1 1 1 1 1 1 1 1 1 1 1 1 0.015256576254595337 1 1 1 0.0035569383752509474 1 0.0091583784088710429 1 1 1 1 1 1 1 1 1 1 0.010598958433818889 1 1 1 1 0.002181215724960237 1 1 1 1 1 1 1 1 0.0099868261408886435 1 1 0.010477589248930701 1 1 1 0.0089619246919266128 1 1 0.010771997023077849 1 0.0099946438127617842 1 1 1 1 1 1 1 1 1 1 0.0098183240908461741 1 1 1 1 1 0.0091572217355087998 1 0.0089430257395863091 1 1 1 1 0.01047708690852198 1 1 1 1 0.010195627141666063 1 1 1 1 0.010306028466056084 1 1 1 1 1 1 1 1 1 1 1 1 1 1 1 1 0.0092722632187139369 1 1 0.01097025905566042 1 1 1 1 0.010045432657492767 1 1 1 1 0.0079701320115478109 1 1 1 1 0.010804752637071868 1 1 1 1 1 0.0095086097725736764 1 1 0.017013182156259368 0.0098675606712683578 1 1 0.0088756607764869724 1 1 1 1 1 1 1 0.010738557818982182 1 1 1 1 1 1 1 1 1 1 1 1 1 1 1 0.016219515756202001 1 1 1 1 1 0.016401106270374763 1 1 1 1 0.0096034799302594492 1 1 1 0.0096516982821369737 1 1 1 1 1 0.0092004133180069066 1 1 1 0.0066360797662526338 1 1 0.014210772796807162 1 1 0.009531741144582339 1 0.013325045811949413 1 0.0099397489456131641 1 1 1 1 1 1 1 1 1 1 1 1 1 1 1 1 1 1 1 1 1 1 1 1 1 1 1 1 1 1 1 1 1 1 1 1 0.010133791381362646 1 0.010035161061823302 1 1 1 1 1 0.010743479841891229 1 1 1 0.012133032069211788 1 1 1 1 1 1 1 1 1 1 1 1 1 1 1 1 1 1 1 1 1 1 1 1 1 0.0099194082989358633 1 1 1 0.0070282946350289852 1 1 1 1 1 1 1 0.0076523512643479211 1 1 1 1 1 1 1 1 0.0090193028341687392 1 1 1 1 1 1 1 1 0.012633483522081698 1 1 1 1 0.010261807312426615 1 1 1 1 1 0.0099846722300341566 1 0.019665232888383399 1 1 1 1 1 1 1 1 1 1 1 1 1 0.020208402589616748 1 1 0.0082715063207944532 0.019637855750972905 1 0.0091806607358527036 1 1 1 1 1 1 1 1 1 1 1 1 1 1 1 0.0098324253296607871 1 1 1 1 1 1 1 1 1 1 1 1 1 1 1 0.0085591771979412496 1 1 1 1 0.0095281689987124392 1 1 1 0.0093492955172592221 1 0.010945283982574706 1 1 1 1 1 1 1 1 1 1 1 1 1 1 1 1 1 1 1 1 1 1 1 1 1 1 1 1 1 0.0080323111784898309 1 1 1 1 1 0.0037187209982371006 1 1 1 1 1 0.01200396178248438 0.01324784260490547 0.0018189291780494679 1 1 1 1 1 0.0093741159466756326 1 1 0.017112759095021319 1 1 1 1 1 1 1 0.01428762367729774 1 1 1 1 1 1 1 1 0.0093474936256766322 1 1 0.0081353093234702786 1 0.0095344120989748395 1 1 1 1 1 1 0.011401207858212099 1 1 1 1 0.0062462343401857388 1 1 1 1 1 1 1 1 1 1 1 1 1 1 1 1 1 0.0085304512099345347 0.012818035505890633 1 1 1 1 1 1 1 1 1 1 1 1 0.010455305531964981 1 0.0039696297302737257 1 1 0.011699115042972458 1 1 1 1 0.0036452208570342953 1 1 0.010091635661399079 1 1 1 0.022138425295232269 1 1 0.00046138794358461643 0.024647338614196705 1 1 1 1 1 1 1 1 1 1 0.0098781293469106697 1 1 1 1 1 1 1 0.0099808188492943907 1 1 1 1 0.01279053910650468 1 0.0046038725666921795 1 1 0.0036978557354030439 1 1 1 1 1 1 0.014045966480037248 1 1 1 1 1 0.012027912746402534 1 1 0.01064648365789444 1 1 1 1 1 1 1 1 1 1 1 1 1 1 1 1 1 1 1 1 1 1 1 1 1 1 1 0.011451240071244468 1 0.010628753242681407 1 1 1 1 1 1 1 1 1 0.010703537463918337 1 1 0.012546196670343856 1 1 1 1 1 1 1 1 0.0098212913778666019 1 1 1 1 1 1 0.0084054361833093734 1 1 1 0.0057072580420785488 1 1 1 1 1 1 1 1 0.0037746553667754729 0.010434820877211894 1 1 1 1 1 1 1 1 1 1 1 1 1 1 0.010041243021000189 1 1 1 1 1 1 1 1 1 1 1 1 1 1 1 1 1 1 1 1 1 1 1 1 1 1 0.015511714956324696 1 1 1 1 1 0.010057457706246121 1 1 0.010116784123049713 1 1 1 1 1 1 1 1 0.017955752087419067 1 1 0.010262425534758295 1 1 1 1 1 1 1 1 0.016919094188324012 1 1 1 1 1 1 1 1 1 0.010039357828168536 1 0.01009868424497213 1 1 1 1 1 1 1 1 1 1 1 1 1 1 1 1 1 1 1 0.0070849171981491503 1 1 1 0.0088817620069538729 1 1 1 1 1 1 1 1 1 1 1 1 0.0099891537843925012 1 0.011140487500900572 1 0.0077999084901210812 1 0.0091809008939252919 1 1 1 1 1 0.018354719496851388 1 1 0.011095488548676542 1 1 1 1 1 1 1 0.010994059574616686 1 1 0.0099564157333789233 1 0.0056653835808754931 1 1 1 0.019935150311030575 1 1 1 1 1 0.01037484748030184 1 1 1 1 1 1 1 1 1 1 1 1 1 1 1 1 1 1 1 1 1 1 1 1 1 1 1 1 1 1 1 1 1 1 1 1 1 1 1 1 1 1 1 1 1 1 1 1 1 1 1 1 1 1 1 1 1 1 1 1 0.011023583933238124 1 1 1 1 1 1 1 0.012626305757429479 1 1 1 1 0.016965544193685338 1 1 1 1 0.0085116078631566373 1 1 1 1 1 0.013054119766308797 1 1 1 1 1 1 1 1 1 1 1 1 1 1 1 1 1 1 1 0.017940921309623787 1 1 1 1 1 1 1 1 1 1 1 1 0.0095508900790557284 1 1 1 1 0.0097363101977055791 0.021253611556000092 1 1 0.012521641583994624 1 1 1 1 1 1 1 1 1 1 1 0.013178344004673504 1 1 1 0.013506485864470234 1 1 1 1 1 1 1 1 1 1 1 1 1 1 1 1 1 1 1 1 1 1 1 1 1 1 1 1 1 1 1 1 1 1 1 0.010041439381412873 1 1 1 1 1 1 1 1 0.010247761514391406 1 1 1 1 1 1 1 1 1 1 0.010206322132978536 1 1 0.011138725316664724 1 1 1 1 1 0.013456212798346953 1 1 1 1 1 1 1 1 1 1 1 2.0626776502108424e-10 0.015140277134566484 1 1 1 1 1 1 1 1 1 1 1 1 1 1 1 1 1 1 1 1 1 1 1 1 
</DataArray>
</CellData>
</Piece>
</UnstructuredGrid>
</VTKFile>
