<?xml version="1.0"?>
<VTKFile type="UnstructuredGrid" version="0.1" byte_order="LittleEndian">
<UnstructuredGrid>
<Piece NumberOfPoints="30578" NumberOfCells="10723">
<Points>
<DataArray type="Float64" NumberOfComponents="3" format="ascii">
-0.5 -0.5 0 -0.47439485679867832 -0.48072581506667478 0 -0.5 -0.44765434486020428 0 -0.5 -0.5 0 -0.47439485679867832 -0.48072581506667478 0 -0.43702443379937372 -0.49999999999999922 0 -0.47439485679867832 -0.48072581506667478 0 -0.45530669598391149 -0.47718009944797551 0 -0.43702443379937372 -0.49999999999999922 0 -0.47439485679867832 -0.48072581506667478 0 -0.45530669598391149 -0.47718009944797551 0 -0.4597353119515426 -0.45943449384344293 0 -0.45530669598391149 -0.47718009944797551 0 -0.44381084376742141 -0.47114793899167112 0 -0.4597353119515426 -0.45943449384344293 0 -0.45530669598391149 -0.47718009944797551 0 -0.44381084376742141 -0.47114793899167112 0 -0.43702443379937372 -0.49999999999999922 0 -0.44381084376742141 -0.47114793899167112 0 -0.43702443379937372 -0.49999999999999922 0 -0.45059725373546922 -0.44229587798334291 0 -0.4339166039271336 -0.43498117536117131 0 -0.43309128002320102 -0.45351235807576151 0 -0.44381084376742141 -0.47114793899167112 0 -0.45059725373546922 -0.44229587798334291 0 -0.4597353119515426 -0.45943449384344293 0 -0.44381084376742141 -0.47114793899167112 0 -0.45059725373546922 -0.44229587798334291 0 -0.43309128002320102 -0.45351235807576151 0 -0.44381084376742141 -0.47114793899167112 0 -0.45059725373546922 -0.44229587798334291 0 -0.4597353119515426 -0.45943449384344293 0 -0.47505511338101108 -0.44868394208069429 0 -0.46517432262153441 -0.43649963461163338 0 -0.45059725373546922 -0.44229587798334291 0 -0.4597353119515426 -0.45943449384344293 0 -0.46517432262153441 -0.43649963461163338 0 -0.47505511338101108 -0.44868394208069429 0 -0.47820614292347569 -0.42776699273468149 0 -0.46517432262153441 -0.43649963461163338 0 -0.47505511338101108 -0.44868394208069429 0 -0.47820614292347569 -0.42776699273468149 0 -0.47439485679867832 -0.48072581506667478 0 -0.47505511338101108 -0.44868394208069429 0 -0.5 -0.44765434486020428 0 -0.47439485679867832 -0.48072581506667478 0 -0.4597353119515426 -0.45943449384344293 0 -0.47505511338101108 -0.44868394208069429 0 -0.47505511338101108 -0.44868394208069429 0 -0.5 -0.44765434486020428 0 -0.47820614292347569 -0.42776699273468149 0 -0.5 -0.44765434486020428 0 -0.49656450065014057 -0.42151023988558672 0 -0.47820614292347569 -0.42776699273468149 0 -0.5 -0.44765434486020428 0 -0.49656450065014057 -0.42151023988558672 0 -0.50000000000000089 -0.37904661106745707 0 -0.49656450065014057 -0.42151023988558672 0 -0.48135717246594062 -0.40685004338866881 0 -0.47820614292347569 -0.42776699273468149 0 -0.49656450065014057 -0.42151023988558672 0 -0.48135717246594062 -0.40685004338866881 0 -0.48135717246594062 -0.40685004338866881 0 -0.47820614292347569 -0.42776699273468149 0 -0.48135717246594062 -0.40685004338866881 0 -0.47820614292347569 -0.42776699273468149 0 -0.45738366370351707 -0.41344381697501481 0 -0.49656450065014057 -0.42151023988558672 0 -0.48135717246594062 -0.40685004338866881 0 -0.50000000000000089 -0.37904661106745707 0 -0.50000000000000089 -0.37904661106745707 0 -0.48466894952205442 -0.38486603086372417 0 -0.48717439863114548 -0.36823452950912272 0 -0.48135717246594062 -0.40685004338866881 0 -0.50000000000000089 -0.37904661106745707 0 -0.48466894952205442 -0.38486603086372417 0 -0.48466894952205442 -0.38486603086372417 0 -0.48717439863114548 -0.36823452950912272 0 -0.50000000000000089 -0.37904661106745707 0 -0.48466894952205442 -0.38486603086372417 0 -0.48135717246594062 -0.40685004338866881 0 -0.48466894952205442 -0.38486603086372417 0 -0.46593083509403682 -0.39197871725165279 0 -0.48135717246594062 -0.40685004338866881 0 -0.48466894952205442 -0.38486603086372417 0 -0.48135717246594062 -0.40685004338866881 0 -0.46593083509403682 -0.39197871725165279 0 -0.48466894952205442 -0.38486603086372417 0 -0.47195833844942919 -0.37959069520904498 0 -0.46593083509403682 -0.39197871725165279 0 -0.48466894952205442 -0.38486603086372417 0 -0.46593083509403682 -0.39197871725165279 0 -0.48466894952205442 -0.38486603086372417 0 -0.47195833844942919 -0.37959069520904498 0 -0.48717439863114548 -0.36823452950912272 0 -0.46593083509403682 -0.39197871725165279 0 -0.44890944387521442 -0.39029302340116001 0 -0.45132291774153199 -0.37789636588759368 0 -0.47195833844942919 -0.37959069520904498 0 -0.46593083509403682 -0.39197871725165279 0 -0.45132291774153199 -0.37789636588759368 0 -0.46593083509403682 -0.39197871725165279 0 -0.45132291774153199 -0.37789636588759368 0 -0.48135717246594062 -0.40685004338866881 0 -0.46593083509403682 -0.39197871725165279 0 -0.45738366370351707 -0.41344381697501481 0 -0.46593083509403682 -0.39197871725165279 0 -0.44275815558040038 -0.40077469311046232 0 -0.45738366370351707 -0.41344381697501481 0 -0.46593083509403682 -0.39197871725165279 0 -0.44275815558040038 -0.40077469311046232 0 -0.46593083509403682 -0.39197871725165279 0 -0.44275815558040038 -0.40077469311046232 0 -0.44890944387521442 -0.39029302340116001 0 -0.44275815558040038 -0.40077469311046232 0 -0.44064580868350911 -0.39542861624611658 0 -0.44890944387521442 -0.39029302340116001 0 -0.44225344557501872 -0.38376649822575309 0 -0.45132291774153199 -0.37789636588759368 0 -0.43671500038902772 -0.36381401452353412 0 -0.44890944387521442 -0.39029302340116001 0 -0.44225344557501872 -0.38376649822575309 0 -0.45132291774153199 -0.37789636588759368 0 -0.44064580868350911 -0.39542861624611658 0 -0.44225344557501872 -0.38376649822575309 0 -0.43040194378266172 -0.3881600185019185 0 -0.44064580868350911 -0.39542861624611658 0 -0.44890944387521442 -0.39029302340116001 0 -0.44225344557501872 -0.38376649822575309 0 -0.47820614292347569 -0.42776699273468149 0 -0.46517432262153441 -0.43649963461163338 0 -0.45738366370351707 -0.41344381697501481 0 -0.45059725373546922 -0.44229587798334291 0 -0.45738366370351707 -0.41344381697501481 0 -0.45059725373546922 -0.44229587798334291 0 -0.46517432262153441 -0.43649963461163338 0 -0.45738366370351707 -0.41344381697501481 0 -0.44275815558040038 -0.40077469311046232 0 -0.45738366370351707 -0.41344381697501481 0 -0.44164244492799948 -0.42121090558557039 0 -0.45059725373546922 -0.44229587798334291 0 -0.45738366370351707 -0.41344381697501481 0 -0.44164244492799948 -0.42121090558557039 0 -0.45059725373546922 -0.44229587798334291 0 -0.44164244492799948 -0.42121090558557039 0 -0.4339166039271336 -0.43498117536117131 0 -0.4339166039271336 -0.43498117536117131 0 -0.42355654769347711 -0.414558964497861 0 -0.41671115160429401 -0.44095791049380378 0 -0.44164244492799948 -0.42121090558557039 0 -0.4339166039271336 -0.43498117536117131 0 -0.42355654769347711 -0.414558964497861 0 -0.44275815558040038 -0.40077469311046232 0 -0.44164244492799948 -0.42121090558557039 0 -0.42355654769347711 -0.414558964497861 0 -0.42355654769347711 -0.414558964497861 0 -0.41056920252370888 -0.3963363404412637 0 -0.40050668374064252 -0.41734442193795029 0 -0.42355654769347711 -0.414558964497861 0 -0.41671115160429401 -0.44095791049380378 0 -0.42355654769347711 -0.414558964497861 0 -0.40050668374064252 -0.41734442193795029 0 -0.41671115160429401 -0.44095791049380378 0 -0.44225344557501872 -0.38376649822575309 0 -0.43040194378266172 -0.3881600185019185 0 -0.43671500038902772 -0.36381401452353412 0 -0.43040194378266172 -0.3881600185019185 0 -0.43671500038902772 -0.36381401452353412 0 -0.44064580868350911 -0.39542861624611658 0 -0.42355654769347711 -0.414558964497861 0 -0.43040194378266172 -0.3881600185019185 0 -0.42355654769347711 -0.414558964497861 0 -0.43040194378266172 -0.3881600185019185 0 -0.44275815558040038 -0.40077469311046232 0 -0.44064580868350911 -0.39542861624611658 0 -0.42355654769347711 -0.414558964497861 0 -0.44064580868350911 -0.39542861624611658 0 -0.43040194378266172 -0.3881600185019185 0 -0.42355654769347711 -0.414558964497861 0 -0.43040194378266172 -0.3881600185019185 0 -0.41056920252370888 -0.3963363404412637 0 -0.43040194378266172 -0.3881600185019185 0 -0.4079689369259607 -0.37224253963894771 0 -0.43040194378266172 -0.3881600185019185 0 -0.41056920252370888 -0.3963363404412637 0 -0.4079689369259607 -0.37224253963894771 0 -0.41056920252370888 -0.3963363404412637 0 -0.39195929229331972 -0.37982250283040359 0 -0.4079689369259607 -0.37224253963894771 0 -0.41056920252370888 -0.3963363404412637 0 -0.39195929229331972 -0.37982250283040359 0 -0.39357845321732049 -0.39746174547711199 0 -0.41056920252370888 -0.3963363404412637 0 -0.39357845321732049 -0.39746174547711199 0 -0.40050668374064252 -0.41734442193795029 0 -0.39357845321732049 -0.39746174547711199 0 -0.38114412328536468 -0.40833987260765031 0 -0.36544727141479139 -0.39026932065168712 0 -0.39195929229331972 -0.37982250283040359 0 -0.37549160074202448 -0.3732971907138336 0 -0.36544727141479139 -0.39026932065168712 0 -0.39195929229331972 -0.37982250283040359 0 -0.39357845321732049 -0.39746174547711199 0 -0.36544727141479139 -0.39026932065168712 0 -0.40050668374064252 -0.41734442193795029 0 -0.3944977858259317 -0.43926335073686201 0 -0.41671115160429401 -0.44095791049380378 0 -0.40050668374064252 -0.41734442193795029 0 -0.38028594703985957 -0.42392304976487449 0 -0.3944977858259317 -0.43926335073686201 0 -0.39357845321732049 -0.39746174547711199 0 -0.40050668374064252 -0.41734442193795029 0 -0.38114412328536468 -0.40833987260765031 0 -0.40050668374064252 -0.41734442193795029 0 -0.38114412328536468 -0.40833987260765031 0 -0.38028594703985957 -0.42392304976487449 0 -0.38114412328536468 -0.40833987260765031 0 -0.38028594703985957 -0.42392304976487449 0 -0.36590226101420908 -0.41270082520662749 0 -0.38028594703985957 -0.42392304976487449 0 -0.3944977858259317 -0.43926335073686201 0 -0.3723601590800425 -0.44005613486137668 0 -0.3944977858259317 -0.43926335073686201 0 -0.38265619596279349 -0.45813348326120767 0 -0.3723601590800425 -0.44005613486137668 0 -0.40093272222703252 -0.45142790024540502 0 -0.3944977858259317 -0.43926335073686201 0 -0.38265619596279349 -0.45813348326120767 0 -0.40093272222703252 -0.45142790024540502 0 -0.3944977858259317 -0.43926335073686201 0 -0.41671115160429401 -0.44095791049380378 0 -0.38265619596279349 -0.45813348326120767 0 -0.40986575551511062 -0.46735685648974662 0 -0.38265619596279349 -0.45813348326120767 0 -0.39389470715733632 -0.47355095168427308 0 -0.40986575551511062 -0.46735685648974662 0 -0.40093272222703252 -0.45142790024540502 0 -0.38265619596279349 -0.45813348326120767 0 -0.40986575551511062 -0.46735685648974662 0 -0.38265619596279349 -0.45813348326120767 0 -0.38272382101637098 -0.47243968377412587 0 -0.39389470715733632 -0.47355095168427308 0 -0.38272382101637098 -0.47243968377412587 0 -0.38859428369766791 -0.48614630665141417 0 -0.36652141413456929 -0.48474993749143802 0 -0.38272382101637098 -0.47243968377412587 0 -0.38859428369766791 -0.48614630665141417 0 -0.39389470715733632 -0.47355095168427308 0 -0.37500484199342449 -0.5 0 -0.38859428369766791 -0.48614630665141417 0 -0.40140120367436599 -0.49999999999999611 0 -0.37500484199342449 -0.5 0 -0.38859428369766791 -0.48614630665141417 0 -0.36652141413456929 -0.48474993749143802 0 -0.38859428369766791 -0.48614630665141417 0 -0.40140120367436599 -0.49999999999999611 0 -0.40563347959473789 -0.48367842824487117 0 -0.40140120367436599 -0.49999999999999611 0 -0.40563347959473789 -0.48367842824487117 0 -0.40563347959473789 -0.48367842824487117 0 -0.39389470715733632 -0.47355095168427308 0 -0.40986575551511062 -0.46735685648974662 0 -0.38859428369766791 -0.48614630665141417 0 -0.40563347959473789 -0.48367842824487117 0 -0.39389470715733632 -0.47355095168427308 0 -0.40563347959473789 -0.48367842824487117 0 -0.40986575551511062 -0.46735685648974662 0 -0.42809744812538553 -0.47353695305504512 0 -0.40986575551511062 -0.46735685648974662 0 -0.4199949121527507 -0.4855396040697898 0 -0.42809744812538553 -0.47353695305504512 0 -0.40986575551511062 -0.46735685648974662 0 -0.40563347959473789 -0.48367842824487117 0 -0.4199949121527507 -0.4855396040697898 0 -0.40986575551511062 -0.46735685648974662 0 -0.40563347959473789 -0.48367842824487117 0 -0.4199949121527507 -0.4855396040697898 0 -0.41921281873686977 -0.5 0 -0.40140120367436599 -0.49999999999999611 0 -0.40563347959473789 -0.48367842824487117 0 -0.41921281873686977 -0.5 0 -0.4199949121527507 -0.4855396040697898 0 -0.41921281873686977 -0.5 0 -0.43702443379937372 -0.49999999999999922 0 -0.4199949121527507 -0.4855396040697898 0 -0.43702443379937372 -0.49999999999999922 0 -0.42809744812538553 -0.47353695305504512 0 -0.44381084376742141 -0.47114793899167112 0 -0.43702443379937372 -0.49999999999999922 0 -0.42809744812538553 -0.47353695305504512 0 -0.42809744812538553 -0.47353695305504512 0 -0.42194140881699782 -0.45884101952858919 0 -0.43309128002320102 -0.45351235807576151 0 -0.44381084376742141 -0.47114793899167112 0 -0.42809744812538553 -0.47353695305504512 0 -0.43309128002320102 -0.45351235807576151 0 -0.4339166039271336 -0.43498117536117131 0 -0.43309128002320102 -0.45351235807576151 0 -0.41671115160429401 -0.44095791049380378 0 -0.42194140881699782 -0.45884101952858919 0 -0.43309128002320102 -0.45351235807576151 0 -0.41671115160429401 -0.44095791049380378 0 -0.42194140881699782 -0.45884101952858919 0 -0.41671115160429401 -0.44095791049380378 0 -0.40986575551511062 -0.46735685648974662 0 -0.41671115160429401 -0.44095791049380378 0 -0.40986575551511062 -0.46735685648974662 0 -0.40093272222703252 -0.45142790024540502 0 -0.41671115160429401 -0.44095791049380378 0 -0.40986575551511062 -0.46735685648974662 0 -0.42809744812538553 -0.47353695305504512 0 -0.42194140881699782 -0.45884101952858919 0 -0.40986575551511062 -0.46735685648974662 0 -0.45828666285701658 -0.26028432573271792 0 -0.43487007995442373 -0.25384069753834382 0 -0.45658005330295048 -0.2439827770756183 0 -0.43864273500925549 -0.2751587481676856 0 -0.45828666285701658 -0.26028432573271792 0 -0.43487007995442373 -0.25384069753834382 0 -0.43864273500925549 -0.2751587481676856 0 -0.45645423860141388 -0.27827293425430932 0 -0.45828666285701658 -0.26028432573271792 0 -0.43864273500925549 -0.2751587481676856 0 -0.45828666285701658 -0.26028432573271792 0 -0.45645423860141388 -0.27827293425430932 0 -0.47869064668718631 -0.2683854874950159 0 -0.47091363495918082 -0.28947603344621109 0 -0.45645423860141388 -0.27827293425430932 0 -0.45828666285701658 -0.26028432573271792 0 -0.47869064668718631 -0.2683854874950159 0 -0.45828666285701658 -0.26028432573271792 0 -0.47793059070477772 -0.24540990329775009 0 -0.45828666285701658 -0.26028432573271792 0 -0.47869064668718631 -0.2683854874950159 0 -0.47793059070477772 -0.24540990329775009 0 -0.4872249908214738 -0.25598993182963242 0 -0.47869064668718631 -0.2683854874950159 0 -0.47793059070477772 -0.24540990329775009 0 -0.4872249908214738 -0.25598993182963242 0 -0.5 -0.25006354863638108 0 -0.5 -0.27586016112259643 0 -0.4872249908214738 -0.25598993182963242 0 -0.5 -0.25006354863638108 0 -0.49068252501969761 -0.24549971615663649 0 -0.4872249908214738 -0.25598993182963242 0 -0.5 -0.27586016112259643 0 -0.47869064668718631 -0.2683854874950159 0 -0.5 -0.27586016112259643 0 -0.47869064668718631 -0.2683854874950159 0 -0.48721788021035761 -0.2882082846164955 0 -0.47869064668718631 -0.2683854874950159 0 -0.47091363495918082 -0.28947603344621109 0 -0.48721788021035761 -0.2882082846164955 0 -0.47091363495918082 -0.28947603344621109 0 -0.48721788021035761 -0.2882082846164955 0 -0.48161809245015419 -0.30465866835107641 0 -0.5 -0.27586016112259643 0 -0.48721788021035761 -0.2882082846164955 0 -0.5 -0.3016567736088116 0 -0.48721788021035761 -0.2882082846164955 0 -0.5 -0.3016567736088116 0 -0.48161809245015419 -0.30465866835107641 0 -0.5 -0.3016567736088116 0 -0.48161809245015419 -0.30465866835107641 0 -0.5 -0.32745338609502678 0 -0.47091363495918082 -0.28947603344621109 0 -0.48161809245015419 -0.30465866835107641 0 -0.45879166701778518 -0.3036258058313378 0 -0.48161809245015419 -0.30465866835107641 0 -0.45879166701778518 -0.3036258058313378 0 -0.47638885418803739 -0.32253493654140952 0 -0.45645423860141388 -0.27827293425430932 0 -0.47091363495918082 -0.28947603344621109 0 -0.45879166701778518 -0.3036258058313378 0 -0.45645423860141388 -0.27827293425430932 0 -0.45879166701778518 -0.3036258058313378 0 -0.43905227881958647 -0.29505920944709452 0 -0.43864273500925549 -0.2751587481676856 0 -0.45645423860141388 -0.27827293425430932 0 -0.43905227881958647 -0.29505920944709452 0 -0.45879166701778518 -0.3036258058313378 0 -0.43905227881958647 -0.29505920944709452 0 -0.4399695753826649 -0.31139282438396382 0 -0.4399695753826649 -0.31139282438396382 0 -0.45223868162566522 -0.32343332413938758 0 -0.42808850906329299 -0.32433171173736591 0 -0.45879166701778518 -0.3036258058313378 0 -0.4399695753826649 -0.31139282438396382 0 -0.45223868162566522 -0.32343332413938758 0 -0.45223868162566522 -0.32343332413938758 0 -0.42808850906329299 -0.32433171173736591 0 -0.45223868162566522 -0.32343332413938758 0 -0.44207286924452832 -0.33783824796895978 0 -0.46140244920768408 -0.33754740415941759 0 -0.44207286924452832 -0.33783824796895978 0 -0.46140244920768408 -0.33754740415941759 0 -0.45117994904742642 -0.3486532256997657 0 -0.45223868162566522 -0.32343332413938758 0 -0.44207286924452832 -0.33783824796895978 0 -0.42808850906329299 -0.32433171173736591 0 -0.45879166701778518 -0.3036258058313378 0 -0.45223868162566522 -0.32343332413938758 0 -0.47638885418803739 -0.32253493654140952 0 -0.45223868162566522 -0.32343332413938758 0 -0.46140244920768408 -0.33754740415941759 0 -0.47638885418803739 -0.32253493654140952 0 -0.45223868162566522 -0.32343332413938758 0 -0.47638885418803739 -0.32253493654140952 0 -0.48161809245015419 -0.30465866835107641 0 -0.47638885418803739 -0.32253493654140952 0 -0.5 -0.32745338609502678 0 -0.47638885418803739 -0.32253493654140952 0 -0.5 -0.32745338609502678 0 -0.48104103145021149 -0.34129537751375599 0 -0.5 -0.32745338609502678 0 -0.48104103145021149 -0.34129537751375599 0 -0.5 -0.35324999858124201 0 -0.46140244920768408 -0.33754740415941759 0 -0.48104103145021149 -0.34129537751375599 0 -0.46549330969023639 -0.35152931309322771 0 -0.46140244920768408 -0.33754740415941759 0 -0.47638885418803739 -0.32253493654140952 0 -0.48104103145021149 -0.34129537751375599 0 -0.48104103145021149 -0.34129537751375599 0 -0.48025743214923627 -0.35616585996071459 0 -0.46549330969023639 -0.35152931309322771 0 -0.48025743214923627 -0.35616585996071459 0 -0.46757842097458802 -0.36652008110622503 0 -0.46549330969023639 -0.35152931309322771 0 -0.48025743214923627 -0.35616585996071459 0 -0.5 -0.35324999858124201 0 -0.48717439863114548 -0.36823452950912272 0 -0.48104103145021149 -0.34129537751375599 0 -0.48025743214923627 -0.35616585996071459 0 -0.5 -0.35324999858124201 0 -0.50000000000000089 -0.37904661106745707 0 -0.5 -0.35324999858124201 0 -0.48717439863114548 -0.36823452950912272 0 -0.47195833844942919 -0.37959069520904498 0 -0.48717439863114548 -0.36823452950912272 0 -0.46757842097458802 -0.36652008110622503 0 -0.48025743214923627 -0.35616585996071459 0 -0.48717439863114548 -0.36823452950912272 0 -0.46757842097458802 -0.36652008110622503 0 -0.45132291774153199 -0.37789636588759368 0 -0.46757842097458802 -0.36652008110622503 0 -0.45216690816074923 -0.36231126303824313 0 -0.47195833844942919 -0.37959069520904498 0 -0.45132291774153199 -0.37789636588759368 0 -0.46757842097458802 -0.36652008110622503 0 -0.46757842097458802 -0.36652008110622503 0 -0.46549330969023639 -0.35152931309322771 0 -0.45216690816074923 -0.36231126303824313 0 -0.46140244920768408 -0.33754740415941759 0 -0.46549330969023639 -0.35152931309322771 0 -0.45117994904742642 -0.3486532256997657 0 -0.46549330969023639 -0.35152931309322771 0 -0.45117994904742642 -0.3486532256997657 0 -0.45216690816074923 -0.36231126303824313 0 -0.44599028472907742 -0.35554349803526408 0 -0.45117994904742642 -0.3486532256997657 0 -0.45216690816074923 -0.36231126303824313 0 -0.44599028472907742 -0.35554349803526408 0 -0.45117994904742642 -0.3486532256997657 0 -0.44228407783080631 -0.34851364977492799 0 -0.44207286924452832 -0.33783824796895978 0 -0.44228407783080631 -0.34851364977492799 0 -0.43394442261003058 -0.34546672586134508 0 -0.44228407783080631 -0.34851364977492799 0 -0.43858436747801349 -0.35660488883003821 0 -0.43394442261003058 -0.34546672586134508 0 -0.44207286924452832 -0.33783824796895978 0 -0.45117994904742642 -0.3486532256997657 0 -0.44228407783080631 -0.34851364977492799 0 -0.44599028472907742 -0.35554349803526408 0 -0.44228407783080631 -0.34851364977492799 0 -0.43858436747801349 -0.35660488883003821 0 -0.44599028472907742 -0.35554349803526408 0 -0.43858436747801349 -0.35660488883003821 0 -0.43671500038902772 -0.36381401452353412 0 -0.43858436747801349 -0.35660488883003821 0 -0.43671500038902772 -0.36381401452353412 0 -0.44599028472907742 -0.35554349803526408 0 -0.45216690816074923 -0.36231126303824313 0 -0.43671500038902772 -0.36381401452353412 0 -0.45132291774153199 -0.37789636588759368 0 -0.43671500038902772 -0.36381401452353412 0 -0.45132291774153199 -0.37789636588759368 0 -0.45216690816074923 -0.36231126303824313 0 -0.43671500038902772 -0.36381401452353412 0 -0.43040194378266172 -0.3881600185019185 0 -0.43671500038902772 -0.36381401452353412 0 -0.4079689369259607 -0.37224253963894771 0 -0.43858436747801349 -0.35660488883003821 0 -0.43671500038902772 -0.36381401452353412 0 -0.41901032175007979 -0.34674631764622038 0 -0.43671500038902772 -0.36381401452353412 0 -0.41901032175007979 -0.34674631764622038 0 -0.43858436747801349 -0.35660488883003821 0 -0.43394442261003058 -0.34546672586134508 0 -0.41901032175007979 -0.34674631764622038 0 -0.41901032175007979 -0.34674631764622038 0 -0.4079689369259607 -0.37224253963894771 0 -0.40160491304204049 -0.35527610236370899 0 -0.43671500038902772 -0.36381401452353412 0 -0.41901032175007979 -0.34674631764622038 0 -0.4079689369259607 -0.37224253963894771 0 -0.4079689369259607 -0.37224253963894771 0 -0.38553593006925752 -0.3563250607759802 0 -0.4079689369259607 -0.37224253963894771 0 -0.38553593006925752 -0.3563250607759802 0 -0.40160491304204049 -0.35527610236370899 0 -0.39195929229331972 -0.37982250283040359 0 -0.4079689369259607 -0.37224253963894771 0 -0.38553593006925752 -0.3563250607759802 0 -0.39195929229331972 -0.37982250283040359 0 -0.37549160074202448 -0.3732971907138336 0 -0.38553593006925752 -0.3563250607759802 0 -0.37549160074202448 -0.3732971907138336 0 -0.38553593006925752 -0.3563250607759802 0 -0.38553593006925752 -0.3563250607759802 0 -0.36666079927166728 -0.34293209489202431 0 -0.38553593006925752 -0.3563250607759802 0 -0.39342078659019603 -0.34300184077244372 0 -0.38006824781918919 -0.33243312042550199 0 -0.38553593006925752 -0.3563250607759802 0 -0.38006824781918919 -0.33243312042550199 0 -0.36666079927166728 -0.34293209489202431 0 -0.38553593006925752 -0.3563250607759802 0 -0.39342078659019603 -0.34300184077244372 0 -0.41901032175007979 -0.34674631764622038 0 -0.40160491304204049 -0.35527610236370899 0 -0.39342078659019603 -0.34300184077244372 0 -0.38553593006925752 -0.3563250607759802 0 -0.40160491304204049 -0.35527610236370899 0 -0.39342078659019603 -0.34300184077244372 0 -0.41901032175007979 -0.34674631764622038 0 -0.40130564311113259 -0.32967862076890581 0 -0.39342078659019603 -0.34300184077244372 0 -0.40130564311113259 -0.32967862076890581 0 -0.39064670272592411 -0.32967160323888278 0 -0.39342078659019603 -0.34300184077244372 0 -0.40130564311113259 -0.32967862076890581 0 -0.39342078659019603 -0.34300184077244372 0 -0.39064670272592411 -0.32967160323888278 0 -0.39342078659019603 -0.34300184077244372 0 -0.38006824781918919 -0.33243312042550199 0 -0.38006824781918919 -0.33243312042550199 0 -0.38935907146989862 -0.31816186479418052 0 -0.37140736883531977 -0.32183989730859341 0 -0.38935907146989862 -0.31816186479418052 0 -0.38351210912712752 -0.30253866195360818 0 -0.37140736883531977 -0.32183989730859341 0 -0.39064670272592411 -0.32967160323888278 0 -0.38006824781918919 -0.33243312042550199 0 -0.38935907146989862 -0.31816186479418052 0 -0.38935907146989862 -0.31816186479418052 0 -0.401514660155255 -0.31819685637317691 0 -0.39554973675391708 -0.30949047449279188 0 -0.40130564311113259 -0.32967862076890581 0 -0.38935907146989862 -0.31816186479418052 0 -0.40130564311113259 -0.32967862076890581 0 -0.38935907146989862 -0.31816186479418052 0 -0.39962023335203928 -0.32539073298322901 0 -0.38935907146989862 -0.31816186479418052 0 -0.39962023335203928 -0.32539073298322901 0 -0.401514660155255 -0.31819685637317691 0 -0.40130564311113259 -0.32967862076890581 0 -0.39064670272592411 -0.32967160323888278 0 -0.38935907146989862 -0.31816186479418052 0 -0.40130564311113259 -0.32967862076890581 0 -0.39962023335203928 -0.32539073298322901 0 -0.4039383365009207 -0.3252300993353433 0 -0.39962023335203928 -0.32539073298322901 0 -0.4039383365009207 -0.3252300993353433 0 -0.39962023335203928 -0.32539073298322901 0 -0.4039383365009207 -0.3252300993353433 0 -0.401514660155255 -0.31819685637317691 0 -0.40130564311113259 -0.32967862076890581 0 -0.4039383365009207 -0.3252300993353433 0 -0.401514660155255 -0.31819685637317691 0 -0.4088463285069534 -0.31693695448250642 0 -0.4053668684804122 -0.3086126184714344 0 -0.4039383365009207 -0.3252300993353433 0 -0.401514660155255 -0.31819685637317691 0 -0.4088463285069534 -0.31693695448250642 0 -0.4039383365009207 -0.3252300993353433 0 -0.42808850906329299 -0.32433171173736591 0 -0.4088463285069534 -0.31693695448250642 0 -0.42808850906329299 -0.32433171173736591 0 -0.41503252140001728 -0.31110728079830707 0 -0.4039383365009207 -0.3252300993353433 0 -0.4088463285069534 -0.31693695448250642 0 -0.42808850906329299 -0.32433171173736591 0 -0.4039383365009207 -0.3252300993353433 0 -0.41609663568284688 -0.33258428014908531 0 -0.42808850906329299 -0.32433171173736591 0 -0.4039383365009207 -0.3252300993353433 0 -0.4088463285069534 -0.31693695448250642 0 -0.40130564311113259 -0.32967862076890581 0 -0.4039383365009207 -0.3252300993353433 0 -0.41609663568284688 -0.33258428014908531 0 -0.41901032175007979 -0.34674631764622038 0 -0.40130564311113259 -0.32967862076890581 0 -0.41609663568284688 -0.33258428014908531 0 -0.41901032175007979 -0.34674631764622038 0 -0.40130564311113259 -0.32967862076890581 0 -0.41901032175007979 -0.34674631764622038 0 -0.41609663568284688 -0.33258428014908531 0 -0.42777047674672519 -0.33763052508657909 0 -0.41609663568284688 -0.33258428014908531 0 -0.42777047674672519 -0.33763052508657909 0 -0.42808850906329299 -0.32433171173736591 0 -0.43394442261003058 -0.34546672586134508 0 -0.41901032175007979 -0.34674631764622038 0 -0.42777047674672519 -0.33763052508657909 0 -0.44207286924452832 -0.33783824796895978 0 -0.43394442261003058 -0.34546672586134508 0 -0.42777047674672519 -0.33763052508657909 0 -0.44207286924452832 -0.33783824796895978 0 -0.42777047674672519 -0.33763052508657909 0 -0.42808850906329299 -0.32433171173736591 0 -0.4399695753826649 -0.31139282438396382 0 -0.42808850906329299 -0.32433171173736591 0 -0.42349591428063971 -0.31031667424466408 0 -0.42808850906329299 -0.32433171173736591 0 -0.42349591428063971 -0.31031667424466408 0 -0.41503252140001728 -0.31110728079830707 0 -0.43905227881958647 -0.29505920944709452 0 -0.42349591428063971 -0.31031667424466408 0 -0.41899880716149451 -0.29003317060265321 0 -0.43905227881958647 -0.29505920944709452 0 -0.4399695753826649 -0.31139282438396382 0 -0.42349591428063971 -0.31031667424466408 0 -0.43864273500925549 -0.2751587481676856 0 -0.43905227881958647 -0.29505920944709452 0 -0.41899880716149451 -0.29003317060265321 0 -0.43864273500925549 -0.2751587481676856 0 -0.41899880716149451 -0.29003317060265321 0 -0.41649742047364408 -0.2919272257303569 0 -0.41502826726935188 -0.28951283527362931 0 -0.41151645216318689 -0.29124877083691719 0 -0.41899880716149451 -0.29003317060265321 0 -0.41649742047364408 -0.2919272257303569 0 -0.41502826726935188 -0.28951283527362931 0 -0.41899880716149451 -0.29003317060265321 0 -0.41649742047364408 -0.2919272257303569 0 -0.41899880716149451 -0.29003317060265321 0 -0.41502826726935188 -0.28951283527362931 0 -0.41310038927908221 -0.28484217392458988 0 -0.41310038927908221 -0.28484217392458988 0 -0.40629814920556201 -0.2872410904076857 0 -0.40433064532645308 -0.27892106023783952 0 -0.41502826726935188 -0.28951283527362931 0 -0.41310038927908221 -0.28484217392458988 0 -0.41151645216318689 -0.29124877083691719 0 -0.41310038927908221 -0.28484217392458988 0 -0.40629814920556201 -0.2872410904076857 0 -0.41151645216318689 -0.29124877083691719 0 -0.41649742047364408 -0.2919272257303569 0 -0.41151645216318689 -0.29124877083691719 0 -0.41283916949633909 -0.29890888486812428 0 -0.40629814920556201 -0.2872410904076857 0 -0.41151645216318689 -0.29124877083691719 0 -0.4052488046064433 -0.29379102377099447 0 -0.41151645216318689 -0.29124877083691719 0 -0.41283916949633909 -0.29890888486812428 0 -0.4052488046064433 -0.29379102377099447 0 -0.42349591428063971 -0.31031667424466408 0 -0.41899880716149451 -0.29003317060265321 0 -0.42349591428063971 -0.31031667424466408 0 -0.41649742047364408 -0.2919272257303569 0 -0.41283916949633909 -0.29890888486812428 0 -0.42349591428063971 -0.31031667424466408 0 -0.41899880716149451 -0.29003317060265321 0 -0.41649742047364408 -0.2919272257303569 0 -0.40711072979061191 -0.30081998795009107 0 -0.41283916949633909 -0.29890888486812428 0 -0.4052488046064433 -0.29379102377099447 0 -0.40711072979061191 -0.30081998795009107 0 -0.41283916949633909 -0.29890888486812428 0 -0.41256685577174013 -0.30556786269479153 0 -0.42349591428063971 -0.31031667424466408 0 -0.41283916949633909 -0.29890888486812428 0 -0.41256685577174013 -0.30556786269479153 0 -0.42349591428063971 -0.31031667424466408 0 -0.41503252140001728 -0.31110728079830707 0 -0.41256685577174013 -0.30556786269479153 0 -0.4088463285069534 -0.31693695448250642 0 -0.41503252140001728 -0.31110728079830707 0 -0.4053668684804122 -0.3086126184714344 0 -0.41503252140001728 -0.31110728079830707 0 -0.41256685577174013 -0.30556786269479153 0 -0.4053668684804122 -0.3086126184714344 0 -0.40711072979061191 -0.30081998795009107 0 -0.41256685577174013 -0.30556786269479153 0 -0.4053668684804122 -0.3086126184714344 0 -0.401514660155255 -0.31819685637317691 0 -0.4053668684804122 -0.3086126184714344 0 -0.39554973675391708 -0.30949047449279188 0 -0.4053668684804122 -0.3086126184714344 0 -0.39799597453689262 -0.29994237087155962 0 -0.39554973675391708 -0.30949047449279188 0 -0.40711072979061191 -0.30081998795009107 0 -0.4053668684804122 -0.3086126184714344 0 -0.39799597453689262 -0.29994237087155962 0 -0.40711072979061191 -0.30081998795009107 0 -0.39799597453689262 -0.29994237087155962 0 -0.4052488046064433 -0.29379102377099447 0 -0.39799597453689262 -0.29994237087155962 0 -0.39554973675391708 -0.30949047449279188 0 -0.38351210912712752 -0.30253866195360818 0 -0.38935907146989862 -0.31816186479418052 0 -0.39554973675391708 -0.30949047449279188 0 -0.38351210912712752 -0.30253866195360818 0 -0.38351210912712752 -0.30253866195360818 0 -0.3950660262777419 -0.28803976586637831 0 -0.37433096522584453 -0.28132989654828328 0 -0.39799597453689262 -0.29994237087155962 0 -0.38351210912712752 -0.30253866195360818 0 -0.3950660262777419 -0.28803976586637831 0 -0.39799597453689262 -0.29994237087155962 0 -0.3950660262777419 -0.28803976586637831 0 -0.4052488046064433 -0.29379102377099447 0 -0.40629814920556201 -0.2872410904076857 0 -0.3950660262777419 -0.28803976586637831 0 -0.4052488046064433 -0.29379102377099447 0 -0.40629814920556201 -0.2872410904076857 0 -0.3950660262777419 -0.28803976586637831 0 -0.40433064532645308 -0.27892106023783952 0 -0.40433064532645308 -0.27892106023783952 0 -0.39374553591587069 -0.27251425727467649 0 -0.41316010660589619 -0.2636986180010682 0 -0.39374553591587069 -0.27251425727467649 0 -0.41316010660589619 -0.2636986180010682 0 -0.3950660262777419 -0.28803976586637831 0 -0.40433064532645308 -0.27892106023783952 0 -0.39374553591587069 -0.27251425727467649 0 -0.39374553591587069 -0.27251425727467649 0 -0.37433096522584453 -0.28132989654828328 0 -0.3950660262777419 -0.28803976586637831 0 -0.39374553591587069 -0.27251425727467649 0 -0.37433096522584453 -0.28132989654828328 0 -0.39374553591587069 -0.27251425727467649 0 -0.37648826808451968 -0.27741199289956509 0 -0.37433096522584453 -0.28132989654828328 0 -0.39374553591587069 -0.27251425727467649 0 -0.37598097480723441 -0.26745556380373348 0 -0.38363075469537122 -0.26088114511686322 0 -0.39374553591587069 -0.27251425727467649 0 -0.37598097480723441 -0.26745556380373348 0 -0.37648826808451968 -0.27741199289956509 0 -0.37598097480723441 -0.26745556380373348 0 -0.37648826808451968 -0.27741199289956509 0 -0.37277902062147272 -0.27405557492128901 0 -0.37648826808451968 -0.27741199289956509 0 -0.37433096522584453 -0.28132989654828328 0 -0.38363075469537122 -0.26088114511686322 0 -0.37393540655460039 -0.25504906339868932 0 -0.38258347849844832 -0.24967798674395081 0 -0.37598097480723441 -0.26745556380373348 0 -0.38363075469537122 -0.26088114511686322 0 -0.37393540655460039 -0.25504906339868932 0 -0.38363075469537122 -0.26088114511686322 0 -0.3945867816951415 -0.25828321704239809 0 -0.38258347849844832 -0.24967798674395081 0 -0.3945867816951415 -0.25828321704239809 0 -0.3933004523496676 -0.24484402304582939 0 -0.38258347849844832 -0.24967798674395081 0 -0.39374553591587069 -0.27251425727467649 0 -0.3945867816951415 -0.25828321704239809 0 -0.41316010660589619 -0.2636986180010682 0 -0.3945867816951415 -0.25828321704239809 0 -0.41316010660589619 -0.2636986180010682 0 -0.40847937369743209 -0.24258689873782929 0 -0.39374553591587069 -0.27251425727467649 0 -0.38363075469537122 -0.26088114511686322 0 -0.3945867816951415 -0.25828321704239809 0 -0.41316010660589619 -0.2636986180010682 0 -0.42931567121415071 -0.25028064732030619 0 -0.40847937369743209 -0.24258689873782929 0 -0.41316010660589619 -0.2636986180010682 0 -0.40847937369743209 -0.24258689873782929 0 -0.41899880716149451 -0.29003317060265321 0 -0.41310038927908221 -0.28484217392458988 0 -0.41316010660589619 -0.2636986180010682 0 -0.41310038927908221 -0.28484217392458988 0 -0.40433064532645308 -0.27892106023783952 0 -0.41316010660589619 -0.2636986180010682 0 -0.41899880716149451 -0.29003317060265321 0 -0.41316010660589619 -0.2636986180010682 0 -0.42551969657153998 -0.27199364899169498 0 -0.41899880716149451 -0.29003317060265321 0 -0.41316010660589619 -0.2636986180010682 0 -0.43864273500925549 -0.2751587481676856 0 -0.42551969657153998 -0.27199364899169498 0 -0.43487007995442373 -0.25384069753834382 0 -0.43864273500925549 -0.2751587481676856 0 -0.41899880716149451 -0.29003317060265321 0 -0.42551969657153998 -0.27199364899169498 0 -0.41316010660589619 -0.2636986180010682 0 -0.43487007995442373 -0.25384069753834382 0 -0.41316010660589619 -0.2636986180010682 0 -0.42551969657153998 -0.27199364899169498 0 -0.43487007995442373 -0.25384069753834382 0 -0.41316010660589619 -0.2636986180010682 0 -0.43487007995442373 -0.25384069753834382 0 -0.42931567121415071 -0.25028064732030619 0 -0.32316489217708799 -0.25890650528201359 0 -0.32888695585781391 -0.26910619260742191 0 -0.31032083431566337 -0.26180085087236171 0 -0.32316489217708799 -0.25890650528201359 0 -0.32888695585781391 -0.26910619260742191 0 -0.33131030172746923 -0.25321851497678438 0 -0.32888695585781391 -0.26910619260742191 0 -0.31032083431566337 -0.26180085087236171 0 -0.32316489217708799 -0.25890650528201359 0 -0.33131030172746923 -0.25321851497678438 0 -0.32202724095639168 -0.2495658441092535 0 -0.32316489217708799 -0.25890650528201359 0 -0.31032083431566337 -0.26180085087236171 0 -0.32202724095639168 -0.2495658441092535 0 -0.31032083431566337 -0.26180085087236171 0 -0.32202724095639168 -0.2495658441092535 0 -0.31283906540333922 -0.25031215033235238 0 -0.31032083431566337 -0.26180085087236171 0 -0.32202724095639168 -0.2495658441092535 0 -0.31480478096024378 -0.27564718726691712 0 -0.32888695585781391 -0.26910619260742191 0 -0.31032083431566337 -0.26180085087236171 0 -0.31480478096024378 -0.27564718726691712 0 -0.32888695585781391 -0.26910619260742191 0 -0.32507396769595592 -0.29410449247197662 0 -0.32888695585781391 -0.26910619260742191 0 -0.3381311227387106 -0.26238754928509761 0 -0.34453036853746388 -0.27526151563856671 0 -0.32888695585781391 -0.26910619260742191 0 -0.34453036853746388 -0.27526151563856671 0 -0.33279411355556121 -0.28213246275860349 0 -0.32888695585781391 -0.26910619260742191 0 -0.34453036853746388 -0.27526151563856671 0 -0.34453036853746388 -0.27526151563856671 0 -0.34450588037081892 -0.28462367662190302 0 -0.33279411355556121 -0.28213246275860349 0 -0.32888695585781391 -0.26910619260742191 0 -0.33131030172746923 -0.25321851497678438 0 -0.32888695585781391 -0.26910619260742191 0 -0.3381311227387106 -0.26238754928509761 0 -0.33131030172746923 -0.25321851497678438 0 -0.3381311227387106 -0.26238754928509761 0 -0.34897267059429732 -0.25990550268967838 0 -0.3420777495351906 -0.24844208584564559 0 -0.3381311227387106 -0.26238754928509761 0 -0.33131030172746923 -0.25321851497678438 0 -0.3420777495351906 -0.24844208584564559 0 -0.34897267059429732 -0.25990550268967838 0 -0.35255150303394622 -0.24812522560144931 0 -0.3420777495351906 -0.24844208584564559 0 -0.34897267059429732 -0.25990550268967838 0 -0.35751050643918753 -0.2560897164936603 0 -0.35722060467742811 -0.26762499714769428 0 -0.34897267059429732 -0.25990550268967838 0 -0.35751050643918753 -0.2560897164936603 0 -0.35255150303394622 -0.24812522560144931 0 -0.35751050643918753 -0.2560897164936603 0 -0.363557814049559 -0.2486896754833777 0 -0.35255150303394622 -0.24812522560144931 0 -0.35751050643918753 -0.2560897164936603 0 -0.36561260290989678 -0.26128521942254013 0 -0.363557814049559 -0.2486896754833777 0 -0.35751050643918753 -0.2560897164936603 0 -0.36561260290989678 -0.26128521942254013 0 -0.35722060467742811 -0.26762499714769428 0 -0.37598097480723441 -0.26745556380373348 0 -0.36561260290989678 -0.26128521942254013 0 -0.37393540655460039 -0.25504906339868932 0 -0.36561260290989678 -0.26128521942254013 0 -0.37393540655460039 -0.25504906339868932 0 -0.363557814049559 -0.2486896754833777 0 -0.37277902062147272 -0.27405557492128901 0 -0.36654922363893422 -0.27215591673696138 0 -0.37433096522584453 -0.28132989654828328 0 -0.37648826808451968 -0.27741199289956509 0 -0.37277902062147272 -0.27405557492128901 0 -0.37433096522584453 -0.28132989654828328 0 -0.37598097480723441 -0.26745556380373348 0 -0.37277902062147272 -0.27405557492128901 0 -0.36654922363893422 -0.27215591673696138 0 -0.37598097480723441 -0.26745556380373348 0 -0.36561260290989678 -0.26128521942254013 0 -0.36654922363893422 -0.27215591673696138 0 -0.36561260290989678 -0.26128521942254013 0 -0.36654922363893422 -0.27215591673696138 0 -0.35722060467742811 -0.26762499714769428 0 -0.36654922363893422 -0.27215591673696138 0 -0.35722060467742811 -0.26762499714769428 0 -0.36017378121711419 -0.28141683866971062 0 -0.36654922363893422 -0.27215591673696138 0 -0.36017378121711419 -0.28141683866971062 0 -0.37433096522584453 -0.28132989654828328 0 -0.34453036853746388 -0.27526151563856671 0 -0.36017378121711419 -0.28141683866971062 0 -0.35722060467742811 -0.26762499714769428 0 -0.34453036853746388 -0.27526151563856671 0 -0.36017378121711419 -0.28141683866971062 0 -0.34453036853746388 -0.27526151563856671 0 -0.34450588037081892 -0.28462367662190302 0 -0.36017378121711419 -0.28141683866971062 0 -0.34897267059429732 -0.25990550268967838 0 -0.35722060467742811 -0.26762499714769428 0 -0.34453036853746388 -0.27526151563856671 0 -0.3381311227387106 -0.26238754928509761 0 -0.34897267059429732 -0.25990550268967838 0 -0.34453036853746388 -0.27526151563856671 0 -0.34450588037081892 -0.28462367662190302 0 -0.34891652205724832 -0.29286991805537971 0 -0.36017378121711419 -0.28141683866971062 0 -0.37433096522584453 -0.28132989654828328 0 -0.36105831684996031 -0.30543451277817618 0 -0.34891652205724832 -0.29286991805537971 0 -0.37433096522584453 -0.28132989654828328 0 -0.34891652205724832 -0.29286991805537971 0 -0.36017378121711419 -0.28141683866971062 0 -0.37433096522584453 -0.28132989654828328 0 -0.38351210912712752 -0.30253866195360818 0 -0.37433096522584453 -0.28132989654828328 0 -0.36105831684996031 -0.30543451277817618 0 -0.34891652205724832 -0.29286991805537971 0 -0.37433096522584453 -0.28132989654828328 0 -0.36105831684996031 -0.30543451277817618 0 -0.38351210912712752 -0.30253866195360818 0 -0.36105831684996031 -0.30543451277817618 0 -0.37140736883531977 -0.32183989730859341 0 -0.36105831684996031 -0.30543451277817618 0 -0.3496688877197569 -0.30429177800002122 0 -0.34586440994984541 -0.3145735322147622 0 -0.34891652205724832 -0.29286991805537971 0 -0.36105831684996031 -0.30543451277817618 0 -0.3496688877197569 -0.30429177800002122 0 -0.34891652205724832 -0.29286991805537971 0 -0.3496688877197569 -0.30429177800002122 0 -0.33956299038192078 -0.30735077663143923 0 -0.3496688877197569 -0.30429177800002122 0 -0.33956299038192078 -0.30735077663143923 0 -0.34586440994984541 -0.3145735322147622 0 -0.34891652205724832 -0.29286991805537971 0 -0.33956299038192078 -0.30735077663143923 0 -0.32350207888865212 -0.30440993956247547 0 -0.33956299038192078 -0.30735077663143923 0 -0.3301339810941622 -0.31110503031331638 0 -0.32350207888865212 -0.30440993956247547 0 -0.34891652205724832 -0.29286991805537971 0 -0.32350207888865212 -0.30440993956247547 0 -0.33956299038192078 -0.30735077663143923 0 -0.3301339810941622 -0.31110503031331638 0 -0.33675509785737662 -0.31655799101612769 0 -0.34891652205724832 -0.29286991805537971 0 -0.33611461648670682 -0.29143764798725502 0 -0.32350207888865212 -0.30440993956247547 0 -0.32888695585781391 -0.26910619260742191 0 -0.33279411355556121 -0.28213246275860349 0 -0.32507396769595592 -0.29410449247197662 0 -0.34450588037081892 -0.28462367662190302 0 -0.34891652205724832 -0.29286991805537971 0 -0.33611461648670682 -0.29143764798725502 0 -0.34450588037081892 -0.28462367662190302 0 -0.33611461648670682 -0.29143764798725502 0 -0.33279411355556121 -0.28213246275860349 0 -0.33279411355556121 -0.28213246275860349 0 -0.33070524953878982 -0.29012978506972142 0 -0.32507396769595592 -0.29410449247197662 0 -0.33611461648670682 -0.29143764798725502 0 -0.33279411355556121 -0.28213246275860349 0 -0.33070524953878982 -0.29012978506972142 0 -0.33611461648670682 -0.29143764798725502 0 -0.32742439802278828 -0.29462709162158601 0 -0.32350207888865212 -0.30440993956247547 0 -0.33611461648670682 -0.29143764798725502 0 -0.33070524953878982 -0.29012978506972142 0 -0.32742439802278828 -0.29462709162158601 0 -0.32507396769595592 -0.29410449247197662 0 -0.30234930147786221 -0.28905184696057518 0 -0.32507396769595592 -0.29410449247197662 0 -0.32350207888865212 -0.30440993956247547 0 -0.30234930147786221 -0.28905184696057518 0 -0.31480478096024378 -0.27564718726691712 0 -0.32507396769595592 -0.29410449247197662 0 -0.30234930147786221 -0.28905184696057518 0 -0.32888695585781391 -0.26910619260742191 0 -0.32507396769595592 -0.29410449247197662 0 -0.32507396769595592 -0.29410449247197662 0 -0.32742439802278828 -0.29462709162158601 0 -0.33070524953878982 -0.29012978506972142 0 -0.32507396769595592 -0.29410449247197662 0 -0.32742439802278828 -0.29462709162158601 0 -0.32302725724223008 -0.30752291379569302 0 -0.32350207888865212 -0.30440993956247547 0 -0.2999756881373381 -0.31509264677165549 0 -0.3301339810941622 -0.31110503031331638 0 -0.32302725724223008 -0.30752291379569302 0 -0.32422013968378288 -0.31561436227230438 0 -0.32302725724223008 -0.30752291379569302 0 -0.32350207888865212 -0.30440993956247547 0 -0.3301339810941622 -0.31110503031331638 0 -0.32302725724223008 -0.30752291379569302 0 -0.32350207888865212 -0.30440993956247547 0 -0.32507396769595592 -0.29410449247197662 0 -0.32742439802278828 -0.29462709162158601 0 -0.32350207888865212 -0.30440993956247547 0 -0.32507396769595592 -0.29410449247197662 0 -0.32350207888865212 -0.30440993956247547 0 -0.32302725724223008 -0.30752291379569302 0 -0.31656029902357641 -0.31849097864348519 0 -0.2999756881373381 -0.31509264677165549 0 -0.32265466046617669 -0.32198754646013139 0 -0.33127214989488979 -0.33008610863815152 0 -0.32872450059276898 -0.31896534214889599 0 -0.32265466046617669 -0.32198754646013139 0 -0.31892782856615448 -0.32825501756413727 0 -0.33127214989488979 -0.33008610863815152 0 -0.32265466046617669 -0.32198754646013139 0 -0.32422013968378288 -0.31561436227230438 0 -0.32872450059276898 -0.31896534214889599 0 -0.32302725724223008 -0.30752291379569302 0 -0.32422013968378288 -0.31561436227230438 0 -0.31656029902357641 -0.31849097864348519 0 -0.3301339810941622 -0.31110503031331638 0 -0.32422013968378288 -0.31561436227230438 0 -0.32872450059276898 -0.31896534214889599 0 -0.32265466046617669 -0.32198754646013139 0 -0.32422013968378288 -0.31561436227230438 0 -0.31656029902357641 -0.31849097864348519 0 -0.32265466046617669 -0.32198754646013139 0 -0.31656029902357641 -0.31849097864348519 0 -0.31892782856615448 -0.32825501756413727 0 -0.31656029902357641 -0.31849097864348519 0 -0.31892782856615448 -0.32825501756413727 0 -0.30936258926988919 -0.3261434941065412 0 -0.31892782856615448 -0.32825501756413727 0 -0.31208723605418232 -0.33616024018399832 0 -0.30936258926988919 -0.3261434941065412 0 -0.31892782856615448 -0.32825501756413727 0 -0.32183099473442811 -0.33958013728355868 0 -0.31208723605418232 -0.33616024018399832 0 -0.32183099473442811 -0.33958013728355868 0 -0.31234840654553953 -0.34764506024843322 0 -0.31208723605418232 -0.33616024018399832 0 -0.31892782856615448 -0.32825501756413727 0 -0.32183099473442811 -0.33958013728355868 0 -0.33127214989488979 -0.33008610863815152 0 -0.33127214989488979 -0.33008610863815152 0 -0.34778566847407638 -0.32953912900806931 0 -0.33412452318830171 -0.35434929914508079 0 -0.32183099473442811 -0.33958013728355868 0 -0.33127214989488979 -0.33008610863815152 0 -0.33412452318830171 -0.35434929914508079 0 -0.34778566847407638 -0.32953912900806931 0 -0.33412452318830171 -0.35434929914508079 0 -0.33127214989488979 -0.33008610863815152 0 -0.34035549841598117 -0.32426700585474 0 -0.34778566847407638 -0.32953912900806931 0 -0.34035549841598117 -0.32426700585474 0 -0.33427681169025408 -0.32246911191447869 0 -0.33675509785737662 -0.31655799101612769 0 -0.33127214989488979 -0.33008610863815152 0 -0.34035549841598117 -0.32426700585474 0 -0.33427681169025408 -0.32246911191447869 0 -0.33127214989488979 -0.33008610863815152 0 -0.33427681169025408 -0.32246911191447869 0 -0.32872450059276898 -0.31896534214889599 0 -0.33427681169025408 -0.32246911191447869 0 -0.32872450059276898 -0.31896534214889599 0 -0.33675509785737662 -0.31655799101612769 0 -0.3301339810941622 -0.31110503031331638 0 -0.32872450059276898 -0.31896534214889599 0 -0.33675509785737662 -0.31655799101612769 0 -0.33956299038192078 -0.30735077663143923 0 -0.33675509785737662 -0.31655799101612769 0 -0.34586440994984541 -0.3145735322147622 0 -0.34035549841598117 -0.32426700585474 0 -0.33675509785737662 -0.31655799101612769 0 -0.34586440994984541 -0.3145735322147622 0 -0.36105831684996031 -0.30543451277817618 0 -0.34778566847407638 -0.32953912900806931 0 -0.36105831684996031 -0.30543451277817618 0 -0.34586440994984541 -0.3145735322147622 0 -0.34778566847407638 -0.32953912900806931 0 -0.34035549841598117 -0.32426700585474 0 -0.34586440994984541 -0.3145735322147622 0 -0.34778566847407638 -0.32953912900806931 0 -0.34035549841598117 -0.32426700585474 0 -0.34778566847407638 -0.32953912900806931 0 -0.36105831684996031 -0.30543451277817618 0 -0.37140736883531977 -0.32183989730859341 0 -0.34778566847407638 -0.32953912900806931 0 -0.38006824781918919 -0.33243312042550199 0 -0.37140736883531977 -0.32183989730859341 0 -0.36666079927166728 -0.34293209489202431 0 -0.37140736883531977 -0.32183989730859341 0 -0.36666079927166728 -0.34293209489202431 0 -0.34778566847407638 -0.32953912900806931 0 -0.34778566847407638 -0.32953912900806931 0 -0.35170181166344461 -0.34709871950800919 0 -0.33412452318830171 -0.35434929914508079 0 -0.36666079927166728 -0.34293209489202431 0 -0.34778566847407638 -0.32953912900806931 0 -0.36666079927166728 -0.34293209489202431 0 -0.34778566847407638 -0.32953912900806931 0 -0.35170181166344461 -0.34709871950800919 0 -0.36666079927166728 -0.34293209489202431 0 -0.35170181166344461 -0.34709871950800919 0 -0.35823625571973289 -0.36157435498686258 0 -0.35170181166344461 -0.34709871950800919 0 -0.35823625571973289 -0.36157435498686258 0 -0.33412452318830171 -0.35434929914508079 0 -0.38553593006925752 -0.3563250607759802 0 -0.36666079927166728 -0.34293209489202431 0 -0.35823625571973289 -0.36157435498686258 0 -0.37549160074202448 -0.3732971907138336 0 -0.38553593006925752 -0.3563250607759802 0 -0.35823625571973289 -0.36157435498686258 0 -0.37549160074202448 -0.3732971907138336 0 -0.35823625571973289 -0.36157435498686258 0 -0.35302350150803719 -0.38208755235937009 0 -0.35823625571973289 -0.36157435498686258 0 -0.34413293857164062 -0.37054757780120701 0 -0.35302350150803719 -0.38208755235937009 0 -0.35823625571973289 -0.36157435498686258 0 -0.34413293857164062 -0.37054757780120701 0 -0.33412452318830171 -0.35434929914508079 0 -0.34413293857164062 -0.37054757780120701 0 -0.33412452318830171 -0.35434929914508079 0 -0.33519042443293379 -0.3802220457599616 0 -0.33412452318830171 -0.35434929914508079 0 -0.33519042443293379 -0.3802220457599616 0 -0.32046337790252549 -0.37915946928209171 0 -0.32183099473442811 -0.33958013728355868 0 -0.33412452318830171 -0.35434929914508079 0 -0.31234840654553953 -0.34764506024843322 0 -0.33412452318830171 -0.35434929914508079 0 -0.316806384823896 -0.36257585725837499 0 -0.31234840654553953 -0.34764506024843322 0 -0.316806384823896 -0.36257585725837499 0 -0.3002892316592175 -0.36914960035789463 0 -0.32046337790252549 -0.37915946928209171 0 -0.33412452318830171 -0.35434929914508079 0 -0.316806384823896 -0.36257585725837499 0 -0.32046337790252549 -0.37915946928209171 0 -0.33412452318830171 -0.35434929914508079 0 -0.32046337790252549 -0.37915946928209171 0 -0.3002892316592175 -0.36914960035789463 0 -0.32046337790252549 -0.37915946928209171 0 -0.3002892316592175 -0.36914960035789463 0 -0.31234840654553953 -0.34764506024843322 0 -0.29527517448125451 -0.36666176000398298 0 -0.316806384823896 -0.36257585725837499 0 -0.3002892316592175 -0.36914960035789463 0 -0.31234840654553953 -0.34764506024843322 0 -0.3002892316592175 -0.36914960035789463 0 -0.29527517448125451 -0.36666176000398298 0 -0.3002892316592175 -0.36914960035789463 0 -0.29403121103535113 -0.38030922419454549 0 -0.31234840654553953 -0.34764506024843322 0 -0.29527517448125451 -0.36666176000398298 0 -0.2976254313092957 -0.34087720338781918 0 -0.3002892316592175 -0.36914960035789463 0 -0.31234840654553953 -0.34764506024843322 0 -0.29527517448125451 -0.36666176000398298 0 -0.26926364122666091 -0.35375553660024128 0 -0.28048823453243299 -0.34080574413418752 0 -0.29527517448125451 -0.36666176000398298 0 -0.2976254313092957 -0.34087720338781918 0 -0.29527517448125451 -0.36666176000398298 0 -0.28048823453243299 -0.34080574413418752 0 -0.2976254313092957 -0.34087720338781918 0 -0.29527517448125451 -0.36666176000398298 0 -0.26926364122666091 -0.35375553660024128 0 -0.29527517448125451 -0.36666176000398298 0 -0.27994264201103719 -0.36323993691456841 0 -0.26926364122666091 -0.35375553660024128 0 -0.29527517448125451 -0.36666176000398298 0 -0.28588261091775702 -0.37268605543787447 0 -0.29403121103535113 -0.38030922419454549 0 -0.29527517448125451 -0.36666176000398298 0 -0.29403121103535113 -0.38030922419454549 0 -0.3002892316592175 -0.36914960035789463 0 -0.29527517448125451 -0.36666176000398298 0 -0.29403121103535113 -0.38030922419454549 0 -0.29527517448125451 -0.36666176000398298 0 -0.28588261091775702 -0.37268605543787447 0 -0.27994264201103719 -0.36323993691456841 0 -0.28588261091775702 -0.37268605543787447 0 -0.27994264201103719 -0.36323993691456841 0 -0.2742629371717063 -0.37916463673385931 0 -0.27994264201103719 -0.36323993691456841 0 -0.26568404082974961 -0.36651666061706623 0 -0.2742629371717063 -0.37916463673385931 0 -0.27994264201103719 -0.36323993691456841 0 -0.26568404082974961 -0.36651666061706623 0 -0.26017799311385281 -0.35268912854855933 0 -0.26568404082974961 -0.36651666061706623 0 -0.25909124390184018 -0.37475905286733341 0 -0.2742629371717063 -0.37916463673385931 0 -0.26568404082974961 -0.36651666061706623 0 -0.25909124390184018 -0.37475905286733341 0 -0.25494538795031141 -0.36273054802101118 0 -0.26568404082974961 -0.36651666061706623 0 -0.25494538795031141 -0.36273054802101118 0 -0.26017799311385281 -0.35268912854855933 0 -0.25909124390184018 -0.37475905286733341 0 -0.25494538795031141 -0.36273054802101118 0 -0.24748772700216881 -0.3717564301773445 0 -0.26017799311385281 -0.35268912854855933 0 -0.2404133442166683 -0.34213832018255058 0 -0.26926364122666091 -0.35375553660024128 0 -0.24325210797206609 -0.34084931319650169 0 -0.26017799311385281 -0.35268912854855933 0 -0.26926364122666091 -0.35375553660024128 0 -0.24325210797206609 -0.34084931319650169 0 -0.25494538795031141 -0.36273054802101118 0 -0.26017799311385281 -0.35268912854855933 0 -0.24808760514302669 -0.3536558827211943 0 -0.27994264201103719 -0.36323993691456841 0 -0.26017799311385281 -0.35268912854855933 0 -0.27994264201103719 -0.36323993691456841 0 -0.26017799311385281 -0.35268912854855933 0 -0.26926364122666091 -0.35375553660024128 0 -0.28048823453243299 -0.34080574413418752 0 -0.2621599680271573 -0.33226375772155409 0 -0.28106782808224812 -0.3236782022466056 0 -0.26926364122666091 -0.35375553660024128 0 -0.28048823453243299 -0.34080574413418752 0 -0.2621599680271573 -0.33226375772155409 0 -0.2621599680271573 -0.33226375772155409 0 -0.24518994726652291 -0.33234415230164399 0 -0.24308922262768951 -0.32099342612622928 0 -0.2621599680271573 -0.33226375772155409 0 -0.24325210797206609 -0.34084931319650169 0 -0.24518994726652291 -0.33234415230164399 0 -0.2621599680271573 -0.33226375772155409 0 -0.24325210797206609 -0.34084931319650169 0 -0.26926364122666091 -0.35375553660024128 0 -0.2621599680271573 -0.33226375772155409 0 -0.24325210797206609 -0.34084931319650169 0 -0.2621599680271573 -0.33226375772155409 0 -0.25915672867891859 -0.31415112243359272 0 -0.24308922262768951 -0.32099342612622928 0 -0.2621599680271573 -0.33226375772155409 0 -0.28106782808224812 -0.3236782022466056 0 -0.25915672867891859 -0.31415112243359272 0 -0.28106782808224812 -0.3236782022466056 0 -0.2709678639136075 -0.30238435136382452 0 -0.2621599680271573 -0.33226375772155409 0 -0.25915672867891859 -0.31415112243359272 0 -0.28106782808224812 -0.3236782022466056 0 -0.28106782808224812 -0.3236782022466056 0 -0.2999756881373381 -0.31509264677165549 0 -0.28453315598845252 -0.30841843357299598 0 -0.28106782808224812 -0.3236782022466056 0 -0.2976254313092957 -0.34087720338781918 0 -0.2999756881373381 -0.31509264677165549 0 -0.28106782808224812 -0.3236782022466056 0 -0.2999756881373381 -0.31509264677165549 0 -0.28048823453243299 -0.34080574413418752 0 -0.28106782808224812 -0.3236782022466056 0 -0.2976254313092957 -0.34087720338781918 0 -0.31234840654553953 -0.34764506024843322 0 -0.2976254313092957 -0.34087720338781918 0 -0.31208723605418232 -0.33616024018399832 0 -0.2976254313092957 -0.34087720338781918 0 -0.31208723605418232 -0.33616024018399832 0 -0.30936258926988919 -0.3261434941065412 0 -0.2976254313092957 -0.34087720338781918 0 -0.2999756881373381 -0.31509264677165549 0 -0.2976254313092957 -0.34087720338781918 0 -0.30936258926988919 -0.3261434941065412 0 -0.2999756881373381 -0.31509264677165549 0 -0.31656029902357641 -0.31849097864348519 0 -0.30936258926988919 -0.3261434941065412 0 -0.2999756881373381 -0.31509264677165549 0 -0.32350207888865212 -0.30440993956247547 0 -0.2999756881373381 -0.31509264677165549 0 -0.30234930147786221 -0.28905184696057518 0 -0.2999756881373381 -0.31509264677165549 0 -0.30234930147786221 -0.28905184696057518 0 -0.2999756881373381 -0.31509264677165549 0 -0.30234930147786221 -0.28905184696057518 0 -0.29239547880504652 -0.30127313523009702 0 -0.32350207888865212 -0.30440993956247547 0 -0.2999756881373381 -0.31509264677165549 0 -0.30234930147786221 -0.28905184696057518 0 -0.29006270545698909 -0.29189763306700739 0 -0.29239547880504652 -0.30127313523009702 0 -0.30234930147786221 -0.28905184696057518 0 -0.29006270545698909 -0.29189763306700739 0 -0.28742262680475061 -0.28573302172180548 0 -0.30234930147786221 -0.28905184696057518 0 -0.28742262680475061 -0.28573302172180548 0 -0.29006270545698909 -0.29189763306700739 0 -0.28742262680475061 -0.28573302172180548 0 -0.28158089536532038 -0.29680102193740848 0 -0.29006270545698909 -0.29189763306700739 0 -0.28158089536532038 -0.29680102193740848 0 -0.29239547880504652 -0.30127313523009702 0 -0.28158089536532038 -0.29680102193740848 0 -0.29239547880504652 -0.30127313523009702 0 -0.28453315598845252 -0.30841843357299598 0 -0.2999756881373381 -0.31509264677165549 0 -0.29239547880504652 -0.30127313523009702 0 -0.28453315598845252 -0.30841843357299598 0 -0.28106782808224812 -0.3236782022466056 0 -0.28453315598845252 -0.30841843357299598 0 -0.2709678639136075 -0.30238435136382452 0 -0.28158089536532038 -0.29680102193740848 0 -0.28453315598845252 -0.30841843357299598 0 -0.2709678639136075 -0.30238435136382452 0 -0.25915672867891859 -0.31415112243359272 0 -0.25718459078837252 -0.29759752524363881 0 -0.24047089863443691 -0.30798947189970438 0 -0.25915672867891859 -0.31415112243359272 0 -0.2709678639136075 -0.30238435136382452 0 -0.25718459078837252 -0.29759752524363881 0 -0.25718459078837252 -0.29759752524363881 0 -0.25108388684634803 -0.28956965662021522 0 -0.26792751193251091 -0.28139844079955562 0 -0.25108388684634803 -0.28956965662021522 0 -0.26792751193251091 -0.28139844079955562 0 -0.2484323970602714 -0.27706385987730509 0 -0.2709678639136075 -0.30238435136382452 0 -0.25718459078837252 -0.29759752524363881 0 -0.26792751193251091 -0.28139844079955562 0 -0.28742262680475061 -0.28573302172180548 0 -0.26792751193251091 -0.28139844079955562 0 -0.28158089536532038 -0.29680102193740848 0 -0.2709678639136075 -0.30238435136382452 0 -0.26792751193251091 -0.28139844079955562 0 -0.28742262680475061 -0.28573302172180548 0 -0.28158089536532038 -0.29680102193740848 0 -0.26792751193251091 -0.28139844079955562 0 -0.26792751193251091 -0.28139844079955562 0 -0.27965676560653041 -0.27550351800418249 0 -0.27506057922854799 -0.26523935036500679 0 -0.28742262680475061 -0.28573302172180548 0 -0.26792751193251091 -0.28139844079955562 0 -0.27965676560653041 -0.27550351800418249 0 -0.26792751193251091 -0.28139844079955562 0 -0.26170023695288303 -0.26848976391570201 0 -0.27506057922854799 -0.26523935036500679 0 -0.27965676560653041 -0.27550351800418249 0 -0.27506057922854799 -0.26523935036500679 0 -0.28821634446031208 -0.2696432591303618 0 -0.26792751193251091 -0.28139844079955562 0 -0.2484323970602714 -0.27706385987730509 0 -0.26792751193251091 -0.28139844079955562 0 -0.26170023695288303 -0.26848976391570201 0 -0.2484323970602714 -0.27706385987730509 0 -0.26170023695288303 -0.26848976391570201 0 -0.25309751137434572 -0.26289123234143091 0 -0.2484323970602714 -0.27706385987730509 0 -0.2565674865322034 -0.25340195958415102 0 -0.26524553468775469 -0.25886506807255583 0 -0.27383001930629169 -0.24744255459442921 0 -0.2565674865322034 -0.25340195958415102 0 -0.27383001930629169 -0.24744255459442921 0 -0.2565674865322034 -0.25340195958415102 0 -0.25309751137434572 -0.26289123234143091 0 -0.24233717299785959 -0.25960849866204011 0 -0.2565674865322034 -0.25340195958415102 0 -0.25309751137434572 -0.26289123234143091 0 -0.26524553468775469 -0.25886506807255583 0 -0.26170023695288303 -0.26848976391570201 0 -0.25309751137434572 -0.26289123234143091 0 -0.26524553468775469 -0.25886506807255583 0 -0.27506057922854799 -0.26523935036500679 0 -0.28942662192718172 -0.25357945894426132 0 -0.27383001930629169 -0.24744255459442921 0 -0.26524553468775469 -0.25886506807255583 0 -0.27506057922854799 -0.26523935036500679 0 -0.27383001930629169 -0.24744255459442921 0 -0.26170023695288303 -0.26848976391570201 0 -0.26524553468775469 -0.25886506807255583 0 -0.27506057922854799 -0.26523935036500679 0 -0.28942662192718172 -0.25357945894426132 0 -0.29569431645386429 -0.26311293363000732 0 -0.28821634446031208 -0.2696432591303618 0 -0.28942662192718172 -0.25357945894426132 0 -0.27383001930629169 -0.24744255459442921 0 -0.27506057922854799 -0.26523935036500679 0 -0.28942662192718172 -0.25357945894426132 0 -0.28821634446031208 -0.2696432591303618 0 -0.28942662192718172 -0.25357945894426132 0 -0.29569431645386429 -0.26311293363000732 0 -0.30502322454807101 -0.25971636329409542 0 -0.29569431645386429 -0.26311293363000732 0 -0.28821634446031208 -0.2696432591303618 0 -0.30425539613548452 -0.26814017253042433 0 -0.28742262680475061 -0.28573302172180548 0 -0.27965676560653041 -0.27550351800418249 0 -0.28821634446031208 -0.2696432591303618 0 -0.28742262680475061 -0.28573302172180548 0 -0.28821634446031208 -0.2696432591303618 0 -0.30425539613548452 -0.26814017253042433 0 -0.28742262680475061 -0.28573302172180548 0 -0.30425539613548452 -0.26814017253042433 0 -0.31480478096024378 -0.27564718726691712 0 -0.30234930147786221 -0.28905184696057518 0 -0.30425539613548452 -0.26814017253042433 0 -0.30234930147786221 -0.28905184696057518 0 -0.30425539613548452 -0.26814017253042433 0 -0.30234930147786221 -0.28905184696057518 0 -0.28742262680475061 -0.28573302172180548 0 -0.30425539613548452 -0.26814017253042433 0 -0.31480478096024378 -0.27564718726691712 0 -0.30425539613548452 -0.26814017253042433 0 -0.31032083431566337 -0.26180085087236171 0 -0.30425539613548452 -0.26814017253042433 0 -0.31032083431566337 -0.26180085087236171 0 -0.30502322454807101 -0.25971636329409542 0 -0.28942662192718172 -0.25357945894426132 0 -0.30538593138510828 -0.25573712372202267 0 -0.29948497002523827 -0.2483657822867901 0 -0.28942662192718172 -0.25357945894426132 0 -0.30502322454807101 -0.25971636329409542 0 -0.30538593138510828 -0.25573712372202267 0 -0.30425539613548452 -0.26814017253042433 0 -0.31032083431566337 -0.26180085087236171 0 -0.31032083431566337 -0.26180085087236171 0 -0.30502322454807101 -0.25971636329409542 0 -0.31032083431566337 -0.26180085087236171 0 -0.30502322454807101 -0.25971636329409542 0 -0.30538593138510828 -0.25573712372202267 0 -0.31283906540333922 -0.25031215033235238 0 -0.31032083431566337 -0.26180085087236171 0 -0.30538593138510828 -0.25573712372202267 0 -0.31283906540333922 -0.25031215033235238 0 -0.30538593138510828 -0.25573712372202267 0 -0.30623861516307299 -0.24935013043731349 0 -0.30502322454807101 -0.25971636329409542 0 -0.30538593138510828 -0.25573712372202267 0 -0.28942662192718172 -0.25357945894426132 0 -0.30502322454807101 -0.25971636329409542 0 -0.30538593138510828 -0.25573712372202267 0 -0.29948497002523827 -0.2483657822867901 0 -0.30623861516307299 -0.24935013043731349 0 -0.30425539613548452 -0.26814017253042433 0 -0.30502322454807101 -0.25971636329409542 0 -0.29569431645386429 -0.26311293363000732 0 -0.30425539613548452 -0.26814017253042433 0 -0.30502322454807101 -0.25971636329409542 0 -0.33143192801526428 -0.45396038638140679 0 -0.33152258580119082 -0.46633970128806979 0 -0.34296165509457921 -0.45730971557378147 0 -0.34069406563311189 -0.44566521365826578 0 -0.32492704317595772 -0.44077768091168912 0 -0.33812272201467081 -0.43047089330918592 0 -0.33143192801526428 -0.45396038638140679 0 -0.34069406563311189 -0.44566521365826578 0 -0.32492704317595772 -0.44077768091168912 0 -0.33143192801526428 -0.45396038638140679 0 -0.34296165509457921 -0.45730971557378147 0 -0.34069406563311189 -0.44566521365826578 0 -0.33143192801526428 -0.45396038638140679 0 -0.32492704317595772 -0.44077768091168912 0 -0.31987457796333868 -0.4551426725204325 0 -0.32492704317595772 -0.44077768091168912 0 -0.31987457796333868 -0.4551426725204325 0 -0.31015853372433788 -0.44544301337781073 0 -0.33152258580119082 -0.46633970128806979 0 -0.30592196819360068 -0.46328971004504182 0 -0.33152258580119082 -0.46633970128806979 0 -0.31987457796333868 -0.4551426725204325 0 -0.30592196819360068 -0.46328971004504182 0 -0.33152258580119082 -0.46633970128806979 0 -0.32094261384274558 -0.46854088973335889 0 -0.30592196819360068 -0.46328971004504182 0 -0.33143192801526428 -0.45396038638140679 0 -0.33152258580119082 -0.46633970128806979 0 -0.31987457796333868 -0.4551426725204325 0 -0.33152258580119082 -0.46633970128806979 0 -0.32094261384274558 -0.46854088973335889 0 -0.32966732857214198 -0.4835879285261328 0 -0.32094261384274558 -0.46854088973335889 0 -0.32966732857214198 -0.4835879285261328 0 -0.31208929727375578 -0.48491526738579699 0 -0.32221211863154181 -0.5 0 -0.32966732857214198 -0.4835879285261328 0 -0.31208929727375578 -0.48491526738579699 0 -0.32221211863154181 -0.5 0 -0.32966732857214198 -0.4835879285261328 0 -0.34860848031248309 -0.5 0 -0.32966732857214198 -0.4835879285261328 0 -0.34707385437868848 -0.48052394199199022 0 -0.34860848031248309 -0.5 0 -0.33152258580119082 -0.46633970128806979 0 -0.32966732857214198 -0.4835879285261328 0 -0.34707385437868848 -0.48052394199199022 0 -0.33152258580119082 -0.46633970128806979 0 -0.3571232034087809 -0.46938969253109791 0 -0.34707385437868848 -0.48052394199199022 0 -0.3571232034087809 -0.46938969253109791 0 -0.34707385437868848 -0.48052394199199022 0 -0.36652141413456929 -0.48474993749143802 0 -0.34707385437868848 -0.48052394199199022 0 -0.34860848031248309 -0.5 0 -0.36652141413456929 -0.48474993749143802 0 -0.37500484199342449 -0.5 0 -0.34860848031248309 -0.5 0 -0.36652141413456929 -0.48474993749143802 0 -0.38272382101637098 -0.47243968377412587 0 -0.3571232034087809 -0.46938969253109791 0 -0.36652141413456929 -0.48474993749143802 0 -0.38272382101637098 -0.47243968377412587 0 -0.3571232034087809 -0.46938969253109791 0 -0.38265619596279349 -0.45813348326120767 0 -0.38272382101637098 -0.47243968377412587 0 -0.3571232034087809 -0.46938969253109791 0 -0.38265619596279349 -0.45813348326120767 0 -0.3571232034087809 -0.46938969253109791 0 -0.35544663641047641 -0.4489101100326689 0 -0.38265619596279349 -0.45813348326120767 0 -0.35544663641047641 -0.4489101100326689 0 -0.34296165509457921 -0.45730971557378147 0 -0.3571232034087809 -0.46938969253109791 0 -0.35544663641047641 -0.4489101100326689 0 -0.33152258580119082 -0.46633970128806979 0 -0.3571232034087809 -0.46938969253109791 0 -0.33152258580119082 -0.46633970128806979 0 -0.34296165509457921 -0.45730971557378147 0 -0.3571232034087809 -0.46938969253109791 0 -0.34069406563311189 -0.44566521365826578 0 -0.35544663641047641 -0.4489101100326689 0 -0.35372302635176472 -0.43532257313283612 0 -0.34296165509457921 -0.45730971557378147 0 -0.34069406563311189 -0.44566521365826578 0 -0.35544663641047641 -0.4489101100326689 0 -0.35544663641047641 -0.4489101100326689 0 -0.3723601590800425 -0.44005613486137668 0 -0.35372302635176472 -0.43532257313283612 0 -0.38265619596279349 -0.45813348326120767 0 -0.35544663641047641 -0.4489101100326689 0 -0.3723601590800425 -0.44005613486137668 0 -0.38028594703985957 -0.42392304976487449 0 -0.3723601590800425 -0.44005613486137668 0 -0.36423780173753523 -0.4264797532188066 0 -0.3723601590800425 -0.44005613486137668 0 -0.36423780173753523 -0.4264797532188066 0 -0.35372302635176472 -0.43532257313283612 0 -0.38028594703985957 -0.42392304976487449 0 -0.36423780173753523 -0.4264797532188066 0 -0.36590226101420908 -0.41270082520662749 0 -0.36423780173753523 -0.4264797532188066 0 -0.36590226101420908 -0.41270082520662749 0 -0.35147677323475168 -0.42035333371671318 0 -0.36590226101420908 -0.41270082520662749 0 -0.35147677323475168 -0.42035333371671318 0 -0.35184044830027089 -0.40346733636007898 0 -0.35147677323475168 -0.42035333371671318 0 -0.35184044830027089 -0.40346733636007898 0 -0.33675831632547681 -0.41105613646481343 0 -0.35147677323475168 -0.42035333371671318 0 -0.35372302635176472 -0.43532257313283612 0 -0.33812272201467081 -0.43047089330918592 0 -0.34069406563311189 -0.44566521365826578 0 -0.35372302635176472 -0.43532257313283612 0 -0.33812272201467081 -0.43047089330918592 0 -0.36423780173753523 -0.4264797532188066 0 -0.35147677323475168 -0.42035333371671318 0 -0.35372302635176472 -0.43532257313283612 0 -0.37549160074202448 -0.3732971907138336 0 -0.36544727141479139 -0.39026932065168712 0 -0.37549160074202448 -0.3732971907138336 0 -0.36544727141479139 -0.39026932065168712 0 -0.35302350150803719 -0.38208755235937009 0 -0.36590226101420908 -0.41270082520662749 0 -0.36544727141479139 -0.39026932065168712 0 -0.35184044830027089 -0.40346733636007898 0 -0.38114412328536468 -0.40833987260765031 0 -0.36590226101420908 -0.41270082520662749 0 -0.36544727141479139 -0.39026932065168712 0 -0.35184044830027089 -0.40346733636007898 0 -0.35302350150803719 -0.38208755235937009 0 -0.34082557137486691 -0.39523504024196021 0 -0.36544727141479139 -0.39026932065168712 0 -0.35184044830027089 -0.40346733636007898 0 -0.35302350150803719 -0.38208755235937009 0 -0.34413293857164062 -0.37054757780120701 0 -0.35302350150803719 -0.38208755235937009 0 -0.33519042443293379 -0.3802220457599616 0 -0.35302350150803719 -0.38208755235937009 0 -0.33519042443293379 -0.3802220457599616 0 -0.34082557137486691 -0.39523504024196021 0 -0.33519042443293379 -0.3802220457599616 0 -0.32808226850220168 -0.39240284671641351 0 -0.3247168406287716 -0.38559411673624039 0 -0.33519042443293379 -0.3802220457599616 0 -0.34082557137486691 -0.39523504024196021 0 -0.32808226850220168 -0.39240284671641351 0 -0.34082557137486691 -0.39523504024196021 0 -0.32808226850220168 -0.39240284671641351 0 -0.33675831632547681 -0.41105613646481343 0 -0.32808226850220168 -0.39240284671641351 0 -0.33675831632547681 -0.41105613646481343 0 -0.3206477944579052 -0.41019310838576051 0 -0.35184044830027089 -0.40346733636007898 0 -0.34082557137486691 -0.39523504024196021 0 -0.33675831632547681 -0.41105613646481343 0 -0.32808226850220168 -0.39240284671641351 0 -0.31437491003333667 -0.39021680895226152 0 -0.3206477944579052 -0.41019310838576051 0 -0.32808226850220168 -0.39240284671641351 0 -0.3247168406287716 -0.38559411673624039 0 -0.31437491003333667 -0.39021680895226152 0 -0.31437491003333667 -0.39021680895226152 0 -0.32046337790252549 -0.37915946928209171 0 -0.30588070030683939 -0.38181824174751872 0 -0.3247168406287716 -0.38559411673624039 0 -0.31437491003333667 -0.39021680895226152 0 -0.32046337790252549 -0.37915946928209171 0 -0.31437491003333667 -0.39021680895226152 0 -0.32046337790252549 -0.37915946928209171 0 -0.33519042443293379 -0.3802220457599616 0 -0.3247168406287716 -0.38559411673624039 0 -0.32046337790252549 -0.37915946928209171 0 -0.32492704317595772 -0.44077768091168912 0 -0.33812272201467081 -0.43047089330918592 0 -0.32670905357880831 -0.42305010768611329 0 -0.35147677323475168 -0.42035333371671318 0 -0.33812272201467081 -0.43047089330918592 0 -0.33675831632547681 -0.41105613646481343 0 -0.33812272201467081 -0.43047089330918592 0 -0.33675831632547681 -0.41105613646481343 0 -0.32670905357880831 -0.42305010768611329 0 -0.33675831632547681 -0.41105613646481343 0 -0.3206477944579052 -0.41019310838576051 0 -0.32670905357880831 -0.42305010768611329 0 -0.3206477944579052 -0.41019310838576051 0 -0.31307232924124478 -0.42559811140412351 0 -0.32670905357880831 -0.42305010768611329 0 -0.32492704317595772 -0.44077768091168912 0 -0.31307232924124478 -0.42559811140412351 0 -0.31015853372433788 -0.44544301337781073 0 -0.32492704317595772 -0.44077768091168912 0 -0.31307232924124478 -0.42559811140412351 0 -0.32670905357880831 -0.42305010768611329 0 -0.31307232924124478 -0.42559811140412351 0 -0.29907098912325059 -0.43374406761790368 0 -0.29851577765410048 -0.41098608612968202 0 -0.31307232924124478 -0.42559811140412351 0 -0.29907098912325059 -0.43374406761790368 0 -0.31015853372433788 -0.44544301337781073 0 -0.3206477944579052 -0.41019310838576051 0 -0.31307232924124478 -0.42559811140412351 0 -0.29851577765410048 -0.41098608612968202 0 -0.3206477944579052 -0.41019310838576051 0 -0.29851577765410048 -0.41098608612968202 0 -0.29851577765410048 -0.41098608612968202 0 -0.27638376085029581 -0.41177906387360241 0 -0.29851577765410048 -0.41098608612968202 0 -0.28520748594282241 -0.3960441440340734 0 -0.27638376085029581 -0.41177906387360241 0 -0.29851577765410048 -0.41098608612968202 0 -0.28540276919059199 -0.42535658303670731 0 -0.27638376085029581 -0.41177906387360241 0 -0.29907098912325059 -0.43374406761790368 0 -0.29851577765410048 -0.41098608612968202 0 -0.28540276919059199 -0.42535658303670731 0 -0.28540276919059199 -0.42535658303670731 0 -0.27848929033898201 -0.43669604725877897 0 -0.28902284908971709 -0.44016681433255572 0 -0.29907098912325059 -0.43374406761790368 0 -0.28540276919059199 -0.42535658303670731 0 -0.28902284908971709 -0.44016681433255572 0 -0.3002892316592175 -0.36914960035789463 0 -0.32046337790252549 -0.37915946928209171 0 -0.30588070030683939 -0.38181824174751872 0 -0.3002892316592175 -0.36914960035789463 0 -0.29819443980788141 -0.38001079285233907 0 -0.30588070030683939 -0.38181824174751872 0 -0.3002892316592175 -0.36914960035789463 0 -0.29819443980788141 -0.38001079285233907 0 -0.29403121103535113 -0.38030922419454549 0 -0.31437491003333667 -0.39021680895226152 0 -0.30588070030683939 -0.38181824174751872 0 -0.30232780815510779 -0.39560758766926629 0 -0.29819443980788141 -0.38001079285233907 0 -0.30588070030683939 -0.38181824174751872 0 -0.29681739610749358 -0.387616864260033 0 -0.30588070030683939 -0.38181824174751872 0 -0.30232780815510779 -0.39560758766926629 0 -0.29681739610749358 -0.387616864260033 0 -0.31437491003333667 -0.39021680895226152 0 -0.3206477944579052 -0.41019310838576051 0 -0.30232780815510779 -0.39560758766926629 0 -0.3206477944579052 -0.41019310838576051 0 -0.29851577765410048 -0.41098608612968202 0 -0.30232780815510779 -0.39560758766926629 0 -0.30232780815510779 -0.39560758766926629 0 -0.28520748594282241 -0.3960441440340734 0 -0.29681739610749358 -0.387616864260033 0 -0.29851577765410048 -0.41098608612968202 0 -0.30232780815510779 -0.39560758766926629 0 -0.28520748594282241 -0.3960441440340734 0 -0.28520748594282241 -0.3960441440340734 0 -0.28484606126690931 -0.38205101510008821 0 -0.29403121103535113 -0.38030922419454549 0 -0.28520748594282241 -0.3960441440340734 0 -0.29403121103535113 -0.38030922419454549 0 -0.28520748594282241 -0.3960441440340734 0 -0.29681739610749358 -0.387616864260033 0 -0.29403121103535113 -0.38030922419454549 0 -0.28520748594282241 -0.3960441440340734 0 -0.28484606126690931 -0.38205101510008821 0 -0.2742629371717063 -0.37916463673385931 0 -0.28588261091775702 -0.37268605543787447 0 -0.28484606126690931 -0.38205101510008821 0 -0.2742629371717063 -0.37916463673385931 0 -0.28588261091775702 -0.37268605543787447 0 -0.28484606126690931 -0.38205101510008821 0 -0.29403121103535113 -0.38030922419454549 0 -0.29819443980788141 -0.38001079285233907 0 -0.29681739610749358 -0.387616864260033 0 -0.29403121103535113 -0.38030922419454549 0 -0.28520748594282241 -0.3960441440340734 0 -0.2742629371717063 -0.37916463673385931 0 -0.26755910350718881 -0.39582792531461569 0 -0.2742629371717063 -0.37916463673385931 0 -0.26755910350718881 -0.39582792531461569 0 -0.26281209396899169 -0.38517470131063508 0 -0.28520748594282241 -0.3960441440340734 0 -0.27638376085029581 -0.41177906387360241 0 -0.28520748594282241 -0.3960441440340734 0 -0.26755910350718881 -0.39582792531461569 0 -0.27638376085029581 -0.41177906387360241 0 -0.26755910350718881 -0.39582792531461569 0 -0.25033509129523179 -0.39094719032673231 0 -0.25487024651921952 -0.41254988102096568 0 -0.26755910350718881 -0.39582792531461569 0 -0.25033509129523179 -0.39094719032673231 0 -0.26281209396899169 -0.38517470131063508 0 -0.25909124390184018 -0.37475905286733341 0 -0.25033509129523179 -0.39094719032673231 0 -0.26281209396899169 -0.38517470131063508 0 -0.25909124390184018 -0.37475905286733341 0 -0.25033509129523179 -0.39094719032673231 0 -0.24748772700216881 -0.3717564301773445 0 -0.25909124390184018 -0.37475905286733341 0 -0.2742629371717063 -0.37916463673385931 0 -0.26281209396899169 -0.38517470131063508 0 -0.26911429951178012 -0.42474234074800371 0 -0.27848929033898201 -0.43669604725877897 0 -0.26690007516498948 -0.44242471351124879 0 -0.28540276919059199 -0.42535658303670731 0 -0.26911429951178012 -0.42474234074800371 0 -0.27848929033898201 -0.43669604725877897 0 -0.27638376085029581 -0.41177906387360241 0 -0.25487024651921952 -0.41254988102096568 0 -0.28540276919059199 -0.42535658303670731 0 -0.26911429951178012 -0.42474234074800371 0 -0.27638376085029581 -0.41177906387360241 0 -0.26911429951178012 -0.42474234074800371 0 -0.27638376085029581 -0.41177906387360241 0 -0.25487024651921952 -0.41254988102096568 0 -0.26755910350718881 -0.39582792531461569 0 -0.27638376085029581 -0.41177906387360241 0 -0.25487024651921952 -0.41254988102096568 0 -0.26911429951178012 -0.42474234074800371 0 -0.27638376085029581 -0.41177906387360241 0 -0.26911429951178012 -0.42474234074800371 0 -0.25908880606166329 -0.43064529781943001 0 -0.26690007516498948 -0.44242471351124879 0 -0.25487024651921952 -0.41254988102096568 0 -0.25908880606166329 -0.43064529781943001 0 -0.2468605885266735 -0.43014712497011809 0 -0.26911429951178012 -0.42474234074800371 0 -0.25487024651921952 -0.41254988102096568 0 -0.25908880606166329 -0.43064529781943001 0 -0.25908880606166329 -0.43064529781943001 0 -0.25479397652280911 -0.44050862113911837 0 -0.2468605885266735 -0.43014712497011809 0 -0.25479397652280911 -0.44050862113911837 0 -0.2546108597688766 -0.45375703833677078 0 -0.2450571310604201 -0.44414202720417628 0 -0.25479397652280911 -0.44050862113911837 0 -0.2546108597688766 -0.45375703833677078 0 -0.26690007516498948 -0.44242471351124879 0 -0.2546108597688766 -0.45375703833677078 0 -0.26838297633475061 -0.45652413347846638 0 -0.26690007516498948 -0.44242471351124879 0 -0.25908880606166329 -0.43064529781943001 0 -0.25479397652280911 -0.44050862113911837 0 -0.26690007516498948 -0.44242471351124879 0 -0.25109629719050858 -0.46406488014867903 0 -0.2546108597688766 -0.45375703833677078 0 -0.26079873433517492 -0.46936342421069649 0 -0.2546108597688766 -0.45375703833677078 0 -0.26838297633475061 -0.45652413347846638 0 -0.26079873433517492 -0.46936342421069649 0 -0.27799569035848881 -0.46687050799545499 0 -0.26838297633475061 -0.45652413347846638 0 -0.26079873433517492 -0.46936342421069649 0 -0.27799569035848881 -0.46687050799545499 0 -0.26838297633475061 -0.45652413347846638 0 -0.28160952204622303 -0.450204983338161 0 -0.26838297633475061 -0.45652413347846638 0 -0.26690007516498948 -0.44242471351124879 0 -0.28160952204622303 -0.450204983338161 0 -0.27848929033898201 -0.43669604725877897 0 -0.26690007516498948 -0.44242471351124879 0 -0.28160952204622303 -0.450204983338161 0 -0.29907098912325059 -0.43374406761790368 0 -0.28902284908971709 -0.44016681433255572 0 -0.29708038679871529 -0.44973292283788502 0 -0.27848929033898201 -0.43669604725877897 0 -0.28902284908971709 -0.44016681433255572 0 -0.28160952204622303 -0.450204983338161 0 -0.28902284908971709 -0.44016681433255572 0 -0.28160952204622303 -0.450204983338161 0 -0.29708038679871529 -0.44973292283788502 0 -0.27799569035848881 -0.46687050799545499 0 -0.29150619976335518 -0.46129715127825488 0 -0.29492343141974797 -0.47638763217473168 0 -0.27799569035848881 -0.46687050799545499 0 -0.28160952204622303 -0.450204983338161 0 -0.29150619976335518 -0.46129715127825488 0 -0.28160952204622303 -0.450204983338161 0 -0.29150619976335518 -0.46129715127825488 0 -0.29708038679871529 -0.44973292283788502 0 -0.29150619976335518 -0.46129715127825488 0 -0.30592196819360068 -0.46328971004504182 0 -0.29708038679871529 -0.44973292283788502 0 -0.31987457796333868 -0.4551426725204325 0 -0.30592196819360068 -0.46328971004504182 0 -0.31015853372433788 -0.44544301337781073 0 -0.29150619976335518 -0.46129715127825488 0 -0.30592196819360068 -0.46328971004504182 0 -0.29492343141974797 -0.47638763217473168 0 -0.29907098912325059 -0.43374406761790368 0 -0.31015853372433788 -0.44544301337781073 0 -0.29708038679871529 -0.44973292283788502 0 -0.30592196819360068 -0.46328971004504182 0 -0.31015853372433788 -0.44544301337781073 0 -0.29708038679871529 -0.44973292283788502 0 -0.31208929727375578 -0.48491526738579699 0 -0.29492343141974797 -0.47638763217473168 0 -0.29581575695060047 -0.5 0 -0.32221211863154181 -0.5 0 -0.31208929727375578 -0.48491526738579699 0 -0.29581575695060047 -0.5 0 -0.32094261384274558 -0.46854088973335889 0 -0.30592196819360068 -0.46328971004504182 0 -0.29492343141974797 -0.47638763217473168 0 -0.32094261384274558 -0.46854088973335889 0 -0.29492343141974797 -0.47638763217473168 0 -0.32094261384274558 -0.46854088973335889 0 -0.31208929727375578 -0.48491526738579699 0 -0.29492343141974797 -0.47638763217473168 0 -0.29492343141974797 -0.47638763217473168 0 -0.26890424899675031 -0.48423437461610452 0 -0.29492343141974797 -0.47638763217473168 0 -0.28441593737837417 -0.48860776134254891 0 -0.26890424899675031 -0.48423437461610452 0 -0.29492343141974797 -0.47638763217473168 0 -0.28441593737837417 -0.48860776134254891 0 -0.29581575695060047 -0.5 0 -0.28441593737837417 -0.48860776134254891 0 -0.29581575695060047 -0.5 0 -0.26941939526965919 -0.5 0 -0.28441593737837417 -0.48860776134254891 0 -0.26941939526965919 -0.5 0 -0.26890424899675031 -0.48423437461610452 0 -0.27799569035848881 -0.46687050799545499 0 -0.29492343141974797 -0.47638763217473168 0 -0.26890424899675031 -0.48423437461610452 0 -0.27799569035848881 -0.46687050799545499 0 -0.26890424899675031 -0.48423437461610452 0 -0.26079873433517492 -0.46936342421069649 0 -0.26890424899675031 -0.48423437461610452 0 -0.26079873433517492 -0.46936342421069649 0 -0.25379328426056558 -0.48205965705463422 0 -0.26079873433517492 -0.46936342421069649 0 -0.25379328426056558 -0.48205965705463422 0 -0.250874604213362 -0.47391739130808008 0 -0.25109629719050858 -0.46406488014867903 0 -0.26079873433517492 -0.46936342421069649 0 -0.250874604213362 -0.47391739130808008 0 -0.26941939526965919 -0.5 0 -0.26890424899675031 -0.48423437461610452 0 -0.2544134183364497 -0.49413622749019132 0 -0.26941939526965919 -0.5 0 -0.2544134183364497 -0.49413622749019132 0 -0.2430230335887178 -0.5 0 -0.26890424899675031 -0.48423437461610452 0 -0.2544134183364497 -0.49413622749019132 0 -0.24288506657375261 -0.49208111705747781 0 -0.26890424899675031 -0.48423437461610452 0 -0.25379328426056558 -0.48205965705463422 0 -0.24288506657375261 -0.49208111705747781 0 -0.26890424899675031 -0.48423437461610452 0 -0.24288506657375261 -0.49208111705747781 0 -0.2544134183364497 -0.49413622749019132 0 -0.2430230335887178 -0.5 0 -0.24783534725336881 -0.49436564577737419 0 -0.2544134183364497 -0.49413622749019132 0 -0.24783534725336881 -0.49436564577737419 0 -0.24288506657375261 -0.49208111705747781 0 -0.2430230335887178 -0.5 0 -0.24783534725336881 -0.49436564577737419 0 -0.24288506657375261 -0.49208111705747781 0 -0.24783534725336881 -0.49436564577737419 0 -0.24288506657375261 -0.49208111705747781 0 -0.24288506657375261 -0.49208111705747781 0 -0.24429345028001889 -0.4821559175287794 0 -0.23457410743521059 -0.47899140825596259 0 -0.25379328426056558 -0.48205965705463422 0 -0.24288506657375261 -0.49208111705747781 0 -0.24429345028001889 -0.4821559175287794 0 -0.25379328426056558 -0.48205965705463422 0 -0.250874604213362 -0.47391739130808008 0 -0.24429345028001889 -0.4821559175287794 0 -0.24429345028001889 -0.4821559175287794 0 -0.2443912550005416 -0.47194307759761112 0 -0.2395637252682277 -0.47605318874815389 0 -0.25109629719050858 -0.46406488014867903 0 -0.250874604213362 -0.47391739130808008 0 -0.2443912550005416 -0.47194307759761112 0 -0.250874604213362 -0.47391739130808008 0 -0.24429345028001889 -0.4821559175287794 0 -0.2443912550005416 -0.47194307759761112 0 -0.2443912550005416 -0.47194307759761112 0 -0.2395637252682277 -0.47605318874815389 0 -0.23499608835713959 -0.47112235161026261 0 -0.2395637252682277 -0.47605318874815389 0 -0.23499608835713959 -0.47112235161026261 0 -0.23457410743521059 -0.47899140825596259 0 -0.24429345028001889 -0.4821559175287794 0 -0.2395637252682277 -0.47605318874815389 0 -0.23457410743521059 -0.47899140825596259 0 -0.23457410743521059 -0.47899140825596259 0 -0.2250369990674011 -0.47003999804886298 0 -0.2204246459600448 -0.48171575006642248 0 -0.24288506657375261 -0.49208111705747781 0 -0.23457410743521059 -0.47899140825596259 0 -0.2204246459600448 -0.48171575006642248 0 -0.23499608835713959 -0.47112235161026261 0 -0.23457410743521059 -0.47899140825596259 0 -0.2250369990674011 -0.47003999804886298 0 -0.2430230335887178 -0.5 0 -0.24288506657375261 -0.49208111705747781 0 -0.21662667190777651 -0.49999999999999939 0 -0.24288506657375261 -0.49208111705747781 0 -0.21662667190777651 -0.49999999999999939 0 -0.24288506657375261 -0.49208111705747781 0 -0.2204246459600448 -0.48171575006642248 0 -0.24288506657375261 -0.49208111705747781 0 -0.2204246459600448 -0.48171575006642248 0 -0.21662667190777651 -0.49999999999999939 0 -0.2450571310604201 -0.44414202720417628 0 -0.23716380350122879 -0.45645441389937441 0 -0.23280677558438309 -0.43386548686292281 0 -0.2546108597688766 -0.45375703833677078 0 -0.2450571310604201 -0.44414202720417628 0 -0.23716380350122879 -0.45645441389937441 0 -0.25479397652280911 -0.44050862113911837 0 -0.2450571310604201 -0.44414202720417628 0 -0.2468605885266735 -0.43014712497011809 0 -0.25109629719050858 -0.46406488014867903 0 -0.2546108597688766 -0.45375703833677078 0 -0.23716380350122879 -0.45645441389937441 0 -0.25109629719050858 -0.46406488014867903 0 -0.2443912550005416 -0.47194307759761112 0 -0.23716380350122879 -0.45645441389937441 0 -0.2443912550005416 -0.47194307759761112 0 -0.23499608835713959 -0.47112235161026261 0 -0.23716380350122879 -0.45645441389937441 0 -0.2250369990674011 -0.47003999804886298 0 -0.21844010846223411 -0.44206575668227449 0 -0.2250369990674011 -0.47003999804886298 0 -0.23716380350122879 -0.45645441389937441 0 -0.21844010846223411 -0.44206575668227449 0 -0.23499608835713959 -0.47112235161026261 0 -0.2250369990674011 -0.47003999804886298 0 -0.23716380350122879 -0.45645441389937441 0 -0.23716380350122879 -0.45645441389937441 0 -0.21844010846223411 -0.44206575668227449 0 -0.23280677558438309 -0.43386548686292281 0 -0.21844010846223411 -0.44206575668227449 0 -0.21054881561508179 -0.46151962797655111 0 -0.19087809923939161 -0.44242625200982799 0 -0.2250369990674011 -0.47003999804886298 0 -0.21844010846223411 -0.44206575668227449 0 -0.21054881561508179 -0.46151962797655111 0 -0.21054881561508179 -0.46151962797655111 0 -0.19087809923939161 -0.44242625200982799 0 -0.1979642253463372 -0.47135038307536692 0 -0.19087809923939161 -0.44242625200982799 0 -0.1979642253463372 -0.47135038307536692 0 -0.17550380473262961 -0.46098501608431119 0 -0.2039060436575347 -0.48788306012054039 0 -0.21662667190777651 -0.49999999999999939 0 -0.191185415407293 -0.5 0 -0.2204246459600448 -0.48171575006642248 0 -0.2039060436575347 -0.48788306012054039 0 -0.21662667190777651 -0.49999999999999939 0 -0.2250369990674011 -0.47003999804886298 0 -0.2204246459600448 -0.48171575006642248 0 -0.21054881561508179 -0.46151962797655111 0 -0.2204246459600448 -0.48171575006642248 0 -0.2039060436575347 -0.48788306012054039 0 -0.1979642253463372 -0.47135038307536692 0 -0.2204246459600448 -0.48171575006642248 0 -0.1979642253463372 -0.47135038307536692 0 -0.2204246459600448 -0.48171575006642248 0 -0.21054881561508179 -0.46151962797655111 0 -0.1979642253463372 -0.47135038307536692 0 -0.2039060436575347 -0.48788306012054039 0 -0.1979642253463372 -0.47135038307536692 0 -0.18170511770794731 -0.48283447360099019 0 -0.2039060436575347 -0.48788306012054039 0 -0.191185415407293 -0.5 0 -0.18170511770794731 -0.48283447360099019 0 -0.191185415407293 -0.5 0 -0.16574415890680941 -0.5 0 -0.18170511770794731 -0.48283447360099019 0 -0.16574415890680941 -0.5 0 -0.18170511770794731 -0.48283447360099019 0 -0.1559270581970803 -0.47678838232572268 0 -0.18170511770794731 -0.48283447360099019 0 -0.17550380473262961 -0.46098501608431119 0 -0.1559270581970803 -0.47678838232572268 0 -0.1979642253463372 -0.47135038307536692 0 -0.18170511770794731 -0.48283447360099019 0 -0.17550380473262961 -0.46098501608431119 0 -0.1979642253463372 -0.47135038307536692 0 -0.17550380473262961 -0.46098501608431119 0 -0.19087809923939161 -0.44242625200982799 0 -0.17550380473262961 -0.46098501608431119 0 -0.16487953686040341 -0.43668708651363358 0 -0.17550380473262961 -0.46098501608431119 0 -0.15866236735209521 -0.45377864165300308 0 -0.16487953686040341 -0.43668708651363358 0 -0.17550380473262961 -0.46098501608431119 0 -0.15866236735209521 -0.45377864165300308 0 -0.1559270581970803 -0.47678838232572268 0 -0.15866236735209521 -0.45377864165300308 0 -0.14280129841846509 -0.46103953978105727 0 -0.1559270581970803 -0.47678838232572268 0 -0.15866236735209521 -0.45377864165300308 0 -0.14280129841846509 -0.46103953978105727 0 -0.1438484805828521 -0.43705968193712769 0 -0.15866236735209521 -0.45377864165300308 0 -0.1438484805828521 -0.43705968193712769 0 -0.16487953686040341 -0.43668708651363358 0 -0.14280129841846509 -0.46103953978105727 0 -0.13093011984253891 -0.44972195681556543 0 -0.1438484805828521 -0.43705968193712769 0 -0.13093011984253891 -0.44972195681556543 0 -0.1438484805828521 -0.43705968193712769 0 -0.123519809913229 -0.43733662075251151 0 -0.14280129841846509 -0.46103953978105727 0 -0.13093011984253891 -0.44972195681556543 0 -0.12704973474613379 -0.46277216333596533 0 -0.14280129841846509 -0.46103953978105727 0 -0.12704973474613379 -0.46277216333596533 0 -0.13010403334985379 -0.48000251283874379 0 -0.13010403334985379 -0.48000251283874379 0 -0.1403029024063259 -0.5 0 -0.1148616459058424 -0.5 0 -0.16574415890680941 -0.5 0 -0.1403029024063259 -0.5 0 -0.1559270581970803 -0.47678838232572268 0 -0.13010403334985379 -0.48000251283874379 0 -0.1403029024063259 -0.5 0 -0.1559270581970803 -0.47678838232572268 0 -0.14280129841846509 -0.46103953978105727 0 -0.13010403334985379 -0.48000251283874379 0 -0.1559270581970803 -0.47678838232572268 0 -0.13724659116883831 -0.38156720383825199 0 -0.13696324729183901 -0.40051159333262831 0 -0.1562511533772393 -0.40085091578326698 0 -0.13696324729183901 -0.40051159333262831 0 -0.14428023194946249 -0.41611080081516499 0 -0.1562511533772393 -0.40085091578326698 0 -0.13724659116883831 -0.38156720383825199 0 -0.1562511533772393 -0.40085091578326698 0 -0.1663441030446621 -0.37717300760659073 0 -0.13724659116883831 -0.38156720383825199 0 -0.11827115974421661 -0.40327967795429231 0 -0.13724659116883831 -0.38156720383825199 0 -0.13696324729183901 -0.40051159333262831 0 -0.11827115974421661 -0.40327967795429231 0 -0.13696324729183901 -0.40051159333262831 0 -0.12597911368703019 -0.41952469120143437 0 -0.14428023194946249 -0.41611080081516499 0 -0.13696324729183901 -0.40051159333262831 0 -0.12597911368703019 -0.41952469120143437 0 -0.11827115974421661 -0.40327967795429231 0 -0.12597911368703019 -0.41952469120143437 0 -0.1438484805828521 -0.43705968193712769 0 -0.123519809913229 -0.43733662075251151 0 -0.12597911368703019 -0.41952469120143437 0 -0.1438484805828521 -0.43705968193712769 0 -0.14428023194946249 -0.41611080081516499 0 -0.1438484805828521 -0.43705968193712769 0 -0.16487953686040341 -0.43668708651363358 0 -0.1579375607246061 -0.42228606781690858 0 -0.1438484805828521 -0.43705968193712769 0 -0.14428023194946249 -0.41611080081516499 0 -0.1579375607246061 -0.42228606781690858 0 -0.14428023194946249 -0.41611080081516499 0 -0.1579375607246061 -0.42228606781690858 0 -0.1562511533772393 -0.40085091578326698 0 -0.1717517290487513 -0.41486076781395709 0 -0.1579375607246061 -0.42228606781690858 0 -0.1562511533772393 -0.40085091578326698 0 -0.1717517290487513 -0.41486076781395709 0 -0.16487953686040341 -0.43668708651363358 0 -0.1579375607246061 -0.42228606781690858 0 -0.1717517290487513 -0.41486076781395709 0 -0.16487953686040341 -0.43668708651363358 0 -0.19087809923939161 -0.44242625200982799 0 -0.16487953686040341 -0.43668708651363358 0 -0.18049207608238291 -0.42812424827546058 0 -0.1717517290487513 -0.41486076781395709 0 -0.16487953686040341 -0.43668708651363358 0 -0.18049207608238291 -0.42812424827546058 0 -0.1717517290487513 -0.41486076781395709 0 -0.18680736564207029 -0.41498853585306777 0 -0.17862392123709919 -0.39303444911428059 0 -0.1717517290487513 -0.41486076781395709 0 -0.18049207608238291 -0.42812424827546058 0 -0.18680736564207029 -0.41498853585306777 0 -0.18680736564207029 -0.41498853585306777 0 -0.17862392123709919 -0.39303444911428059 0 -0.19656737959219739 -0.40219111980173922 0 -0.1717517290487513 -0.41486076781395709 0 -0.17862392123709919 -0.39303444911428059 0 -0.1717517290487513 -0.41486076781395709 0 -0.17862392123709919 -0.39303444911428059 0 -0.1562511533772393 -0.40085091578326698 0 -0.17862392123709919 -0.39303444911428059 0 -0.1562511533772393 -0.40085091578326698 0 -0.1663441030446621 -0.37717300760659073 0 -0.17862392123709919 -0.39303444911428059 0 -0.1663441030446621 -0.37717300760659073 0 -0.1854961134254472 -0.37120813041460421 0 -0.17862392123709919 -0.39303444911428059 0 -0.1854961134254472 -0.37120813041460421 0 -0.17862392123709919 -0.39303444911428059 0 -0.20527564977482679 -0.38624161667098289 0 -0.1854961134254472 -0.37120813041460421 0 -0.17862392123709919 -0.39303444911428059 0 -0.19656737959219739 -0.40219111980173922 0 -0.20527564977482679 -0.38624161667098289 0 -0.20527564977482679 -0.38624161667098289 0 -0.2118432178570665 -0.41409151531568628 0 -0.2281799985799623 -0.39436158075255778 0 -0.19656737959219739 -0.40219111980173922 0 -0.20527564977482679 -0.38624161667098289 0 -0.2118432178570665 -0.41409151531568628 0 -0.20527564977482679 -0.38624161667098289 0 -0.2118432178570665 -0.41409151531568628 0 -0.20527564977482679 -0.38624161667098289 0 -0.22195794658956111 -0.37463091785279867 0 -0.21168543115216709 -0.36681117402183649 0 -0.20527564977482679 -0.38624161667098289 0 -0.2281799985799623 -0.39436158075255778 0 -0.22195794658956111 -0.37463091785279867 0 -0.18049207608238291 -0.42812424827546058 0 -0.18680736564207029 -0.41498853585306777 0 -0.19899408631087909 -0.4269358685541359 0 -0.19087809923939161 -0.44242625200982799 0 -0.18049207608238291 -0.42812424827546058 0 -0.19899408631087909 -0.4269358685541359 0 -0.21844010846223411 -0.44206575668227449 0 -0.19087809923939161 -0.44242625200982799 0 -0.19899408631087909 -0.4269358685541359 0 -0.18680736564207029 -0.41498853585306777 0 -0.19656737959219739 -0.40219111980173922 0 -0.2118432178570665 -0.41409151531568628 0 -0.18680736564207029 -0.41498853585306777 0 -0.19899408631087909 -0.4269358685541359 0 -0.2118432178570665 -0.41409151531568628 0 -0.18680736564207029 -0.41498853585306777 0 -0.2118432178570665 -0.41409151531568628 0 -0.21844010846223411 -0.44206575668227449 0 -0.19899408631087909 -0.4269358685541359 0 -0.2118432178570665 -0.41409151531568628 0 -0.21844010846223411 -0.44206575668227449 0 -0.2118432178570665 -0.41409151531568628 0 -0.21844010846223411 -0.44206575668227449 0 -0.2118432178570665 -0.41409151531568628 0 -0.23280677558438309 -0.43386548686292281 0 -0.2118432178570665 -0.41409151531568628 0 -0.23335673218814301 -0.41332069816832789 0 -0.2281799985799623 -0.39436158075255778 0 -0.2118432178570665 -0.41409151531568628 0 -0.23335673218814301 -0.41332069816832789 0 -0.2118432178570665 -0.41409151531568628 0 -0.23280677558438309 -0.43386548686292281 0 -0.23335673218814301 -0.41332069816832789 0 -0.25487024651921952 -0.41254988102096568 0 -0.23335673218814301 -0.41332069816832789 0 -0.25487024651921952 -0.41254988102096568 0 -0.23335673218814301 -0.41332069816832789 0 -0.24168551714563921 -0.4027948375671459 0 -0.25487024651921952 -0.41254988102096568 0 -0.23335673218814301 -0.41332069816832789 0 -0.2468605885266735 -0.43014712497011809 0 -0.23280677558438309 -0.43386548686292281 0 -0.23335673218814301 -0.41332069816832789 0 -0.2468605885266735 -0.43014712497011809 0 -0.2450571310604201 -0.44414202720417628 0 -0.23280677558438309 -0.43386548686292281 0 -0.2468605885266735 -0.43014712497011809 0 -0.2281799985799623 -0.39436158075255778 0 -0.2359431282162788 -0.37698905115118858 0 -0.22195794658956111 -0.37463091785279867 0 -0.25033509129523179 -0.39094719032673231 0 -0.2281799985799623 -0.39436158075255778 0 -0.24168551714563921 -0.4027948375671459 0 -0.25033509129523179 -0.39094719032673231 0 -0.25487024651921952 -0.41254988102096568 0 -0.24168551714563921 -0.4027948375671459 0 -0.23335673218814301 -0.41332069816832789 0 -0.2281799985799623 -0.39436158075255778 0 -0.24168551714563921 -0.4027948375671459 0 -0.25033509129523179 -0.39094719032673231 0 -0.2359431282162788 -0.37698905115118858 0 -0.24748772700216881 -0.3717564301773445 0 -0.25033509129523179 -0.39094719032673231 0 -0.2281799985799623 -0.39436158075255778 0 -0.2359431282162788 -0.37698905115118858 0 -0.25494538795031141 -0.36273054802101118 0 -0.24748772700216881 -0.3717564301773445 0 -0.24521251836493849 -0.35951647641646678 0 -0.24748772700216881 -0.3717564301773445 0 -0.24521251836493849 -0.35951647641646678 0 -0.23939899228441261 -0.3655962622813349 0 -0.23939899228441261 -0.3655962622813349 0 -0.23024759562621139 -0.36380396142485888 0 -0.23761117654761921 -0.35850429625613017 0 -0.24521251836493849 -0.35951647641646678 0 -0.23939899228441261 -0.3655962622813349 0 -0.23761117654761921 -0.35850429625613017 0 -0.2359431282162788 -0.37698905115118858 0 -0.23939899228441261 -0.3655962622813349 0 -0.23024759562621139 -0.36380396142485888 0 -0.2359431282162788 -0.37698905115118858 0 -0.24748772700216881 -0.3717564301773445 0 -0.23939899228441261 -0.3655962622813349 0 -0.2359431282162788 -0.37698905115118858 0 -0.23024759562621139 -0.36380396142485888 0 -0.22195794658956111 -0.37463091785279867 0 -0.23024759562621139 -0.36380396142485888 0 -0.22135664398937441 -0.36020929429952131 0 -0.2310785660723691 -0.35440187846705151 0 -0.23024759562621139 -0.36380396142485888 0 -0.22135664398937441 -0.36020929429952131 0 -0.22195794658956111 -0.37463091785279867 0 -0.22135664398937441 -0.36020929429952131 0 -0.22331676928072861 -0.34527245129667988 0 -0.2310785660723691 -0.35440187846705151 0 -0.23024759562621139 -0.36380396142485888 0 -0.2310785660723691 -0.35440187846705151 0 -0.23761117654761921 -0.35850429625613017 0 -0.22331676928072861 -0.34527245129667988 0 -0.2337118992122327 -0.34903918396608452 0 -0.23708401688859529 -0.34365007901650441 0 -0.22331676928072861 -0.34527245129667988 0 -0.2310785660723691 -0.35440187846705151 0 -0.2337118992122327 -0.34903918396608452 0 -0.26017799311385281 -0.35268912854855933 0 -0.24808760514302669 -0.3536558827211943 0 -0.2404133442166683 -0.34213832018255058 0 -0.2310785660723691 -0.35440187846705151 0 -0.2337118992122327 -0.34903918396608452 0 -0.2396887820693627 -0.35120494043738398 0 -0.26017799311385281 -0.35268912854855933 0 -0.24325210797206609 -0.34084931319650169 0 -0.2404133442166683 -0.34213832018255058 0 -0.2396887820693627 -0.35120494043738398 0 -0.23708401688859529 -0.34365007901650441 0 -0.2404133442166683 -0.34213832018255058 0 -0.2337118992122327 -0.34903918396608452 0 -0.2396887820693627 -0.35120494043738398 0 -0.23708401688859529 -0.34365007901650441 0 -0.2310785660723691 -0.35440187846705151 0 -0.2396887820693627 -0.35120494043738398 0 -0.23761117654761921 -0.35850429625613017 0 -0.24521251836493849 -0.35951647641646678 0 -0.2396887820693627 -0.35120494043738398 0 -0.23761117654761921 -0.35850429625613017 0 -0.24521251836493849 -0.35951647641646678 0 -0.2396887820693627 -0.35120494043738398 0 -0.24808760514302669 -0.3536558827211943 0 -0.25494538795031141 -0.36273054802101118 0 -0.24521251836493849 -0.35951647641646678 0 -0.24808760514302669 -0.3536558827211943 0 -0.2396887820693627 -0.35120494043738398 0 -0.24808760514302669 -0.3536558827211943 0 -0.2404133442166683 -0.34213832018255058 0 -0.24325210797206609 -0.34084931319650169 0 -0.24518994726652291 -0.33234415230164399 0 -0.23958942898634211 -0.33903199036576709 0 -0.24518994726652291 -0.33234415230164399 0 -0.23560348244150561 -0.32909319502054812 0 -0.23958942898634211 -0.33903199036576709 0 -0.23708401688859529 -0.34365007901650441 0 -0.2404133442166683 -0.34213832018255058 0 -0.24325210797206609 -0.34084931319650169 0 -0.2404133442166683 -0.34213832018255058 0 -0.23958942898634211 -0.33903199036576709 0 -0.24325210797206609 -0.34084931319650169 0 -0.2404133442166683 -0.34213832018255058 0 -0.24325210797206609 -0.34084931319650169 0 -0.23958942898634211 -0.33903199036576709 0 -0.25915672867891859 -0.31415112243359272 0 -0.24308922262768951 -0.32099342612622928 0 -0.24047089863443691 -0.30798947189970438 0 -0.24518994726652291 -0.33234415230164399 0 -0.23560348244150561 -0.32909319502054812 0 -0.24308922262768951 -0.32099342612622928 0 -0.23560348244150561 -0.32909319502054812 0 -0.24308922262768951 -0.32099342612622928 0 -0.22938765682563561 -0.32144886021699343 0 -0.24308922262768951 -0.32099342612622928 0 -0.22938765682563561 -0.32144886021699343 0 -0.23158309368585001 -0.31181085789310747 0 -0.24308922262768951 -0.32099342612622928 0 -0.24047089863443691 -0.30798947189970438 0 -0.23158309368585001 -0.31181085789310747 0 -0.22938765682563561 -0.32144886021699343 0 -0.23158309368585001 -0.31181085789310747 0 -0.22249387381410951 -0.31123320620709588 0 -0.23560348244150561 -0.32909319502054812 0 -0.22938765682563561 -0.32144886021699343 0 -0.22076115650133771 -0.33164754609210678 0 -0.22938765682563561 -0.32144886021699343 0 -0.22076115650133771 -0.33164754609210678 0 -0.2180259411870723 -0.31620608063285149 0 -0.22938765682563561 -0.32144886021699343 0 -0.2180259411870723 -0.31620608063285149 0 -0.22249387381410951 -0.31123320620709588 0 -0.22331676928072861 -0.34527245129667988 0 -0.23708401688859529 -0.34365007901650441 0 -0.22076115650133771 -0.33164754609210678 0 -0.23560348244150561 -0.32909319502054812 0 -0.23958942898634211 -0.33903199036576709 0 -0.22076115650133771 -0.33164754609210678 0 -0.2404133442166683 -0.34213832018255058 0 -0.22076115650133771 -0.33164754609210678 0 -0.2404133442166683 -0.34213832018255058 0 -0.23958942898634211 -0.33903199036576709 0 -0.22076115650133771 -0.33164754609210678 0 -0.23708401688859529 -0.34365007901650441 0 -0.2404133442166683 -0.34213832018255058 0 -0.22076115650133771 -0.33164754609210678 0 -0.22331676928072861 -0.34527245129667988 0 -0.22076115650133771 -0.33164754609210678 0 -0.20784983644103361 -0.34097302903627591 0 -0.22076115650133771 -0.33164754609210678 0 -0.20348412114368319 -0.33156666209817831 0 -0.20784983644103361 -0.34097302903627591 0 -0.2180259411870723 -0.31620608063285149 0 -0.19974136112887431 -0.31343603927203523 0 -0.20110896878600679 -0.32115677200166343 0 -0.22076115650133771 -0.33164754609210678 0 -0.2180259411870723 -0.31620608063285149 0 -0.20110896878600679 -0.32115677200166343 0 -0.22076115650133771 -0.33164754609210678 0 -0.20348412114368319 -0.33156666209817831 0 -0.20110896878600679 -0.32115677200166343 0 -0.22076115650133771 -0.33164754609210678 0 -0.20110896878600679 -0.32115677200166343 0 -0.2180259411870723 -0.31620608063285149 0 -0.19974136112887431 -0.31343603927203523 0 -0.20904493575850211 -0.30938578927939081 0 -0.2180259411870723 -0.31620608063285149 0 -0.19974136112887431 -0.31343603927203523 0 -0.19974136112887431 -0.31343603927203523 0 -0.20110896878600679 -0.32115677200166343 0 -0.1814567810706762 -0.3106659979112194 0 -0.20110896878600679 -0.32115677200166343 0 -0.1814567810706762 -0.3106659979112194 0 -0.20110896878600679 -0.32115677200166343 0 -0.19214051361034601 -0.33054181938157612 0 -0.1814567810706762 -0.3106659979112194 0 -0.20348412114368319 -0.33156666209817831 0 -0.20110896878600679 -0.32115677200166343 0 -0.19214051361034601 -0.33054181938157612 0 -0.20348412114368319 -0.33156666209817831 0 -0.20784983644103361 -0.34097302903627591 0 -0.19214051361034601 -0.33054181938157612 0 -0.20784983644103361 -0.34097302903627591 0 -0.19214051361034601 -0.33054181938157612 0 -0.20232946575910341 -0.34593351830387509 0 -0.19214051361034601 -0.33054181938157612 0 -0.19236830561379509 -0.34938181171492771 0 -0.18622265824693729 -0.34003474470360739 0 -0.19214051361034601 -0.33054181938157612 0 -0.19236830561379509 -0.34938181171492771 0 -0.19870808169258641 -0.35839171802627962 0 -0.19214051361034601 -0.33054181938157612 0 -0.19870808169258641 -0.35839171802627962 0 -0.19214051361034601 -0.33054181938157612 0 -0.20232946575910341 -0.34593351830387509 0 -0.19870808169258641 -0.35839171802627962 0 -0.19236830561379509 -0.34938181171492771 0 -0.1854961134254472 -0.37120813041460421 0 -0.20527564977482679 -0.38624161667098289 0 -0.19870808169258641 -0.35839171802627962 0 -0.20527564977482679 -0.38624161667098289 0 -0.19870808169258641 -0.35839171802627962 0 -0.1854961134254472 -0.37120813041460421 0 -0.19236830561379509 -0.34938181171492771 0 -0.19870808169258641 -0.35839171802627962 0 -0.1854961134254472 -0.37120813041460421 0 -0.20527564977482679 -0.38624161667098289 0 -0.19870808169258641 -0.35839171802627962 0 -0.21168543115216709 -0.36681117402183649 0 -0.19870808169258641 -0.35839171802627962 0 -0.21168543115216709 -0.36681117402183649 0 -0.21061943129244759 -0.3538275067713687 0 -0.22135664398937441 -0.36020929429952131 0 -0.22195794658956111 -0.37463091785279867 0 -0.21168543115216709 -0.36681117402183649 0 -0.22135664398937441 -0.36020929429952131 0 -0.21168543115216709 -0.36681117402183649 0 -0.21061943129244759 -0.3538275067713687 0 -0.22135664398937441 -0.36020929429952131 0 -0.22331676928072861 -0.34527245129667988 0 -0.21061943129244759 -0.3538275067713687 0 -0.22331676928072861 -0.34527245129667988 0 -0.20784983644103361 -0.34097302903627591 0 -0.21061943129244759 -0.3538275067713687 0 -0.20784983644103361 -0.34097302903627591 0 -0.20232946575910341 -0.34593351830387509 0 -0.21061943129244759 -0.3538275067713687 0 -0.20232946575910341 -0.34593351830387509 0 -0.19870808169258641 -0.35839171802627962 0 -0.21061943129244759 -0.3538275067713687 0 -0.22866545068461799 -0.25948943059043711 0 -0.21759888839251429 -0.26212753750200368 0 -0.22025275826160279 -0.2471257797298928 0 -0.22866545068461799 -0.25948943059043711 0 -0.22398633244919169 -0.27132847136955079 0 -0.21759888839251429 -0.26212753750200368 0 -0.22866545068461799 -0.25948943059043711 0 -0.23442911476228809 -0.24683612341654529 0 -0.22025275826160279 -0.2471257797298928 0 -0.22866545068461799 -0.25948943059043711 0 -0.24233717299785959 -0.25960849866204011 0 -0.23442911476228809 -0.24683612341654529 0 -0.2565674865322034 -0.25340195958415102 0 -0.24233717299785959 -0.25960849866204011 0 -0.25018128361314113 -0.24746468840205441 0 -0.22866545068461799 -0.25948943059043711 0 -0.24233717299785959 -0.25960849866204011 0 -0.2333815926018066 -0.27110706845475141 0 -0.24233717299785959 -0.25960849866204011 0 -0.2333815926018066 -0.27110706845475141 0 -0.24140403581614819 -0.28379898528087227 0 -0.24233717299785959 -0.25960849866204011 0 -0.24140403581614819 -0.28379898528087227 0 -0.24233717299785959 -0.25960849866204011 0 -0.2484323970602714 -0.27706385987730509 0 -0.24140403581614819 -0.28379898528087227 0 -0.25309751137434572 -0.26289123234143091 0 -0.24233717299785959 -0.25960849866204011 0 -0.2484323970602714 -0.27706385987730509 0 -0.2333815926018066 -0.27110706845475141 0 -0.2300547693907766 -0.28178467995593781 0 -0.24140403581614819 -0.28379898528087227 0 -0.2333815926018066 -0.27110706845475141 0 -0.22398633244919169 -0.27132847136955079 0 -0.2300547693907766 -0.28178467995593781 0 -0.22866545068461799 -0.25948943059043711 0 -0.2333815926018066 -0.27110706845475141 0 -0.22398633244919169 -0.27132847136955079 0 -0.22398633244919169 -0.27132847136955079 0 -0.21947311754018139 -0.28174823216008099 0 -0.2300547693907766 -0.28178467995593781 0 -0.21947311754018139 -0.28174823216008099 0 -0.22569627159534009 -0.29064390563822362 0 -0.2300547693907766 -0.28178467995593781 0 -0.21947311754018139 -0.28174823216008099 0 -0.22569627159534009 -0.29064390563822362 0 -0.21595054291829549 -0.29285447433738648 0 -0.22569627159534009 -0.29064390563822362 0 -0.22453607640027501 -0.29842387346705762 0 -0.21595054291829549 -0.29285447433738648 0 -0.22569627159534009 -0.29064390563822362 0 -0.2341156104824163 -0.28973116501788848 0 -0.23104294706112549 -0.29817392722980551 0 -0.22569627159534009 -0.29064390563822362 0 -0.23104294706112549 -0.29817392722980551 0 -0.22453607640027501 -0.29842387346705762 0 -0.22569627159534009 -0.29064390563822362 0 -0.2341156104824163 -0.28973116501788848 0 -0.2300547693907766 -0.28178467995593781 0 -0.25108388684634803 -0.28956965662021522 0 -0.24140403581614819 -0.28379898528087227 0 -0.24047089863443691 -0.30798947189970438 0 -0.2341156104824163 -0.28973116501788848 0 -0.24140403581614819 -0.28379898528087227 0 -0.24047089863443691 -0.30798947189970438 0 -0.24140403581614819 -0.28379898528087227 0 -0.24047089863443691 -0.30798947189970438 0 -0.2341156104824163 -0.28973116501788848 0 -0.2300547693907766 -0.28178467995593781 0 -0.24140403581614819 -0.28379898528087227 0 -0.25108388684634803 -0.28956965662021522 0 -0.2484323970602714 -0.27706385987730509 0 -0.24140403581614819 -0.28379898528087227 0 -0.25718459078837252 -0.29759752524363881 0 -0.25108388684634803 -0.28956965662021522 0 -0.24047089863443691 -0.30798947189970438 0 -0.2341156104824163 -0.28973116501788848 0 -0.24047089863443691 -0.30798947189970438 0 -0.23104294706112549 -0.29817392722980551 0 -0.24047089863443691 -0.30798947189970438 0 -0.23158309368585001 -0.31181085789310747 0 -0.2303958781931594 -0.30408122012615352 0 -0.23158309368585001 -0.31181085789310747 0 -0.2303958781931594 -0.30408122012615352 0 -0.2249978911063876 -0.30539226771637512 0 -0.24047089863443691 -0.30798947189970438 0 -0.23104294706112549 -0.29817392722980551 0 -0.2303958781931594 -0.30408122012615352 0 -0.23104294706112549 -0.29817392722980551 0 -0.2303958781931594 -0.30408122012615352 0 -0.22453607640027501 -0.29842387346705762 0 -0.2303958781931594 -0.30408122012615352 0 -0.22453607640027501 -0.29842387346705762 0 -0.2249978911063876 -0.30539226771637512 0 -0.22453607640027501 -0.29842387346705762 0 -0.2249978911063876 -0.30539226771637512 0 -0.21872282414136721 -0.30136563651957121 0 -0.22453607640027501 -0.29842387346705762 0 -0.21872282414136721 -0.30136563651957121 0 -0.21595054291829549 -0.29285447433738648 0 -0.22249387381410951 -0.31123320620709588 0 -0.2249978911063876 -0.30539226771637512 0 -0.21872282414136721 -0.30136563651957121 0 -0.23158309368585001 -0.31181085789310747 0 -0.22249387381410951 -0.31123320620709588 0 -0.2249978911063876 -0.30539226771637512 0 -0.22249387381410951 -0.31123320620709588 0 -0.20819654573008861 -0.30010144335043992 0 -0.2180259411870723 -0.31620608063285149 0 -0.2144403241224431 -0.30923162986744451 0 -0.20904493575850211 -0.30938578927939081 0 -0.22249387381410951 -0.31123320620709588 0 -0.2144403241224431 -0.30923162986744451 0 -0.20819654573008861 -0.30010144335043992 0 -0.2180259411870723 -0.31620608063285149 0 -0.22249387381410951 -0.31123320620709588 0 -0.2144403241224431 -0.30923162986744451 0 -0.21872282414136721 -0.30136563651957121 0 -0.20819654573008861 -0.30010144335043992 0 -0.21595054291829549 -0.29285447433738648 0 -0.22249387381410951 -0.31123320620709588 0 -0.21872282414136721 -0.30136563651957121 0 -0.20819654573008861 -0.30010144335043992 0 -0.20819654573008861 -0.30010144335043992 0 -0.20288915614788011 -0.30684576889979082 0 -0.200327377448308 -0.30070497350852549 0 -0.19974136112887431 -0.31343603927203523 0 -0.20904493575850211 -0.30938578927939081 0 -0.20288915614788011 -0.30684576889979082 0 -0.2144403241224431 -0.30923162986744451 0 -0.20819654573008861 -0.30010144335043992 0 -0.20904493575850211 -0.30938578927939081 0 -0.20819654573008861 -0.30010144335043992 0 -0.20904493575850211 -0.30938578927939081 0 -0.20288915614788011 -0.30684576889979082 0 -0.19974136112887431 -0.31343603927203523 0 -0.1814567810706762 -0.3106659979112194 0 -0.19974136112887431 -0.31343603927203523 0 -0.20288915614788011 -0.30684576889979082 0 -0.19308950921137841 -0.30535425612401718 0 -0.19974136112887431 -0.31343603927203523 0 -0.19308950921137841 -0.30535425612401718 0 -0.1814567810706762 -0.3106659979112194 0 -0.19308950921137841 -0.30535425612401718 0 -0.1899902243989981 -0.29832565749187118 0 -0.1817779539512053 -0.30255714357571323 0 -0.19308950921137841 -0.30535425612401718 0 -0.1899902243989981 -0.29832565749187118 0 -0.200327377448308 -0.30070497350852549 0 -0.20288915614788011 -0.30684576889979082 0 -0.19308950921137841 -0.30535425612401718 0 -0.200327377448308 -0.30070497350852549 0 -0.20819654573008861 -0.30010144335043992 0 -0.19389921764606771 -0.28896968049378402 0 -0.200327377448308 -0.30070497350852549 0 -0.19389921764606771 -0.28896968049378402 0 -0.20819654573008861 -0.30010144335043992 0 -0.200327377448308 -0.30070497350852549 0 -0.19389921764606771 -0.28896968049378402 0 -0.20819654573008861 -0.30010144335043992 0 -0.19389921764606771 -0.28896968049378402 0 -0.2049502680629153 -0.28953974020436019 0 -0.1899902243989981 -0.29832565749187118 0 -0.19389921764606771 -0.28896968049378402 0 -0.18066470514172869 -0.29420676669921531 0 -0.1899902243989981 -0.29832565749187118 0 -0.200327377448308 -0.30070497350852549 0 -0.19389921764606771 -0.28896968049378402 0 -0.19389921764606771 -0.28896968049378402 0 -0.18643891475010321 -0.2753500999052107 0 -0.19389921764606771 -0.28896968049378402 0 -0.1815972113741586 -0.27939145610981342 0 -0.19389921764606771 -0.28896968049378402 0 -0.2049502680629153 -0.28953974020436019 0 -0.20163083764207049 -0.27816255368004889 0 -0.2099333729274668 -0.28317129254800538 0 -0.2049502680629153 -0.28953974020436019 0 -0.20163083764207049 -0.27816255368004889 0 -0.2099333729274668 -0.28317129254800538 0 -0.2049502680629153 -0.28953974020436019 0 -0.21595054291829549 -0.29285447433738648 0 -0.20819654573008861 -0.30010144335043992 0 -0.2049502680629153 -0.28953974020436019 0 -0.21595054291829549 -0.29285447433738648 0 -0.21947311754018139 -0.28174823216008099 0 -0.2099333729274668 -0.28317129254800538 0 -0.21595054291829549 -0.29285447433738648 0 -0.2117440640613063 -0.2714560660025862 0 -0.20163083764207049 -0.27816255368004889 0 -0.20334583650585281 -0.26123793981755161 0 -0.22398633244919169 -0.27132847136955079 0 -0.21947311754018139 -0.28174823216008099 0 -0.2117440640613063 -0.2714560660025862 0 -0.21947311754018139 -0.28174823216008099 0 -0.2099333729274668 -0.28317129254800538 0 -0.2117440640613063 -0.2714560660025862 0 -0.22398633244919169 -0.27132847136955079 0 -0.2117440640613063 -0.2714560660025862 0 -0.21759888839251429 -0.26212753750200368 0 -0.2099333729274668 -0.28317129254800538 0 -0.2117440640613063 -0.2714560660025862 0 -0.20163083764207049 -0.27816255368004889 0 -0.20163083764207049 -0.27816255368004889 0 -0.20334583650585281 -0.26123793981755161 0 -0.18643891475010321 -0.2753500999052107 0 -0.20334583650585281 -0.26123793981755161 0 -0.18643891475010321 -0.2753500999052107 0 -0.1892261620383611 -0.26071341320317981 0 -0.20334583650585281 -0.26123793981755161 0 -0.18643891475010321 -0.2753500999052107 0 -0.19389921764606771 -0.28896968049378402 0 -0.20163083764207049 -0.27816255368004889 0 -0.18643891475010321 -0.2753500999052107 0 -0.1892261620383611 -0.26071341320317981 0 -0.20334583650585281 -0.26123793981755161 0 -0.1971211098569064 -0.2485562144643311 0 -0.20334583650585281 -0.26123793981755161 0 -0.21759888839251429 -0.26212753750200368 0 -0.22025275826160279 -0.2471257797298928 0 -0.20334583650585281 -0.26123793981755161 0 -0.22025275826160279 -0.2471257797298928 0 -0.20334583650585281 -0.26123793981755161 0 -0.1971211098569064 -0.2485562144643311 0 -0.22025275826160279 -0.2471257797298928 0 -0.2117440640613063 -0.2714560660025862 0 -0.20334583650585281 -0.26123793981755161 0 -0.21759888839251429 -0.26212753750200368 0 -0.15821309250511281 -0.26118480488572993 0 -0.17536452169406261 -0.25513261131262932 0 -0.1815972113741586 -0.27939145610981342 0 -0.15821309250511281 -0.26118480488572993 0 -0.17536452169406261 -0.25513261131262932 0 -0.15566934165753701 -0.24482136105764621 0 -0.1892261620383611 -0.26071341320317981 0 -0.17536452169406261 -0.25513261131262932 0 -0.1971211098569064 -0.2485562144643311 0 -0.1892261620383611 -0.26071341320317981 0 -0.17536452169406261 -0.25513261131262932 0 -0.18643891475010321 -0.2753500999052107 0 -0.17536452169406261 -0.25513261131262932 0 -0.18643891475010321 -0.2753500999052107 0 -0.17536452169406261 -0.25513261131262932 0 -0.18643891475010321 -0.2753500999052107 0 -0.1815972113741586 -0.27939145610981342 0 -0.19389921764606771 -0.28896968049378402 0 -0.18643891475010321 -0.2753500999052107 0 -0.1815972113741586 -0.27939145610981342 0 -0.18643891475010321 -0.2753500999052107 0 -0.1815972113741586 -0.27939145610981342 0 -0.15821309250511281 -0.26118480488572993 0 -0.1815972113741586 -0.27939145610981342 0 -0.1605334253196628 -0.27705414769848019 0 -0.15821309250511281 -0.26118480488572993 0 -0.1815972113741586 -0.27939145610981342 0 -0.1605334253196628 -0.27705414769848019 0 -0.16662117086531369 -0.29189191504570172 0 -0.1460397447830028 -0.28392096720827609 0 -0.1815972113741586 -0.27939145610981342 0 -0.1605334253196628 -0.27705414769848019 0 -0.16662117086531369 -0.29189191504570172 0 -0.16662117086531369 -0.29189191504570172 0 -0.18066470514172869 -0.29420676669921531 0 -0.16807172941449361 -0.30108874618849107 0 -0.1815972113741586 -0.27939145610981342 0 -0.16662117086531369 -0.29189191504570172 0 -0.1815972113741586 -0.27939145610981342 0 -0.16662117086531369 -0.29189191504570172 0 -0.18066470514172869 -0.29420676669921531 0 -0.19389921764606771 -0.28896968049378402 0 -0.1815972113741586 -0.27939145610981342 0 -0.18066470514172869 -0.29420676669921531 0 -0.18066470514172869 -0.29420676669921531 0 -0.1817779539512053 -0.30255714357571323 0 -0.16807172941449361 -0.30108874618849107 0 -0.1817779539512053 -0.30255714357571323 0 -0.17538193411824851 -0.30742310974349601 0 -0.16807172941449361 -0.30108874618849107 0 -0.1899902243989981 -0.29832565749187118 0 -0.18066470514172869 -0.29420676669921531 0 -0.1817779539512053 -0.30255714357571323 0 -0.19308950921137841 -0.30535425612401718 0 -0.1817779539512053 -0.30255714357571323 0 -0.1814567810706762 -0.3106659979112194 0 -0.1817779539512053 -0.30255714357571323 0 -0.1814567810706762 -0.3106659979112194 0 -0.17538193411824851 -0.30742310974349601 0 -0.1814567810706762 -0.3106659979112194 0 -0.17538193411824851 -0.30742310974349601 0 -0.1814567810706762 -0.3106659979112194 0 -0.17538193411824851 -0.30742310974349601 0 -0.1521471234576928 -0.30622570102712859 0 -0.16662117086531369 -0.29189191504570172 0 -0.16807172941449361 -0.30108874618849107 0 -0.15164513035647001 -0.30439237398159158 0 -0.17538193411824851 -0.30742310974349601 0 -0.16807172941449361 -0.30108874618849107 0 -0.1521471234576928 -0.30622570102712859 0 -0.16807172941449361 -0.30108874618849107 0 -0.1521471234576928 -0.30622570102712859 0 -0.15164513035647001 -0.30439237398159158 0 -0.1814567810706762 -0.3106659979112194 0 -0.1521471234576928 -0.30622570102712859 0 -0.16662117086531369 -0.29189191504570172 0 -0.15164513035647001 -0.30439237398159158 0 -0.14986325126998301 -0.30587970344869631 0 -0.1472482395654931 -0.30806244637126978 0 -0.13137693926794269 -0.30307910049847142 0 -0.14986325126998301 -0.30587970344869631 0 -0.13137693926794269 -0.30307910049847142 0 -0.14191197011226919 -0.29595195204747682 0 -0.1521471234576928 -0.30622570102712859 0 -0.15536928910057479 -0.31799335959440589 0 -0.1521471234576928 -0.30622570102712859 0 -0.1472482395654931 -0.30806244637126978 0 -0.1481744133336001 -0.31559103279323952 0 -0.1521471234576928 -0.30622570102712859 0 -0.14986325126998301 -0.30587970344869631 0 -0.1472482395654931 -0.30806244637126978 0 -0.1521471234576928 -0.30622570102712859 0 -0.14986325126998301 -0.30587970344869631 0 -0.15164513035647001 -0.30439237398159158 0 -0.1521471234576928 -0.30622570102712859 0 -0.14986325126998301 -0.30587970344869631 0 -0.1521471234576928 -0.30622570102712859 0 -0.15164513035647001 -0.30439237398159158 0 -0.14986325126998301 -0.30587970344869631 0 -0.15164513035647001 -0.30439237398159158 0 -0.14986325126998301 -0.30587970344869631 0 -0.1472482395654931 -0.30806244637126978 0 -0.14986325126998301 -0.30587970344869631 0 -0.15164513035647001 -0.30439237398159158 0 -0.14191197011226919 -0.29595195204747682 0 -0.1472482395654931 -0.30806244637126978 0 -0.13676428411235661 -0.311985534419285 0 -0.1481744133336001 -0.31559103279323952 0 -0.14986325126998301 -0.30587970344869631 0 -0.13137693926794269 -0.30307910049847142 0 -0.1472482395654931 -0.30806244637126978 0 -0.13676428411235661 -0.311985534419285 0 -0.13137693926794269 -0.30307910049847142 0 -0.13137693926794269 -0.30307910049847142 0 -0.14191197011226919 -0.29595195204747682 0 -0.12354370332633501 -0.29237215235494779 0 -0.13676428411235661 -0.311985534419285 0 -0.13137693926794269 -0.30307910049847142 0 -0.12202825811921469 -0.30947938976295097 0 -0.1460397447830028 -0.28392096720827609 0 -0.14191197011226919 -0.29595195204747682 0 -0.13317406737037779 -0.2802173890703723 0 -0.14191197011226919 -0.29595195204747682 0 -0.13317406737037779 -0.2802173890703723 0 -0.12354370332633501 -0.29237215235494779 0 -0.13317406737037779 -0.2802173890703723 0 -0.121176560474238 -0.27855216134530347 0 -0.12354370332633501 -0.29237215235494779 0 -0.16662117086531369 -0.29189191504570172 0 -0.15164513035647001 -0.30439237398159158 0 -0.1460397447830028 -0.28392096720827609 0 -0.15164513035647001 -0.30439237398159158 0 -0.1460397447830028 -0.28392096720827609 0 -0.14191197011226919 -0.29595195204747682 0 -0.15164513035647001 -0.30439237398159158 0 -0.1460397447830028 -0.28392096720827609 0 -0.1460397447830028 -0.28392096720827609 0 -0.14043435920953651 -0.26344956043496021 0 -0.1605334253196628 -0.27705414769848019 0 -0.1460397447830028 -0.28392096720827609 0 -0.14043435920953651 -0.26344956043496021 0 -0.15821309250511281 -0.26118480488572993 0 -0.1605334253196628 -0.27705414769848019 0 -0.14043435920953651 -0.26344956043496021 0 -0.13317406737037779 -0.2802173890703723 0 -0.1259380663168852 -0.26705754103126977 0 -0.14043435920953651 -0.26344956043496021 0 -0.1460397447830028 -0.28392096720827609 0 -0.13317406737037779 -0.2802173890703723 0 -0.14043435920953651 -0.26344956043496021 0 -0.13317406737037779 -0.2802173890703723 0 -0.1259380663168852 -0.26705754103126977 0 -0.121176560474238 -0.27855216134530347 0 -0.14043435920953651 -0.26344956043496021 0 -0.1283361407779757 -0.25159171728621699 0 -0.13482897363606841 -0.24297815366164491 0 -0.14043435920953651 -0.26344956043496021 0 -0.13482897363606841 -0.24297815366164491 0 -0.1259380663168852 -0.26705754103126977 0 -0.14043435920953651 -0.26344956043496021 0 -0.1283361407779757 -0.25159171728621699 0 -0.15821309250511281 -0.26118480488572993 0 -0.13482897363606841 -0.24297815366164491 0 -0.15821309250511281 -0.26118480488572993 0 -0.14043435920953651 -0.26344956043496021 0 -0.13482897363606841 -0.24297815366164491 0 -0.17697510949039719 -0.35596577996135209 0 -0.17519745401808179 -0.33814225560617162 0 -0.1562220225934601 -0.35985472972221177 0 -0.17519745401808179 -0.33814225560617162 0 -0.1532624182972378 -0.33871633494107939 0 -0.1562220225934601 -0.35985472972221177 0 -0.17519745401808179 -0.33814225560617162 0 -0.1562220225934601 -0.35985472972221177 0 -0.1663441030446621 -0.37717300760659073 0 -0.17697510949039719 -0.35596577996135209 0 -0.1562220225934601 -0.35985472972221177 0 -0.1663441030446621 -0.37717300760659073 0 -0.1854961134254472 -0.37120813041460421 0 -0.17697510949039719 -0.35596577996135209 0 -0.19236830561379509 -0.34938181171492771 0 -0.1854961134254472 -0.37120813041460421 0 -0.17697510949039719 -0.35596577996135209 0 -0.17697510949039719 -0.35596577996135209 0 -0.17519745401808179 -0.33814225560617162 0 -0.18622265824693729 -0.34003474470360739 0 -0.19236830561379509 -0.34938181171492771 0 -0.17697510949039719 -0.35596577996135209 0 -0.18622265824693729 -0.34003474470360739 0 -0.19214051361034601 -0.33054181938157612 0 -0.17519745401808179 -0.33814225560617162 0 -0.18622265824693729 -0.34003474470360739 0 -0.19214051361034601 -0.33054181938157612 0 -0.17519745401808179 -0.33814225560617162 0 -0.17075841890319021 -0.32267991232295651 0 -0.19214051361034601 -0.33054181938157612 0 -0.1814567810706762 -0.3106659979112194 0 -0.17075841890319021 -0.32267991232295651 0 -0.1814567810706762 -0.3106659979112194 0 -0.1521471234576928 -0.30622570102712859 0 -0.17075841890319021 -0.32267991232295651 0 -0.1521471234576928 -0.30622570102712859 0 -0.17075841890319021 -0.32267991232295651 0 -0.15536928910057479 -0.31799335959440589 0 -0.17075841890319021 -0.32267991232295651 0 -0.15536928910057479 -0.31799335959440589 0 -0.15041885550205389 -0.32708722206771829 0 -0.17519745401808179 -0.33814225560617162 0 -0.17075841890319021 -0.32267991232295651 0 -0.1532624182972378 -0.33871633494107939 0 -0.17075841890319021 -0.32267991232295651 0 -0.1532624182972378 -0.33871633494107939 0 -0.15041885550205389 -0.32708722206771829 0 -0.1532624182972378 -0.33871633494107939 0 -0.15041885550205389 -0.32708722206771829 0 -0.13403844172661231 -0.33095488736429202 0 -0.15041885550205389 -0.32708722206771829 0 -0.14028103823900179 -0.32077908792264309 0 -0.13403844172661231 -0.33095488736429202 0 -0.15536928910057479 -0.31799335959440589 0 -0.15041885550205389 -0.32708722206771829 0 -0.1481744133336001 -0.31559103279323952 0 -0.1521471234576928 -0.30622570102712859 0 -0.15536928910057479 -0.31799335959440589 0 -0.1481744133336001 -0.31559103279323952 0 -0.15041885550205389 -0.32708722206771829 0 -0.1481744133336001 -0.31559103279323952 0 -0.14028103823900179 -0.32077908792264309 0 -0.13676428411235661 -0.311985534419285 0 -0.1481744133336001 -0.31559103279323952 0 -0.14028103823900179 -0.32077908792264309 0 -0.13676428411235661 -0.311985534419285 0 -0.14028103823900179 -0.32077908792264309 0 -0.12839564496088529 -0.32005881249807028 0 -0.14028103823900179 -0.32077908792264309 0 -0.12839564496088529 -0.32005881249807028 0 -0.13403844172661231 -0.33095488736429202 0 -0.12839564496088529 -0.32005881249807028 0 -0.13403844172661231 -0.33095488736429202 0 -0.1231279148664025 -0.32697127933959502 0 -0.13676428411235661 -0.311985534419285 0 -0.12839564496088529 -0.32005881249807028 0 -0.12202825811921469 -0.30947938976295097 0 -0.13403844172661231 -0.33095488736429202 0 -0.13290241802702499 -0.35265178330474523 0 -0.1166361947753133 -0.33638206822001748 0 -0.1532624182972378 -0.33871633494107939 0 -0.13403844172661231 -0.33095488736429202 0 -0.13290241802702499 -0.35265178330474523 0 -0.1532624182972378 -0.33871633494107939 0 -0.13290241802702499 -0.35265178330474523 0 -0.1562220225934601 -0.35985472972221177 0 -0.13724659116883831 -0.38156720383825199 0 -0.13290241802702499 -0.35265178330474523 0 -0.1562220225934601 -0.35985472972221177 0 -0.13724659116883831 -0.38156720383825199 0 -0.1663441030446621 -0.37717300760659073 0 -0.1562220225934601 -0.35985472972221177 0 -0.13724659116883831 -0.38156720383825199 0 -0.1562220225934601 -0.35985472972221177 0 -0.13724659116883831 -0.38156720383825199 0 -0.13290241802702499 -0.35265178330474523 0 -0.1192781490478088 -0.36668410834504778 0 -0.1192781490478088 -0.36668410834504778 0 -0.1016352808315869 -0.36700177770792092 0 -0.11220573075163159 -0.38220411347121069 0 -0.1192781490478088 -0.36668410834504778 0 -0.1016352808315869 -0.36700177770792092 0 -0.1099844304083452 -0.35257743562026572 0 -0.1016352808315869 -0.36700177770792092 0 -0.091783481537845241 -0.36974840743822202 0 -0.093334558199797538 -0.36412034719781128 0 -0.1016352808315869 -0.36700177770792092 0 -0.094364811557621053 -0.35389299716276579 0 -0.093334558199797538 -0.36412034719781128 0 -0.1016352808315869 -0.36700177770792092 0 -0.091783481537845241 -0.36974840743822202 0 -0.093814789784828018 -0.38091150164421111 0 -0.094364811557621053 -0.35389299716276579 0 -0.1099844304083452 -0.35257743562026572 0 -0.096042697554356071 -0.3397062417384924 0 -0.1016352808315869 -0.36700177770792092 0 -0.094364811557621053 -0.35389299716276579 0 -0.1099844304083452 -0.35257743562026572 0 -0.13290241802702499 -0.35265178330474523 0 -0.1099844304083452 -0.35257743562026572 0 -0.1166361947753133 -0.33638206822001748 0 -0.13290241802702499 -0.35265178330474523 0 -0.1192781490478088 -0.36668410834504778 0 -0.1099844304083452 -0.35257743562026572 0 -0.13403844172661231 -0.33095488736429202 0 -0.1166361947753133 -0.33638206822001748 0 -0.1231279148664025 -0.32697127933959502 0 -0.1166361947753133 -0.33638206822001748 0 -0.1152881905332649 -0.31967160768574748 0 -0.098893476597157901 -0.32632392269665411 0 -0.1166361947753133 -0.33638206822001748 0 -0.1231279148664025 -0.32697127933959502 0 -0.1152881905332649 -0.31967160768574748 0 -0.12839564496088529 -0.32005881249807028 0 -0.1152881905332649 -0.31967160768574748 0 -0.12202825811921469 -0.30947938976295097 0 -0.12839564496088529 -0.32005881249807028 0 -0.1231279148664025 -0.32697127933959502 0 -0.1152881905332649 -0.31967160768574748 0 -0.1152881905332649 -0.31967160768574748 0 -0.11397155121489801 -0.30848478901155318 0 -0.10823649018657309 -0.3106210867482716 0 -0.1152881905332649 -0.31967160768574748 0 -0.12202825811921469 -0.30947938976295097 0 -0.11397155121489801 -0.30848478901155318 0 -0.1152881905332649 -0.31967160768574748 0 -0.098893476597157901 -0.32632392269665411 0 -0.10823649018657309 -0.3106210867482716 0 -0.1166361947753133 -0.33638206822001748 0 -0.098893476597157901 -0.32632392269665411 0 -0.096042697554356071 -0.3397062417384924 0 -0.1099844304083452 -0.35257743562026572 0 -0.1166361947753133 -0.33638206822001748 0 -0.096042697554356071 -0.3397062417384924 0 -0.081273045807338212 -0.32012122354728773 0 -0.072383893537199012 -0.33396092306611819 0 -0.082523744249277803 -0.34494336359321798 0 -0.081273045807338212 -0.32012122354728773 0 -0.082523744249277803 -0.34494336359321798 0 -0.096042697554356071 -0.3397062417384924 0 -0.081273045807338212 -0.32012122354728773 0 -0.082523744249277803 -0.34494336359321798 0 -0.098893476597157901 -0.32632392269665411 0 -0.096042697554356071 -0.3397062417384924 0 -0.081273045807338212 -0.32012122354728773 0 -0.098893476597157901 -0.32632392269665411 0 -0.081273045807338212 -0.32012122354728773 0 -0.088490963390462057 -0.3073149594937738 0 -0.081273045807338212 -0.32012122354728773 0 -0.06349485352407537 -0.31994243130957151 0 -0.072383893537199012 -0.33396092306611819 0 -0.081273045807338212 -0.32012122354728773 0 -0.06349485352407537 -0.31994243130957151 0 -0.071882199735688629 -0.30989172464331072 0 -0.06349485352407537 -0.31994243130957151 0 -0.072383893537199012 -0.33396092306611819 0 -0.062587044379988993 -0.33886333000968721 0 -0.072383893537199012 -0.33396092306611819 0 -0.072040779725314613 -0.34593426687082662 0 -0.082523744249277803 -0.34494336359321798 0 -0.072383893537199012 -0.33396092306611819 0 -0.062587044379988993 -0.33886333000968721 0 -0.072040779725314613 -0.34593426687082662 0 -0.062587044379988993 -0.33886333000968721 0 -0.072040779725314613 -0.34593426687082662 0 -0.05778126825204781 -0.35817517109810632 0 -0.081484465201393491 -0.35485127927681481 0 -0.05778126825204781 -0.35817517109810632 0 -0.072289445743601369 -0.36429171085611578 0 -0.081484465201393491 -0.35485127927681481 0 -0.05778126825204781 -0.35817517109810632 0 -0.072040779725314613 -0.34593426687082662 0 -0.081484465201393491 -0.35485127927681481 0 -0.05778126825204781 -0.35817517109810632 0 -0.066117606829746781 -0.37437488941039382 0 -0.072289445743601369 -0.36429171085611578 0 -0.05778126825204781 -0.35817517109810632 0 -0.066117606829746781 -0.37437488941039382 0 -0.072289445743601369 -0.36429171085611578 0 -0.083774442691217046 -0.36976550363914829 0 -0.072289445743601369 -0.36429171085611578 0 -0.083774442691217046 -0.36976550363914829 0 -0.081484465201393491 -0.35485127927681481 0 -0.085554658872136979 -0.36583820648233678 0 -0.083774442691217046 -0.36976550363914829 0 -0.082523744249277803 -0.34494336359321798 0 -0.085554658872136979 -0.36583820648233678 0 -0.083774442691217046 -0.36976550363914829 0 -0.083774442691217046 -0.36976550363914829 0 -0.091783481537845241 -0.36974840743822202 0 -0.093814789784828018 -0.38091150164421111 0 -0.085554658872136979 -0.36583820648233678 0 -0.083774442691217046 -0.36976550363914829 0 -0.091783481537845241 -0.36974840743822202 0 -0.094364811557621053 -0.35389299716276579 0 -0.085554658872136979 -0.36583820648233678 0 -0.093334558199797538 -0.36412034719781128 0 -0.085554658872136979 -0.36583820648233678 0 -0.091783481537845241 -0.36974840743822202 0 -0.093334558199797538 -0.36412034719781128 0 -0.094364811557621053 -0.35389299716276579 0 -0.085554658872136979 -0.36583820648233678 0 -0.082523744249277803 -0.34494336359321798 0 -0.083774442691217046 -0.36976550363914829 0 -0.082523744249277803 -0.34494336359321798 0 -0.083774442691217046 -0.36976550363914829 0 -0.082523744249277803 -0.34494336359321798 0 -0.081484465201393491 -0.35485127927681481 0 -0.094364811557621053 -0.35389299716276579 0 -0.096042697554356071 -0.3397062417384924 0 -0.082523744249277803 -0.34494336359321798 0 -0.072040779725314613 -0.34593426687082662 0 -0.082523744249277803 -0.34494336359321798 0 -0.081484465201393491 -0.35485127927681481 0 -0.101475907254733 -0.26829823342826459 0 -0.093680051977193257 -0.25300014610948141 0 -0.1025516661405015 -0.24412656761791199 0 -0.1097432552782682 -0.2572086698476283 0 -0.101475907254733 -0.26829823342826459 0 -0.1025516661405015 -0.24412656761791199 0 -0.101475907254733 -0.26829823342826459 0 -0.1025516661405015 -0.24412656761791199 0 -0.101475907254733 -0.26829823342826459 0 -0.092490388530258719 -0.26367462890309928 0 -0.093680051977193257 -0.25300014610948141 0 -0.1097432552782682 -0.2572086698476283 0 -0.11415052326640381 -0.26847741843797612 0 -0.101475907254733 -0.26829823342826459 0 -0.1097432552782682 -0.2572086698476283 0 -0.1183855941197941 -0.25651062511641259 0 -0.1121525856099083 -0.24863050463757599 0 -0.1283361407779757 -0.25159171728621699 0 -0.1183855941197941 -0.25651062511641259 0 -0.11992695639240671 -0.24305274461581289 0 -0.1259380663168852 -0.26705754103126977 0 -0.1183855941197941 -0.25651062511641259 0 -0.11415052326640381 -0.26847741843797612 0 -0.1259380663168852 -0.26705754103126977 0 -0.1283361407779757 -0.25159171728621699 0 -0.1183855941197941 -0.25651062511641259 0 -0.1097432552782682 -0.2572086698476283 0 -0.1183855941197941 -0.25651062511641259 0 -0.11415052326640381 -0.26847741843797612 0 -0.1259380663168852 -0.26705754103126977 0 -0.11415052326640381 -0.26847741843797612 0 -0.121176560474238 -0.27855216134530347 0 -0.11415052326640381 -0.26847741843797612 0 -0.121176560474238 -0.27855216134530347 0 -0.112272911659429 -0.28340806039222649 0 -0.101475907254733 -0.26829823342826459 0 -0.1004001483689636 -0.29246989923861699 0 -0.089806853404465051 -0.2713401455271785 0 -0.101475907254733 -0.26829823342826459 0 -0.1004001483689636 -0.29246989923861699 0 -0.11415052326640381 -0.26847741843797612 0 -0.101475907254733 -0.26829823342826459 0 -0.112272911659429 -0.28340806039222649 0 -0.101475907254733 -0.26829823342826459 0 -0.089806853404465051 -0.2713401455271785 0 -0.092490388530258719 -0.26367462890309928 0 -0.1004001483689636 -0.29246989923861699 0 -0.112272911659429 -0.28340806039222649 0 -0.11289062726590229 -0.30027849754824781 0 -0.101475907254733 -0.26829823342826459 0 -0.1004001483689636 -0.29246989923861699 0 -0.112272911659429 -0.28340806039222649 0 -0.1004001483689636 -0.29246989923861699 0 -0.10013860532164209 -0.29834661679915908 0 -0.1004001483689636 -0.29246989923861699 0 -0.11289062726590229 -0.30027849754824781 0 -0.112272911659429 -0.28340806039222649 0 -0.12354370332633501 -0.29237215235494779 0 -0.11289062726590229 -0.30027849754824781 0 -0.121176560474238 -0.27855216134530347 0 -0.112272911659429 -0.28340806039222649 0 -0.12354370332633501 -0.29237215235494779 0 -0.13137693926794269 -0.30307910049847142 0 -0.11289062726590229 -0.30027849754824781 0 -0.13137693926794269 -0.30307910049847142 0 -0.11289062726590229 -0.30027849754824781 0 -0.12202825811921469 -0.30947938976295097 0 -0.13137693926794269 -0.30307910049847142 0 -0.12354370332633501 -0.29237215235494779 0 -0.11289062726590229 -0.30027849754824781 0 -0.11289062726590229 -0.30027849754824781 0 -0.11397155121489801 -0.30848478901155318 0 -0.10823649018657309 -0.3106210867482716 0 -0.11289062726590229 -0.30027849754824781 0 -0.12202825811921469 -0.30947938976295097 0 -0.11397155121489801 -0.30848478901155318 0 -0.098893476597157901 -0.32632392269665411 0 -0.10013860532164209 -0.29834661679915908 0 -0.098893476597157901 -0.32632392269665411 0 -0.10013860532164209 -0.29834661679915908 0 -0.088490963390462057 -0.3073149594937738 0 -0.098893476597157901 -0.32632392269665411 0 -0.10823649018657309 -0.3106210867482716 0 -0.10013860532164209 -0.29834661679915908 0 -0.11289062726590229 -0.30027849754824781 0 -0.10013860532164209 -0.29834661679915908 0 -0.1004001483689636 -0.29246989923861699 0 -0.11289062726590229 -0.30027849754824781 0 -0.10013860532164209 -0.29834661679915908 0 -0.11289062726590229 -0.30027849754824781 0 -0.10823649018657309 -0.3106210867482716 0 -0.10013860532164209 -0.29834661679915908 0 -0.081273045807338212 -0.32012122354728773 0 -0.075730545320634307 -0.30237183499028841 0 -0.080022347365398816 -0.29529908350135742 0 -0.081273045807338212 -0.32012122354728773 0 -0.088490963390462057 -0.3073149594937738 0 -0.080022347365398816 -0.29529908350135742 0 -0.10013860532164209 -0.29834661679915908 0 -0.088490963390462057 -0.3073149594937738 0 -0.080022347365398816 -0.29529908350135742 0 -0.081273045807338212 -0.32012122354728773 0 -0.080022347365398816 -0.29529908350135742 0 -0.06349485352407537 -0.31994243130957151 0 -0.067929239438661637 -0.29744245220773302 0 -0.06349485352407537 -0.31994243130957151 0 -0.067929239438661637 -0.29744245220773302 0 -0.05709164511789562 -0.30596989755068921 0 -0.081273045807338212 -0.32012122354728773 0 -0.071882199735688629 -0.30989172464331072 0 -0.075730545320634307 -0.30237183499028841 0 -0.06349485352407537 -0.31994243130957151 0 -0.071882199735688629 -0.30989172464331072 0 -0.067929239438661637 -0.29744245220773302 0 -0.067929239438661637 -0.29744245220773302 0 -0.075730545320634307 -0.30237183499028841 0 -0.074800211398343183 -0.29676828128919502 0 -0.071882199735688629 -0.30989172464331072 0 -0.067929239438661637 -0.29744245220773302 0 -0.075730545320634307 -0.30237183499028841 0 -0.075730545320634307 -0.30237183499028841 0 -0.074800211398343183 -0.29676828128919502 0 -0.080022347365398816 -0.29529908350135742 0 -0.067929239438661637 -0.29744245220773302 0 -0.072363625353247057 -0.27494247310589431 0 -0.074800211398343183 -0.29676828128919502 0 -0.075988861669628593 -0.29203098004520328 0 -0.080022347365398816 -0.29529908350135742 0 -0.067929239438661637 -0.29744245220773302 0 -0.063481929201992804 -0.28659419931659808 0 -0.072363625353247057 -0.27494247310589431 0 -0.067929239438661637 -0.29744245220773302 0 -0.075162920182542767 -0.28731555611229459 0 -0.072363625353247057 -0.27494247310589431 0 -0.075988861669628593 -0.29203098004520328 0 -0.075162920182542767 -0.28731555611229459 0 -0.080022347365398816 -0.29529908350135742 0 -0.067929239438661637 -0.29744245220773302 0 -0.075988861669628593 -0.29203098004520328 0 -0.075162920182542767 -0.28731555611229459 0 -0.067929239438661637 -0.29744245220773302 0 -0.074800211398343183 -0.29676828128919502 0 -0.075988861669628593 -0.29203098004520328 0 -0.067929239438661637 -0.29744245220773302 0 -0.063481929201992804 -0.28659419931659808 0 -0.057157199652218327 -0.29433345841048941 0 -0.1004001483689636 -0.29246989923861699 0 -0.079212385277153408 -0.27922407156230239 0 -0.10013860532164209 -0.29834661679915908 0 -0.080022347365398816 -0.29529908350135742 0 -0.075162920182542767 -0.28731555611229459 0 -0.080022347365398816 -0.29529908350135742 0 -0.079212385277153408 -0.27922407156230239 0 -0.1004001483689636 -0.29246989923861699 0 -0.080022347365398816 -0.29529908350135742 0 -0.079212385277153408 -0.27922407156230239 0 -0.1004001483689636 -0.29246989923861699 0 -0.10013860532164209 -0.29834661679915908 0 -0.080022347365398816 -0.29529908350135742 0 -0.080022347365398816 -0.29529908350135742 0 -0.079212385277153408 -0.27922407156230239 0 -0.1004001483689636 -0.29246989923861699 0 -0.089806853404465051 -0.2713401455271785 0 -0.079212385277153408 -0.27922407156230239 0 -0.089806853404465051 -0.2713401455271785 0 -0.084998741484643592 -0.26205999054747281 0 -0.092490388530258719 -0.26367462890309928 0 -0.089806853404465051 -0.2713401455271785 0 -0.078429256909339093 -0.26368161834739218 0 -0.084998741484643592 -0.26205999054747281 0 -0.079212385277153408 -0.27922407156230239 0 -0.078429256909339093 -0.26368161834739218 0 -0.089806853404465051 -0.2713401455271785 0 -0.079212385277153408 -0.27922407156230239 0 -0.078429256909339093 -0.26368161834739218 0 -0.075162920182542767 -0.28731555611229459 0 -0.079212385277153408 -0.27922407156230239 0 -0.072363625353247057 -0.27494247310589431 0 -0.072363625353247057 -0.27494247310589431 0 -0.052651973256824323 -0.26261945695013877 0 -0.072363625353247057 -0.27494247310589431 0 -0.065594040539757301 -0.27326720108960889 0 -0.052651973256824323 -0.26261945695013877 0 -0.079212385277153408 -0.27922407156230239 0 -0.072363625353247057 -0.27494247310589431 0 -0.072363625353247057 -0.27494247310589431 0 -0.065594040539757301 -0.27326720108960889 0 -0.061663959528748452 -0.27997783588547598 0 -0.063481929201992804 -0.28659419931659808 0 -0.072363625353247057 -0.27494247310589431 0 -0.061663959528748452 -0.27997783588547598 0 -0.079212385277153408 -0.27922407156230239 0 -0.072363625353247057 -0.27494247310589431 0 -0.078429256909339093 -0.26368161834739218 0 -0.072363625353247057 -0.27494247310589431 0 -0.077646128541525 -0.24813916513248199 0 -0.072363625353247057 -0.27494247310589431 0 -0.078429256909339093 -0.26368161834739218 0 -0.077646128541525 -0.24813916513248199 0 -0.072363625353247057 -0.27494247310589431 0 -0.052651973256824323 -0.26261945695013877 0 -0.077646128541525 -0.24813916513248199 0 -0.078429256909339093 -0.26368161834739218 0 -0.077646128541525 -0.24813916513248199 0 -0.084998741484643592 -0.26205999054747281 0 -0.088104632666654803 -0.24175912157342011 0 -0.084998741484643592 -0.26205999054747281 0 -0.093680051977193257 -0.25300014610948141 0 -0.088104632666654803 -0.24175912157342011 0 -0.084998741484643592 -0.26205999054747281 0 -0.088104632666654803 -0.24175912157342011 0 -0.077646128541525 -0.24813916513248199 0 -0.078429256909339093 -0.26368161834739218 0 -0.084998741484643592 -0.26205999054747281 0 -0.077646128541525 -0.24813916513248199 0 -0.084998741484643592 -0.26205999054747281 0 -0.092490388530258719 -0.26367462890309928 0 -0.093680051977193257 -0.25300014610948141 0 -0.032940321160402269 -0.25029644079438251 0 -0.052651973256824323 -0.26261945695013877 0 -0.050902643065861071 -0.24349095896983161 0 -0.032940321160402269 -0.25029644079438251 0 -0.052651973256824323 -0.26261945695013877 0 -0.030801127425925001 -0.25680016795848581 0 -0.032940321160402269 -0.25029644079438251 0 -0.052651973256824323 -0.26261945695013877 0 -0.052651973256824323 -0.26261945695013877 0 -0.048838748996681343 -0.27669498093657302 0 -0.030801127425925001 -0.25680016795848581 0 -0.032940321160402269 -0.25029644079438251 0 -0.030801127425925001 -0.25680016795848581 0 -0.052651973256824323 -0.26261945695013877 0 -0.050902643065861071 -0.24349095896983161 0 -0.077646128541525 -0.24813916513248199 0 -0.065594040539757301 -0.27326720108960889 0 -0.048838748996681343 -0.27669498093657302 0 -0.065594040539757301 -0.27326720108960889 0 -0.052651973256824323 -0.26261945695013877 0 -0.048838748996681343 -0.27669498093657302 0 -0.065594040539757301 -0.27326720108960889 0 -0.061663959528748452 -0.27997783588547598 0 -0.048838748996681343 -0.27669498093657302 0 -0.061663959528748452 -0.27997783588547598 0 -0.048838748996681343 -0.27669498093657302 0 -0.054451087829631463 -0.28288517796522222 0 -0.048838748996681343 -0.27669498093657302 0 -0.054451087829631463 -0.28288517796522222 0 -0.048838748996681343 -0.27669498093657302 0 -0.030801127425925001 -0.25680016795848581 0 -0.048838748996681343 -0.27669498093657302 0 -0.02248395618448398 -0.28208661661419232 0 -0.030801127425925001 -0.25680016795848581 0 -0.048838748996681343 -0.27669498093657302 0 -0.02248395618448398 -0.28208661661419232 0 -0.048838748996681343 -0.27669498093657302 0 -0.041077846387481028 -0.28937070966441081 0 -0.02248395618448398 -0.28208661661419232 0 -0.041077846387481028 -0.28937070966441081 0 -0.037109865356421391 -0.29952186761000271 0 -0.029468436869721851 -0.29252598106650862 0 -0.041077846387481028 -0.28937070966441081 0 -0.04975385330497957 -0.2890306135367654 0 -0.047244383658885593 -0.30186874070713182 0 -0.048838748996681343 -0.27669498093657302 0 -0.041077846387481028 -0.28937070966441081 0 -0.04975385330497957 -0.2890306135367654 0 -0.048838748996681343 -0.27669498093657302 0 -0.04975385330497957 -0.2890306135367654 0 -0.054451087829631463 -0.28288517796522222 0 -0.04975385330497957 -0.2890306135367654 0 -0.054451087829631463 -0.28288517796522222 0 -0.057157199652218327 -0.29433345841048941 0 -0.063481929201992804 -0.28659419931659808 0 -0.054451087829631463 -0.28288517796522222 0 -0.057157199652218327 -0.29433345841048941 0 -0.063481929201992804 -0.28659419931659808 0 -0.061663959528748452 -0.27997783588547598 0 -0.054451087829631463 -0.28288517796522222 0 -0.04975385330497957 -0.2890306135367654 0 -0.057157199652218327 -0.29433345841048941 0 -0.047244383658885593 -0.30186874070713182 0 -0.057157199652218327 -0.29433345841048941 0 -0.047244383658885593 -0.30186874070713182 0 -0.05709164511789562 -0.30596989755068921 0 -0.067929239438661637 -0.29744245220773302 0 -0.057157199652218327 -0.29433345841048941 0 -0.05709164511789562 -0.30596989755068921 0 -0.047244383658885593 -0.30186874070713182 0 -0.05709164511789562 -0.30596989755068921 0 -0.049632549315637188 -0.31626240511852 0 -0.047244383658885593 -0.30186874070713182 0 -0.049632549315637188 -0.31626240511852 0 -0.036505516356473318 -0.31400569198040618 0 -0.047244383658885593 -0.30186874070713182 0 -0.037109865356421391 -0.29952186761000271 0 -0.036505516356473318 -0.31400569198040618 0 -0.041077846387481028 -0.28937070966441081 0 -0.047244383658885593 -0.30186874070713182 0 -0.037109865356421391 -0.29952186761000271 0 -0.037109865356421391 -0.29952186761000271 0 -0.02678144107749017 -0.30078470409936309 0 -0.036505516356473318 -0.31400569198040618 0 -0.02678144107749017 -0.30078470409936309 0 -0.021312585502779081 -0.32213078764647213 0 -0.02678144107749017 -0.30078470409936309 0 -0.036505516356473318 -0.31400569198040618 0 -0.021312585502779081 -0.32213078764647213 0 -0.02678144107749017 -0.30078470409936309 0 -0.01630762940426286 -0.3038502133106713 0 -0.021312585502779081 -0.32213078764647213 0 -0.037109865356421391 -0.29952186761000271 0 -0.02678144107749017 -0.30078470409936309 0 -0.029468436869721851 -0.29252598106650862 0 -0.02678144107749017 -0.30078470409936309 0 -0.01630762940426286 -0.3038502133106713 0 -0.01957434403417008 -0.29093262400193609 0 -0.0063780240591087903 -0.31078717533589839 0 -0.0074917523477661804 -0.29461577546968681 0 0.013051880611257029 -0.30817184754300292 0 -0.01630762940426286 -0.3038502133106713 0 -0.0063780240591087903 -0.31078717533589839 0 -0.021312585502779081 -0.32213078764647213 0 -0.01630762940426286 -0.3038502133106713 0 -0.0063780240591087903 -0.31078717533589839 0 -0.0074917523477661804 -0.29461577546968681 0 -0.02248395618448398 -0.28208661661419232 0 0.0027723556212477219 -0.28725352620772771 0 -0.01075429771457371 -0.28163518560512563 0 -0.02248395618448398 -0.28208661661419232 0 0.0027723556212477219 -0.28725352620772771 0 -0.0074917523477661804 -0.29461577546968681 0 -0.02248395618448398 -0.28208661661419232 0 0.0027723556212477219 -0.28725352620772771 0 -0.01630762940426286 -0.3038502133106713 0 -0.0074917523477661804 -0.29461577546968681 0 -0.01957434403417008 -0.29093262400193609 0 -0.01075429771457371 -0.28163518560512563 0 -0.0017476628817073611 -0.27805551369469472 0 0.0027723556212477219 -0.28725352620772771 0 -0.041077846387481028 -0.28937070966441081 0 -0.02248395618448398 -0.28208661661419232 0 -0.029468436869721851 -0.29252598106650862 0 -0.02248395618448398 -0.28208661661419232 0 -0.01957434403417008 -0.29093262400193609 0 -0.0074917523477661804 -0.29461577546968681 0 -0.02248395618448398 -0.28208661661419232 0 -0.01957434403417008 -0.29093262400193609 0 -0.02678144107749017 -0.30078470409936309 0 -0.01957434403417008 -0.29093262400193609 0 -0.029468436869721851 -0.29252598106650862 0 -0.02248395618448398 -0.28208661661419232 0 -0.01957434403417008 -0.29093262400193609 0 -0.029468436869721851 -0.29252598106650862 0 -0.02248395618448398 -0.28208661661419232 0 -0.030801127425925001 -0.25680016795848581 0 -0.02248395618448398 -0.28208661661419232 0 -0.01520552987642871 -0.27187005660595642 0 -0.030801127425925001 -0.25680016795848581 0 -0.01075429771457371 -0.28163518560512563 0 -0.02248395618448398 -0.28208661661419232 0 -0.01520552987642871 -0.27187005660595642 0 -0.0017476628817073611 -0.27805551369469472 0 -0.01024060517545407 -0.26077279915728391 0 0.0057386521092319797 -0.26220041049146298 0 -0.0017476628817073611 -0.27805551369469472 0 -0.01520552987642871 -0.27187005660595642 0 -0.01024060517545407 -0.26077279915728391 0 -0.0017476628817073611 -0.27805551369469472 0 -0.01024060517545407 -0.26077279915728391 0 -0.01075429771457371 -0.28163518560512563 0 -0.0017476628817073611 -0.27805551369469472 0 -0.01520552987642871 -0.27187005660595642 0 -0.01075429771457371 -0.28163518560512563 0 -0.0017476628817073611 -0.27805551369469472 0 -0.01024060517545407 -0.26077279915728391 0 0.0057386521092319797 -0.26220041049146298 0 0.0025328853753160741 -0.24958102673793139 0 -0.01024060517545407 -0.26077279915728391 0 -0.018733547469201091 -0.24349008461987329 0 -0.01024060517545407 -0.26077279915728391 0 -0.018733547469201091 -0.24349008461987329 0 0.0025328853753160741 -0.24958102673793139 0 -0.01024060517545407 -0.26077279915728391 0 -0.030801127425925001 -0.25680016795848581 0 -0.018733547469201091 -0.24349008461987329 0 -0.01520552987642871 -0.27187005660595642 0 -0.01024060517545407 -0.26077279915728391 0 -0.030801127425925001 -0.25680016795848581 0 -0.032940321160402269 -0.25029644079438251 0 -0.030801127425925001 -0.25680016795848581 0 -0.026871719323301121 -0.24650256912316601 0 -0.030801127425925001 -0.25680016795848581 0 -0.018733547469201091 -0.24349008461987329 0 -0.034078071302702163 -0.36149906291939787 0 -0.05778126825204781 -0.35817517109810632 0 -0.044598414929564491 -0.33459332569111688 0 -0.034078071302702163 -0.36149906291939787 0 -0.044598414929564491 -0.33459332569111688 0 -0.02963630761074966 -0.34409655343526241 0 -0.034078071302702163 -0.36149906291939787 0 -0.05778126825204781 -0.35817517109810632 0 -0.034078071302702163 -0.36149906291939787 0 -0.031733352269984409 -0.37630872523495079 0 -0.04671422923235316 -0.37926911911211442 0 -0.034078071302702163 -0.36149906291939787 0 -0.05778126825204781 -0.35817517109810632 0 -0.04671422923235316 -0.37926911911211442 0 -0.066117606829746781 -0.37437488941039382 0 -0.05778126825204781 -0.35817517109810632 0 -0.04671422923235316 -0.37926911911211442 0 -0.062587044379988993 -0.33886333000968721 0 -0.05778126825204781 -0.35817517109810632 0 -0.044598414929564491 -0.33459332569111688 0 -0.06349485352407537 -0.31994243130957151 0 -0.062587044379988993 -0.33886333000968721 0 -0.044598414929564491 -0.33459332569111688 0 -0.06349485352407537 -0.31994243130957151 0 -0.049632549315637188 -0.31626240511852 0 -0.044598414929564491 -0.33459332569111688 0 -0.06349485352407537 -0.31994243130957151 0 -0.05709164511789562 -0.30596989755068921 0 -0.049632549315637188 -0.31626240511852 0 -0.049632549315637188 -0.31626240511852 0 -0.036505516356473318 -0.31400569198040618 0 -0.044598414929564491 -0.33459332569111688 0 -0.036505516356473318 -0.31400569198040618 0 -0.044598414929564491 -0.33459332569111688 0 -0.021312585502779081 -0.32213078764647213 0 -0.044598414929564491 -0.33459332569111688 0 -0.021312585502779081 -0.32213078764647213 0 -0.02963630761074966 -0.34409655343526241 0 -0.015843729928067991 -0.34347687119358122 0 -0.021312585502779081 -0.32213078764647213 0 -0.02963630761074966 -0.34409655343526241 0 -0.015843729928067991 -0.34347687119358122 0 -0.021312585502779081 -0.32213078764647213 0 -0.0063780240591087903 -0.31078717533589839 0 -0.021312585502779081 -0.32213078764647213 0 3.5896068887442723e-05 -0.32803491845883598 0 -0.015843729928067991 -0.34347687119358122 0 -0.00014080085946228561 -0.35082738964002957 0 3.5896068887442723e-05 -0.32803491845883598 0 -0.015843729928067991 -0.34347687119358122 0 -0.021312585502779081 -0.32213078764647213 0 3.5896068887442723e-05 -0.32803491845883598 0 -0.015843729928067991 -0.34347687119358122 0 -0.00014080085946228561 -0.35082738964002957 0 -0.01037487435335663 -0.3648229547406901 0 -0.015843729928067991 -0.34347687119358122 0 -0.01037487435335663 -0.3648229547406901 0 -0.015843729928067991 -0.34347687119358122 0 -0.02275820373048933 -0.35362182208710219 0 -0.02963630761074966 -0.34409655343526241 0 -0.015843729928067991 -0.34347687119358122 0 -0.02275820373048933 -0.35362182208710219 0 -0.01037487435335663 -0.3648229547406901 0 -0.034078071302702163 -0.36149906291939787 0 -0.02275820373048933 -0.35362182208710219 0 -0.02963630761074966 -0.34409655343526241 0 -0.034078071302702163 -0.36149906291939787 0 -0.02215424893162643 -0.37111505202744122 0 -0.01037487435335663 -0.3648229547406901 0 -0.034078071302702163 -0.36149906291939787 0 -0.01037487435335663 -0.3648229547406901 0 -0.034078071302702163 -0.36149906291939787 0 -0.02275820373048933 -0.35362182208710219 0 -0.01037487435335663 -0.3648229547406901 0 -0.034078071302702163 -0.36149906291939787 0 -0.02215424893162643 -0.37111505202744122 0 -0.031733352269984409 -0.37630872523495079 0 -0.02215424893162643 -0.37111505202744122 0 -0.016772253886492949 -0.37410089839641808 0 -0.01404568160319189 -0.3712617873641948 0 -0.01404568160319189 -0.3712617873641948 0 -0.0094265442937821464 -0.37378457166277412 0 -0.01319259440905524 -0.37623554315916408 0 -0.0078283346885702904 -0.37476262999778609 0 -0.0094265442937821464 -0.37378457166277412 0 -0.01037487435335663 -0.3648229547406901 0 -0.02215424893162643 -0.37111505202744122 0 -0.01404568160319189 -0.3712617873641948 0 -0.01037487435335663 -0.3648229547406901 0 -0.01037487435335663 -0.3648229547406901 0 0.0058490520874761691 -0.36709803082098191 0 -0.016772253886492949 -0.37410089839641808 0 -0.01404568160319189 -0.3712617873641948 0 -0.01319259440905524 -0.37623554315916408 0 -0.00014080085946228561 -0.35082738964002957 0 -0.01037487435335663 -0.3648229547406901 0 0.0058490520874761691 -0.36709803082098191 0 -0.0078283346885702904 -0.37476262999778609 0 -0.01037487435335663 -0.3648229547406901 0 0.0058490520874761691 -0.36709803082098191 0 -0.0078283346885702904 -0.37476262999778609 0 -0.01037487435335663 -0.3648229547406901 0 -0.01404568160319189 -0.3712617873641948 0 -0.0094265442937821464 -0.37378457166277412 0 -0.01037487435335663 -0.3648229547406901 0 -0.0078283346885702904 -0.37476262999778609 0 -0.0094265442937821464 -0.37378457166277412 0 -0.0078283346885702904 -0.37476262999778609 0 -0.0023576536845698339 -0.39611583857600319 0 -0.0078283346885702904 -0.37476262999778609 0 -0.011142097151610131 -0.38172381805447092 0 -0.0023576536845698339 -0.39611583857600319 0 -0.011142097151610131 -0.38172381805447092 0 -0.0023576536845698339 -0.39611583857600319 0 -0.01587325479487519 -0.38723674351337972 0 -0.011142097151610131 -0.38172381805447092 0 -0.01610234460482865 -0.37998891207167063 0 -0.01587325479487519 -0.38723674351337972 0 -0.01319259440905524 -0.37623554315916408 0 -0.011142097151610131 -0.38172381805447092 0 -0.01610234460482865 -0.37998891207167063 0 -0.016772253886492949 -0.37410089839641808 0 -0.01319259440905524 -0.37623554315916408 0 -0.01610234460482865 -0.37998891207167063 0 -0.01319259440905524 -0.37623554315916408 0 -0.010397392635754449 -0.37662664071854879 0 -0.011142097151610131 -0.38172381805447092 0 -0.0078283346885702904 -0.37476262999778609 0 -0.010397392635754449 -0.37662664071854879 0 -0.011142097151610131 -0.38172381805447092 0 -0.0094265442937821464 -0.37378457166277412 0 -0.01319259440905524 -0.37623554315916408 0 -0.010397392635754449 -0.37662664071854879 0 -0.0078283346885702904 -0.37476262999778609 0 -0.0094265442937821464 -0.37378457166277412 0 -0.010397392635754449 -0.37662664071854879 0 -0.0023576536845698339 -0.39611583857600319 0 -0.016854849126784088 -0.39742738565483049 0 -0.01587325479487519 -0.38723674351337972 0 -0.0023576536845698339 -0.39611583857600319 0 -0.016854849126784088 -0.39742738565483049 0 -0.0081630895937607941 -0.41129335178386173 0 -0.016854849126784088 -0.39742738565483049 0 -0.023392714889338931 -0.39064901327928331 0 -0.029305467632274609 -0.40049385546170407 0 -0.016854849126784088 -0.39742738565483049 0 -0.023392714889338931 -0.39064901327928331 0 -0.01587325479487519 -0.38723674351337972 0 -0.023392714889338931 -0.39064901327928331 0 -0.029305467632274609 -0.40049385546170407 0 -0.032188689101130562 -0.38901283488088068 0 -0.02215424893162643 -0.37111505202744122 0 -0.016772253886492949 -0.37410089839641808 0 -0.02353152278210973 -0.38064755723492022 0 -0.016772253886492949 -0.37410089839641808 0 -0.01610234460482865 -0.37998891207167063 0 -0.02353152278210973 -0.38064755723492022 0 -0.01610234460482865 -0.37998891207167063 0 -0.01587325479487519 -0.38723674351337972 0 -0.02353152278210973 -0.38064755723492022 0 -0.023392714889338931 -0.39064901327928331 0 -0.01587325479487519 -0.38723674351337972 0 -0.02353152278210973 -0.38064755723492022 0 -0.023392714889338931 -0.39064901327928331 0 -0.02353152278210973 -0.38064755723492022 0 -0.032188689101130562 -0.38901283488088068 0 -0.02353152278210973 -0.38064755723492022 0 -0.031733352269984409 -0.37630872523495079 0 -0.032188689101130562 -0.38901283488088068 0 -0.02215424893162643 -0.37111505202744122 0 -0.02353152278210973 -0.38064755723492022 0 -0.031733352269984409 -0.37630872523495079 0 -0.031733352269984409 -0.37630872523495079 0 -0.04671422923235316 -0.37926911911211442 0 -0.032188689101130562 -0.38901283488088068 0 -0.04671422923235316 -0.37926911911211442 0 -0.032188689101130562 -0.38901283488088068 0 -0.044289202763444772 -0.39135289085216762 0 -0.032188689101130562 -0.38901283488088068 0 -0.041257957344308177 -0.40487627914437913 0 -0.044289202763444772 -0.39135289085216762 0 -0.029305467632274609 -0.40049385546170407 0 -0.032188689101130562 -0.38901283488088068 0 -0.041257957344308177 -0.40487627914437913 0 -0.056230819367541693 -0.39440183914975269 0 -0.051493530029743613 -0.41277891791385168 0 -0.065747409502729032 -0.40953455918739179 0 -0.041257957344308177 -0.40487627914437913 0 -0.056230819367541693 -0.39440183914975269 0 -0.051493530029743613 -0.41277891791385168 0 -0.041257957344308177 -0.40487627914437913 0 -0.044289202763444772 -0.39135289085216762 0 -0.056230819367541693 -0.39440183914975269 0 -0.056230819367541693 -0.39440183914975269 0 -0.065747409502729032 -0.40953455918739179 0 -0.066117606829746781 -0.37437488941039382 0 -0.04671422923235316 -0.37926911911211442 0 -0.056230819367541693 -0.39440183914975269 0 -0.04671422923235316 -0.37926911911211442 0 -0.044289202763444772 -0.39135289085216762 0 -0.056230819367541693 -0.39440183914975269 0 -0.04671422923235316 -0.37926911911211442 0 -0.056230819367541693 -0.39440183914975269 0 -0.057674512383022389 -0.42734400629007657 0 -0.049601615263317987 -0.44515345339276252 0 -0.057674512383022389 -0.42734400629007657 0 -0.051493530029743613 -0.41277891791385168 0 -0.065747409502729032 -0.40953455918739179 0 -0.057674512383022389 -0.42734400629007657 0 -0.065747409502729032 -0.40953455918739179 0 -0.057674512383022389 -0.42734400629007657 0 -0.051493530029743613 -0.41277891791385168 0 -0.03322823219505102 -0.42129041952379648 0 -0.029305467632274609 -0.40049385546170407 0 -0.041257957344308177 -0.40487627914437913 0 -0.03322823219505102 -0.42129041952379648 0 -0.041257957344308177 -0.40487627914437913 0 -0.051493530029743613 -0.41277891791385168 0 -0.03322823219505102 -0.42129041952379648 0 -0.03322823219505102 -0.42129041952379648 0 -0.02439234541253921 -0.43490569650885758 0 -0.049601615263317987 -0.44515345339276252 0 -0.03322823219505102 -0.42129041952379648 0 -0.049601615263317987 -0.44515345339276252 0 -0.057674512383022389 -0.42734400629007657 0 -0.03322823219505102 -0.42129041952379648 0 -0.049601615263317987 -0.44515345339276252 0 -0.03322823219505102 -0.42129041952379648 0 -0.02439234541253921 -0.43490569650885758 0 -0.010818991714530671 -0.42579448288144173 0 -0.016854849126784088 -0.39742738565483049 0 -0.03322823219505102 -0.42129041952379648 0 -0.03322823219505102 -0.42129041952379648 0 -0.0081630895937607941 -0.41129335178386173 0 -0.010818991714530671 -0.42579448288144173 0 -0.016854849126784088 -0.39742738565483049 0 -0.029305467632274609 -0.40049385546170407 0 -0.03322823219505102 -0.42129041952379648 0 -0.016854849126784088 -0.39742738565483049 0 -0.03322823219505102 -0.42129041952379648 0 -0.0081630895937607941 -0.41129335178386173 0 -0.0081630895937607941 -0.41129335178386173 0 -0.010818991714530671 -0.42579448288144173 0 0.0026957591361241309 -0.41958824334712869 0 -0.02439234541253921 -0.43490569650885758 0 -0.010818991714530671 -0.42579448288144173 0 -0.01027783979290609 -0.4450418277695869 0 -0.010818991714530671 -0.42579448288144173 0 -0.01027783979290609 -0.4450418277695869 0 0.003851027954898749 -0.43172418954792041 0 -0.010818991714530671 -0.42579448288144173 0 0.0026957591361241309 -0.41958824334712869 0 0.003851027954898749 -0.43172418954792041 0 -0.01027783979290609 -0.4450418277695869 0 -0.011038280792740629 -0.46258843223684681 0 0.0031349746952128348 -0.45732154608844711 0 -0.01027783979290609 -0.4450418277695869 0 -0.011038280792740629 -0.46258843223684681 0 -0.02289260566061898 -0.45897742689034388 0 -0.011038280792740629 -0.46258843223684681 0 -0.00094907817261298132 -0.47112804672216879 0 0.0031349746952128348 -0.45732154608844711 0 -0.02289260566061898 -0.45897742689034388 0 -0.029356635895327849 -0.44930438287917762 0 -0.040413005672661102 -0.46542425011239508 0 -0.02289260566061898 -0.45897742689034388 0 -0.023377266149459251 -0.47252824145371342 0 -0.040413005672661102 -0.46542425011239508 0 -0.011038280792740629 -0.46258843223684681 0 -0.02289260566061898 -0.45897742689034388 0 -0.023377266149459251 -0.47252824145371342 0 -0.02439234541253921 -0.43490569650885758 0 -0.01027783979290609 -0.4450418277695869 0 -0.029356635895327849 -0.44930438287917762 0 -0.01027783979290609 -0.4450418277695869 0 -0.02289260566061898 -0.45897742689034388 0 -0.029356635895327849 -0.44930438287917762 0 -0.0023310323066341181 -0.5 0 -0.0043793089323552817 -0.49170101865338262 0 -0.02815109917196898 -0.49861636840837392 0 -0.0043793089323552817 -0.49170101865338262 0 -0.0043176495648967151 -0.48070428616945038 0 0.0053352152350804568 -0.4807791696356124 0 -0.0043793089323552817 -0.49170101865338262 0 -0.0106231170010091 -0.48419136288379427 0 -0.0043176495648967151 -0.48070428616945038 0 -0.0043793089323552817 -0.49170101865338262 0 -0.0106231170010091 -0.48419136288379427 0 -0.017950876149337221 -0.4893641285520216 0 -0.0106231170010091 -0.48419136288379427 0 -0.01097195895358667 -0.47572183295229409 0 -0.019957514846631629 -0.48311391022826639 0 -0.0106231170010091 -0.48419136288379427 0 -0.0043176495648967151 -0.48070428616945038 0 -0.01097195895358667 -0.47572183295229409 0 -0.011038280792740629 -0.46258843223684681 0 -0.00094907817261298132 -0.47112804672216879 0 -0.01097195895358667 -0.47572183295229409 0 -0.0043176495648967151 -0.48070428616945038 0 -0.00094907817261298132 -0.47112804672216879 0 -0.01097195895358667 -0.47572183295229409 0 -0.011038280792740629 -0.46258843223684681 0 -0.01097195895358667 -0.47572183295229409 0 -0.023377266149459251 -0.47252824145371342 0 -0.023377266149459251 -0.47252824145371342 0 -0.019957514846631629 -0.48311391022826639 0 -0.031224396082004221 -0.48569504683202769 0 -0.01097195895358667 -0.47572183295229409 0 -0.023377266149459251 -0.47252824145371342 0 -0.019957514846631629 -0.48311391022826639 0 -0.0023310323066341181 -0.5 0 -0.02815109917196898 -0.49861636840837392 0 -0.031360818006208928 -0.5 0 -0.0043793089323552817 -0.49170101865338262 0 -0.017950876149337221 -0.4893641285520216 0 -0.02815109917196898 -0.49861636840837392 0 -0.0043793089323552817 -0.49170101865338262 0 -0.02815109917196898 -0.49861636840837392 0 -0.0106231170010091 -0.48419136288379427 0 -0.019957514846631629 -0.48311391022826639 0 -0.017950876149337221 -0.4893641285520216 0 -0.019957514846631629 -0.48311391022826639 0 -0.017950876149337221 -0.4893641285520216 0 -0.025597474744393309 -0.49118284869574791 0 -0.019957514846631629 -0.48311391022826639 0 -0.031224396082004221 -0.48569504683202769 0 -0.025597474744393309 -0.49118284869574791 0 -0.025597474744393309 -0.49118284869574791 0 -0.02815109917196898 -0.49861636840837392 0 -0.031360818006208928 -0.5 0 -0.031224396082004221 -0.48569504683202769 0 -0.025597474744393309 -0.49118284869574791 0 -0.031360818006208928 -0.5 0 -0.017950876149337221 -0.4893641285520216 0 -0.025597474744393309 -0.49118284869574791 0 -0.02815109917196898 -0.49861636840837392 0 -0.031360818006208928 -0.5 0 -0.048343055904351132 -0.4819359294639956 0 -0.060390603705783863 -0.5 0 -0.031224396082004221 -0.48569504683202769 0 -0.031360818006208928 -0.5 0 -0.048343055904351132 -0.4819359294639956 0 -0.031224396082004221 -0.48569504683202769 0 -0.040413005672661102 -0.46542425011239508 0 -0.031224396082004221 -0.48569504683202769 0 -0.048343055904351132 -0.4819359294639956 0 -0.040413005672661102 -0.46542425011239508 0 -0.023377266149459251 -0.47252824145371342 0 -0.031224396082004221 -0.48569504683202769 0 -0.040413005672661102 -0.46542425011239508 0 -0.048343055904351132 -0.4819359294639956 0 -0.040413005672661102 -0.46542425011239508 0 -0.061868527913120197 -0.46303160055449383 0 -0.048343055904351132 -0.4819359294639956 0 -0.061868527913120197 -0.46303160055449383 0 -0.067715258758524743 -0.48343239441089819 0 -0.048343055904351132 -0.4819359294639956 0 -0.060390603705783863 -0.5 0 -0.067715258758524743 -0.48343239441089819 0 -0.02439234541253921 -0.43490569650885758 0 -0.029356635895327849 -0.44930438287917762 0 -0.049601615263317987 -0.44515345339276252 0 -0.029356635895327849 -0.44930438287917762 0 -0.040413005672661102 -0.46542425011239508 0 -0.049601615263317987 -0.44515345339276252 0 -0.040413005672661102 -0.46542425011239508 0 -0.049601615263317987 -0.44515345339276252 0 -0.040413005672661102 -0.46542425011239508 0 -0.061868527913120197 -0.46303160055449383 0 -0.049601615263317987 -0.44515345339276252 0 -0.061868527913120197 -0.46303160055449383 0 -0.049601615263317987 -0.44515345339276252 0 -0.057674512383022389 -0.42734400629007657 0 -0.049601615263317987 -0.44515345339276252 0 -0.067687044322660692 -0.44438888407200389 0 -0.061868527913120197 -0.46303160055449383 0 -0.049601615263317987 -0.44515345339276252 0 -0.067687044322660692 -0.44438888407200389 0 -0.067687044322660692 -0.44438888407200389 0 -0.087522951364224152 -0.44416074083195012 0 -0.076635180433477057 -0.42684765000967062 0 -0.067687044322660692 -0.44438888407200389 0 -0.078553716864009776 -0.47219444203600192 0 -0.067687044322660692 -0.44438888407200389 0 -0.080483752515153384 -0.45444307226959779 0 -0.078553716864009776 -0.47219444203600192 0 -0.061868527913120197 -0.46303160055449383 0 -0.067687044322660692 -0.44438888407200389 0 -0.078553716864009776 -0.47219444203600192 0 -0.088171297509719124 -0.45702822213843508 0 -0.078553716864009776 -0.47219444203600192 0 -0.094850460920166413 -0.46755552228499719 0 -0.080483752515153384 -0.45444307226959779 0 -0.088171297509719124 -0.45702822213843508 0 -0.078553716864009776 -0.47219444203600192 0 -0.088171297509719124 -0.45702822213843508 0 -0.092026296169145899 -0.451321693988255 0 -0.09646742034415963 -0.45806785732742278 0 -0.088171297509719124 -0.45702822213843508 0 -0.09646742034415963 -0.45806785732742278 0 -0.094850460920166413 -0.46755552228499719 0 -0.067687044322660692 -0.44438888407200389 0 -0.080483752515153384 -0.45444307226959779 0 -0.087522951364224152 -0.44416074083195012 0 -0.088171297509719124 -0.45702822213843508 0 -0.087522951364224152 -0.44416074083195012 0 -0.088171297509719124 -0.45702822213843508 0 -0.092026296169145899 -0.451321693988255 0 -0.087522951364224152 -0.44416074083195012 0 -0.092026296169145899 -0.451321693988255 0 -0.087522951364224152 -0.44416074083195012 0 -0.080483752515153384 -0.45444307226959779 0 -0.088171297509719124 -0.45702822213843508 0 -0.087522951364224152 -0.44416074083195012 0 -0.060390603705783863 -0.5 0 -0.067715258758524743 -0.48343239441089819 0 -0.089420389405358791 -0.49999999999999978 0 -0.061868527913120197 -0.46303160055449383 0 -0.067715258758524743 -0.48343239441089819 0 -0.078553716864009776 -0.47219444203600192 0 -0.078553716864009776 -0.47219444203600192 0 -0.098208235557426499 -0.48290520710575457 0 -0.094850460920166413 -0.46755552228499719 0 -0.067715258758524743 -0.48343239441089819 0 -0.078553716864009776 -0.47219444203600192 0 -0.089420389405358791 -0.49999999999999978 0 -0.078553716864009776 -0.47219444203600192 0 -0.089420389405358791 -0.49999999999999978 0 -0.078553716864009776 -0.47219444203600192 0 -0.089420389405358791 -0.49999999999999978 0 -0.098208235557426499 -0.48290520710575457 0 -0.098208235557426499 -0.48290520710575457 0 -0.1125398430852395 -0.48112820013538338 0 -0.1148616459058424 -0.5 0 -0.089420389405358791 -0.49999999999999978 0 -0.098208235557426499 -0.48290520710575457 0 -0.1148616459058424 -0.5 0 -0.098208235557426499 -0.48290520710575457 0 -0.1051850434628086 -0.47275710198064308 0 -0.1125398430852395 -0.48112820013538338 0 -0.098208235557426499 -0.48290520710575457 0 -0.1051850434628086 -0.47275710198064308 0 -0.094850460920166413 -0.46755552228499719 0 -0.12704973474613379 -0.46277216333596533 0 -0.13010403334985379 -0.48000251283874379 0 -0.1157083509407465 -0.46985326695645979 0 -0.13010403334985379 -0.48000251283874379 0 -0.1157083509407465 -0.46985326695645979 0 -0.1125398430852395 -0.48112820013538338 0 -0.1051850434628086 -0.47275710198064308 0 -0.1157083509407465 -0.46985326695645979 0 -0.1125398430852395 -0.48112820013538338 0 -0.13010403334985379 -0.48000251283874379 0 -0.1125398430852395 -0.48112820013538338 0 -0.1148616459058424 -0.5 0 -0.10267072031130239 -0.4520905348048061 0 -0.102335674083258 -0.43919792399196639 0 -0.11570487117906469 -0.45324354028800051 0 -0.092026296169145899 -0.451321693988255 0 -0.087522951364224152 -0.44416074083195012 0 -0.102335674083258 -0.43919792399196639 0 -0.092026296169145899 -0.451321693988255 0 -0.10267072031130239 -0.4520905348048061 0 -0.102335674083258 -0.43919792399196639 0 -0.10267072031130239 -0.4520905348048061 0 -0.09646742034415963 -0.45806785732742278 0 -0.1046183268104643 -0.46234331342062063 0 -0.092026296169145899 -0.451321693988255 0 -0.10267072031130239 -0.4520905348048061 0 -0.09646742034415963 -0.45806785732742278 0 -0.1051850434628086 -0.47275710198064308 0 -0.094850460920166413 -0.46755552228499719 0 -0.1046183268104643 -0.46234331342062063 0 -0.09646742034415963 -0.45806785732742278 0 -0.094850460920166413 -0.46755552228499719 0 -0.1046183268104643 -0.46234331342062063 0 -0.1051850434628086 -0.47275710198064308 0 -0.1157083509407465 -0.46985326695645979 0 -0.1046183268104643 -0.46234331342062063 0 -0.10267072031130239 -0.4520905348048061 0 -0.1046183268104643 -0.46234331342062063 0 -0.11570487117906469 -0.45324354028800051 0 -0.12704973474613379 -0.46277216333596533 0 -0.1157083509407465 -0.46985326695645979 0 -0.11570487117906469 -0.45324354028800051 0 -0.1157083509407465 -0.46985326695645979 0 -0.1046183268104643 -0.46234331342062063 0 -0.11570487117906469 -0.45324354028800051 0 -0.13093011984253891 -0.44972195681556543 0 -0.12704973474613379 -0.46277216333596533 0 -0.11570487117906469 -0.45324354028800051 0 -0.13093011984253891 -0.44972195681556543 0 -0.11570487117906469 -0.45324354028800051 0 -0.123519809913229 -0.43733662075251151 0 -0.102335674083258 -0.43919792399196639 0 -0.11570487117906469 -0.45324354028800051 0 -0.123519809913229 -0.43733662075251151 0 -0.102335674083258 -0.43919792399196639 0 -0.123519809913229 -0.43733662075251151 0 -0.1073839645685936 -0.41867419567875119 0 -0.12597911368703019 -0.41952469120143437 0 -0.123519809913229 -0.43733662075251151 0 -0.1073839645685936 -0.41867419567875119 0 -0.102335674083258 -0.43919792399196639 0 -0.1073839645685936 -0.41867419567875119 0 -0.086273448473222103 -0.4193623284343494 0 -0.1073839645685936 -0.41867419567875119 0 -0.1004955064841186 -0.39983262220326049 0 -0.086273448473222103 -0.4193623284343494 0 -0.1073839645685936 -0.41867419567875119 0 -0.11827115974421661 -0.40327967795429231 0 -0.1004955064841186 -0.39983262220326049 0 -0.12597911368703019 -0.41952469120143437 0 -0.1073839645685936 -0.41867419567875119 0 -0.11827115974421661 -0.40327967795429231 0 -0.11827115974421661 -0.40327967795429231 0 -0.11220573075163159 -0.38220411347121069 0 -0.1004955064841186 -0.39983262220326049 0 -0.13724659116883831 -0.38156720383825199 0 -0.1192781490478088 -0.36668410834504778 0 -0.11220573075163159 -0.38220411347121069 0 -0.13724659116883831 -0.38156720383825199 0 -0.11827115974421661 -0.40327967795429231 0 -0.11220573075163159 -0.38220411347121069 0 -0.11220573075163159 -0.38220411347121069 0 -0.093814789784828018 -0.38091150164421111 0 -0.1004955064841186 -0.39983262220326049 0 -0.1016352808315869 -0.36700177770792092 0 -0.11220573075163159 -0.38220411347121069 0 -0.093814789784828018 -0.38091150164421111 0 -0.093814789784828018 -0.38091150164421111 0 -0.1004955064841186 -0.39983262220326049 0 -0.085023945582219762 -0.39456391603674879 0 -0.085023945582219762 -0.39456391603674879 0 -0.074760926096971728 -0.38965003141326948 0 -0.077688182017724178 -0.40799169701628579 0 -0.1004955064841186 -0.39983262220326049 0 -0.085023945582219762 -0.39456391603674879 0 -0.086273448473222103 -0.4193623284343494 0 -0.083774442691217046 -0.36976550363914829 0 -0.093814789784828018 -0.38091150164421111 0 -0.085023945582219762 -0.39456391603674879 0 -0.083774442691217046 -0.36976550363914829 0 -0.085023945582219762 -0.39456391603674879 0 -0.074760926096971728 -0.38965003141326948 0 -0.083774442691217046 -0.36976550363914829 0 -0.085023945582219762 -0.39456391603674879 0 -0.083774442691217046 -0.36976550363914829 0 -0.074760926096971728 -0.38965003141326948 0 -0.066117606829746781 -0.37437488941039382 0 -0.083774442691217046 -0.36976550363914829 0 -0.074760926096971728 -0.38965003141326948 0 -0.066117606829746781 -0.37437488941039382 0 -0.056230819367541693 -0.39440183914975269 0 -0.074760926096971728 -0.38965003141326948 0 -0.074760926096971728 -0.38965003141326948 0 -0.065747409502729032 -0.40953455918739179 0 -0.056230819367541693 -0.39440183914975269 0 -0.074760926096971728 -0.38965003141326948 0 -0.065747409502729032 -0.40953455918739179 0 -0.074760926096971728 -0.38965003141326948 0 -0.077688182017724178 -0.40799169701628579 0 -0.065747409502729032 -0.40953455918739179 0 -0.057674512383022389 -0.42734400629007657 0 -0.065747409502729032 -0.40953455918739179 0 -0.076635180433477057 -0.42684765000967062 0 -0.065747409502729032 -0.40953455918739179 0 -0.076635180433477057 -0.42684765000967062 0 -0.077688182017724178 -0.40799169701628579 0 -0.065747409502729032 -0.40953455918739179 0 -0.076635180433477057 -0.42684765000967062 0 -0.057674512383022389 -0.42734400629007657 0 -0.067687044322660692 -0.44438888407200389 0 -0.076635180433477057 -0.42684765000967062 0 -0.087522951364224152 -0.44416074083195012 0 -0.102335674083258 -0.43919792399196639 0 -0.086273448473222103 -0.4193623284343494 0 -0.087522951364224152 -0.44416074083195012 0 -0.076635180433477057 -0.42684765000967062 0 -0.087522951364224152 -0.44416074083195012 0 -0.086273448473222103 -0.4193623284343494 0 -0.087522951364224152 -0.44416074083195012 0 -0.076635180433477057 -0.42684765000967062 0 -0.086273448473222103 -0.4193623284343494 0 -0.077688182017724178 -0.40799169701628579 0 -0.076635180433477057 -0.42684765000967062 0 -0.086273448473222103 -0.4193623284343494 0 -0.085023945582219762 -0.39456391603674879 0 -0.086273448473222103 -0.4193623284343494 0 -0.085023945582219762 -0.39456391603674879 0 -0.077688182017724178 -0.40799169701628579 0 -0.086273448473222103 -0.4193623284343494 0 -0.088492877882569029 -0.082108210476901852 0 -0.076927128592812144 -0.088910799915979499 0 -0.09750588448509391 -0.094492999713411269 0 -0.088492877882569029 -0.082108210476901852 0 -0.079577064860946206 -0.073577453582062496 0 -0.076927128592812144 -0.088910799915979499 0 -0.079577064860946206 -0.073577453582062496 0 -0.0985919344824224 -0.072778756797164931 0 -0.087769009107716192 -0.046193724725750278 0 -0.088492877882569029 -0.082108210476901852 0 -0.079577064860946206 -0.073577453582062496 0 -0.0985919344824224 -0.072778756797164931 0 -0.079577064860946206 -0.073577453582062496 0 -0.068797467898171552 -0.064113028811232264 0 -0.064240921843242857 -0.078969573753286809 0 -0.068797467898171552 -0.064113028811232264 0 -0.064240921843242857 -0.078969573753286809 0 -0.05461803829180413 -0.069755112608578862 0 -0.064240921843242857 -0.078969573753286809 0 -0.065719917437320752 -0.085301382988547655 0 -0.071622236241637716 -0.082994103557465768 0 -0.079577064860946206 -0.073577453582062496 0 -0.064240921843242857 -0.078969573753286809 0 -0.071622236241637716 -0.082994103557465768 0 -0.079577064860946206 -0.073577453582062496 0 -0.071622236241637716 -0.082994103557465768 0 -0.076927128592812144 -0.088910799915979499 0 -0.076927128592812144 -0.088910799915979499 0 -0.070013937980536456 -0.090181036700446429 0 -0.073360588416105155 -0.101926594449817 0 -0.071622236241637716 -0.082994103557465768 0 -0.076927128592812144 -0.088910799915979499 0 -0.070013937980536456 -0.090181036700446429 0 -0.065719917437320752 -0.085301382988547655 0 -0.070013937980536456 -0.090181036700446429 0 -0.057002573683865979 -0.089060817942991616 0 -0.065719917437320752 -0.085301382988547655 0 -0.071622236241637716 -0.082994103557465768 0 -0.070013937980536456 -0.090181036700446429 0 -0.073360588416105155 -0.101926594449817 0 -0.064648045787775776 -0.1114736180136202 0 -0.083029262804162729 -0.11173362360677321 0 -0.076927128592812144 -0.088910799915979499 0 -0.073360588416105155 -0.101926594449817 0 -0.083029262804162729 -0.11173362360677321 0 -0.070013937980536456 -0.090181036700446429 0 -0.064167586873575405 -0.098824988458513688 0 -0.073360588416105155 -0.101926594449817 0 -0.064167586873575405 -0.098824988458513688 0 -0.073360588416105155 -0.101926594449817 0 -0.064648045787775776 -0.1114736180136202 0 -0.064648045787775776 -0.1114736180136202 0 -0.083029262804162729 -0.11173362360677321 0 -0.072915517223638954 -0.12670463451369329 0 -0.064648045787775776 -0.1114736180136202 0 -0.060928146748241367 -0.123537549367131 0 -0.072915517223638954 -0.12670463451369329 0 -0.083029262804162729 -0.11173362360677321 0 -0.089131397015513494 -0.13455644729756691 0 -0.072915517223638954 -0.12670463451369329 0 -0.083029262804162729 -0.11173362360677321 0 -0.089131397015513494 -0.13455644729756691 0 -0.083029262804162729 -0.11173362360677321 0 -0.099989791654964619 -0.11261170107408 0 -0.089131397015513494 -0.13455644729756691 0 -0.076927128592812144 -0.088910799915979499 0 -0.083029262804162729 -0.11173362360677321 0 -0.076927128592812144 -0.088910799915979499 0 -0.083029262804162729 -0.11173362360677321 0 -0.09750588448509391 -0.094492999713411269 0 -0.083029262804162729 -0.11173362360677321 0 -0.09750588448509391 -0.094492999713411269 0 -0.099989791654964619 -0.11261170107408 0 -0.09750588448509391 -0.094492999713411269 0 -0.099989791654964619 -0.11261170107408 0 -0.11605893441195141 -0.10185107539240761 0 -0.099989791654964619 -0.11261170107408 0 -0.11422347955810171 -0.1204243593602408 0 -0.089131397015513494 -0.13455644729756691 0 -0.11422347955810171 -0.1204243593602408 0 -0.11605893441195141 -0.10185107539240761 0 -0.13931556210068971 -0.10629227142291391 0 -0.099989791654964619 -0.11261170107408 0 -0.11422347955810171 -0.1204243593602408 0 -0.11605893441195141 -0.10185107539240761 0 -0.09750588448509391 -0.094492999713411269 0 -0.11605893441195141 -0.10185107539240761 0 -0.121811479392537 -0.084095963505499416 0 -0.09750588448509391 -0.094492999713411269 0 -0.121811479392537 -0.084095963505499416 0 -0.0985919344824224 -0.072778756797164931 0 -0.088492877882569029 -0.082108210476901852 0 -0.09750588448509391 -0.094492999713411269 0 -0.0985919344824224 -0.072778756797164931 0 -0.121811479392537 -0.084095963505499416 0 -0.0985919344824224 -0.072778756797164931 0 -0.12197003300458489 -0.067133964797042034 0 -0.0985919344824224 -0.072778756797164931 0 -0.12197003300458489 -0.067133964797042034 0 -0.11173313641422659 -0.051099137712197359 0 -0.12197003300458489 -0.067133964797042034 0 -0.11173313641422659 -0.051099137712197359 0 -0.13241258759658719 -0.044529255409706578 0 -0.11719553878173181 -0.037741673539740471 0 -0.12411398995058071 -0.026208981462584841 0 -0.13241258759658719 -0.044529255409706578 0 -0.11173313641422659 -0.051099137712197359 0 -0.11719553878173181 -0.037741673539740471 0 -0.13241258759658719 -0.044529255409706578 0 -0.11719553878173181 -0.037741673539740471 0 -0.1033935341420949 -0.036608907929656417 0 -0.1118019010511415 -0.027957019938586129 0 -0.11173313641422659 -0.051099137712197359 0 -0.11719553878173181 -0.037741673539740471 0 -0.1033935341420949 -0.036608907929656417 0 -0.11173313641422659 -0.051099137712197359 0 -0.1033935341420949 -0.036608907929656417 0 -0.087769009107716192 -0.046193724725750278 0 -0.1033935341420949 -0.036608907929656417 0 -0.091700817231413184 -0.028161456197506499 0 -0.087769009107716192 -0.046193724725750278 0 -0.0985919344824224 -0.072778756797164931 0 -0.11173313641422659 -0.051099137712197359 0 -0.087769009107716192 -0.046193724725750278 0 -0.1152652699767374 -0.0044733142422073097 0 -0.1278640484455188 -0.012334690821253821 0 -0.1273771369441013 0.0023450629401116992 0 -0.1152652699767374 -0.0044733142422073097 0 -0.11303603589243651 -0.016818202060669259 0 -0.1278640484455188 -0.012334690821253821 0 -0.1152652699767374 -0.0044733142422073097 0 -0.11303603589243651 -0.016818202060669259 0 -0.1012139958851531 -0.0082010901258140791 0 -0.11303603589243651 -0.016818202060669259 0 -0.12411398995058071 -0.026208981462584841 0 -0.1278640484455188 -0.012334690821253821 0 -0.11719553878173181 -0.037741673539740471 0 -0.12411398995058071 -0.026208981462584841 0 -0.1118019010511415 -0.027957019938586129 0 -0.11303603589243651 -0.016818202060669259 0 -0.12411398995058071 -0.026208981462584841 0 -0.1118019010511415 -0.027957019938586129 0 -0.1033935341420949 -0.036608907929656417 0 -0.1118019010511415 -0.027957019938586129 0 -0.10074487633177411 -0.021927112774035699 0 -0.1033935341420949 -0.036608907929656417 0 -0.10074487633177411 -0.021927112774035699 0 -0.091700817231413184 -0.028161456197506499 0 -0.10074487633177411 -0.021927112774035699 0 -0.089359217900845153 -0.01537750648633354 0 -0.091700817231413184 -0.028161456197506499 0 -0.11303603589243651 -0.016818202060669259 0 -0.10074487633177411 -0.021927112774035699 0 -0.1012139958851531 -0.0082010901258140791 0 -0.11303603589243651 -0.016818202060669259 0 -0.1118019010511415 -0.027957019938586129 0 -0.10074487633177411 -0.021927112774035699 0 -0.10074487633177411 -0.021927112774035699 0 -0.1012139958851531 -0.0082010901258140791 0 -0.089359217900845153 -0.01537750648633354 0 -0.1012139958851531 -0.0082010901258140791 0 -0.089124004628701792 -0.0040277377021705899 0 -0.097507665945787692 0.0040820149966005574 0 -0.1012139958851531 -0.0082010901258140791 0 -0.097507665945787692 0.0040820149966005574 0 -0.1058521268010089 0.00073384547527136773 0 -0.1152652699767374 -0.0044733142422073097 0 -0.1012139958851531 -0.0082010901258140791 0 -0.1058521268010089 0.00073384547527136773 0 -0.079764572027605563 -0.001208843295517239 0 -0.089124004628701792 -0.0040277377021705899 0 -0.080379206648835008 -0.009775819102595687 0 -0.089124004628701792 -0.0040277377021705899 0 -0.089359217900845153 -0.01537750648633354 0 -0.080379206648835008 -0.009775819102595687 0 -0.1012139958851531 -0.0082010901258140791 0 -0.089124004628701792 -0.0040277377021705899 0 -0.089359217900845153 -0.01537750648633354 0 -0.089359217900845153 -0.01537750648633354 0 -0.080379206648835008 -0.009775819102595687 0 -0.076946083733010012 -0.019608692654335649 0 -0.089359217900845153 -0.01537750648633354 0 -0.091700817231413184 -0.028161456197506499 0 -0.076946083733010012 -0.019608692654335649 0 -0.066439508831189667 -0.02875513821822643 0 -0.076946083733010012 -0.019608692654335649 0 -0.073396792324475907 -0.036549185213838799 0 -0.066439508831189667 -0.02875513821822643 0 -0.068530762808199294 -0.019938962024248611 0 -0.056338296441182101 -0.027044179732367449 0 -0.066439508831189667 -0.02875513821822643 0 -0.068530762808199294 -0.019938962024248611 0 -0.076946083733010012 -0.019608692654335649 0 -0.080379206648835008 -0.009775819102595687 0 -0.076946083733010012 -0.019608692654335649 0 -0.066123158358303874 0.0069763394170788487 0 -0.079764572027605563 -0.001208843295517239 0 -0.080379206648835008 -0.009775819102595687 0 -0.066123158358303874 0.0069763394170788487 0 -0.076946083733010012 -0.019608692654335649 0 -0.059664616745900671 -0.0040500510012267867 0 -0.066123158358303874 0.0069763394170788487 0 -0.068530762808199294 -0.019938962024248611 0 -0.059664616745900671 -0.0040500510012267867 0 -0.068530762808199294 -0.019938962024248611 0 -0.076946083733010012 -0.019608692654335649 0 -0.059664616745900671 -0.0040500510012267867 0 -0.076946083733010012 -0.019608692654335649 0 -0.066123158358303874 0.0069763394170788487 0 -0.079577064860946206 -0.073577453582062496 0 -0.068797467898171552 -0.064113028811232264 0 -0.087769009107716192 -0.046193724725750278 0 -0.0985919344824224 -0.072778756797164931 0 -0.087769009107716192 -0.046193724725750278 0 -0.076946083733010012 -0.019608692654335649 0 -0.087769009107716192 -0.046193724725750278 0 -0.073396792324475907 -0.036549185213838799 0 -0.091700817231413184 -0.028161456197506499 0 -0.076946083733010012 -0.019608692654335649 0 -0.087769009107716192 -0.046193724725750278 0 -0.076946083733010012 -0.019608692654335649 0 -0.087769009107716192 -0.046193724725750278 0 -0.073396792324475907 -0.036549185213838799 0 -0.062271996897588083 -0.052791321925605532 0 -0.056985608849081007 -0.04063467146634165 0 -0.087769009107716192 -0.046193724725750278 0 -0.073396792324475907 -0.036549185213838799 0 -0.062271996897588083 -0.052791321925605532 0 -0.066439508831189667 -0.02875513821822643 0 -0.073396792324475907 -0.036549185213838799 0 -0.056985608849081007 -0.04063467146634165 0 -0.068797467898171552 -0.064113028811232264 0 -0.087769009107716192 -0.046193724725750278 0 -0.062271996897588083 -0.052791321925605532 0 -0.050876123791686781 -0.0557005837010279 0 -0.062271996897588083 -0.052791321925605532 0 -0.05461803829180413 -0.069755112608578862 0 -0.068797467898171552 -0.064113028811232264 0 -0.062271996897588083 -0.052791321925605532 0 -0.05461803829180413 -0.069755112608578862 0 -0.050876123791686781 -0.0557005837010279 0 -0.04125611079489349 -0.061033813963863537 0 -0.05461803829180413 -0.069755112608578862 0 -0.050876123791686781 -0.0557005837010279 0 -0.056985608849081007 -0.04063467146634165 0 -0.043217803893324663 -0.046983348469378128 0 -0.050876123791686781 -0.0557005837010279 0 -0.062271996897588083 -0.052791321925605532 0 -0.056985608849081007 -0.04063467146634165 0 -0.066439508831189667 -0.02875513821822643 0 -0.056985608849081007 -0.04063467146634165 0 -0.056338296441182101 -0.027044179732367449 0 -0.056985608849081007 -0.04063467146634165 0 -0.048013312662868769 -0.034084565957593307 0 -0.056338296441182101 -0.027044179732367449 0 -0.056985608849081007 -0.04063467146634165 0 -0.048013312662868769 -0.034084565957593307 0 -0.043217803893324663 -0.046983348469378128 0 -0.034747022969916552 -0.036023397885302497 0 -0.03178279228815796 -0.053256275703554248 0 -0.043217803893324663 -0.046983348469378128 0 -0.048013312662868769 -0.034084565957593307 0 -0.034747022969916552 -0.036023397885302497 0 -0.043217803893324663 -0.046983348469378128 0 -0.03178279228815796 -0.053256275703554248 0 -0.04125611079489349 -0.061033813963863537 0 -0.027189616291661511 -0.068956488044421491 0 -0.03178279228815796 -0.053256275703554248 0 -0.04125611079489349 -0.061033813963863537 0 -0.043217803893324663 -0.046983348469378128 0 -0.050876123791686781 -0.0557005837010279 0 -0.04125611079489349 -0.061033813963863537 0 -0.043217803893324663 -0.046983348469378128 0 -0.068530762808199294 -0.019938962024248611 0 -0.059664616745900671 -0.0040500510012267867 0 -0.057625718948113309 -0.01560592069947127 0 -0.047617207273071643 -0.0035118018543059538 0 -0.059664616745900671 -0.0040500510012267867 0 -0.057625718948113309 -0.01560592069947127 0 -0.047617207273071643 -0.0035118018543059538 0 -0.057625718948113309 -0.01560592069947127 0 -0.044435943862541481 -0.018862463730406901 0 -0.057625718948113309 -0.01560592069947127 0 -0.056338296441182101 -0.027044179732367449 0 -0.044435943862541481 -0.018862463730406901 0 -0.068530762808199294 -0.019938962024248611 0 -0.057625718948113309 -0.01560592069947127 0 -0.056338296441182101 -0.027044179732367449 0 -0.048013312662868769 -0.034084565957593307 0 -0.056338296441182101 -0.027044179732367449 0 -0.044435943862541481 -0.018862463730406901 0 -0.048013312662868769 -0.034084565957593307 0 -0.034747022969916552 -0.036023397885302497 0 -0.044435943862541481 -0.018862463730406901 0 -0.034747022969916552 -0.036023397885302497 0 -0.044435943862541481 -0.018862463730406901 0 -0.029096019340949839 -0.020089153358083849 0 -0.044435943862541481 -0.018862463730406901 0 -0.037331614038931003 -0.0090830911405071785 0 -0.029096019340949839 -0.020089153358083849 0 -0.047617207273071643 -0.0035118018543059538 0 -0.044435943862541481 -0.018862463730406901 0 -0.037331614038931003 -0.0090830911405071785 0 -0.047617207273071643 -0.0035118018543059538 0 -0.044435943862541481 -0.018862463730406901 0 -0.037331614038931003 -0.0090830911405071785 0 -0.025670282478897081 -0.0054027298625421993 0 -0.03671052455766443 0.0037031618858211421 0 -0.047617207273071643 -0.0035118018543059538 0 -0.037331614038931003 -0.0090830911405071785 0 -0.03671052455766443 0.0037031618858211421 0 -0.025670282478897081 -0.0054027298625421993 0 -0.029096019340949839 -0.020089153358083849 0 -0.01201491237982177 -0.012697106039732861 0 -0.025670282478897081 -0.0054027298625421993 0 -0.01201491237982177 -0.012697106039732861 0 -0.010105069976996849 0.0023765649732562961 0 -0.037331614038931003 -0.0090830911405071785 0 -0.025670282478897081 -0.0054027298625421993 0 -0.029096019340949839 -0.020089153358083849 0 -0.034747022969916552 -0.036023397885302497 0 -0.029096019340949839 -0.020089153358083849 0 -0.01621539074153976 -0.030149579770640821 0 -0.029096019340949839 -0.020089153358083849 0 -0.01621539074153976 -0.030149579770640821 0 -0.01201491237982177 -0.012697106039732861 0 -0.01621539074153976 -0.030149579770640821 0 0.0026421611525163911 -0.019923693291100199 0 0.001114662024295677 -0.034644724797188199 0 -0.01621539074153976 -0.030149579770640821 0 -0.01201491237982177 -0.012697106039732861 0 0.0026421611525163911 -0.019923693291100199 0 -0.01201491237982177 -0.012697106039732861 0 0.0047038114401232534 -0.001040937293712483 0 0.0026421611525163911 -0.019923693291100199 0 -0.01201491237982177 -0.012697106039732861 0 -0.010105069976996849 0.0023765649732562961 0 0.0047038114401232534 -0.001040937293712483 0 -0.03178279228815796 -0.053256275703554248 0 -0.015718878272565229 -0.058792224196781109 0 -0.02130541942185268 -0.044498810144407437 0 -0.03178279228815796 -0.053256275703554248 0 -0.015718878272565229 -0.058792224196781109 0 -0.027189616291661511 -0.068956488044421491 0 -0.034747022969916552 -0.036023397885302497 0 -0.01621539074153976 -0.030149579770640821 0 -0.02130541942185268 -0.044498810144407437 0 -0.034747022969916552 -0.036023397885302497 0 -0.03178279228815796 -0.053256275703554248 0 -0.02130541942185268 -0.044498810144407437 0 -0.01621539074153976 -0.030149579770640821 0 -0.0092606153764647689 -0.044492254616565037 0 0.001114662024295677 -0.034644724797188199 0 -0.0092606153764647689 -0.044492254616565037 0 0.001114662024295677 -0.034644724797188199 0 0.003426744450576454 -0.054815297075420773 0 -0.01621539074153976 -0.030149579770640821 0 -0.02130541942185268 -0.044498810144407437 0 -0.0092606153764647689 -0.044492254616565037 0 -0.015718878272565229 -0.058792224196781109 0 -0.0092606153764647689 -0.044492254616565037 0 0.003426744450576454 -0.054815297075420773 0 -0.015718878272565229 -0.058792224196781109 0 -0.0072319765520409062 -0.068818796064575097 0 0.003426744450576454 -0.054815297075420773 0 -0.015718878272565229 -0.058792224196781109 0 -0.02130541942185268 -0.044498810144407437 0 -0.0092606153764647689 -0.044492254616565037 0 -0.0072319765520409062 -0.068818796064575097 0 -0.0056293594721457006 -0.082036805430144924 0 0.0054575408194632406 -0.073720759659108445 0 -0.0072319765520409062 -0.068818796064575097 0 -0.016531268938654212 -0.068489504758274394 0 -0.015984604638349179 -0.077390510727319894 0 -0.0072319765520409062 -0.068818796064575097 0 -0.0056293594721457006 -0.082036805430144924 0 -0.015984604638349179 -0.077390510727319894 0 -0.015718878272565229 -0.058792224196781109 0 -0.0072319765520409062 -0.068818796064575097 0 -0.016531268938654212 -0.068489504758274394 0 -0.0075898384642912086 -0.092772169897659226 0 -0.0056293594721457006 -0.082036805430144924 0 0.0072012692200917657 -0.09144049599341271 0 -0.0056293594721457006 -0.082036805430144924 0 -0.01562854721774792 -0.088078100238794171 0 -0.015984604638349179 -0.077390510727319894 0 -0.0075898384642912086 -0.092772169897659226 0 -0.0056293594721457006 -0.082036805430144924 0 -0.01562854721774792 -0.088078100238794171 0 -0.0075898384642912086 -0.092772169897659226 0 -0.01562854721774792 -0.088078100238794171 0 -0.015839401072447711 -0.097831294581907868 0 -0.01562854721774792 -0.088078100238794171 0 -0.02305577581672685 -0.083163458542690943 0 -0.024670005891415589 -0.092262667611894875 0 -0.01562854721774792 -0.088078100238794171 0 -0.024670005891415589 -0.092262667611894875 0 -0.015839401072447711 -0.097831294581907868 0 -0.01562854721774792 -0.088078100238794171 0 -0.02305577581672685 -0.083163458542690943 0 -0.015984604638349179 -0.077390510727319894 0 -0.02305577581672685 -0.083163458542690943 0 -0.024670005891415589 -0.092262667611894875 0 -0.031754510724464793 -0.081253108138323094 0 -0.024670005891415589 -0.092262667611894875 0 -0.031754510724464793 -0.081253108138323094 0 -0.03344051123233422 -0.092098432850847969 0 -0.015718878272565229 -0.058792224196781109 0 -0.016531268938654212 -0.068489504758274394 0 -0.027189616291661511 -0.068956488044421491 0 -0.016531268938654212 -0.068489504758274394 0 -0.015984604638349179 -0.077390510727319894 0 -0.027189616291661511 -0.068956488044421491 0 -0.02305577581672685 -0.083163458542690943 0 -0.015984604638349179 -0.077390510727319894 0 -0.027189616291661511 -0.068956488044421491 0 -0.02305577581672685 -0.083163458542690943 0 -0.027189616291661511 -0.068956488044421491 0 -0.031754510724464793 -0.081253108138323094 0 -0.04125611079489349 -0.061033813963863537 0 -0.027189616291661511 -0.068956488044421491 0 -0.04053175759116228 -0.071452392996033218 0 -0.04125611079489349 -0.061033813963863537 0 -0.04053175759116228 -0.071452392996033218 0 -0.05461803829180413 -0.069755112608578862 0 -0.04053175759116228 -0.071452392996033218 0 -0.04331800788480706 -0.080321541169751709 0 -0.05461803829180413 -0.069755112608578862 0 -0.027189616291661511 -0.068956488044421491 0 -0.04053175759116228 -0.071452392996033218 0 -0.031754510724464793 -0.081253108138323094 0 -0.04053175759116228 -0.071452392996033218 0 -0.031754510724464793 -0.081253108138323094 0 -0.04331800788480706 -0.080321541169751709 0 -0.031754510724464793 -0.081253108138323094 0 -0.037920360895102763 -0.086728863392239786 0 -0.04331800788480706 -0.080321541169751709 0 -0.031754510724464793 -0.081253108138323094 0 -0.03344051123233422 -0.092098432850847969 0 -0.037920360895102763 -0.086728863392239786 0 -0.03344051123233422 -0.092098432850847969 0 -0.037920360895102763 -0.086728863392239786 0 -0.039477100495342581 -0.093081883261144749 0 -0.043535591074226332 -0.088659540190963698 0 -0.052607434978589038 -0.084605160310905272 0 -0.044151246104392423 -0.095288874830203096 0 -0.039477100495342581 -0.093081883261144749 0 -0.043535591074226332 -0.088659540190963698 0 -0.044151246104392423 -0.095288874830203096 0 -0.037920360895102763 -0.086728863392239786 0 -0.039477100495342581 -0.093081883261144749 0 -0.043535591074226332 -0.088659540190963698 0 -0.043535591074226332 -0.088659540190963698 0 -0.044151246104392423 -0.095288874830203096 0 -0.037920360895102763 -0.086728863392239786 0 -0.043535591074226332 -0.088659540190963698 0 -0.04331800788480706 -0.080321541169751709 0 -0.043535591074226332 -0.088659540190963698 0 -0.04331800788480706 -0.080321541169751709 0 -0.052607434978589038 -0.084605160310905272 0 -0.04331800788480706 -0.080321541169751709 0 -0.052607434978589038 -0.084605160310905272 0 -0.05461803829180413 -0.069755112608578862 0 -0.070013937980536456 -0.090181036700446429 0 -0.057002573683865979 -0.089060817942991616 0 -0.04460455598339258 -0.10017008709341529 0 -0.052607434978589038 -0.084605160310905272 0 -0.044151246104392423 -0.095288874830203096 0 -0.052607434978589038 -0.084605160310905272 0 -0.057002573683865979 -0.089060817942991616 0 -0.044151246104392423 -0.095288874830203096 0 -0.064240921843242857 -0.078969573753286809 0 -0.065719917437320752 -0.085301382988547655 0 -0.057002573683865979 -0.089060817942991616 0 -0.064240921843242857 -0.078969573753286809 0 -0.052607434978589038 -0.084605160310905272 0 -0.057002573683865979 -0.089060817942991616 0 -0.064240921843242857 -0.078969573753286809 0 -0.052607434978589038 -0.084605160310905272 0 -0.05461803829180413 -0.069755112608578862 0 -0.064648045787775776 -0.1114736180136202 0 -0.054889055151619223 -0.1064960745062641 0 -0.046573596299020338 -0.1213725893565638 0 -0.064648045787775776 -0.1114736180136202 0 -0.060928146748241367 -0.123537549367131 0 -0.046573596299020338 -0.1213725893565638 0 -0.064167586873575405 -0.098824988458513688 0 -0.054889055151619223 -0.1064960745062641 0 -0.04460455598339258 -0.10017008709341529 0 -0.054889055151619223 -0.1064960745062641 0 -0.04460455598339258 -0.10017008709341529 0 -0.046573596299020338 -0.1213725893565638 0 -0.070013937980536456 -0.090181036700446429 0 -0.04460455598339258 -0.10017008709341529 0 -0.070013937980536456 -0.090181036700446429 0 -0.064167586873575405 -0.098824988458513688 0 -0.04460455598339258 -0.10017008709341529 0 -0.064167586873575405 -0.098824988458513688 0 -0.064648045787775776 -0.1114736180136202 0 -0.054889055151619223 -0.1064960745062641 0 -0.057002573683865979 -0.089060817942991616 0 -0.044151246104392423 -0.095288874830203096 0 -0.04460455598339258 -0.10017008709341529 0 -0.04460455598339258 -0.10017008709341529 0 -0.038337793170655582 -0.1026337050414691 0 -0.046573596299020338 -0.1213725893565638 0 -0.039477100495342581 -0.093081883261144749 0 -0.044151246104392423 -0.095288874830203096 0 -0.038337793170655582 -0.1026337050414691 0 -0.044151246104392423 -0.095288874830203096 0 -0.04460455598339258 -0.10017008709341529 0 -0.044151246104392423 -0.095288874830203096 0 -0.038337793170655582 -0.1026337050414691 0 -0.04460455598339258 -0.10017008709341529 0 -0.038337793170655582 -0.1026337050414691 0 -0.044151246104392423 -0.095288874830203096 0 -0.04460455598339258 -0.10017008709341529 0 -0.038337793170655582 -0.1026337050414691 0 -0.03344051123233422 -0.092098432850847969 0 -0.039477100495342581 -0.093081883261144749 0 -0.038337793170655582 -0.1026337050414691 0 -0.03344051123233422 -0.092098432850847969 0 -0.038337793170655582 -0.1026337050414691 0 -0.030143021990877521 -0.097413384547063803 0 -0.038337793170655582 -0.1026337050414691 0 -0.046573596299020338 -0.1213725893565638 0 -0.032898799107638058 -0.1301455039054305 0 -0.04460455598339258 -0.10017008709341529 0 -0.046573596299020338 -0.1213725893565638 0 -0.038337793170655582 -0.1026337050414691 0 -0.02075820173733281 -0.1248441049076035 0 -0.038337793170655582 -0.1026337050414691 0 -0.02075820173733281 -0.1248441049076035 0 -0.032898799107638058 -0.1301455039054305 0 -0.038337793170655582 -0.1026337050414691 0 -0.02075820173733281 -0.1248441049076035 0 -0.013304609286582791 -0.1124748627422944 0 -0.038337793170655582 -0.1026337050414691 0 -0.013304609286582791 -0.1124748627422944 0 -0.038337793170655582 -0.1026337050414691 0 -0.024123777669104458 -0.10265873268404301 0 -0.013304609286582791 -0.1124748627422944 0 -0.038337793170655582 -0.1026337050414691 0 -0.030143021990877521 -0.097413384547063803 0 -0.024123777669104458 -0.10265873268404301 0 -0.024670005891415589 -0.092262667611894875 0 -0.030143021990877521 -0.097413384547063803 0 -0.024123777669104458 -0.10265873268404301 0 -0.024670005891415589 -0.092262667611894875 0 -0.03344051123233422 -0.092098432850847969 0 -0.030143021990877521 -0.097413384547063803 0 -0.024123777669104458 -0.10265873268404301 0 -0.015994782990863529 -0.1079378035875192 0 -0.013304609286582791 -0.1124748627422944 0 -0.024123777669104458 -0.10265873268404301 0 -0.015994782990863529 -0.1079378035875192 0 -0.015839401072447711 -0.097831294581907868 0 -0.024670005891415589 -0.092262667611894875 0 -0.024123777669104458 -0.10265873268404301 0 -0.015839401072447711 -0.097831294581907868 0 -0.0070294542012635762 -0.10327829347153671 0 -0.013304609286582791 -0.1124748627422944 0 0.0046245275045138064 -0.1076828264142336 0 -0.0075898384642912086 -0.092772169897659226 0 -0.015839401072447711 -0.097831294581907868 0 -0.0070294542012635762 -0.10327829347153671 0 -0.015994782990863529 -0.1079378035875192 0 -0.015839401072447711 -0.097831294581907868 0 -0.0070294542012635762 -0.10327829347153671 0 -0.015994782990863529 -0.1079378035875192 0 -0.0070294542012635762 -0.10327829347153671 0 -0.013304609286582791 -0.1124748627422944 0 -0.0075898384642912086 -0.092772169897659226 0 -0.0070294542012635762 -0.10327829347153671 0 0.0072012692200917657 -0.09144049599341271 0 -0.02075820173733281 -0.1248441049076035 0 -0.013304609286582791 -0.1124748627422944 0 -0.00221818493688669 -0.13117245205018849 0 -0.013304609286582791 -0.1124748627422944 0 -0.00221818493688669 -0.13117245205018849 0 0.014197789575412951 -0.12328672932727321 0 -0.013304609286582791 -0.1124748627422944 0 -0.00221818493688669 -0.13117245205018849 0 -0.015994782990863529 -0.1079378035875192 0 -0.013304609286582791 -0.1124748627422944 0 -0.02075820173733281 -0.1248441049076035 0 -0.0137133242766358 -0.14598078836242959 0 -0.0031786103040098569 -0.14705450477373769 0 -0.02075820173733281 -0.1248441049076035 0 -0.0031786103040098569 -0.14705450477373769 0 -0.02075820173733281 -0.1248441049076035 0 -0.00221818493688669 -0.13117245205018849 0 -0.0031786103040098569 -0.14705450477373769 0 -0.02075820173733281 -0.1248441049076035 0 -0.02657462786173766 -0.13400490724319661 0 -0.021326083532184278 -0.14069250208886769 0 -0.02075820173733281 -0.1248441049076035 0 -0.021326083532184278 -0.14069250208886769 0 -0.0137133242766358 -0.14598078836242959 0 -0.02657462786173766 -0.13400490724319661 0 -0.032898799107638058 -0.1301455039054305 0 -0.031315427069795509 -0.14033751807088471 0 -0.02657462786173766 -0.13400490724319661 0 -0.021326083532184278 -0.14069250208886769 0 -0.031315427069795509 -0.14033751807088471 0 -0.02075820173733281 -0.1248441049076035 0 -0.02657462786173766 -0.13400490724319661 0 -0.032898799107638058 -0.1301455039054305 0 -0.026655807174363451 -0.14845120392719069 0 -0.02210874630731275 -0.1561964137015745 0 -0.031495029160766817 -0.15509855920566379 0 -0.026655807174363451 -0.14845120392719069 0 -0.03449156258747036 -0.148917707105098 0 -0.031495029160766817 -0.15509855920566379 0 -0.026655807174363451 -0.14845120392719069 0 -0.021326083532184278 -0.14069250208886769 0 -0.031315427069795509 -0.14033751807088471 0 -0.026655807174363451 -0.14845120392719069 0 -0.031315427069795509 -0.14033751807088471 0 -0.03449156258747036 -0.148917707105098 0 -0.021326083532184278 -0.14069250208886769 0 -0.019449426413567759 -0.15004718796545319 0 -0.0137133242766358 -0.14598078836242959 0 -0.026655807174363451 -0.14845120392719069 0 -0.021326083532184278 -0.14069250208886769 0 -0.019449426413567759 -0.15004718796545319 0 -0.019449426413567759 -0.15004718796545319 0 -0.01542317820397726 -0.15505006264073101 0 -0.0137133242766358 -0.14598078836242959 0 -0.026655807174363451 -0.14845120392719069 0 -0.019449426413567759 -0.15004718796545319 0 -0.02210874630731275 -0.1561964137015745 0 -0.019449426413567759 -0.15004718796545319 0 -0.02210874630731275 -0.1561964137015745 0 -0.01542317820397726 -0.15505006264073101 0 -0.0137133242766358 -0.14598078836242959 0 -0.0031786103040098569 -0.14705450477373769 0 -0.0072073677341612146 -0.1544888065361133 0 -0.01542317820397726 -0.15505006264073101 0 -0.0137133242766358 -0.14598078836242959 0 -0.0072073677341612146 -0.1544888065361133 0 -0.0031786103040098569 -0.14705450477373769 0 -0.0072073677341612146 -0.1544888065361133 0 -0.0025999653858941639 -0.16131422913783491 0 -0.01542317820397726 -0.15505006264073101 0 -0.0084927016390539001 -0.17431231470194719 0 -0.01542317820397726 -0.15505006264073101 0 -0.0025999653858941639 -0.16131422913783491 0 -0.0084927016390539001 -0.17431231470194719 0 -0.01542317820397726 -0.15505006264073101 0 -0.0084927016390539001 -0.17431231470194719 0 -0.018600123305710169 -0.16452936741983731 0 -0.0025999653858941639 -0.16131422913783491 0 -0.0084927016390539001 -0.17431231470194719 0 0.0067086063528142403 -0.16809244781376179 0 -0.0084927016390539001 -0.17431231470194719 0 -0.019446339186483811 -0.17229591455881449 0 -0.018600123305710169 -0.16452936741983731 0 -0.01542317820397726 -0.15505006264073101 0 -0.0072073677341612146 -0.1544888065361133 0 -0.0025999653858941639 -0.16131422913783491 0 -0.0084927016390539001 -0.17431231470194719 0 -0.0015622250741301779 -0.1935745667631632 0 -0.01452589755716127 -0.18854972137590889 0 -0.0084927016390539001 -0.17431231470194719 0 -0.0015622250741301779 -0.1935745667631632 0 -0.0084927016390539001 -0.17431231470194719 0 -0.0015622250741301779 -0.1935745667631632 0 0.0091962193441852118 -0.18107109871456811 0 -0.0084927016390539001 -0.17431231470194719 0 -0.019789997202817391 -0.17944929683230451 0 -0.01452589755716127 -0.18854972137590889 0 -0.019789997202817391 -0.17944929683230451 0 -0.01452589755716127 -0.18854972137590889 0 -0.02459459850908961 -0.18853055632871979 0 -0.0084927016390539001 -0.17431231470194719 0 -0.019789997202817391 -0.17944929683230451 0 -0.019446339186483811 -0.17229591455881449 0 -0.019789997202817391 -0.17944929683230451 0 -0.019446339186483811 -0.17229591455881449 0 -0.025875972540285681 -0.17494695229964419 0 -0.019789997202817391 -0.17944929683230451 0 -0.025875972540285681 -0.17494695229964419 0 -0.028761852805915141 -0.18157091371807699 0 -0.025875972540285681 -0.17494695229964419 0 -0.032240004386850082 -0.17024588421870079 0 -0.032480769472988377 -0.1765838753595764 0 -0.025875972540285681 -0.17494695229964419 0 -0.028761852805915141 -0.18157091371807699 0 -0.032480769472988377 -0.1765838753595764 0 -0.028761852805915141 -0.18157091371807699 0 -0.032920373861235572 -0.18696580359983689 0 -0.02459459850908961 -0.18853055632871979 0 -0.019789997202817391 -0.17944929683230451 0 -0.028761852805915141 -0.18157091371807699 0 -0.02459459850908961 -0.18853055632871979 0 -0.02210874630731275 -0.1561964137015745 0 -0.02334206205745518 -0.16321350683772101 0 -0.018600123305710169 -0.16452936741983731 0 -0.02210874630731275 -0.1561964137015745 0 -0.01542317820397726 -0.15505006264073101 0 -0.018600123305710169 -0.16452936741983731 0 -0.019446339186483811 -0.17229591455881449 0 -0.018600123305710169 -0.16452936741983731 0 -0.024472901244551901 -0.1682416415403396 0 -0.019446339186483811 -0.17229591455881449 0 -0.025875972540285681 -0.17494695229964419 0 -0.024472901244551901 -0.1682416415403396 0 -0.02334206205745518 -0.16321350683772101 0 -0.018600123305710169 -0.16452936741983731 0 -0.024472901244551901 -0.1682416415403396 0 -0.02334206205745518 -0.16321350683772101 0 -0.024472901244551901 -0.1682416415403396 0 -0.028186477372245909 -0.16388660468913291 0 -0.025875972540285681 -0.17494695229964419 0 -0.024472901244551901 -0.1682416415403396 0 -0.032240004386850082 -0.17024588421870079 0 -0.024472901244551901 -0.1682416415403396 0 -0.028186477372245909 -0.16388660468913291 0 -0.032240004386850082 -0.17024588421870079 0 -0.02210874630731275 -0.1561964137015745 0 -0.036601677587355427 -0.1631254910080501 0 -0.02210874630731275 -0.1561964137015745 0 -0.028186477372245909 -0.16388660468913291 0 -0.036601677587355427 -0.1631254910080501 0 -0.02210874630731275 -0.1561964137015745 0 -0.036601677587355427 -0.1631254910080501 0 -0.031495029160766817 -0.15509855920566379 0 -0.02210874630731275 -0.1561964137015745 0 -0.02334206205745518 -0.16321350683772101 0 -0.028186477372245909 -0.16388660468913291 0 -0.036601677587355427 -0.1631254910080501 0 -0.031495029160766817 -0.15509855920566379 0 -0.03757233301838208 -0.1561293615731485 0 -0.036601677587355427 -0.1631254910080501 0 -0.042683024331232992 -0.16071659108817879 0 -0.03757233301838208 -0.1561293615731485 0 -0.036601677587355427 -0.1631254910080501 0 -0.032240004386850082 -0.17024588421870079 0 -0.040990311010288182 -0.1707810542940659 0 -0.028186477372245909 -0.16388660468913291 0 -0.036601677587355427 -0.1631254910080501 0 -0.032240004386850082 -0.17024588421870079 0 -0.036601677587355427 -0.1631254910080501 0 -0.040990311010288182 -0.1707810542940659 0 -0.051094608867397598 -0.17005456831452659 0 -0.036601677587355427 -0.1631254910080501 0 -0.042683024331232992 -0.16071659108817879 0 -0.051094608867397598 -0.17005456831452659 0 -0.036601677587355427 -0.1631254910080501 0 -0.051094608867397598 -0.17005456831452659 0 -0.042683024331232992 -0.16071659108817879 0 -0.03757233301838208 -0.1561293615731485 0 -0.042590371425084809 -0.152788459458752 0 -0.042683024331232992 -0.16071659108817879 0 -0.049852416986034973 -0.1566787242717059 0 -0.042590371425084809 -0.152788459458752 0 -0.042683024331232992 -0.16071659108817879 0 -0.049852416986034973 -0.1566787242717059 0 -0.032920373861235572 -0.18696580359983689 0 -0.035662893679222471 -0.1808176818492459 0 -0.039648887306358682 -0.18457447877016059 0 -0.028761852805915141 -0.18157091371807699 0 -0.032920373861235572 -0.18696580359983689 0 -0.035662893679222471 -0.1808176818492459 0 -0.032240004386850082 -0.17024588421870079 0 -0.040990311010288182 -0.1707810542940659 0 -0.038331319031698619 -0.1753090981098179 0 -0.035662893679222471 -0.1808176818492459 0 -0.038331319031698619 -0.1753090981098179 0 -0.042134054383572032 -0.1794085226548284 0 -0.035662893679222471 -0.1808176818492459 0 -0.032480769472988377 -0.1765838753595764 0 -0.038331319031698619 -0.1753090981098179 0 -0.028761852805915141 -0.18157091371807699 0 -0.035662893679222471 -0.1808176818492459 0 -0.032480769472988377 -0.1765838753595764 0 -0.032240004386850082 -0.17024588421870079 0 -0.032480769472988377 -0.1765838753595764 0 -0.038331319031698619 -0.1753090981098179 0 -0.040990311010288182 -0.1707810542940659 0 -0.045496547127059937 -0.17528527585558801 0 -0.051094608867397598 -0.17005456831452659 0 -0.040990311010288182 -0.1707810542940659 0 -0.038331319031698619 -0.1753090981098179 0 -0.045496547127059937 -0.17528527585558801 0 -0.045496547127059937 -0.17528527585558801 0 -0.042134054383572032 -0.1794085226548284 0 -0.049232931697160941 -0.18142535687920061 0 -0.038331319031698619 -0.1753090981098179 0 -0.045496547127059937 -0.17528527585558801 0 -0.042134054383572032 -0.1794085226548284 0 -0.042134054383572032 -0.1794085226548284 0 -0.039648887306358682 -0.18457447877016059 0 -0.049232931697160941 -0.18142535687920061 0 -0.039648887306358682 -0.18457447877016059 0 -0.049232931697160941 -0.18142535687920061 0 -0.037513132105194948 -0.19164621715467339 0 -0.035662893679222471 -0.1808176818492459 0 -0.042134054383572032 -0.1794085226548284 0 -0.039648887306358682 -0.18457447877016059 0 -0.052530262953744307 -0.18551360121156771 0 -0.064566778430722005 -0.1899668467895553 0 -0.070259181001566293 -0.17921715932508539 0 -0.052530262953744307 -0.18551360121156771 0 -0.051094608867397598 -0.17005456831452659 0 -0.070259181001566293 -0.17921715932508539 0 -0.051094608867397598 -0.17005456831452659 0 -0.070259181001566293 -0.17921715932508539 0 -0.052530262953744307 -0.18551360121156771 0 -0.049232931697160941 -0.18142535687920061 0 -0.051094608867397598 -0.17005456831452659 0 -0.052530262953744307 -0.18551360121156771 0 -0.051094608867397598 -0.17005456831452659 0 -0.045496547127059937 -0.17528527585558801 0 -0.049232931697160941 -0.18142535687920061 0 -0.051094608867397598 -0.17005456831452659 0 -0.051094608867397598 -0.17005456831452659 0 -0.061817946007188637 -0.1647032604190713 0 -0.070259181001566293 -0.17921715932508539 0 -0.049852416986034973 -0.1566787242717059 0 -0.051094608867397598 -0.17005456831452659 0 -0.061817946007188637 -0.1647032604190713 0 -0.042683024331232992 -0.16071659108817879 0 -0.049852416986034973 -0.1566787242717059 0 -0.051094608867397598 -0.17005456831452659 0 -0.049852416986034973 -0.1566787242717059 0 -0.051094608867397598 -0.17005456831452659 0 -0.049852416986034973 -0.1566787242717059 0 -0.061817946007188637 -0.1647032604190713 0 -0.059473492795946999 -0.1512600473178678 0 -0.049852416986034973 -0.1566787242717059 0 -0.059473492795946999 -0.1512600473178678 0 -0.049852416986034973 -0.1566787242717059 0 -0.048542636614648908 -0.14257509161971199 0 -0.042590371425084809 -0.152788459458752 0 -0.049852416986034973 -0.1566787242717059 0 -0.059473492795946999 -0.1512600473178678 0 -0.048542636614648908 -0.14257509161971199 0 -0.049852416986034973 -0.1566787242717059 0 -0.048542636614648908 -0.14257509161971199 0 -0.059473492795946999 -0.1512600473178678 0 -0.048542636614648908 -0.14257509161971199 0 -0.059473492795946999 -0.1512600473178678 0 -0.048542636614648908 -0.14257509161971199 0 -0.061100100412547438 -0.13647315015658409 0 -0.046573596299020338 -0.1213725893565638 0 -0.048542636614648908 -0.14257509161971199 0 -0.061100100412547438 -0.13647315015658409 0 -0.046573596299020338 -0.1213725893565638 0 -0.048542636614648908 -0.14257509161971199 0 -0.060928146748241367 -0.123537549367131 0 -0.046573596299020338 -0.1213725893565638 0 -0.061100100412547438 -0.13647315015658409 0 -0.046573596299020338 -0.1213725893565638 0 -0.048542636614648908 -0.14257509161971199 0 -0.032898799107638058 -0.1301455039054305 0 -0.048542636614648908 -0.14257509161971199 0 -0.032898799107638058 -0.1301455039054305 0 -0.031315427069795509 -0.14033751807088471 0 -0.048542636614648908 -0.14257509161971199 0 -0.032898799107638058 -0.1301455039054305 0 -0.048542636614648908 -0.14257509161971199 0 -0.031315427069795509 -0.14033751807088471 0 -0.03449156258747036 -0.148917707105098 0 -0.03449156258747036 -0.148917707105098 0 -0.03757233301838208 -0.1561293615731485 0 -0.042590371425084809 -0.152788459458752 0 -0.03449156258747036 -0.148917707105098 0 -0.031495029160766817 -0.15509855920566379 0 -0.03757233301838208 -0.1561293615731485 0 -0.048542636614648908 -0.14257509161971199 0 -0.03449156258747036 -0.148917707105098 0 -0.042590371425084809 -0.152788459458752 0 -0.030801127425925001 -0.25680016795848581 0 -0.026871719323301121 -0.24650256912316601 0 -0.018733547469201091 -0.24349008461987329 0 -0.032940321160402269 -0.25029644079438251 0 -0.026871719323301121 -0.24650256912316601 0 -0.030857658388656541 -0.2362056796655021 0 -0.032940321160402269 -0.25029644079438251 0 -0.026871719323301121 -0.24650256912316601 0 -0.026871719323301121 -0.24650256912316601 0 -0.030857658388656541 -0.2362056796655021 0 -0.018733547469201091 -0.24349008461987329 0 -0.018733547469201091 -0.24349008461987329 0 0.0010854142569982001 -0.23807309260292489 0 0.0025328853753160741 -0.24958102673793139 0 -0.018733547469201091 -0.24349008461987329 0 -0.0061584899570064598 -0.22962027277065361 0 0.0010854142569982001 -0.23807309260292489 0 -0.018733547469201091 -0.24349008461987329 0 -0.0061584899570064598 -0.22962027277065361 0 -0.018733547469201091 -0.24349008461987329 0 -0.0061584899570064598 -0.22962027277065361 0 -0.014959502272226489 -0.22084886391346231 0 -0.0061584899570064598 -0.22962027277065361 0 -0.0054289760133702037 -0.21457987404047249 0 0.0064165675551885711 -0.21575046092143421 0 -0.0061584899570064598 -0.22962027277065361 0 -0.014959502272226489 -0.22084886391346231 0 -0.0054289760133702037 -0.21457987404047249 0 -0.018733547469201091 -0.24349008461987329 0 -0.02919644603132129 -0.2221986071991269 0 -0.02714058579554627 -0.22330174697438809 0 -0.018733547469201091 -0.24349008461987329 0 -0.02919644603132129 -0.2221986071991269 0 -0.018733547469201091 -0.24349008461987329 0 -0.014959502272226489 -0.22084886391346231 0 -0.02714058579554627 -0.22330174697438809 0 -0.030857658388656541 -0.2362056796655021 0 -0.018733547469201091 -0.24349008461987329 0 -0.02919644603132129 -0.2221986071991269 0 -0.02919644603132129 -0.2221986071991269 0 -0.02714058579554627 -0.22330174697438809 0 -0.023298310508535151 -0.21367384618425 0 -0.02883797433537726 -0.20835292232393379 0 -0.020914866328615171 -0.2008213059726579 0 -0.039659344593441261 -0.20090712977838049 0 -0.02919644603132129 -0.2221986071991269 0 -0.02883797433537726 -0.20835292232393379 0 -0.023298310508535151 -0.21367384618425 0 -0.02883797433537726 -0.20835292232393379 0 -0.023298310508535151 -0.21367384618425 0 -0.020914866328615171 -0.2008213059726579 0 -0.023298310508535151 -0.21367384618425 0 -0.014351405434837939 -0.2084381568687759 0 -0.020914866328615171 -0.2008213059726579 0 -0.02714058579554627 -0.22330174697438809 0 -0.014351405434837939 -0.2084381568687759 0 -0.014959502272226489 -0.22084886391346231 0 -0.02714058579554627 -0.22330174697438809 0 -0.014351405434837939 -0.2084381568687759 0 -0.02714058579554627 -0.22330174697438809 0 -0.023298310508535151 -0.21367384618425 0 -0.014351405434837939 -0.2084381568687759 0 -0.014959502272226489 -0.22084886391346231 0 -0.0054289760133702037 -0.21457987404047249 0 -0.014351405434837939 -0.2084381568687759 0 -0.0054289760133702037 -0.21457987404047249 0 -0.014351405434837939 -0.2084381568687759 0 -0.0015622250741301779 -0.1935745667631632 0 -0.0054289760133702037 -0.21457987404047249 0 -0.0015622250741301779 -0.1935745667631632 0 0.0064165675551885711 -0.21575046092143421 0 -0.014351405434837939 -0.2084381568687759 0 -0.0015622250741301779 -0.1935745667631632 0 -0.014351405434837939 -0.2084381568687759 0 -0.01223217889679739 -0.19705511845509929 0 -0.0015622250741301779 -0.1935745667631632 0 -0.01223217889679739 -0.19705511845509929 0 -0.0015622250741301779 -0.1935745667631632 0 -0.01452589755716127 -0.18854972137590889 0 -0.020914866328615171 -0.2008213059726579 0 -0.039659344593441261 -0.20090712977838049 0 -0.01452589755716127 -0.18854972137590889 0 -0.020914866328615171 -0.2008213059726579 0 -0.02459459850908961 -0.18853055632871979 0 -0.020914866328615171 -0.2008213059726579 0 -0.030654603298793132 -0.19382629647353339 0 -0.039659344593441261 -0.20090712977838049 0 -0.014351405434837939 -0.2084381568687759 0 -0.01223217889679739 -0.19705511845509929 0 -0.020914866328615171 -0.2008213059726579 0 -0.01223217889679739 -0.19705511845509929 0 -0.01452589755716127 -0.18854972137590889 0 -0.020914866328615171 -0.2008213059726579 0 -0.020914866328615171 -0.2008213059726579 0 -0.030654603298793132 -0.19382629647353339 0 -0.02459459850908961 -0.18853055632871979 0 -0.032920373861235572 -0.18696580359983689 0 -0.030654603298793132 -0.19382629647353339 0 -0.02459459850908961 -0.18853055632871979 0 -0.049232931697160941 -0.18142535687920061 0 -0.037513132105194948 -0.19164621715467339 0 -0.039659344593441261 -0.20090712977838049 0 -0.049232931697160941 -0.18142535687920061 0 -0.039659344593441261 -0.20090712977838049 0 -0.032920373861235572 -0.18696580359983689 0 -0.039648887306358682 -0.18457447877016059 0 -0.037513132105194948 -0.19164621715467339 0 -0.032920373861235572 -0.18696580359983689 0 -0.030654603298793132 -0.19382629647353339 0 -0.037513132105194948 -0.19164621715467339 0 -0.030654603298793132 -0.19382629647353339 0 -0.037513132105194948 -0.19164621715467339 0 -0.039659344593441261 -0.20090712977838049 0 -0.039659344593441261 -0.20090712977838049 0 -0.049171036143441697 -0.20095068018059209 0 -0.052530262953744307 -0.18551360121156771 0 -0.053965917040092279 -0.20097263410860849 0 -0.052530262953744307 -0.18551360121156771 0 -0.049232931697160941 -0.18142535687920061 0 -0.039659344593441261 -0.20090712977838049 0 -0.052530262953744307 -0.18551360121156771 0 -0.053965917040092279 -0.20097263410860849 0 -0.064566778430722005 -0.1899668467895553 0 -0.052530262953744307 -0.18551360121156771 0 -0.039659344593441261 -0.20090712977838049 0 -0.049171036143441697 -0.20095068018059209 0 -0.053965917040092279 -0.20097263410860849 0 -0.049171036143441697 -0.20095068018059209 0 -0.052530262953744307 -0.18551360121156771 0 -0.053965917040092279 -0.20097263410860849 0 -0.049171036143441697 -0.20095068018059209 0 -0.049171036143441697 -0.20095068018059209 0 -0.054685660498906767 -0.208722786400212 0 -0.041055678651922348 -0.2256235604874875 0 -0.053965917040092279 -0.20097263410860849 0 -0.054685660498906767 -0.208722786400212 0 -0.075274492420391248 -0.20107019793555661 0 -0.054685660498906767 -0.208722786400212 0 -0.058782723788501128 -0.22597342721149569 0 -0.066300796797188796 -0.21509277327032089 0 -0.053965917040092279 -0.20097263410860849 0 -0.049171036143441697 -0.20095068018059209 0 -0.054685660498906767 -0.208722786400212 0 -0.053965917040092279 -0.20097263410860849 0 -0.054685660498906767 -0.208722786400212 0 -0.049171036143441697 -0.20095068018059209 0 -0.041055678651922348 -0.2256235604874875 0 -0.02919644603132129 -0.2221986071991269 0 -0.039659344593441261 -0.20090712977838049 0 -0.02919644603132129 -0.2221986071991269 0 -0.02883797433537726 -0.20835292232393379 0 -0.039659344593441261 -0.20090712977838049 0 -0.039659344593441261 -0.20090712977838049 0 -0.049171036143441697 -0.20095068018059209 0 -0.041055678651922348 -0.2256235604874875 0 -0.02919644603132129 -0.2221986071991269 0 -0.039659344593441261 -0.20090712977838049 0 -0.041055678651922348 -0.2256235604874875 0 -0.030857658388656541 -0.2362056796655021 0 -0.02919644603132129 -0.2221986071991269 0 -0.041055678651922348 -0.2256235604874875 0 -0.041055678651922348 -0.2256235604874875 0 -0.058782723788501128 -0.22597342721149569 0 -0.050902643065861071 -0.24349095896983161 0 -0.054685660498906767 -0.208722786400212 0 -0.041055678651922348 -0.2256235604874875 0 -0.058782723788501128 -0.22597342721149569 0 -0.058782723788501128 -0.22597342721149569 0 -0.050902643065861071 -0.24349095896983161 0 -0.077646128541525 -0.24813916513248199 0 -0.032940321160402269 -0.25029644079438251 0 -0.041055678651922348 -0.2256235604874875 0 -0.050902643065861071 -0.24349095896983161 0 -0.032940321160402269 -0.25029644079438251 0 -0.030857658388656541 -0.2362056796655021 0 -0.041055678651922348 -0.2256235604874875 0 -0.032940321160402269 -0.25029644079438251 0 -0.041055678651922348 -0.2256235604874875 0 -0.077646128541525 -0.24813916513248199 0 -0.082279147983734507 -0.22463132376819159 0 -0.088104632666654803 -0.24175912157342011 0 -0.077646128541525 -0.24813916513248199 0 -0.082279147983734507 -0.22463132376819159 0 -0.077646128541525 -0.24813916513248199 0 -0.076460310480956056 -0.22460468153401941 0 -0.058782723788501128 -0.22597342721149569 0 -0.077646128541525 -0.24813916513248199 0 -0.076460310480956056 -0.22460468153401941 0 -0.058782723788501128 -0.22597342721149569 0 -0.076460310480956056 -0.22460468153401941 0 -0.066300796797188796 -0.21509277327032089 0 -0.077646128541525 -0.24813916513248199 0 -0.076460310480956056 -0.22460468153401941 0 -0.082279147983734507 -0.22463132376819159 0 -0.088104632666654803 -0.24175912157342011 0 -0.091210523848666042 -0.22145825259936749 0 -0.096373561920523113 -0.2318247108995648 0 -0.088104632666654803 -0.24175912157342011 0 -0.082279147983734507 -0.22463132376819159 0 -0.091210523848666042 -0.22145825259936749 0 -0.088104632666654803 -0.24175912157342011 0 -0.091210523848666042 -0.22145825259936749 0 -0.082279147983734507 -0.22463132376819159 0 -0.075274492420391248 -0.20107019793555661 0 -0.086912167425944153 -0.20112348240390099 0 -0.082279147983734507 -0.22463132376819159 0 -0.091210523848666042 -0.22145825259936749 0 -0.086912167425944153 -0.20112348240390099 0 -0.091210523848666042 -0.22145825259936749 0 -0.094316415030678002 -0.20115738362531499 0 -0.091210523848666042 -0.22145825259936749 0 -0.086912167425944153 -0.20112348240390099 0 -0.094316415030678002 -0.20115738362531499 0 -0.082279147983734507 -0.22463132376819159 0 -0.086912167425944153 -0.20112348240390099 0 -0.076460310480956056 -0.22460468153401941 0 -0.066300796797188796 -0.21509277327032089 0 -0.075274492420391248 -0.20107019793555661 0 -0.054685660498906767 -0.208722786400212 0 -0.066300796797188796 -0.21509277327032089 0 -0.075274492420391248 -0.20107019793555661 0 -0.076460310480956056 -0.22460468153401941 0 -0.082279147983734507 -0.22463132376819159 0 -0.075274492420391248 -0.20107019793555661 0 -0.076460310480956056 -0.22460468153401941 0 -0.075274492420391248 -0.20107019793555661 0 -0.053965917040092279 -0.20097263410860849 0 -0.075274492420391248 -0.20107019793555661 0 -0.070100108945259781 -0.19629415080948229 0 -0.053965917040092279 -0.20097263410860849 0 -0.070100108945259781 -0.19629415080948229 0 -0.064566778430722005 -0.1899668467895553 0 -0.053965917040092279 -0.20097263410860849 0 -0.075274492420391248 -0.20107019793555661 0 -0.075274492420391248 -0.20107019793555661 0 -0.075113373652805612 -0.19571605274700751 0 -0.079733979793737045 -0.19605477611637959 0 -0.075274492420391248 -0.20107019793555661 0 -0.075113373652805612 -0.19571605274700751 0 -0.070100108945259781 -0.19629415080948229 0 -0.070100108945259781 -0.19629415080948229 0 -0.064566778430722005 -0.1899668467895553 0 -0.075377056328755521 -0.19008301367616509 0 -0.075113373652805612 -0.19571605274700751 0 -0.070100108945259781 -0.19629415080948229 0 -0.075377056328755521 -0.19008301367616509 0 -0.075113373652805612 -0.19571605274700751 0 -0.075377056328755521 -0.19008301367616509 0 -0.079733979793737045 -0.19605477611637959 0 -0.075377056328755521 -0.19008301367616509 0 -0.079733979793737045 -0.19605477611637959 0 -0.089423753135733974 -0.18837975033564619 0 -0.079733979793737045 -0.19605477611637959 0 -0.086912167425944153 -0.20112348240390099 0 -0.089423753135733974 -0.18837975033564619 0 -0.075274492420391248 -0.20107019793555661 0 -0.086912167425944153 -0.20112348240390099 0 -0.075274492420391248 -0.20107019793555661 0 -0.079733979793737045 -0.19605477611637959 0 -0.086912167425944153 -0.20112348240390099 0 -0.086912167425944153 -0.20112348240390099 0 -0.095804572093432044 -0.1914304229002349 0 -0.094316415030678002 -0.20115738362531499 0 -0.086912167425944153 -0.20112348240390099 0 -0.094316415030678002 -0.20115738362531499 0 -0.086912167425944153 -0.20112348240390099 0 -0.089423753135733974 -0.18837975033564619 0 -0.086912167425944153 -0.20112348240390099 0 -0.089423753135733974 -0.18837975033564619 0 -0.095804572093432044 -0.1914304229002349 0 -0.089423753135733974 -0.18837975033564619 0 -0.095804572093432044 -0.1914304229002349 0 -0.090500110278716836 -0.18291833725845449 0 -0.089423753135733974 -0.18837975033564619 0 -0.095804572093432044 -0.1914304229002349 0 -0.095804572093432044 -0.1914304229002349 0 -0.1055884512206339 -0.19610810014299959 0 -0.099028938128851704 -0.1826882615985625 0 -0.095804572093432044 -0.1914304229002349 0 -0.1055884512206339 -0.19610810014299959 0 -0.095804572093432044 -0.1914304229002349 0 -0.099726318276372988 -0.19712665769699661 0 -0.1055884512206339 -0.19610810014299959 0 -0.094316415030678002 -0.20115738362531499 0 -0.099726318276372988 -0.19712665769699661 0 -0.1069539478940484 -0.20121524606085259 0 -0.095804572093432044 -0.1914304229002349 0 -0.094316415030678002 -0.20115738362531499 0 -0.095804572093432044 -0.1914304229002349 0 -0.094316415030678002 -0.20115738362531499 0 -0.099726318276372988 -0.19712665769699661 0 -0.094316415030678002 -0.20115738362531499 0 -0.1069539478940484 -0.20121524606085259 0 -0.1006154135170836 -0.20550376286944089 0 -0.094316415030678002 -0.20115738362531499 0 -0.1069539478940484 -0.20121524606085259 0 -0.099726318276372988 -0.19712665769699661 0 -0.1069539478940484 -0.20121524606085259 0 -0.1055884512206339 -0.19610810014299959 0 -0.1069539478940484 -0.20121524606085259 0 -0.1055884512206339 -0.19610810014299959 0 -0.1143022105317214 -0.19176920984990589 0 -0.1234142843990034 -0.20129061165398179 0 -0.118443644943155 -0.18313735869921541 0 -0.1234142843990034 -0.20129061165398179 0 -0.118443644943155 -0.18313735869921541 0 -0.12836978379805469 -0.19505845874684749 0 -0.1055884512206339 -0.19610810014299959 0 -0.1143022105317214 -0.19176920984990589 0 -0.1095912747331507 -0.1796343382558257 0 -0.1234142843990034 -0.20129061165398179 0 -0.118443644943155 -0.18313735869921541 0 -0.1234142843990034 -0.20129061165398179 0 -0.11636069704563699 -0.20125831597190941 0 -0.12446659453658469 -0.2051337493999616 0 -0.1143022105317214 -0.19176920984990589 0 -0.1234142843990034 -0.20129061165398179 0 -0.11636069704563699 -0.20125831597190941 0 -0.1234142843990034 -0.20129061165398179 0 -0.11636069704563699 -0.20125831597190941 0 -0.1055884512206339 -0.19610810014299959 0 -0.1143022105317214 -0.19176920984990589 0 -0.11636069704563699 -0.20125831597190941 0 -0.1055884512206339 -0.19610810014299959 0 -0.11636069704563699 -0.20125831597190941 0 -0.1069539478940484 -0.20121524606085259 0 -0.11636069704563699 -0.20125831597190941 0 -0.116503442890511 -0.20615462214379501 0 -0.1069539478940484 -0.20121524606085259 0 -0.1055884512206339 -0.19610810014299959 0 -0.11636069704563699 -0.20125831597190941 0 -0.1069539478940484 -0.20121524606085259 0 -0.11636069704563699 -0.20125831597190941 0 -0.1069539478940484 -0.20121524606085259 0 -0.1182325320857732 -0.21701117714245771 0 -0.1146322195844853 -0.229933041338924 0 -0.1069539478940484 -0.20121524606085259 0 -0.1146322195844853 -0.229933041338924 0 -0.12446659453658469 -0.2051337493999616 0 -0.1182325320857732 -0.21701117714245771 0 -0.12964778408632779 -0.2240559515308029 0 -0.1069539478940484 -0.20121524606085259 0 -0.116503442890511 -0.20615462214379501 0 -0.1182325320857732 -0.21701117714245771 0 -0.116503442890511 -0.20615462214379501 0 -0.12446659453658469 -0.2051337493999616 0 -0.1182325320857732 -0.21701117714245771 0 -0.11636069704563699 -0.20125831597190941 0 -0.116503442890511 -0.20615462214379501 0 -0.12446659453658469 -0.2051337493999616 0 -0.11636069704563699 -0.20125831597190941 0 -0.12446659453658469 -0.2051337493999616 0 -0.1234142843990034 -0.20129061165398179 0 -0.12446659453658469 -0.2051337493999616 0 -0.1069539478940484 -0.20121524606085259 0 -0.1039432587622498 -0.21234961129803451 0 -0.1146322195844853 -0.229933041338924 0 -0.091210523848666042 -0.22145825259936749 0 -0.094316415030678002 -0.20115738362531499 0 -0.098742607236989521 -0.21208478243994361 0 -0.1039432587622498 -0.21234961129803451 0 -0.098742607236989521 -0.21208478243994361 0 -0.10362742502627011 -0.2199549018075595 0 -0.1069539478940484 -0.20121524606085259 0 -0.1039432587622498 -0.21234961129803451 0 -0.1006154135170836 -0.20550376286944089 0 -0.1039432587622498 -0.21234961129803451 0 -0.1006154135170836 -0.20550376286944089 0 -0.098742607236989521 -0.21208478243994361 0 -0.094316415030678002 -0.20115738362531499 0 -0.1006154135170836 -0.20550376286944089 0 -0.098742607236989521 -0.21208478243994361 0 -0.091210523848666042 -0.22145825259936749 0 -0.098742607236989521 -0.21208478243994361 0 -0.10362742502627011 -0.2199549018075595 0 -0.096373561920523113 -0.2318247108995648 0 -0.10362742502627011 -0.2199549018075595 0 -0.1025516661405015 -0.24412656761791199 0 -0.1039432587622498 -0.21234961129803451 0 -0.10362742502627011 -0.2199549018075595 0 -0.1146322195844853 -0.229933041338924 0 -0.10362742502627011 -0.2199549018075595 0 -0.1025516661405015 -0.24412656761791199 0 -0.10362742502627011 -0.2199549018075595 0 -0.11057817055071439 -0.23713955200355691 0 -0.1025516661405015 -0.24412656761791199 0 -0.091210523848666042 -0.22145825259936749 0 -0.096373561920523113 -0.2318247108995648 0 -0.10362742502627011 -0.2199549018075595 0 -0.10362742502627011 -0.2199549018075595 0 -0.1146322195844853 -0.229933041338924 0 -0.11057817055071439 -0.23713955200355691 0 -0.1182325320857732 -0.21701117714245771 0 -0.1146322195844853 -0.229933041338924 0 -0.12964778408632779 -0.2240559515308029 0 -0.1146322195844853 -0.229933041338924 0 -0.12594535918601221 -0.23537450645762351 0 -0.12964778408632779 -0.2240559515308029 0 -0.1146322195844853 -0.229933041338924 0 -0.11057817055071439 -0.23713955200355691 0 -0.11992695639240671 -0.24305274461581289 0 -0.1146322195844853 -0.229933041338924 0 -0.11992695639240671 -0.24305274461581289 0 -0.12594535918601221 -0.23537450645762351 0 -0.11992695639240671 -0.24305274461581289 0 -0.12594535918601221 -0.23537450645762351 0 -0.1270777831465402 -0.24161244513161839 0 -0.11057817055071439 -0.23713955200355691 0 -0.11992695639240671 -0.24305274461581289 0 -0.1121525856099083 -0.24863050463757599 0 -0.1183855941197941 -0.25651062511641259 0 -0.11992695639240671 -0.24305274461581289 0 -0.1121525856099083 -0.24863050463757599 0 -0.1097432552782682 -0.2572086698476283 0 -0.1121525856099083 -0.24863050463757599 0 -0.1025516661405015 -0.24412656761791199 0 -0.11057817055071439 -0.23713955200355691 0 -0.1121525856099083 -0.24863050463757599 0 -0.1025516661405015 -0.24412656761791199 0 -0.088104632666654803 -0.24175912157342011 0 -0.096373561920523113 -0.2318247108995648 0 -0.1025516661405015 -0.24412656761791199 0 -0.093680051977193257 -0.25300014610948141 0 -0.088104632666654803 -0.24175912157342011 0 -0.1025516661405015 -0.24412656761791199 0 -0.091208904987890735 -0.14232661368977559 0 -0.087323419063827665 -0.1566704494577609 0 -0.098398678104261977 -0.16921735691638781 0 -0.081276062778159672 -0.14883202435870879 0 -0.08710950077230438 -0.14178266396580899 0 -0.074302444905730333 -0.14290824730771751 0 -0.081276062778159672 -0.14883202435870879 0 -0.091208904987890735 -0.14232661368977559 0 -0.087323419063827665 -0.1566704494577609 0 -0.081276062778159672 -0.14883202435870879 0 -0.08710950077230438 -0.14178266396580899 0 -0.091208904987890735 -0.14232661368977559 0 -0.08710950077230438 -0.14178266396580899 0 -0.091208904987890735 -0.14232661368977559 0 -0.091208904987890735 -0.14232661368977559 0 -0.089131397015513494 -0.13455644729756691 0 -0.089131397015513494 -0.13455644729756691 0 -0.072915517223638954 -0.12670463451369329 0 -0.074302444905730333 -0.14290824730771751 0 -0.08710950077230438 -0.14178266396580899 0 -0.091208904987890735 -0.14232661368977559 0 -0.089131397015513494 -0.13455644729756691 0 -0.08710950077230438 -0.14178266396580899 0 -0.089131397015513494 -0.13455644729756691 0 -0.074302444905730333 -0.14290824730771751 0 -0.089131397015513494 -0.13455644729756691 0 -0.074302444905730333 -0.14290824730771751 0 -0.061100100412547438 -0.13647315015658409 0 -0.072915517223638954 -0.12670463451369329 0 -0.074302444905730333 -0.14290824730771751 0 -0.060928146748241367 -0.123537549367131 0 -0.061100100412547438 -0.13647315015658409 0 -0.072915517223638954 -0.12670463451369329 0 -0.059473492795946999 -0.1512600473178678 0 -0.081276062778159672 -0.14883202435870879 0 -0.074302444905730333 -0.14290824730771751 0 -0.059473492795946999 -0.1512600473178678 0 -0.081276062778159672 -0.14883202435870879 0 -0.078410030384998497 -0.16630580286617139 0 -0.059473492795946999 -0.1512600473178678 0 -0.074302444905730333 -0.14290824730771751 0 -0.059473492795946999 -0.1512600473178678 0 -0.061100100412547438 -0.13647315015658409 0 -0.074302444905730333 -0.14290824730771751 0 -0.061817946007188637 -0.1647032604190713 0 -0.070259181001566293 -0.17921715932508539 0 -0.078410030384998497 -0.16630580286617139 0 -0.059473492795946999 -0.1512600473178678 0 -0.078410030384998497 -0.16630580286617139 0 -0.061817946007188637 -0.1647032604190713 0 -0.059473492795946999 -0.1512600473178678 0 -0.078410030384998497 -0.16630580286617139 0 -0.064566778430722005 -0.1899668467895553 0 -0.075377056328755521 -0.19008301367616509 0 -0.070259181001566293 -0.17921715932508539 0 -0.070259181001566293 -0.17921715932508539 0 -0.08402443889557612 -0.1788939005998389 0 -0.078410030384998497 -0.16630580286617139 0 -0.089423753135733974 -0.18837975033564619 0 -0.070259181001566293 -0.17921715932508539 0 -0.075377056328755521 -0.19008301367616509 0 -0.089423753135733974 -0.18837975033564619 0 -0.070259181001566293 -0.17921715932508539 0 -0.078410030384998497 -0.16630580286617139 0 -0.098398678104261977 -0.16921735691638781 0 -0.097346567974052028 -0.18135155841447259 0 -0.078410030384998497 -0.16630580286617139 0 -0.097346567974052028 -0.18135155841447259 0 -0.08402443889557612 -0.1788939005998389 0 -0.078410030384998497 -0.16630580286617139 0 -0.097346567974052028 -0.18135155841447259 0 -0.089423753135733974 -0.18837975033564619 0 -0.070259181001566293 -0.17921715932508539 0 -0.08402443889557612 -0.1788939005998389 0 -0.089423753135733974 -0.18837975033564619 0 -0.08402443889557612 -0.1788939005998389 0 -0.090500110278716836 -0.18291833725845449 0 -0.08402443889557612 -0.1788939005998389 0 -0.090500110278716836 -0.18291833725845449 0 -0.097346567974052028 -0.18135155841447259 0 -0.089423753135733974 -0.18837975033564619 0 -0.090500110278716836 -0.18291833725845449 0 -0.081276062778159672 -0.14883202435870879 0 -0.078410030384998497 -0.16630580286617139 0 -0.087323419063827665 -0.1566704494577609 0 -0.078410030384998497 -0.16630580286617139 0 -0.087323419063827665 -0.1566704494577609 0 -0.098398678104261977 -0.16921735691638781 0 -0.098398678104261977 -0.16921735691638781 0 -0.1095912747331507 -0.1796343382558257 0 -0.1134730054873082 -0.16498410574444861 0 -0.098398678104261977 -0.16921735691638781 0 -0.1134730054873082 -0.16498410574444861 0 -0.1057127461594554 -0.15566112818699529 0 -0.1055884512206339 -0.19610810014299959 0 -0.098398678104261977 -0.16921735691638781 0 -0.099028938128851704 -0.1826882615985625 0 -0.1055884512206339 -0.19610810014299959 0 -0.098398678104261977 -0.16921735691638781 0 -0.1055884512206339 -0.19610810014299959 0 -0.098398678104261977 -0.16921735691638781 0 -0.1095912747331507 -0.1796343382558257 0 -0.095804572093432044 -0.1914304229002349 0 -0.097346567974052028 -0.18135155841447259 0 -0.099028938128851704 -0.1826882615985625 0 -0.095804572093432044 -0.1914304229002349 0 -0.090500110278716836 -0.18291833725845449 0 -0.097346567974052028 -0.18135155841447259 0 -0.095804572093432044 -0.1914304229002349 0 -0.097346567974052028 -0.18135155841447259 0 -0.097346567974052028 -0.18135155841447259 0 -0.099028938128851704 -0.1826882615985625 0 -0.098398678104261977 -0.16921735691638781 0 -0.097346567974052028 -0.18135155841447259 0 -0.099028938128851704 -0.1826882615985625 0 -0.118443644943155 -0.18313735869921541 0 -0.1134730054873082 -0.16498410574444861 0 -0.1288769000074067 -0.1787922372229141 0 -0.118443644943155 -0.18313735869921541 0 -0.1134730054873082 -0.16498410574444861 0 -0.1095912747331507 -0.1796343382558257 0 -0.118443644943155 -0.18313735869921541 0 -0.1134730054873082 -0.16498410574444861 0 -0.1143022105317214 -0.19176920984990589 0 -0.1095912747331507 -0.1796343382558257 0 -0.118443644943155 -0.18313735869921541 0 -0.1134730054873082 -0.16498410574444861 0 -0.1197703960583608 -0.14611643639736929 0 -0.1290470673658046 -0.1573335562640088 0 -0.1134730054873082 -0.16498410574444861 0 -0.1197703960583608 -0.14611643639736929 0 -0.1057127461594554 -0.15566112818699529 0 -0.091208904987890735 -0.14232661368977559 0 -0.1197703960583608 -0.14611643639736929 0 -0.1055319536065798 -0.13433424813048789 0 -0.091208904987890735 -0.14232661368977559 0 -0.1197703960583608 -0.14611643639736929 0 -0.091208904987890735 -0.14232661368977559 0 -0.098398678104261977 -0.16921735691638781 0 -0.091208904987890735 -0.14232661368977559 0 -0.1197703960583608 -0.14611643639736929 0 -0.1057127461594554 -0.15566112818699529 0 -0.091208904987890735 -0.14232661368977559 0 -0.098398678104261977 -0.16921735691638781 0 -0.1057127461594554 -0.15566112818699529 0 -0.11422347955810171 -0.1204243593602408 0 -0.089131397015513494 -0.13455644729756691 0 -0.1055319536065798 -0.13433424813048789 0 -0.091208904987890735 -0.14232661368977559 0 -0.089131397015513494 -0.13455644729756691 0 -0.1055319536065798 -0.13433424813048789 0 -0.11422347955810171 -0.1204243593602408 0 -0.089131397015513494 -0.13455644729756691 0 -0.11422347955810171 -0.1204243593602408 0 -0.1197703960583608 -0.14611643639736929 0 -0.13445671698849809 -0.1291024538471422 0 -0.11422347955810171 -0.1204243593602408 0 -0.1197703960583608 -0.14611643639736929 0 -0.1055319536065798 -0.13433424813048789 0 -0.1483318871288308 -0.14990625910496369 0 -0.16449988742022109 -0.13664022397910389 0 -0.1531014227808439 -0.1221458571451004 0 -0.13445671698849809 -0.1291024538471422 0 -0.1483318871288308 -0.14990625910496369 0 -0.1531014227808439 -0.1221458571451004 0 -0.1197703960583608 -0.14611643639736929 0 -0.1483318871288308 -0.14990625910496369 0 -0.1197703960583608 -0.14611643639736929 0 -0.13445671698849809 -0.1291024538471422 0 -0.1483318871288308 -0.14990625910496369 0 -0.1197703960583608 -0.14611643639736929 0 -0.1483318871288308 -0.14990625910496369 0 -0.1290470673658046 -0.1573335562640088 0 -0.1134730054873082 -0.16498410574444861 0 -0.13461298078871861 -0.16832742380925381 0 -0.1288769000074067 -0.1787922372229141 0 -0.1134730054873082 -0.16498410574444861 0 -0.1290470673658046 -0.1573335562640088 0 -0.13461298078871861 -0.16832742380925381 0 -0.1483318871288308 -0.14990625910496369 0 -0.1290470673658046 -0.1573335562640088 0 -0.13461298078871861 -0.16832742380925381 0 -0.1288769000074067 -0.1787922372229141 0 -0.13667151748925299 -0.18732448341615179 0 -0.12964513627792831 -0.18854704193980709 0 -0.118443644943155 -0.18313735869921541 0 -0.1288769000074067 -0.1787922372229141 0 -0.12964513627792831 -0.18854704193980709 0 -0.13461298078871861 -0.16832742380925381 0 -0.1288769000074067 -0.1787922372229141 0 -0.13971937495991149 -0.1792470101286355 0 -0.13971937495991149 -0.1792470101286355 0 -0.13667151748925299 -0.18732448341615179 0 -0.14496415935730611 -0.1865433765957375 0 -0.1288769000074067 -0.1787922372229141 0 -0.13971937495991149 -0.1792470101286355 0 -0.13667151748925299 -0.18732448341615179 0 -0.13461298078871861 -0.16832742380925381 0 -0.13971937495991149 -0.1792470101286355 0 -0.15185728900885839 -0.17281716391360821 0 -0.13971937495991149 -0.1792470101286355 0 -0.14496415935730611 -0.1865433765957375 0 -0.15185728900885839 -0.17281716391360821 0 -0.14496415935730611 -0.1865433765957375 0 -0.15185728900885839 -0.17281716391360821 0 -0.15433817598466459 -0.18776234762491931 0 -0.1483318871288308 -0.14990625910496369 0 -0.13461298078871861 -0.16832742380925381 0 -0.15185728900885839 -0.17281716391360821 0 -0.1483318871288308 -0.14990625910496369 0 -0.15185728900885839 -0.17281716391360821 0 -0.1768933781993007 -0.15369608181255809 0 -0.15185728900885839 -0.17281716391360821 0 -0.16517877359736971 -0.18077311964873491 0 -0.1768933781993007 -0.15369608181255809 0 -0.16517877359736971 -0.18077311964873491 0 -0.15433817598466459 -0.18776234762491931 0 -0.16707343948115469 -0.19329854854562631 0 -0.15185728900885839 -0.17281716391360821 0 -0.16517877359736971 -0.18077311964873491 0 -0.15433817598466459 -0.18776234762491931 0 -0.16517877359736971 -0.18077311964873491 0 -0.17993745220376059 -0.17895489523397801 0 -0.16707343948115469 -0.19329854854562631 0 -0.16517877359736971 -0.18077311964873491 0 -0.17993745220376059 -0.17895489523397801 0 -0.1768933781993007 -0.15369608181255809 0 -0.17993745220376059 -0.17895489523397801 0 -0.1768933781993007 -0.15369608181255809 0 -0.19905977422349169 -0.1755558360643551 0 -0.1768933781993007 -0.15369608181255809 0 -0.17856324423929071 -0.13411692648003359 0 -0.16449988742022109 -0.13664022397910389 0 -0.1768933781993007 -0.15369608181255809 0 -0.17856324423929071 -0.13411692648003359 0 -0.1900158864605431 -0.1418606691544825 0 -0.17856324423929071 -0.13411692648003359 0 -0.1912596026832544 -0.12883579632457359 0 -0.1900158864605431 -0.1418606691544825 0 -0.17856324423929071 -0.13411692648003359 0 -0.1912596026832544 -0.12883579632457359 0 -0.18212358698306741 -0.12142770117184561 0 -0.17856324423929071 -0.13411692648003359 0 -0.18212358698306741 -0.12142770117184561 0 -0.16904936396502779 -0.1225698900008125 0 -0.16449988742022109 -0.13664022397910389 0 -0.16904936396502779 -0.1225698900008125 0 -0.1531014227808439 -0.1221458571451004 0 -0.17856324423929071 -0.13411692648003359 0 -0.16449988742022109 -0.13664022397910389 0 -0.16904936396502779 -0.1225698900008125 0 -0.1483318871288308 -0.14990625910496369 0 -0.1768933781993007 -0.15369608181255809 0 -0.1483318871288308 -0.14990625910496369 0 -0.1768933781993007 -0.15369608181255809 0 -0.16449988742022109 -0.13664022397910389 0 -0.15566934165753701 -0.24482136105764621 0 -0.13482897363606841 -0.24297815366164491 0 -0.14564999181442231 -0.22989611270817639 0 -0.15566934165753701 -0.24482136105764621 0 -0.14564999181442231 -0.22989611270817639 0 -0.16429012863802009 -0.23491512272004891 0 -0.15821309250511281 -0.26118480488572993 0 -0.15566934165753701 -0.24482136105764621 0 -0.13482897363606841 -0.24297815366164491 0 -0.1283361407779757 -0.25159171728621699 0 -0.13482897363606841 -0.24297815366164491 0 -0.1310987251445577 -0.2446583467236331 0 -0.1283361407779757 -0.25159171728621699 0 -0.1310987251445577 -0.2446583467236331 0 -0.1270777831465402 -0.24161244513161839 0 -0.1283361407779757 -0.25159171728621699 0 -0.11992695639240671 -0.24305274461581289 0 -0.1270777831465402 -0.24161244513161839 0 -0.13482897363606841 -0.24297815366164491 0 -0.1310987251445577 -0.2446583467236331 0 -0.1270777831465402 -0.24161244513161839 0 -0.13482897363606841 -0.24297815366164491 0 -0.12594535918601221 -0.23537450645762351 0 -0.1270777831465402 -0.24161244513161839 0 -0.13482897363606841 -0.24297815366164491 0 -0.12964778408632779 -0.2240559515308029 0 -0.14564999181442231 -0.22989611270817639 0 -0.13482897363606841 -0.24297815366164491 0 -0.12594535918601221 -0.23537450645762351 0 -0.12964778408632779 -0.2240559515308029 0 -0.13482897363606841 -0.24297815366164491 0 -0.12964778408632779 -0.2240559515308029 0 -0.12964778408632779 -0.2240559515308029 0 -0.14564999181442231 -0.22989611270817639 0 -0.13906082520362789 -0.21424948005767519 0 -0.14564999181442231 -0.22989611270817639 0 -0.1532157355819776 -0.21469763412746851 0 -0.16429012863802009 -0.23491512272004891 0 -0.14564999181442231 -0.22989611270817639 0 -0.1532157355819776 -0.21469763412746851 0 -0.13906082520362789 -0.21424948005767519 0 -0.1532157355819776 -0.21469763412746851 0 -0.1421413425259351 -0.1944801455348881 0 -0.14344356041104711 -0.20138231805780499 0 -0.1532157355819776 -0.21469763412746851 0 -0.1421413425259351 -0.1944801455348881 0 -0.1532157355819776 -0.21469763412746851 0 -0.13906082520362789 -0.21424948005767519 0 -0.14344356041104711 -0.20138231805780499 0 -0.12964778408632779 -0.2240559515308029 0 -0.13906082520362789 -0.21424948005767519 0 -0.12775347419704111 -0.20670520812175669 0 -0.12446659453658469 -0.2051337493999616 0 -0.12964778408632779 -0.2240559515308029 0 -0.12775347419704111 -0.20670520812175669 0 -0.12446659453658469 -0.2051337493999616 0 -0.12964778408632779 -0.2240559515308029 0 -0.1234142843990034 -0.20129061165398179 0 -0.12775347419704111 -0.20670520812175669 0 -0.1342433848347403 -0.2059710501757869 0 -0.1234142843990034 -0.20129061165398179 0 -0.12446659453658469 -0.2051337493999616 0 -0.12775347419704111 -0.20670520812175669 0 -0.12446659453658469 -0.2051337493999616 0 -0.12775347419704111 -0.20670520812175669 0 -0.13906082520362789 -0.21424948005767519 0 -0.12775347419704111 -0.20670520812175669 0 -0.1342433848347403 -0.2059710501757869 0 -0.13906082520362789 -0.21424948005767519 0 -0.1342433848347403 -0.2059710501757869 0 -0.14344356041104711 -0.20138231805780499 0 -0.13448747671815081 -0.19705371152474219 0 -0.1421413425259351 -0.1944801455348881 0 -0.14344356041104711 -0.20138231805780499 0 -0.1234142843990034 -0.20129061165398179 0 -0.1342433848347403 -0.2059710501757869 0 -0.14344356041104711 -0.20138231805780499 0 -0.1234142843990034 -0.20129061165398179 0 -0.13448747671815081 -0.19705371152474219 0 -0.14344356041104711 -0.20138231805780499 0 -0.1234142843990034 -0.20129061165398179 0 -0.14344356041104711 -0.20138231805780499 0 -0.1234142843990034 -0.20129061165398179 0 -0.13448747671815081 -0.19705371152474219 0 -0.12836978379805469 -0.19505845874684749 0 -0.118443644943155 -0.18313735869921541 0 -0.12836978379805469 -0.19505845874684749 0 -0.12964513627792831 -0.18854704193980709 0 -0.12836978379805469 -0.19505845874684749 0 -0.12964513627792831 -0.18854704193980709 0 -0.1350684124567138 -0.19305702363018909 0 -0.13448747671815081 -0.19705371152474219 0 -0.12836978379805469 -0.19505845874684749 0 -0.1350684124567138 -0.19305702363018909 0 -0.13667151748925299 -0.18732448341615179 0 -0.12964513627792831 -0.18854704193980709 0 -0.1350684124567138 -0.19305702363018909 0 -0.13448747671815081 -0.19705371152474219 0 -0.1350684124567138 -0.19305702363018909 0 -0.1421413425259351 -0.1944801455348881 0 -0.13667151748925299 -0.18732448341615179 0 -0.1350684124567138 -0.19305702363018909 0 -0.1421413425259351 -0.1944801455348881 0 -0.1532157355819776 -0.21469763412746851 0 -0.1421413425259351 -0.1944801455348881 0 -0.15666351948114629 -0.1995899832452937 0 -0.13667151748925299 -0.18732448341615179 0 -0.14496415935730611 -0.1865433765957375 0 -0.1421413425259351 -0.1944801455348881 0 -0.14496415935730611 -0.1865433765957375 0 -0.1421413425259351 -0.1944801455348881 0 -0.15433817598466459 -0.18776234762491931 0 -0.1421413425259351 -0.1944801455348881 0 -0.15433817598466459 -0.18776234762491931 0 -0.15666351948114629 -0.1995899832452937 0 -0.15433817598466459 -0.18776234762491931 0 -0.15666351948114629 -0.1995899832452937 0 -0.16707343948115469 -0.19329854854562631 0 -0.15666351948114629 -0.1995899832452937 0 -0.16707343948115469 -0.19329854854562631 0 -0.16732224548458891 -0.20842311436722119 0 -0.16707343948115469 -0.19329854854562631 0 -0.17975878066101059 -0.20042989322362739 0 -0.16732224548458891 -0.20842311436722119 0 -0.17993745220376059 -0.17895489523397801 0 -0.17975878066101059 -0.20042989322362739 0 -0.19266467917721081 -0.1936257676085566 0 -0.17993745220376059 -0.17895489523397801 0 -0.16707343948115469 -0.19329854854562631 0 -0.17975878066101059 -0.20042989322362739 0 -0.17975878066101059 -0.20042989322362739 0 -0.18070391625864071 -0.21863984915545301 0 -0.19253239785726259 -0.2093467412910768 0 -0.17975878066101059 -0.20042989322362739 0 -0.18070391625864071 -0.21863984915545301 0 -0.16732224548458891 -0.20842311436722119 0 -0.1532157355819776 -0.21469763412746851 0 -0.15666351948114629 -0.1995899832452937 0 -0.16732224548458891 -0.20842311436722119 0 -0.1532157355819776 -0.21469763412746851 0 -0.16732224548458891 -0.20842311436722119 0 -0.16429012863802009 -0.23491512272004891 0 -0.1532157355819776 -0.21469763412746851 0 -0.16429012863802009 -0.23491512272004891 0 -0.18070391625864071 -0.21863984915545301 0 -0.16732224548458891 -0.20842311436722119 0 -0.16429012863802009 -0.23491512272004891 0 -0.18070391625864071 -0.21863984915545301 0 -0.18601458812680871 -0.23629827425452701 0 -0.16429012863802009 -0.23491512272004891 0 -0.18070391625864071 -0.21863984915545301 0 -0.18601458812680871 -0.23629827425452701 0 -0.19270158591305361 -0.22296204550849591 0 -0.17536452169406261 -0.25513261131262932 0 -0.18601458812680871 -0.23629827425452701 0 -0.1971211098569064 -0.2485562144643311 0 -0.17536452169406261 -0.25513261131262932 0 -0.18601458812680871 -0.23629827425452701 0 -0.16429012863802009 -0.23491512272004891 0 -0.17536452169406261 -0.25513261131262932 0 -0.16429012863802009 -0.23491512272004891 0 -0.17536452169406261 -0.25513261131262932 0 -0.15566934165753701 -0.24482136105764621 0 -0.16429012863802009 -0.23491512272004891 0 -0.2040044810152343 -0.23377727090047351 0 -0.22181314593257209 -0.22697511150882529 0 -0.22025275826160279 -0.2471257797298928 0 -0.1971211098569064 -0.2485562144643311 0 -0.2040044810152343 -0.23377727090047351 0 -0.22025275826160279 -0.2471257797298928 0 -0.18601458812680871 -0.23629827425452701 0 -0.1971211098569064 -0.2485562144643311 0 -0.2040044810152343 -0.23377727090047351 0 -0.18601458812680871 -0.23629827425452701 0 -0.19270158591305361 -0.22296204550849591 0 -0.2040044810152343 -0.23377727090047351 0 -0.19270158591305361 -0.22296204550849591 0 -0.20646661184779291 -0.2209366033754204 0 -0.2040044810152343 -0.23377727090047351 0 -0.20646661184779291 -0.2209366033754204 0 -0.2040044810152343 -0.23377727090047351 0 -0.22181314593257209 -0.22697511150882529 0 -0.20646661184779291 -0.2209366033754204 0 -0.22181314593257209 -0.22697511150882529 0 -0.20646661184779291 -0.2209366033754204 0 -0.21966781828876961 -0.21222017746694699 0 -0.22181314593257209 -0.22697511150882529 0 -0.20646661184779291 -0.2209366033754204 0 -0.20611948272011121 -0.20304611138236681 0 -0.21966781828876961 -0.21222017746694699 0 -0.20611948272011121 -0.20304611138236681 0 -0.21897926871800019 -0.19669337567287831 0 -0.21966781828876961 -0.21222017746694699 0 -0.20646661184779291 -0.2209366033754204 0 -0.19253239785726259 -0.2093467412910768 0 -0.20611948272011121 -0.20304611138236681 0 -0.19270158591305361 -0.22296204550849591 0 -0.20646661184779291 -0.2209366033754204 0 -0.19253239785726259 -0.2093467412910768 0 -0.18070391625864071 -0.21863984915545301 0 -0.19270158591305361 -0.22296204550849591 0 -0.19253239785726259 -0.2093467412910768 0 -0.19266467917721081 -0.1936257676085566 0 -0.20611948272011121 -0.20304611138236681 0 -0.2083219237785757 -0.1873320277690235 0 -0.17975878066101059 -0.20042989322362739 0 -0.19253239785726259 -0.2093467412910768 0 -0.19266467917721081 -0.1936257676085566 0 -0.19253239785726259 -0.2093467412910768 0 -0.19266467917721081 -0.1936257676085566 0 -0.20611948272011121 -0.20304611138236681 0 -0.20611948272011121 -0.20304611138236681 0 -0.21897926871800019 -0.19669337567287831 0 -0.2083219237785757 -0.1873320277690235 0 -0.21897926871800019 -0.19669337567287831 0 -0.23230424975577199 -0.20503470769258789 0 -0.23313215691775949 -0.18450877018534409 0 -0.2448317244682672 -0.19494017856122331 0 -0.23230424975577199 -0.20503470769258789 0 -0.23313215691775949 -0.18450877018534409 0 -0.2448317244682672 -0.19494017856122331 0 -0.24405101732391901 -0.2151790953022156 0 -0.23230424975577199 -0.20503470769258789 0 -0.2448317244682672 -0.19494017856122331 0 -0.24405101732391901 -0.2151790953022156 0 -0.24405101732391901 -0.2151790953022156 0 -0.23230424975577199 -0.20503470769258789 0 -0.23232415075836929 -0.22063515516960361 0 -0.23230424975577199 -0.20503470769258789 0 -0.21966781828876961 -0.21222017746694699 0 -0.23232415075836929 -0.22063515516960361 0 -0.21897926871800019 -0.19669337567287831 0 -0.23230424975577199 -0.20503470769258789 0 -0.21966781828876961 -0.21222017746694699 0 -0.21966781828876961 -0.21222017746694699 0 -0.22181314593257209 -0.22697511150882529 0 -0.23232415075836929 -0.22063515516960361 0 -0.22181314593257209 -0.22697511150882529 0 -0.23232415075836929 -0.22063515516960361 0 -0.2371596800173508 -0.23301361964223161 0 -0.22181314593257209 -0.22697511150882529 0 -0.2371596800173508 -0.23301361964223161 0 -0.24405101732391901 -0.2151790953022156 0 -0.24327031017957049 -0.23541801204320789 0 -0.24405101732391901 -0.2151790953022156 0 -0.24327031017957049 -0.23541801204320789 0 -0.25588924886857078 -0.22577026586403889 0 -0.24405101732391901 -0.2151790953022156 0 -0.23232415075836929 -0.22063515516960361 0 -0.23916826383476761 -0.23133706037317611 0 -0.24405101732391901 -0.2151790953022156 0 -0.23916826383476761 -0.23133706037317611 0 -0.24327031017957049 -0.23541801204320789 0 -0.23916826383476761 -0.23133706037317611 0 -0.2371596800173508 -0.23301361964223161 0 -0.24327031017957049 -0.23541801204320789 0 -0.2371596800173508 -0.23301361964223161 0 -0.24327031017957049 -0.23541801204320789 0 -0.23232415075836929 -0.22063515516960361 0 -0.23916826383476761 -0.23133706037317611 0 -0.2371596800173508 -0.23301361964223161 0 -0.23916826383476761 -0.23133706037317611 0 -0.2371596800173508 -0.23301361964223161 0 -0.24233717299785959 -0.25960849866204011 0 -0.24327031017957049 -0.23541801204320789 0 -0.23442911476228809 -0.24683612341654529 0 -0.24233717299785959 -0.25960849866204011 0 -0.24327031017957049 -0.23541801204320789 0 -0.25018128361314113 -0.24746468840205441 0 -0.2371596800173508 -0.23301361964223161 0 -0.24327031017957049 -0.23541801204320789 0 -0.23442911476228809 -0.24683612341654529 0 -0.24233717299785959 -0.25960849866204011 0 -0.24327031017957049 -0.23541801204320789 0 -0.2371596800173508 -0.23301361964223161 0 -0.22025275826160279 -0.2471257797298928 0 -0.2371596800173508 -0.23301361964223161 0 -0.23442911476228809 -0.24683612341654529 0 -0.22025275826160279 -0.2471257797298928 0 -0.22181314593257209 -0.22697511150882529 0 -0.2371596800173508 -0.23301361964223161 0 -0.22025275826160279 -0.2471257797298928 0 -0.21260261997950849 -0.1372892749024191 0 -0.20545486926977061 -0.1574859045201529 0 -0.21260261997950849 -0.1372892749024191 0 -0.20545486926977061 -0.1574859045201529 0 -0.22601880180638709 -0.14497793796819641 0 -0.21260261997950849 -0.1372892749024191 0 -0.20085213665154589 -0.13643960324073179 0 -0.20545486926977061 -0.1574859045201529 0 -0.21260261997950849 -0.1372892749024191 0 -0.2197503706892443 -0.1170926452846846 0 -0.20366324778073339 -0.1226314006036201 0 -0.21260261997950849 -0.1372892749024191 0 -0.2197503706892443 -0.1170926452846846 0 -0.21260261997950849 -0.1372892749024191 0 -0.20085213665154589 -0.13643960324073179 0 -0.20366324778073339 -0.1226314006036201 0 -0.20085213665154589 -0.13643960324073179 0 -0.1912596026832544 -0.12883579632457359 0 -0.20366324778073339 -0.1226314006036201 0 -0.20085213665154589 -0.13643960324073179 0 -0.1912596026832544 -0.12883579632457359 0 -0.1900158864605431 -0.1418606691544825 0 -0.1768933781993007 -0.15369608181255809 0 -0.1900158864605431 -0.1418606691544825 0 -0.20545486926977061 -0.1574859045201529 0 -0.1768933781993007 -0.15369608181255809 0 -0.20545486926977061 -0.1574859045201529 0 -0.20085213665154589 -0.13643960324073179 0 -0.1900158864605431 -0.1418606691544825 0 -0.20545486926977061 -0.1574859045201529 0 -0.1768933781993007 -0.15369608181255809 0 -0.19905977422349169 -0.1755558360643551 0 -0.20545486926977061 -0.1574859045201529 0 -0.19905977422349169 -0.1755558360643551 0 -0.20545486926977061 -0.1574859045201529 0 -0.19266467917721081 -0.1936257676085566 0 -0.19905977422349169 -0.1755558360643551 0 -0.19266467917721081 -0.1936257676085566 0 -0.19905977422349169 -0.1755558360643551 0 -0.2083219237785757 -0.1873320277690235 0 -0.17993745220376059 -0.17895489523397801 0 -0.19266467917721081 -0.1936257676085566 0 -0.19905977422349169 -0.1755558360643551 0 -0.21897926871800019 -0.19669337567287831 0 -0.2083219237785757 -0.1873320277690235 0 -0.21860002285518379 -0.17692462022396371 0 -0.19905977422349169 -0.1755558360643551 0 -0.2083219237785757 -0.1873320277690235 0 -0.21860002285518379 -0.17692462022396371 0 -0.19905977422349169 -0.1755558360643551 0 -0.21860002285518379 -0.17692462022396371 0 -0.20545486926977061 -0.1574859045201529 0 -0.21860002285518379 -0.17692462022396371 0 -0.20545486926977061 -0.1574859045201529 0 -0.2334194436613071 -0.16119652238585741 0 -0.20545486926977061 -0.1574859045201529 0 -0.2334194436613071 -0.16119652238585741 0 -0.21860002285518379 -0.17692462022396371 0 -0.2334194436613071 -0.16119652238585741 0 -0.23313215691775949 -0.18450877018534409 0 -0.21897926871800019 -0.19669337567287831 0 -0.21860002285518379 -0.17692462022396371 0 -0.23313215691775949 -0.18450877018534409 0 -0.2448317244682672 -0.19494017856122331 0 -0.24561243161261531 -0.1747012618202311 0 -0.2448317244682672 -0.19494017856122331 0 -0.23313215691775949 -0.18450877018534409 0 -0.24561243161261531 -0.1747012618202311 0 -0.2334194436613071 -0.16119652238585741 0 -0.23313215691775949 -0.18450877018534409 0 -0.24561243161261531 -0.1747012618202311 0 -0.2334194436613071 -0.16119652238585741 0 -0.24768759332024501 -0.15288591991307249 0 -0.26138401805284373 -0.16490714025156239 0 -0.2334194436613071 -0.16119652238585741 0 -0.24561243161261531 -0.1747012618202311 0 -0.26138401805284373 -0.16490714025156239 0 -0.2334194436613071 -0.16119652238585741 0 -0.26138401805284373 -0.16490714025156239 0 -0.24768759332024501 -0.15288591991307249 0 -0.24035206963199701 -0.13773520297616959 0 -0.25066558347885931 -0.13251764995053431 0 -0.23716828236838119 -0.14842713651880179 0 -0.22601880180638709 -0.14497793796819641 0 -0.24035206963199701 -0.13773520297616959 0 -0.24768759332024501 -0.15288591991307249 0 -0.23716828236838119 -0.14842713651880179 0 -0.24035206963199701 -0.13773520297616959 0 -0.2334194436613071 -0.16119652238585741 0 -0.24768759332024501 -0.15288591991307249 0 -0.23716828236838119 -0.14842713651880179 0 -0.20545486926977061 -0.1574859045201529 0 -0.2334194436613071 -0.16119652238585741 0 -0.22601880180638709 -0.14497793796819641 0 -0.2334194436613071 -0.16119652238585741 0 -0.23716828236838119 -0.14842713651880179 0 -0.22601880180638709 -0.14497793796819641 0 -0.21260261997950849 -0.1372892749024191 0 -0.22701037204806629 -0.12800517972509859 0 -0.2197503706892443 -0.1170926452846846 0 -0.22601880180638709 -0.14497793796819641 0 -0.22701037204806629 -0.12800517972509859 0 -0.24035206963199701 -0.13773520297616959 0 -0.21260261997950849 -0.1372892749024191 0 -0.22601880180638709 -0.14497793796819641 0 -0.22701037204806629 -0.12800517972509859 0 -0.22701037204806629 -0.12800517972509859 0 -0.23833475363582929 -0.12699719077821001 0 -0.24035206963199701 -0.13773520297616959 0 -0.23833475363582929 -0.12699719077821001 0 -0.24035206963199701 -0.13773520297616959 0 -0.25066558347885931 -0.13251764995053431 0 -0.23833475363582929 -0.12699719077821001 0 -0.2466021228926524 -0.1215603100838341 0 -0.25066558347885931 -0.13251764995053431 0 -0.2466021228926524 -0.1215603100838341 0 -0.23420880670407421 -0.115344861449812 0 -0.25028307647261949 -0.1119170655065333 0 -0.23833475363582929 -0.12699719077821001 0 -0.2466021228926524 -0.1215603100838341 0 -0.23420880670407421 -0.115344861449812 0 -0.23975108867161321 -0.096745383671773488 0 -0.23420880670407421 -0.115344861449812 0 -0.25028307647261949 -0.1119170655065333 0 -0.23975108867161321 -0.096745383671773488 0 -0.25028307647261949 -0.1119170655065333 0 -0.25454071313255938 -0.097810231909066098 0 -0.23975108867161321 -0.096745383671773488 0 -0.22550089202944229 -0.1008440162637169 0 -0.23125141336964011 -0.084595387242749231 0 -0.23975108867161321 -0.096745383671773488 0 -0.22550089202944229 -0.1008440162637169 0 -0.23420880670407421 -0.115344861449812 0 -0.22550089202944229 -0.1008440162637169 0 -0.23125141336964011 -0.084595387242749231 0 -0.20770402821161371 -0.098985744105056478 0 -0.22550089202944229 -0.1008440162637169 0 -0.2197503706892443 -0.1170926452846846 0 -0.22550089202944229 -0.1008440162637169 0 -0.2197503706892443 -0.1170926452846846 0 -0.23420880670407421 -0.115344861449812 0 -0.22701037204806629 -0.12800517972509859 0 -0.2197503706892443 -0.1170926452846846 0 -0.22701037204806629 -0.12800517972509859 0 -0.2197503706892443 -0.1170926452846846 0 -0.23420880670407421 -0.115344861449812 0 -0.22701037204806629 -0.12800517972509859 0 -0.23833475363582929 -0.12699719077821001 0 -0.23420880670407421 -0.115344861449812 0 -0.24621250417125429 -0.067242688607955695 0 -0.2359213828018043 -0.071399957410672343 0 -0.2460442741291925 -0.056732515276429897 0 -0.24101683233652779 -0.07862751170581421 0 -0.252754029676304 -0.071454636367457428 0 -0.24621250417125429 -0.067242688607955695 0 -0.24101683233652779 -0.07862751170581421 0 -0.252754029676304 -0.071454636367457428 0 -0.2359213828018043 -0.071399957410672343 0 -0.24101683233652779 -0.07862751170581421 0 -0.24621250417125429 -0.067242688607955695 0 -0.2359213828018043 -0.071399957410672343 0 -0.24101683233652779 -0.07862751170581421 0 -0.24101683233652779 -0.07862751170581421 0 -0.25454071313255938 -0.097810231909066098 0 -0.23975108867161321 -0.096745383671773488 0 -0.24101683233652779 -0.07862751170581421 0 -0.25454071313255938 -0.097810231909066098 0 -0.23975108867161321 -0.096745383671773488 0 -0.24101683233652779 -0.07862751170581421 0 -0.23125141336964011 -0.084595387242749231 0 -0.24101683233652779 -0.07862751170581421 0 -0.23125141336964011 -0.084595387242749231 0 -0.2359213828018043 -0.071399957410672343 0 -0.24101683233652779 -0.07862751170581421 0 -0.23125141336964011 -0.084595387242749231 0 -0.23125141336964011 -0.084595387242749231 0 -0.2244703125416819 -0.072794076224461268 0 -0.21310247649950159 -0.079773441579648038 0 -0.23125141336964011 -0.084595387242749231 0 -0.20770402821161371 -0.098985744105056478 0 -0.22550089202944229 -0.1008440162637169 0 -0.23125141336964011 -0.084595387242749231 0 -0.2359213828018043 -0.071399957410672343 0 -0.2235514570548072 -0.053854045248439182 0 -0.2244703125416819 -0.072794076224461268 0 -0.21482267827762841 -0.069082647852091478 0 -0.2235514570548072 -0.053854045248439182 0 -0.2359213828018043 -0.071399957410672343 0 -0.2244703125416819 -0.072794076224461268 0 -0.2235514570548072 -0.053854045248439182 0 -0.2359213828018043 -0.071399957410672343 0 -0.23125141336964011 -0.084595387242749231 0 -0.2244703125416819 -0.072794076224461268 0 -0.2359213828018043 -0.071399957410672343 0 -0.23125141336964011 -0.084595387242749231 0 -0.20472732395068391 -0.070425609547595483 0 -0.21310247649950159 -0.079773441579648038 0 -0.1942101978544846 -0.078703118630565005 0 -0.21482267827762841 -0.069082647852091478 0 -0.20472732395068391 -0.070425609547595483 0 -0.20783277774853701 -0.056374475910446593 0 -0.2244703125416819 -0.072794076224461268 0 -0.21482267827762841 -0.069082647852091478 0 -0.21310247649950159 -0.079773441579648038 0 -0.21482267827762841 -0.069082647852091478 0 -0.20472732395068391 -0.070425609547595483 0 -0.21310247649950159 -0.079773441579648038 0 -0.23125141336964011 -0.084595387242749231 0 -0.21310247649950159 -0.079773441579648038 0 -0.20770402821161371 -0.098985744105056478 0 -0.21310247649950159 -0.079773441579648038 0 -0.1942101978544846 -0.078703118630565005 0 -0.20770402821161371 -0.098985744105056478 0 -0.1942101978544846 -0.078703118630565005 0 -0.20770402821161371 -0.098985744105056478 0 -0.1942101978544846 -0.078703118630565005 0 -0.20770402821161371 -0.098985744105056478 0 -0.19331927689223261 -0.094690670375105077 0 -0.1942101978544846 -0.078703118630565005 0 -0.19331927689223261 -0.094690670375105077 0 -0.1804061946459036 -0.0975656506999769 0 -0.1942101978544846 -0.078703118630565005 0 -0.1807163674973549 -0.058420493156073998 0 -0.19569491766720151 -0.061370611856350392 0 -0.20472732395068391 -0.070425609547595483 0 -0.1942101978544846 -0.078703118630565005 0 -0.19569491766720151 -0.061370611856350392 0 -0.20472732395068391 -0.070425609547595483 0 -0.19569491766720151 -0.061370611856350392 0 -0.20783277774853701 -0.056374475910446593 0 -0.2197503706892443 -0.1170926452846846 0 -0.20366324778073339 -0.1226314006036201 0 -0.20770402821161371 -0.098985744105056478 0 -0.22550089202944229 -0.1008440162637169 0 -0.2197503706892443 -0.1170926452846846 0 -0.20770402821161371 -0.098985744105056478 0 -0.2197503706892443 -0.1170926452846846 0 -0.20770402821161371 -0.098985744105056478 0 -0.20770402821161371 -0.098985744105056478 0 -0.19331927689223261 -0.094690670375105077 0 -0.18400427859456039 -0.1134692144457318 0 -0.20770402821161371 -0.098985744105056478 0 -0.18400427859456039 -0.1134692144457318 0 -0.20770402821161371 -0.098985744105056478 0 -0.19170728544238649 -0.1194909919475228 0 -0.18400427859456039 -0.1134692144457318 0 -0.20366324778073339 -0.1226314006036201 0 -0.20770402821161371 -0.098985744105056478 0 -0.19170728544238649 -0.1194909919475228 0 -0.1912596026832544 -0.12883579632457359 0 -0.20366324778073339 -0.1226314006036201 0 -0.19170728544238649 -0.1194909919475228 0 -0.1912596026832544 -0.12883579632457359 0 -0.19170728544238649 -0.1194909919475228 0 -0.18212358698306741 -0.12142770117184561 0 -0.18212358698306741 -0.12142770117184561 0 -0.18400427859456039 -0.1134692144457318 0 -0.1804061946459036 -0.0975656506999769 0 -0.18212358698306741 -0.12142770117184561 0 -0.17231042801981861 -0.11010941660198729 0 -0.1804061946459036 -0.0975656506999769 0 -0.19170728544238649 -0.1194909919475228 0 -0.18212358698306741 -0.12142770117184561 0 -0.18400427859456039 -0.1134692144457318 0 -0.18212358698306741 -0.12142770117184561 0 -0.1804061946459036 -0.0975656506999769 0 -0.18212358698306741 -0.12142770117184561 0 -0.17231042801981861 -0.11010941660198729 0 -0.16904936396502779 -0.1225698900008125 0 -0.16904936396502779 -0.1225698900008125 0 -0.16303186383997401 -0.11054530689275879 0 -0.1531014227808439 -0.1221458571451004 0 -0.16303186383997401 -0.11054530689275879 0 -0.1531014227808439 -0.1221458571451004 0 -0.15302467802266631 -0.099964594768007481 0 -0.17231042801981861 -0.11010941660198729 0 -0.16904936396502779 -0.1225698900008125 0 -0.16303186383997401 -0.11054530689275879 0 -0.16694113066512001 -0.098438534244542714 0 -0.1583311292500037 -0.086155785580523059 0 -0.15302467802266631 -0.099964594768007481 0 -0.16303186383997401 -0.11054530689275879 0 -0.16694113066512001 -0.098438534244542714 0 -0.15302467802266631 -0.099964594768007481 0 -0.17231042801981861 -0.11010941660198729 0 -0.16303186383997401 -0.11054530689275879 0 -0.16694113066512001 -0.098438534244542714 0 -0.16694113066512001 -0.098438534244542714 0 -0.1804061946459036 -0.0975656506999769 0 -0.1699979234477183 -0.086164615643162509 0 -0.19331927689223261 -0.094690670375105077 0 -0.18400427859456039 -0.1134692144457318 0 -0.1804061946459036 -0.0975656506999769 0 -0.17231042801981861 -0.11010941660198729 0 -0.16694113066512001 -0.098438534244542714 0 -0.1804061946459036 -0.0975656506999769 0 -0.1942101978544846 -0.078703118630565005 0 -0.1804061946459036 -0.0975656506999769 0 -0.17868880230873979 -0.073703600228108263 0 -0.1804061946459036 -0.0975656506999769 0 -0.17868880230873979 -0.073703600228108263 0 -0.1804061946459036 -0.0975656506999769 0 -0.17868880230873979 -0.073703600228108263 0 -0.1699979234477183 -0.086164615643162509 0 -0.1942101978544846 -0.078703118630565005 0 -0.17868880230873979 -0.073703600228108263 0 -0.1807163674973549 -0.058420493156073998 0 -0.1942101978544846 -0.078703118630565005 0 -0.1807163674973549 -0.058420493156073998 0 -0.17868880230873979 -0.073703600228108263 0 -0.16456215259537851 -0.07423447470758808 0 -0.1687761726195266 -0.062055246708151823 0 -0.16456215259537851 -0.07423447470758808 0 -0.1601060057786266 -0.063048208625582775 0 -0.1687761726195266 -0.062055246708151823 0 -0.17868880230873979 -0.073703600228108263 0 -0.16456215259537851 -0.07423447470758808 0 -0.1699979234477183 -0.086164615643162509 0 -0.16456215259537851 -0.07423447470758808 0 -0.1601060057786266 -0.063048208625582775 0 -0.15147288216765581 -0.074279391460000108 0 -0.16694113066512001 -0.098438534244542714 0 -0.1699979234477183 -0.086164615643162509 0 -0.1583311292500037 -0.086155785580523059 0 -0.16456215259537851 -0.07423447470758808 0 -0.1699979234477183 -0.086164615643162509 0 -0.1583311292500037 -0.086155785580523059 0 -0.16456215259537851 -0.07423447470758808 0 -0.1583311292500037 -0.086155785580523059 0 -0.15147288216765581 -0.074279391460000108 0 -0.1583311292500037 -0.086155785580523059 0 -0.1406917504718985 -0.083199174386461974 0 -0.15147288216765581 -0.074279391460000108 0 -0.1583311292500037 -0.086155785580523059 0 -0.1406917504718985 -0.083199174386461974 0 -0.15302467802266631 -0.099964594768007481 0 -0.1601060057786266 -0.063048208625582775 0 -0.15147288216765581 -0.074279391460000108 0 -0.14916280428309589 -0.053864076679432472 0 -0.15147288216765581 -0.074279391460000108 0 -0.13891648936515211 -0.064472249171247775 0 -0.14916280428309589 -0.053864076679432472 0 -0.1406917504718985 -0.083199174386461974 0 -0.15147288216765581 -0.074279391460000108 0 -0.13891648936515211 -0.064472249171247775 0 -0.12197003300458489 -0.067133964797042034 0 -0.1406917504718985 -0.083199174386461974 0 -0.13891648936515211 -0.064472249171247775 0 -0.121811479392537 -0.084095963505499416 0 -0.12197003300458489 -0.067133964797042034 0 -0.1406917504718985 -0.083199174386461974 0 -0.121811479392537 -0.084095963505499416 0 -0.1406917504718985 -0.083199174386461974 0 -0.13931556210068971 -0.10629227142291391 0 -0.11605893441195141 -0.10185107539240761 0 -0.121811479392537 -0.084095963505499416 0 -0.13931556210068971 -0.10629227142291391 0 -0.11422347955810171 -0.1204243593602408 0 -0.13931556210068971 -0.10629227142291391 0 -0.11422347955810171 -0.1204243593602408 0 -0.13445671698849809 -0.1291024538471422 0 -0.13931556210068971 -0.10629227142291391 0 -0.13445671698849809 -0.1291024538471422 0 -0.13931556210068971 -0.10629227142291391 0 -0.1531014227808439 -0.1221458571451004 0 -0.13931556210068971 -0.10629227142291391 0 -0.1531014227808439 -0.1221458571451004 0 -0.15302467802266631 -0.099964594768007481 0 -0.1406917504718985 -0.083199174386461974 0 -0.13931556210068971 -0.10629227142291391 0 -0.15302467802266631 -0.099964594768007481 0 -0.14079925107272581 -0.02334449083682992 0 -0.15349169287978739 -0.035208883327978051 0 -0.15939520176274349 -0.015620398581745401 0 -0.14079925107272581 -0.02334449083682992 0 -0.14275634286812811 -0.006203461430080404 0 -0.15939520176274349 -0.015620398581745401 0 -0.14275634286812811 -0.006203461430080404 0 -0.15939520176274349 -0.015620398581745401 0 -0.15796117991031841 -0.00029962151665172479 0 -0.14079925107272581 -0.02334449083682992 0 -0.14275634286812811 -0.006203461430080404 0 -0.1278640484455188 -0.012334690821253821 0 -0.14275634286812811 -0.006203461430080404 0 -0.1278640484455188 -0.012334690821253821 0 -0.1273771369441013 0.0023450629401116992 0 -0.12411398995058071 -0.026208981462584841 0 -0.14079925107272581 -0.02334449083682992 0 -0.1278640484455188 -0.012334690821253821 0 -0.12411398995058071 -0.026208981462584841 0 -0.14079925107272581 -0.02334449083682992 0 -0.13241258759658719 -0.044529255409706578 0 -0.13891648936515211 -0.064472249171247775 0 -0.13241258759658719 -0.044529255409706578 0 -0.14916280428309589 -0.053864076679432472 0 -0.12197003300458489 -0.067133964797042034 0 -0.13891648936515211 -0.064472249171247775 0 -0.13241258759658719 -0.044529255409706578 0 -0.14079925107272581 -0.02334449083682992 0 -0.13241258759658719 -0.044529255409706578 0 -0.15349169287978739 -0.035208883327978051 0 -0.14916280428309589 -0.053864076679432472 0 -0.15349169287978739 -0.035208883327978051 0 -0.16249228466986629 -0.048723367468166891 0 -0.13241258759658719 -0.044529255409706578 0 -0.14916280428309589 -0.053864076679432472 0 -0.15349169287978739 -0.035208883327978051 0 -0.15349169287978739 -0.035208883327978051 0 -0.16249228466986629 -0.048723367468166891 0 -0.17525401763441231 -0.025979499284370731 0 -0.16249228466986629 -0.048723367468166891 0 -0.17697140997157609 -0.049841549756239563 0 -0.17525401763441231 -0.025979499284370731 0 -0.1601060057786266 -0.063048208625582775 0 -0.14916280428309589 -0.053864076679432472 0 -0.16249228466986629 -0.048723367468166891 0 -0.1601060057786266 -0.063048208625582775 0 -0.16249228466986629 -0.048723367468166891 0 -0.1687761726195266 -0.062055246708151823 0 -0.16249228466986629 -0.048723367468166891 0 -0.1687761726195266 -0.062055246708151823 0 -0.17697140997157609 -0.049841549756239563 0 -0.17868880230873979 -0.073703600228108263 0 -0.17697140997157609 -0.049841549756239563 0 -0.17868880230873979 -0.073703600228108263 0 -0.17697140997157609 -0.049841549756239563 0 -0.1807163674973549 -0.058420493156073998 0 -0.17868880230873979 -0.073703600228108263 0 -0.1687761726195266 -0.062055246708151823 0 -0.17697140997157609 -0.049841549756239563 0 -0.17697140997157609 -0.049841549756239563 0 -0.187061179232277 -0.050545000195171969 0 -0.1807163674973549 -0.058420493156073998 0 -0.17697140997157609 -0.049841549756239563 0 -0.17525401763441231 -0.025979499284370731 0 -0.17697140997157609 -0.049841549756239563 0 -0.1844822702309237 -0.037308153316215523 0 -0.17525401763441231 -0.025979499284370731 0 -0.17697140997157609 -0.049841549756239563 0 -0.187061179232277 -0.050545000195171969 0 -0.1844822702309237 -0.037308153316215523 0 -0.1844822702309237 -0.037308153316215523 0 -0.17525401763441231 -0.025979499284370731 0 -0.19881160556081021 -0.01876222092397466 0 -0.17525401763441231 -0.025979499284370731 0 -0.17967452986780849 -0.0030086181600807401 0 -0.19881160556081021 -0.01876222092397466 0 -0.15349169287978739 -0.035208883327978051 0 -0.17525401763441231 -0.025979499284370731 0 -0.15939520176274349 -0.015620398581745401 0 -0.17525401763441231 -0.025979499284370731 0 -0.15939520176274349 -0.015620398581745401 0 -0.17967452986780849 -0.0030086181600807401 0 -0.15939520176274349 -0.015620398581745401 0 -0.15796117991031841 -0.00029962151665172479 0 -0.17967452986780849 -0.0030086181600807401 0 -0.17967452986780849 -0.0030086181600807401 0 -0.19881160556081021 -0.01876222092397466 0 -0.20680301002479959 -0.0020434230711429339 0 -0.1844822702309237 -0.037308153316215523 0 -0.19881160556081021 -0.01876222092397466 0 -0.19797908447346779 -0.034540675054344362 0 -0.19881160556081021 -0.01876222092397466 0 -0.19797908447346779 -0.034540675054344362 0 -0.2111815313078087 -0.036308133086206937 0 -0.19881160556081021 -0.01876222092397466 0 -0.2111815313078087 -0.036308133086206937 0 -0.19881160556081021 -0.01876222092397466 0 -0.2111815313078087 -0.036308133086206937 0 -0.21993326537292579 -0.016570742696256829 0 -0.19881160556081021 -0.01876222092397466 0 -0.20680301002479959 -0.0020434230711429339 0 -0.21993326537292579 -0.016570742696256829 0 -0.20680301002479959 -0.0020434230711429339 0 -0.21993326537292579 -0.016570742696256829 0 -0.22850437187820721 0.00061554774341724197 0 -0.187061179232277 -0.050545000195171969 0 -0.1807163674973549 -0.058420493156073998 0 -0.19569491766720151 -0.061370611856350392 0 -0.187061179232277 -0.050545000195171969 0 -0.19569491766720151 -0.061370611856350392 0 -0.1974409307943287 -0.045784192890980333 0 -0.19569491766720151 -0.061370611856350392 0 -0.1974409307943287 -0.045784192890980333 0 -0.20783277774853701 -0.056374475910446593 0 -0.187061179232277 -0.050545000195171969 0 -0.1844822702309237 -0.037308153316215523 0 -0.1974409307943287 -0.045784192890980333 0 -0.1844822702309237 -0.037308153316215523 0 -0.1974409307943287 -0.045784192890980333 0 -0.19797908447346779 -0.034540675054344362 0 -0.1974409307943287 -0.045784192890980333 0 -0.19797908447346779 -0.034540675054344362 0 -0.2111815313078087 -0.036308133086206937 0 -0.1974409307943287 -0.045784192890980333 0 -0.2111815313078087 -0.036308133086206937 0 -0.20783277774853701 -0.056374475910446593 0 -0.2111815313078087 -0.036308133086206937 0 -0.2235514570548072 -0.053854045248439182 0 -0.21482267827762841 -0.069082647852091478 0 -0.20783277774853701 -0.056374475910446593 0 -0.2235514570548072 -0.053854045248439182 0 -0.2111815313078087 -0.036308133086206937 0 -0.20783277774853701 -0.056374475910446593 0 -0.2235514570548072 -0.053854045248439182 0 -0.2359213828018043 -0.071399957410672343 0 -0.2235514570548072 -0.053854045248439182 0 -0.23385975453729951 -0.05448316257834377 0 -0.2235514570548072 -0.053854045248439182 0 -0.23385975453729951 -0.05448316257834377 0 -0.23195090370150159 -0.044148728843497582 0 -0.2111815313078087 -0.036308133086206937 0 -0.23195090370150159 -0.044148728843497582 0 -0.2330954250503823 -0.030605580137893669 0 -0.2111815313078087 -0.036308133086206937 0 -0.2235514570548072 -0.053854045248439182 0 -0.23195090370150159 -0.044148728843497582 0 -0.2440152745910836 -0.048529918810766987 0 -0.25210916638036568 -0.025659880210862549 0 -0.23195090370150159 -0.044148728843497582 0 -0.2440152745910836 -0.048529918810766987 0 -0.2330954250503823 -0.030605580137893669 0 -0.2440152745910836 -0.048529918810766987 0 -0.2330954250503823 -0.030605580137893669 0 -0.25210916638036568 -0.025659880210862549 0 -0.2359213828018043 -0.071399957410672343 0 -0.2440152745910836 -0.048529918810766987 0 -0.2460442741291925 -0.056732515276429897 0 -0.2359213828018043 -0.071399957410672343 0 -0.2440152745910836 -0.048529918810766987 0 -0.2359213828018043 -0.071399957410672343 0 -0.23385975453729951 -0.05448316257834377 0 -0.2440152745910836 -0.048529918810766987 0 -0.23385975453729951 -0.05448316257834377 0 -0.23195090370150159 -0.044148728843497582 0 -0.2440152745910836 -0.048529918810766987 0 -0.2440152745910836 -0.048529918810766987 0 -0.2460442741291925 -0.056732515276429897 0 -0.25586239660102372 -0.042106716883949957 0 -0.21993326537292579 -0.016570742696256829 0 -0.2409228609234593 -0.01213331886889705 0 -0.22850437187820721 0.00061554774341724197 0 -0.21993326537292579 -0.016570742696256829 0 -0.2330954250503823 -0.030605580137893669 0 -0.2409228609234593 -0.01213331886889705 0 -0.2111815313078087 -0.036308133086206937 0 -0.21993326537292579 -0.016570742696256829 0 -0.2330954250503823 -0.030605580137893669 0 -0.2330954250503823 -0.030605580137893669 0 -0.2409228609234593 -0.01213331886889705 0 -0.25210916638036568 -0.025659880210862549 0 -0.2409228609234593 -0.01213331886889705 0 -0.25132042997239518 0.0027134119798401068 0 -0.22850437187820721 0.00061554774341724197 0 -0.2409228609234593 -0.01213331886889705 0 -0.26431478179583978 -0.01186883573312463 0 -0.25132042997239518 0.0027134119798401068 0 -0.2409228609234593 -0.01213331886889705 0 -0.26431478179583978 -0.01186883573312463 0 -0.25210916638036568 -0.025659880210862549 0 -0.26431478179583978 -0.01186883573312463 0 -0.25210916638036568 -0.025659880210862549 0 -0.26885463380623098 -0.032431385670777198 0 -0.26431478179583978 -0.01186883573312463 0 -0.28272693982295583 -0.022072801118422261 0 -0.26885463380623098 -0.032431385670777198 0 -0.26431478179583978 -0.01186883573312463 0 -0.2820771903446922 -0.0013122005201030101 0 -0.28272693982295583 -0.022072801118422261 0 -0.26431478179583978 -0.01186883573312463 0 -0.2820771903446922 -0.0013122005201030101 0 -0.26646431581863778 0.01029557754540468 0 -0.2820771903446922 -0.0013122005201030101 0 -0.29531588189047731 -0.01459302740547606 0 -0.28272693982295583 -0.022072801118422261 0 -0.2820771903446922 -0.0013122005201030101 0 -0.29531588189047731 -0.01459302740547606 0 -0.30047775033007851 -0.00039401612408775783 0 -0.28272693982295583 -0.022072801118422261 0 -0.29548818451705972 -0.026431314805352931 0 -0.29006158744840338 -0.043009214960059237 0 -0.29531588189047731 -0.01459302740547606 0 -0.28272693982295583 -0.022072801118422261 0 -0.29548818451705972 -0.026431314805352931 0 -0.30546101391149699 -0.021623392358951481 0 -0.31536924438116293 -0.015921951660718081 0 -0.31269309410946189 -0.035953378537937578 0 -0.29531588189047731 -0.01459302740547606 0 -0.29548818451705972 -0.026431314805352931 0 -0.30546101391149699 -0.021623392358951481 0 -0.29548818451705972 -0.026431314805352931 0 -0.30546101391149699 -0.021623392358951481 0 -0.30306546886548719 -0.032455918975325043 0 -0.30546101391149699 -0.021623392358951481 0 -0.31269309410946189 -0.035953378537937578 0 -0.30546101391149699 -0.021623392358951481 0 -0.30306546886548719 -0.032455918975325043 0 -0.31269309410946189 -0.035953378537937578 0 -0.30546101391149699 -0.021623392358951481 0 -0.30702321298661528 -0.0098616365840560535 0 -0.31536924438116293 -0.015921951660718081 0 -0.30702321298661528 -0.0098616365840560535 0 -0.30047775033007851 -0.00039401612408775783 0 -0.31849217441985911 0.0032242046289520012 0 -0.29531588189047731 -0.01459302740547606 0 -0.30702321298661528 -0.0098616365840560535 0 -0.30047775033007851 -0.00039401612408775783 0 -0.29531588189047731 -0.01459302740547606 0 -0.30546101391149699 -0.021623392358951481 0 -0.30702321298661528 -0.0098616365840560535 0 -0.30785263576887473 -0.062005008750064983 0 -0.31269309410946189 -0.035953378537937578 0 -0.30785263576887473 -0.062005008750064983 0 -0.29006158744840338 -0.043009214960059237 0 -0.31269309410946189 -0.035953378537937578 0 -0.30306546886548719 -0.032455918975325043 0 -0.29006158744840338 -0.043009214960059237 0 -0.31269309410946189 -0.035953378537937578 0 -0.29006158744840338 -0.043009214960059237 0 -0.31269309410946189 -0.035953378537937578 0 -0.29548818451705972 -0.026431314805352931 0 -0.30306546886548719 -0.032455918975325043 0 -0.29006158744840338 -0.043009214960059237 0 -0.30785263576887473 -0.062005008750064983 0 -0.29006158744840338 -0.043009214960059237 0 -0.29043964680931811 -0.063340758069959313 0 -0.29006158744840338 -0.043009214960059237 0 -0.27571433008302992 -0.061323808156972907 0 -0.29043964680931811 -0.063340758069959313 0 -0.27571433008302992 -0.061323808156972907 0 -0.26805293078879788 -0.049870865118244581 0 -0.25908974683711639 -0.062912752445689821 0 -0.29006158744840338 -0.043009214960059237 0 -0.27571433008302992 -0.061323808156972907 0 -0.26805293078879788 -0.049870865118244581 0 -0.28272693982295583 -0.022072801118422261 0 -0.29006158744840338 -0.043009214960059237 0 -0.26885463380623098 -0.032431385670777198 0 -0.29006158744840338 -0.043009214960059237 0 -0.26805293078879788 -0.049870865118244581 0 -0.29006158744840338 -0.043009214960059237 0 -0.26805293078879788 -0.049870865118244581 0 -0.26885463380623098 -0.032431385670777198 0 -0.2440152745910836 -0.048529918810766987 0 -0.25210916638036568 -0.025659880210862549 0 -0.25586239660102372 -0.042106716883949957 0 -0.26805293078879788 -0.049870865118244581 0 -0.26885463380623098 -0.032431385670777198 0 -0.25586239660102372 -0.042106716883949957 0 -0.25210916638036568 -0.025659880210862549 0 -0.26885463380623098 -0.032431385670777198 0 -0.25586239660102372 -0.042106716883949957 0 -0.2460442741291925 -0.056732515276429897 0 -0.26805293078879788 -0.049870865118244581 0 -0.2460442741291925 -0.056732515276429897 0 -0.26805293078879788 -0.049870865118244581 0 -0.25908974683711639 -0.062912752445689821 0 -0.2460442741291925 -0.056732515276429897 0 -0.26805293078879788 -0.049870865118244581 0 -0.25586239660102372 -0.042106716883949957 0 -0.24621250417125429 -0.067242688607955695 0 -0.2460442741291925 -0.056732515276429897 0 -0.25908974683711639 -0.062912752445689821 0 -0.24621250417125429 -0.067242688607955695 0 -0.25908974683711639 -0.062912752445689821 0 -0.252754029676304 -0.071454636367457428 0 -0.24101683233652779 -0.07862751170581421 0 -0.252754029676304 -0.071454636367457428 0 -0.26402766811367417 -0.083484384069295273 0 -0.25908974683711639 -0.062912752445689821 0 -0.252754029676304 -0.071454636367457428 0 -0.26621243399467659 -0.070844567870559746 0 -0.252754029676304 -0.071454636367457428 0 -0.26402766811367417 -0.083484384069295273 0 -0.26621243399467659 -0.070844567870559746 0 -0.24101683233652779 -0.07862751170581421 0 -0.26402766811367417 -0.083484384069295273 0 -0.25454071313255938 -0.097810231909066098 0 -0.26402766811367417 -0.083484384069295273 0 -0.27094601368544552 -0.10060299140421709 0 -0.28369928052750421 -0.089996057638050242 0 -0.26402766811367417 -0.083484384069295273 0 -0.27947639526325851 -0.075047258313383283 0 -0.28369928052750421 -0.089996057638050242 0 -0.27571433008302992 -0.061323808156972907 0 -0.25908974683711639 -0.062912752445689821 0 -0.26621243399467659 -0.070844567870559746 0 -0.27571433008302992 -0.061323808156972907 0 -0.27947639526325851 -0.075047258313383283 0 -0.26621243399467659 -0.070844567870559746 0 -0.26402766811367417 -0.083484384069295273 0 -0.27947639526325851 -0.075047258313383283 0 -0.26621243399467659 -0.070844567870559746 0 -0.25700205454408459 -0.1228995308742117 0 -0.25028307647261949 -0.1119170655065333 0 -0.26806459392859111 -0.11699295211231781 0 -0.25700205454408459 -0.1228995308742117 0 -0.26806459392859111 -0.11699295211231781 0 -0.26633673802341562 -0.13121143084146969 0 -0.2466021228926524 -0.1215603100838341 0 -0.25700205454408459 -0.1228995308742117 0 -0.25028307647261949 -0.1119170655065333 0 -0.25454071313255938 -0.097810231909066098 0 -0.27094601368544552 -0.10060299140421709 0 -0.26806459392859111 -0.11699295211231781 0 -0.25028307647261949 -0.1119170655065333 0 -0.25454071313255938 -0.097810231909066098 0 -0.26806459392859111 -0.11699295211231781 0 -0.25454071313255938 -0.097810231909066098 0 -0.26806459392859111 -0.11699295211231781 0 -0.26402766811367417 -0.083484384069295273 0 -0.25454071313255938 -0.097810231909066098 0 -0.27094601368544552 -0.10060299140421709 0 -0.27094601368544552 -0.10060299140421709 0 -0.28498588272658609 -0.10953694176986691 0 -0.28369928052750421 -0.089996057638050242 0 -0.27094601368544552 -0.10060299140421709 0 -0.26806459392859111 -0.11699295211231781 0 -0.28498588272658609 -0.10953694176986691 0 -0.26806459392859111 -0.11699295211231781 0 -0.28498588272658609 -0.10953694176986691 0 -0.26633673802341562 -0.13121143084146969 0 -0.28498588272658609 -0.10953694176986691 0 -0.26633673802341562 -0.13121143084146969 0 -0.28390483366507108 -0.12795146285425149 0 -0.28498588272658609 -0.10953694176986691 0 -0.26633673802341562 -0.13121143084146969 0 -0.28498588272658609 -0.10953694176986691 0 -0.29939047470698632 -0.1138850881088251 0 -0.28390483366507108 -0.12795146285425149 0 -0.28498588272658609 -0.10953694176986691 0 -0.29939047470698632 -0.1138850881088251 0 -0.30363502742975002 -0.087862452698258112 0 -0.28498588272658609 -0.10953694176986691 0 -0.28369928052750421 -0.089996057638050242 0 -0.30363502742975002 -0.087862452698258112 0 -0.28498588272658609 -0.10953694176986691 0 -0.30363502742975002 -0.087862452698258112 0 -0.31112038415555038 -0.105912916312301 0 -0.30363502742975002 -0.087862452698258112 0 -0.31872509099925939 -0.09489525911115787 0 -0.29939047470698632 -0.1138850881088251 0 -0.30363502742975002 -0.087862452698258112 0 -0.31112038415555038 -0.105912916312301 0 -0.29939047470698632 -0.1138850881088251 0 -0.30363502742975002 -0.087862452698258112 0 -0.31112038415555038 -0.105912916312301 0 -0.29939047470698632 -0.1138850881088251 0 -0.3108150907057583 -0.123289039988229 0 -0.27571433008302992 -0.061323808156972907 0 -0.27947639526325851 -0.075047258313383283 0 -0.29043964680931811 -0.063340758069959313 0 -0.27947639526325851 -0.075047258313383283 0 -0.29326350469267087 -0.075637034816957854 0 -0.29043964680931811 -0.063340758069959313 0 -0.27947639526325851 -0.075047258313383283 0 -0.29326350469267087 -0.075637034816957854 0 -0.28369928052750421 -0.089996057638050242 0 -0.29326350469267087 -0.075637034816957854 0 -0.28369928052750421 -0.089996057638050242 0 -0.30363502742975002 -0.087862452698258112 0 -0.30363502742975002 -0.087862452698258112 0 -0.3147457864693044 -0.074949258596716542 0 -0.31872509099925939 -0.09489525911115787 0 -0.30363502742975002 -0.087862452698258112 0 -0.3147457864693044 -0.074949258596716542 0 -0.30785263576887473 -0.062005008750064983 0 -0.29326350469267087 -0.075637034816957854 0 -0.30363502742975002 -0.087862452698258112 0 -0.30785263576887473 -0.062005008750064983 0 -0.30363502742975002 -0.087862452698258112 0 -0.3147457864693044 -0.074949258596716542 0 -0.30785263576887473 -0.062005008750064983 0 -0.29326350469267087 -0.075637034816957854 0 -0.29043964680931811 -0.063340758069959313 0 -0.30785263576887473 -0.062005008750064983 0 -0.30363502742975002 -0.087862452698258112 0 -0.3147457864693044 -0.074949258596716542 0 -0.3258565455088529 -0.062036064495169851 0 -0.3147457864693044 -0.074949258596716542 0 -0.33306166037992252 -0.0763126202985034 0 -0.3258565455088529 -0.062036064495169851 0 -0.30785263576887473 -0.062005008750064983 0 -0.3147457864693044 -0.074949258596716542 0 -0.3258565455088529 -0.062036064495169851 0 -0.3147457864693044 -0.074949258596716542 0 -0.32890001459834822 -0.087516828956376788 0 -0.31872509099925939 -0.09489525911115787 0 -0.3147457864693044 -0.074949258596716542 0 -0.32890001459834822 -0.087516828956376788 0 -0.33306166037992252 -0.0763126202985034 0 -0.32890001459834822 -0.087516828956376788 0 -0.34026677525099192 -0.090589176101837157 0 -0.33306166037992252 -0.0763126202985034 0 -0.34026677525099192 -0.090589176101837157 0 -0.33306166037992252 -0.0763126202985034 0 -0.34026677525099192 -0.090589176101837157 0 -0.33306166037992252 -0.0763126202985034 0 -0.34512097989852569 -0.077376017677512551 0 -0.3363426704622316 -0.065040097883454634 0 -0.33306166037992252 -0.0763126202985034 0 -0.34512097989852569 -0.077376017677512551 0 -0.3363426704622316 -0.065040097883454634 0 -0.34775082305034588 -0.06364522302323769 0 -0.34512097989852569 -0.077376017677512551 0 -0.33306166037992252 -0.0763126202985034 0 -0.3258565455088529 -0.062036064495169851 0 -0.3363426704622316 -0.065040097883454634 0 -0.33306166037992252 -0.0763126202985034 0 -0.3258565455088529 -0.062036064495169851 0 -0.31112038415555038 -0.105912916312301 0 -0.3108150907057583 -0.123289039988229 0 -0.32269556115348802 -0.1134475374517785 0 -0.32269556115348802 -0.1134475374517785 0 -0.33213803149032362 -0.1206207689722909 0 -0.32288905220234743 -0.1288405143651869 0 -0.3108150907057583 -0.123289039988229 0 -0.32269556115348802 -0.1134475374517785 0 -0.32288905220234743 -0.1288405143651869 0 -0.32269556115348802 -0.1134475374517785 0 -0.31872509099925939 -0.09489525911115787 0 -0.33360553934550968 -0.1041906416325506 0 -0.31112038415555038 -0.105912916312301 0 -0.32269556115348802 -0.1134475374517785 0 -0.31872509099925939 -0.09489525911115787 0 -0.32890001459834822 -0.087516828956376788 0 -0.31872509099925939 -0.09489525911115787 0 -0.33360553934550968 -0.1041906416325506 0 -0.3434725512788051 -0.1026137903417853 0 -0.33360553934550968 -0.1041906416325506 0 -0.3466874303271234 -0.11958926053505441 0 -0.32890001459834822 -0.087516828956376788 0 -0.34026677525099192 -0.090589176101837157 0 -0.33360553934550968 -0.1041906416325506 0 -0.34026677525099192 -0.090589176101837157 0 -0.3434725512788051 -0.1026137903417853 0 -0.33360553934550968 -0.1041906416325506 0 -0.33360553934550968 -0.1041906416325506 0 -0.33213803149032362 -0.1206207689722909 0 -0.3466874303271234 -0.11958926053505441 0 -0.32269556115348802 -0.1134475374517785 0 -0.33360553934550968 -0.1041906416325506 0 -0.33213803149032362 -0.1206207689722909 0 -0.3466874303271234 -0.11958926053505441 0 -0.36980343247362518 -0.1100922289949047 0 -0.35999293180258313 -0.1258522389537349 0 -0.3466874303271234 -0.11958926053505441 0 -0.35333046019159542 -0.096086083097699004 0 -0.36980343247362518 -0.1100922289949047 0 -0.3434725512788051 -0.1026137903417853 0 -0.3466874303271234 -0.11958926053505441 0 -0.35333046019159542 -0.096086083097699004 0 -0.3466874303271234 -0.11958926053505441 0 -0.35333046019159542 -0.096086083097699004 0 -0.34026677525099192 -0.090589176101837157 0 -0.3434725512788051 -0.1026137903417853 0 -0.35333046019159542 -0.096086083097699004 0 -0.35333046019159542 -0.096086083097699004 0 -0.36980343247362518 -0.1100922289949047 0 -0.37347114863240299 -0.089088331268139143 0 -0.36980343247362518 -0.1100922289949047 0 -0.35999293180258313 -0.1258522389537349 0 -0.37152802352755399 -0.13164580699010159 0 -0.36980343247362518 -0.1100922289949047 0 -0.37152802352755399 -0.13164580699010159 0 -0.38235470820745771 -0.123978498660336 0 -0.34775082305034588 -0.06364522302323769 0 -0.35997349005606738 -0.07258290566034345 0 -0.36099236519079719 -0.058965157594587259 0 -0.34775082305034588 -0.06364522302323769 0 -0.34512097989852569 -0.077376017677512551 0 -0.35997349005606738 -0.07258290566034345 0 -0.35333046019159542 -0.096086083097699004 0 -0.35997349005606738 -0.07258290566034345 0 -0.35333046019159542 -0.096086083097699004 0 -0.34512097989852569 -0.077376017677512551 0 -0.35997349005606738 -0.07258290566034345 0 -0.34026677525099192 -0.090589176101837157 0 -0.35333046019159542 -0.096086083097699004 0 -0.34512097989852569 -0.077376017677512551 0 -0.35333046019159542 -0.096086083097699004 0 -0.37347114863240299 -0.089088331268139143 0 -0.35997349005606738 -0.07258290566034345 0 -0.37347114863240299 -0.089088331268139143 0 -0.35997349005606738 -0.07258290566034345 0 -0.37513495807632252 -0.068027960422620465 0 -0.35997349005606738 -0.07258290566034345 0 -0.36099236519079719 -0.058965157594587259 0 -0.37513495807632252 -0.068027960422620465 0 -0.37357085562444819 -0.050327950541553881 0 -0.36099236519079719 -0.058965157594587259 0 -0.37513495807632252 -0.068027960422620465 0 -0.37357085562444819 -0.050327950541553881 0 -0.36080282922430701 -0.047544586661118063 0 -0.36099236519079719 -0.058965157594587259 0 -0.34775082305034588 -0.06364522302323769 0 -0.36099236519079719 -0.058965157594587259 0 -0.34872123511329239 -0.051662319258650009 0 -0.36080282922430701 -0.047544586661118063 0 -0.36099236519079719 -0.058965157594587259 0 -0.34872123511329239 -0.051662319258650009 0 -0.34775082305034588 -0.06364522302323769 0 -0.34872123511329239 -0.051662319258650009 0 -0.33906118872719399 -0.055758100993783748 0 -0.35023980363822049 -0.040197400203048239 0 -0.3638826905141766 -0.035463803005797899 0 -0.34258176142245139 -0.029723406047678591 0 -0.35023980363822049 -0.040197400203048239 0 -0.34258176142245139 -0.029723406047678591 0 -0.35023980363822049 -0.040197400203048239 0 -0.34258176142245139 -0.029723406047678591 0 -0.33960488145915169 -0.038902248398748569 0 -0.34872123511329239 -0.051662319258650009 0 -0.35023980363822049 -0.040197400203048239 0 -0.33950963895876157 -0.046563850177851397 0 -0.36080282922430701 -0.047544586661118063 0 -0.35023980363822049 -0.040197400203048239 0 -0.3638826905141766 -0.035463803005797899 0 -0.36080282922430701 -0.047544586661118063 0 -0.34872123511329239 -0.051662319258650009 0 -0.35023980363822049 -0.040197400203048239 0 -0.37357085562444819 -0.050327950541553881 0 -0.3638826905141766 -0.035463803005797899 0 -0.38712728366555788 -0.02974425569958293 0 -0.37357085562444819 -0.050327950541553881 0 -0.36080282922430701 -0.047544586661118063 0 -0.3638826905141766 -0.035463803005797899 0 -0.3638826905141766 -0.035463803005797899 0 -0.36897360951007507 -0.015245218881805699 0 -0.38712728366555788 -0.02974425569958293 0 -0.36897360951007507 -0.015245218881805699 0 -0.38465333842141641 -0.0066435457767305304 0 -0.36979036210562988 0.0025511841975563729 0 -0.36897360951007507 -0.015245218881805699 0 -0.35319748844548088 -0.0026450940697062141 0 -0.36979036210562988 0.0025511841975563729 0 -0.36897360951007507 -0.015245218881805699 0 -0.35319748844548088 -0.0026450940697062141 0 -0.36897360951007507 -0.015245218881805699 0 -0.35319748844548088 -0.0026450940697062141 0 -0.34557514790129729 -0.01385186480739395 0 -0.35319748844548088 -0.0026450940697062141 0 -0.34557514790129729 -0.01385186480739395 0 -0.33742136738088668 0.0099550307423931228 0 -0.36897360951007507 -0.015245218881805699 0 -0.34557514790129729 -0.01385186480739395 0 -0.34258176142245139 -0.029723406047678591 0 -0.3638826905141766 -0.035463803005797899 0 -0.36897360951007507 -0.015245218881805699 0 -0.34258176142245139 -0.029723406047678591 0 -0.36897360951007507 -0.015245218881805699 0 -0.34258176142245139 -0.029723406047678591 0 -0.34258176142245139 -0.029723406047678591 0 -0.33053696792115572 -0.013249600709362951 0 -0.34557514790129729 -0.01385186480739395 0 -0.34258176142245139 -0.029723406047678591 0 -0.33053696792115572 -0.013249600709362951 0 -0.34258176142245139 -0.029723406047678591 0 -0.33123792958382192 -0.02655418191443467 0 -0.33053696792115572 -0.013249600709362951 0 -0.33123792958382192 -0.02655418191443467 0 -0.33053696792115572 -0.013249600709362951 0 -0.32518110448499649 -0.02265309324021984 0 -0.33123792958382192 -0.02655418191443467 0 -0.32494971957893121 -0.032132124138264453 0 -0.33294009451157502 -0.035012685436647553 0 -0.34258176142245139 -0.029723406047678591 0 -0.33123792958382192 -0.02655418191443467 0 -0.33294009451157502 -0.035012685436647553 0 -0.33053696792115572 -0.013249600709362951 0 -0.31849217441985911 0.0032242046289520012 0 -0.33742136738088668 0.0099550307423931228 0 -0.34557514790129729 -0.01385186480739395 0 -0.33053696792115572 -0.013249600709362951 0 -0.33742136738088668 0.0099550307423931228 0 -0.30702321298661528 -0.0098616365840560535 0 -0.31536924438116293 -0.015921951660718081 0 -0.31849217441985911 0.0032242046289520012 0 -0.31536924438116293 -0.015921951660718081 0 -0.31849217441985911 0.0032242046289520012 0 -0.33053696792115572 -0.013249600709362951 0 -0.31849217441985911 0.0032242046289520012 0 -0.33053696792115572 -0.013249600709362951 0 -0.31536924438116293 -0.015921951660718081 0 -0.31849217441985911 0.0032242046289520012 0 -0.31536924438116293 -0.015921951660718081 0 -0.31269309410946189 -0.035953378537937578 0 -0.31536924438116293 -0.015921951660718081 0 -0.3196636581113782 -0.026330909640423061 0 -0.31269309410946189 -0.035953378537937578 0 -0.33123792958382192 -0.02655418191443467 0 -0.32518110448499649 -0.02265309324021984 0 -0.32494971957893121 -0.032132124138264453 0 -0.32518110448499649 -0.02265309324021984 0 -0.3196636581113782 -0.026330909640423061 0 -0.32494971957893121 -0.032132124138264453 0 -0.33053696792115572 -0.013249600709362951 0 -0.32518110448499649 -0.02265309324021984 0 -0.31536924438116293 -0.015921951660718081 0 -0.32518110448499649 -0.02265309324021984 0 -0.31536924438116293 -0.015921951660718081 0 -0.3196636581113782 -0.026330909640423061 0 -0.31269309410946189 -0.035953378537937578 0 -0.32494971957893121 -0.032132124138264453 0 -0.3196636581113782 -0.026330909640423061 0 -0.31269309410946189 -0.035953378537937578 0 -0.32494971957893121 -0.032132124138264453 0 -0.32589239144387999 -0.038804272667940308 0 -0.32494971957893121 -0.032132124138264453 0 -0.33294009451157502 -0.035012685436647553 0 -0.31269309410946189 -0.035953378537937578 0 -0.32589239144387999 -0.038804272667940308 0 -0.32494971957893121 -0.032132124138264453 0 -0.31269309410946189 -0.035953378537937578 0 -0.32589239144387999 -0.038804272667940308 0 -0.32612594025468172 -0.0479092750983348 0 -0.31269309410946189 -0.035953378537937578 0 -0.3258565455088529 -0.062036064495169851 0 -0.32612594025468172 -0.0479092750983348 0 -0.30785263576887473 -0.062005008750064983 0 -0.31269309410946189 -0.035953378537937578 0 -0.3258565455088529 -0.062036064495169851 0 -0.31269309410946189 -0.035953378537937578 0 -0.3258565455088529 -0.062036064495169851 0 -0.3258565455088529 -0.062036064495169851 0 -0.32612594025468172 -0.0479092750983348 0 -0.32948021068586231 -0.057824552786275359 0 -0.3258565455088529 -0.062036064495169851 0 -0.32948021068586231 -0.057824552786275359 0 -0.33273312926745618 -0.050000536382928867 0 -0.32948021068586231 -0.057824552786275359 0 -0.33906118872719399 -0.055758100993783748 0 -0.32612594025468172 -0.0479092750983348 0 -0.33273312926745618 -0.050000536382928867 0 -0.32948021068586231 -0.057824552786275359 0 -0.32612594025468172 -0.0479092750983348 0 -0.33273312926745618 -0.050000536382928867 0 -0.33275310876475001 -0.043013900128517107 0 -0.3363426704622316 -0.065040097883454634 0 -0.32948021068586231 -0.057824552786275359 0 -0.33906118872719399 -0.055758100993783748 0 -0.3363426704622316 -0.065040097883454634 0 -0.3258565455088529 -0.062036064495169851 0 -0.32948021068586231 -0.057824552786275359 0 -0.3363426704622316 -0.065040097883454634 0 -0.34775082305034588 -0.06364522302323769 0 -0.33906118872719399 -0.055758100993783748 0 -0.34872123511329239 -0.051662319258650009 0 -0.33906118872719399 -0.055758100993783748 0 -0.33950963895876157 -0.046563850177851397 0 -0.33273312926745618 -0.050000536382928867 0 -0.33906118872719399 -0.055758100993783748 0 -0.33950963895876157 -0.046563850177851397 0 -0.35023980363822049 -0.040197400203048239 0 -0.33950963895876157 -0.046563850177851397 0 -0.33960488145915169 -0.038902248398748569 0 -0.33950963895876157 -0.046563850177851397 0 -0.33960488145915169 -0.038902248398748569 0 -0.33275310876475001 -0.043013900128517107 0 -0.34258176142245139 -0.029723406047678591 0 -0.33294009451157502 -0.035012685436647553 0 -0.34258176142245139 -0.029723406047678591 0 -0.33960488145915169 -0.038902248398748569 0 -0.33294009451157502 -0.035012685436647553 0 -0.32589239144387999 -0.038804272667940308 0 -0.33294009451157502 -0.035012685436647553 0 -0.33275310876475001 -0.043013900128517107 0 -0.33960488145915169 -0.038902248398748569 0 -0.33294009451157502 -0.035012685436647553 0 -0.33275310876475001 -0.043013900128517107 0 -0.32589239144387999 -0.038804272667940308 0 -0.32612594025468172 -0.0479092750983348 0 -0.33275310876475001 -0.043013900128517107 0 -0.33273312926745618 -0.050000536382928867 0 -0.33950963895876157 -0.046563850177851397 0 -0.33275310876475001 -0.043013900128517107 0 -0.3072444938386063 -0.24298546540808871 0 -0.29465074886808879 -0.2402547820199166 0 -0.31547147842988582 -0.2330670094454039 0 -0.29465074886808879 -0.2402547820199166 0 -0.31547147842988582 -0.2330670094454039 0 -0.31283906540333922 -0.25031215033235238 0 -0.3072444938386063 -0.24298546540808871 0 -0.31547147842988582 -0.2330670094454039 0 -0.29948497002523827 -0.2483657822867901 0 -0.3072444938386063 -0.24298546540808871 0 -0.29465074886808879 -0.2402547820199166 0 -0.29948497002523827 -0.2483657822867901 0 -0.3072444938386063 -0.24298546540808871 0 -0.30623861516307299 -0.24935013043731349 0 -0.31283906540333922 -0.25031215033235238 0 -0.3072444938386063 -0.24298546540808871 0 -0.30623861516307299 -0.24935013043731349 0 -0.30340245666429422 -0.2199120115188499 0 -0.29465074886808879 -0.2402547820199166 0 -0.31547147842988582 -0.2330670094454039 0 -0.30340245666429422 -0.2199120115188499 0 -0.31790591229007997 -0.21133065133653661 0 -0.31547147842988582 -0.2330670094454039 0 -0.30340245666429422 -0.2199120115188499 0 -0.29465074886808879 -0.2402547820199166 0 -0.28241226381596191 -0.21797562975109799 0 -0.29465074886808879 -0.2402547820199166 0 -0.27816771109320582 -0.2439982651616662 0 -0.28241226381596191 -0.21797562975109799 0 -0.29465074886808879 -0.2402547820199166 0 -0.27383001930629169 -0.24744255459442921 0 -0.28942662192718172 -0.25357945894426132 0 -0.29465074886808879 -0.2402547820199166 0 -0.27383001930629169 -0.24744255459442921 0 -0.29465074886808879 -0.2402547820199166 0 -0.27816771109320582 -0.2439982651616662 0 -0.27383001930629169 -0.24744255459442921 0 -0.28942662192718172 -0.25357945894426132 0 -0.29948497002523827 -0.2483657822867901 0 -0.29465074886808879 -0.2402547820199166 0 -0.27816771109320582 -0.2439982651616662 0 -0.27383001930629169 -0.24744255459442921 0 -0.26926560585898118 -0.2360615599669478 0 -0.27383001930629169 -0.24744255459442921 0 -0.26926560585898118 -0.2360615599669478 0 -0.25855016474293108 -0.24143028331881861 0 -0.27383001930629169 -0.24744255459442921 0 -0.25855016474293108 -0.24143028331881861 0 -0.2565674865322034 -0.25340195958415102 0 -0.27383001930629169 -0.24744255459442921 0 -0.25855016474293108 -0.24143028331881861 0 -0.26926560585898118 -0.2360615599669478 0 -0.25855016474293108 -0.24143028331881861 0 -0.25588924886857078 -0.22577026586403889 0 -0.24327031017957049 -0.23541801204320789 0 -0.25855016474293108 -0.24143028331881861 0 -0.24327031017957049 -0.23541801204320789 0 -0.25855016474293108 -0.24143028331881861 0 -0.25018128361314113 -0.24746468840205441 0 -0.2565674865322034 -0.25340195958415102 0 -0.25855016474293108 -0.24143028331881861 0 -0.25018128361314113 -0.24746468840205441 0 -0.24327031017957049 -0.23541801204320789 0 -0.25855016474293108 -0.24143028331881861 0 -0.25588924886857078 -0.22577026586403889 0 -0.26926560585898118 -0.2360615599669478 0 -0.25588924886857078 -0.22577026586403889 0 -0.26783798195298542 -0.22189041659364681 0 -0.27816771109320582 -0.2439982651616662 0 -0.26926560585898118 -0.2360615599669478 0 -0.28241226381596191 -0.21797562975109799 0 -0.26926560585898118 -0.2360615599669478 0 -0.26783798195298542 -0.22189041659364681 0 -0.28241226381596191 -0.21797562975109799 0 -0.27816771109320582 -0.2439982651616662 0 -0.28241226381596191 -0.21797562975109799 0 -0.26378480926842768 -0.2077542107925027 0 -0.286656816538718 -0.19195299434052959 0 -0.28241226381596191 -0.21797562975109799 0 -0.26783798195298542 -0.22189041659364681 0 -0.26378480926842768 -0.2077542107925027 0 -0.28241226381596191 -0.21797562975109799 0 -0.25588924886857078 -0.22577026586403889 0 -0.26783798195298542 -0.22189041659364681 0 -0.26378480926842768 -0.2077542107925027 0 -0.2448317244682672 -0.19494017856122331 0 -0.24405101732391901 -0.2151790953022156 0 -0.26378480926842768 -0.2077542107925027 0 -0.24405101732391901 -0.2151790953022156 0 -0.25588924886857078 -0.22577026586403889 0 -0.26378480926842768 -0.2077542107925027 0 -0.2448317244682672 -0.19494017856122331 0 -0.26378480926842768 -0.2077542107925027 0 -0.26312512204060101 -0.18530650416748581 0 -0.26378480926842768 -0.2077542107925027 0 -0.286656816538718 -0.19195299434052959 0 -0.26312512204060101 -0.18530650416748581 0 -0.286656816538718 -0.19195299434052959 0 -0.28241226381596191 -0.21797562975109799 0 -0.30591086076688379 -0.19847336016990141 0 -0.286656816538718 -0.19195299434052959 0 -0.28241226381596191 -0.21797562975109799 0 -0.30340245666429422 -0.2199120115188499 0 -0.28241226381596191 -0.21797562975109799 0 -0.30591086076688379 -0.19847336016990141 0 -0.30340245666429422 -0.2199120115188499 0 -0.30591086076688379 -0.19847336016990141 0 -0.31790591229007997 -0.21133065133653661 0 -0.286656816538718 -0.19195299434052959 0 -0.30591086076688379 -0.19847336016990141 0 -0.31180552805921091 -0.17430838359622669 0 -0.31180552805921091 -0.17430838359622669 0 -0.29090136926147409 -0.16593035892996141 0 -0.30878195228896921 -0.15303576335633209 0 -0.286656816538718 -0.19195299434052959 0 -0.29090136926147409 -0.16593035892996141 0 -0.286656816538718 -0.19195299434052959 0 -0.31180552805921091 -0.17430838359622669 0 -0.29090136926147409 -0.16593035892996141 0 -0.286656816538718 -0.19195299434052959 0 -0.29090136926147409 -0.16593035892996141 0 -0.27584707269233227 -0.1739466899300364 0 -0.27584707269233227 -0.1739466899300364 0 -0.26312512204060101 -0.18530650416748581 0 -0.26138401805284373 -0.16490714025156239 0 -0.286656816538718 -0.19195299434052959 0 -0.27584707269233227 -0.1739466899300364 0 -0.26312512204060101 -0.18530650416748581 0 -0.2448317244682672 -0.19494017856122331 0 -0.24561243161261531 -0.1747012618202311 0 -0.26312512204060101 -0.18530650416748581 0 -0.24561243161261531 -0.1747012618202311 0 -0.26312512204060101 -0.18530650416748581 0 -0.26138401805284373 -0.16490714025156239 0 -0.27584707269233227 -0.1739466899300364 0 -0.26138401805284373 -0.16490714025156239 0 -0.27641132505293098 -0.14990407015019561 0 -0.29090136926147409 -0.16593035892996141 0 -0.27584707269233227 -0.1739466899300364 0 -0.27641132505293098 -0.14990407015019561 0 -0.27641132505293098 -0.14990407015019561 0 -0.26295491861235881 -0.14972714028907499 0 -0.26633673802341562 -0.13121143084146969 0 -0.26138401805284373 -0.16490714025156239 0 -0.27641132505293098 -0.14990407015019561 0 -0.26295491861235881 -0.14972714028907499 0 -0.24768759332024501 -0.15288591991307249 0 -0.26633673802341562 -0.13121143084146969 0 -0.24768759332024501 -0.15288591991307249 0 -0.26295491861235881 -0.14972714028907499 0 -0.26633673802341562 -0.13121143084146969 0 -0.24768759332024501 -0.15288591991307249 0 -0.26138401805284373 -0.16490714025156239 0 -0.26295491861235881 -0.14972714028907499 0 -0.25700205454408459 -0.1228995308742117 0 -0.25066558347885931 -0.13251764995053431 0 -0.26633673802341562 -0.13121143084146969 0 -0.24768759332024501 -0.15288591991307249 0 -0.25066558347885931 -0.13251764995053431 0 -0.26633673802341562 -0.13121143084146969 0 -0.2466021228926524 -0.1215603100838341 0 -0.25700205454408459 -0.1228995308742117 0 -0.25066558347885931 -0.13251764995053431 0 -0.27641132505293098 -0.14990407015019561 0 -0.26633673802341562 -0.13121143084146969 0 -0.28390483366507108 -0.12795146285425149 0 -0.27641132505293098 -0.14990407015019561 0 -0.29514592198423018 -0.13990772351939329 0 -0.28390483366507108 -0.12795146285425149 0 -0.29939047470698632 -0.1138850881088251 0 -0.29514592198423018 -0.13990772351939329 0 -0.28390483366507108 -0.12795146285425149 0 -0.29090136926147409 -0.16593035892996141 0 -0.27641132505293098 -0.14990407015019561 0 -0.29514592198423018 -0.13990772351939329 0 -0.29090136926147409 -0.16593035892996141 0 -0.29514592198423018 -0.13990772351939329 0 -0.29514592198423018 -0.13990772351939329 0 -0.30878195228896921 -0.15303576335633209 0 -0.31204687939749698 -0.1371714365216575 0 -0.29090136926147409 -0.16593035892996141 0 -0.29514592198423018 -0.13990772351939329 0 -0.30878195228896921 -0.15303576335633209 0 -0.3108150907057583 -0.123289039988229 0 -0.29514592198423018 -0.13990772351939329 0 -0.31204687939749698 -0.1371714365216575 0 -0.29939047470698632 -0.1138850881088251 0 -0.3108150907057583 -0.123289039988229 0 -0.29514592198423018 -0.13990772351939329 0 -0.29939047470698632 -0.1138850881088251 0 -0.29514592198423018 -0.13990772351939329 0 -0.32288905220234743 -0.1288405143651869 0 -0.32258299715563782 -0.14068177926995709 0 -0.33321030378869931 -0.13646686722665249 0 -0.3108150907057583 -0.123289039988229 0 -0.31204687939749698 -0.1371714365216575 0 -0.32288905220234743 -0.1288405143651869 0 -0.31204687939749698 -0.1371714365216575 0 -0.32288905220234743 -0.1288405143651869 0 -0.32258299715563782 -0.14068177926995709 0 -0.30878195228896921 -0.15303576335633209 0 -0.32482557091518699 -0.15217937608711771 0 -0.32258299715563782 -0.14068177926995709 0 -0.30878195228896921 -0.15303576335633209 0 -0.31204687939749698 -0.1371714365216575 0 -0.32258299715563782 -0.14068177926995709 0 -0.32482557091518699 -0.15217937608711771 0 -0.32258299715563782 -0.14068177926995709 0 -0.33321030378869931 -0.13646686722665249 0 -0.32482557091518699 -0.15217937608711771 0 -0.34004440046265172 -0.14309243797241011 0 -0.33321030378869931 -0.13646686722665249 0 -0.34004440046265172 -0.14309243797241011 0 -0.35498504575946821 -0.15757720561970059 0 -0.3332048416520596 -0.1672909388971599 0 -0.34004440046265172 -0.14309243797241011 0 -0.3332048416520596 -0.1672909388971599 0 -0.32482557091518699 -0.15217937608711771 0 -0.34004440046265172 -0.14309243797241011 0 -0.3332048416520596 -0.1672909388971599 0 -0.3466874303271234 -0.11958926053505441 0 -0.34004440046265172 -0.14309243797241011 0 -0.33213803149032362 -0.1206207689722909 0 -0.32288905220234743 -0.1288405143651869 0 -0.33321030378869931 -0.13646686722665249 0 -0.33213803149032362 -0.1206207689722909 0 -0.3466874303271234 -0.11958926053505441 0 -0.33321030378869931 -0.13646686722665249 0 -0.3466874303271234 -0.11958926053505441 0 -0.34004440046265172 -0.14309243797241011 0 -0.33321030378869931 -0.13646686722665249 0 -0.34004440046265172 -0.14309243797241011 0 -0.33321030378869931 -0.13646686722665249 0 -0.3466874303271234 -0.11958926053505441 0 -0.35676717686891291 -0.14006723761877321 0 -0.35999293180258313 -0.1258522389537349 0 -0.3466874303271234 -0.11958926053505441 0 -0.34004440046265172 -0.14309243797241011 0 -0.35676717686891291 -0.14006723761877321 0 -0.35676717686891291 -0.14006723761877321 0 -0.37152802352755399 -0.13164580699010159 0 -0.37069541475874412 -0.1487336244607225 0 -0.35676717686891291 -0.14006723761877321 0 -0.35999293180258313 -0.1258522389537349 0 -0.37152802352755399 -0.13164580699010159 0 -0.35676717686891291 -0.14006723761877321 0 -0.37069541475874412 -0.1487336244607225 0 -0.35498504575946821 -0.15757720561970059 0 -0.37069541475874412 -0.1487336244607225 0 -0.35498504575946821 -0.15757720561970059 0 -0.37692746124962329 -0.16011968929401549 0 -0.37152802352755399 -0.13164580699010159 0 -0.37069541475874412 -0.1487336244607225 0 -0.38190833683646341 -0.1417380771930716 0 -0.34004440046265172 -0.14309243797241011 0 -0.35676717686891291 -0.14006723761877321 0 -0.35498504575946821 -0.15757720561970059 0 -0.34004440046265172 -0.14309243797241011 0 -0.35498504575946821 -0.15757720561970059 0 -0.35102499454429859 -0.17065527247529391 0 -0.35498504575946821 -0.15757720561970059 0 -0.36992569105628492 -0.1720619732669908 0 -0.35102499454429859 -0.17065527247529391 0 -0.35498504575946821 -0.15757720561970059 0 -0.3332048416520596 -0.1672909388971599 0 -0.35498504575946821 -0.15757720561970059 0 -0.36992569105628492 -0.1720619732669908 0 -0.37692746124962329 -0.16011968929401549 0 -0.35498504575946821 -0.15757720561970059 0 -0.36992569105628492 -0.1720619732669908 0 -0.36802329911298681 -0.18587483615006681 0 -0.36992569105628492 -0.1720619732669908 0 -0.38452179946839471 -0.1862127167391712 0 -0.36802329911298681 -0.18587483615006681 0 -0.36992569105628492 -0.1720619732669908 0 -0.34598439970938172 -0.18569097211732419 0 -0.35102499454429859 -0.17065527247529391 0 -0.36992569105628492 -0.1720619732669908 0 -0.34598439970938172 -0.18569097211732419 0 -0.36992569105628492 -0.1720619732669908 0 -0.34598439970938172 -0.18569097211732419 0 -0.35102499454429859 -0.17065527247529391 0 -0.34598439970938172 -0.18569097211732419 0 -0.3332048416520596 -0.1672909388971599 0 -0.34598439970938172 -0.18569097211732419 0 -0.3332048416520596 -0.1672909388971599 0 -0.32636528284146782 -0.19148943982190991 0 -0.3332048416520596 -0.1672909388971599 0 -0.32636528284146782 -0.19148943982190991 0 -0.31180552805921091 -0.17430838359622669 0 -0.32482557091518699 -0.15217937608711771 0 -0.3332048416520596 -0.1672909388971599 0 -0.31180552805921091 -0.17430838359622669 0 -0.30878195228896921 -0.15303576335633209 0 -0.32482557091518699 -0.15217937608711771 0 -0.31180552805921091 -0.17430838359622669 0 -0.3332048416520596 -0.1672909388971599 0 -0.32636528284146782 -0.19148943982190991 0 -0.30591086076688379 -0.19847336016990141 0 -0.32636528284146782 -0.19148943982190991 0 -0.31790591229007997 -0.21133065133653661 0 -0.30591086076688379 -0.19847336016990141 0 -0.31180552805921091 -0.17430838359622669 0 -0.32636528284146782 -0.19148943982190991 0 -0.32636528284146782 -0.19148943982190991 0 -0.31790591229007997 -0.21133065133653661 0 -0.33039187961118982 -0.20742389982875531 0 -0.31790591229007997 -0.21133065133653661 0 -0.33039187961118982 -0.20742389982875531 0 -0.32870803705144969 -0.21844997174213321 0 -0.33039187961118982 -0.20742389982875531 0 -0.32870803705144969 -0.21844997174213321 0 -0.33850246058748812 -0.21389845468103499 0 -0.32870803705144969 -0.21844997174213321 0 -0.33850246058748812 -0.21389845468103499 0 -0.33596699493009807 -0.21993263715474329 0 -0.33850246058748812 -0.21389845468103499 0 -0.34687159193856038 -0.2183762197826761 0 -0.3403652740897718 -0.22150288532491411 0 -0.33850246058748812 -0.21389845468103499 0 -0.3403652740897718 -0.22150288532491411 0 -0.33596699493009807 -0.21993263715474329 0 -0.33039187961118982 -0.20742389982875531 0 -0.33850246058748812 -0.21389845468103499 0 -0.34047770528546362 -0.2019509815621614 0 -0.33850246058748812 -0.21389845468103499 0 -0.34047770528546362 -0.2019509815621614 0 -0.34737571748628571 -0.2101963969508848 0 -0.34598439970938172 -0.18569097211732419 0 -0.32636528284146782 -0.19148943982190991 0 -0.34047770528546362 -0.2019509815621614 0 -0.32636528284146782 -0.19148943982190991 0 -0.33039187961118982 -0.20742389982875531 0 -0.34047770528546362 -0.2019509815621614 0 -0.34598439970938172 -0.18569097211732419 0 -0.35303310702934909 -0.20231631441727971 0 -0.36343771537771569 -0.19566750525459251 0 -0.34598439970938172 -0.18569097211732419 0 -0.34047770528546362 -0.2019509815621614 0 -0.35303310702934909 -0.20231631441727971 0 -0.36802329911298681 -0.18587483615006681 0 -0.34598439970938172 -0.18569097211732419 0 -0.36343771537771569 -0.19566750525459251 0 -0.35303310702934909 -0.20231631441727971 0 -0.36343771537771569 -0.19566750525459251 0 -0.36388592792924168 -0.20758305467352059 0 -0.36343771537771569 -0.19566750525459251 0 -0.37301156641091737 -0.20337184000283479 0 -0.36388592792924168 -0.20758305467352059 0 -0.36343771537771569 -0.19566750525459251 0 -0.37438048369549509 -0.19384422148204511 0 -0.37301156641091737 -0.20337184000283479 0 -0.36802329911298681 -0.18587483615006681 0 -0.36343771537771569 -0.19566750525459251 0 -0.37438048369549509 -0.19384422148204511 0 -0.37273312771996808 -0.21396345107145709 0 -0.37301156641091737 -0.20337184000283479 0 -0.36388592792924168 -0.20758305467352059 0 -0.37273312771996808 -0.21396345107145709 0 -0.36388592792924168 -0.20758305467352059 0 -0.36460053442081081 -0.21946742083422599 0 -0.36388592792924168 -0.20758305467352059 0 -0.35626724818121019 -0.21440977701126371 0 -0.36460053442081081 -0.21946742083422599 0 -0.35626724818121019 -0.21440977701126371 0 -0.34687159193856038 -0.2183762197826761 0 -0.35361393690670712 -0.22275298964725909 0 -0.35303310702934909 -0.20231631441727971 0 -0.36388592792924168 -0.20758305467352059 0 -0.35626724818121019 -0.21440977701126371 0 -0.35303310702934909 -0.20231631441727971 0 -0.35626724818121019 -0.21440977701126371 0 -0.34737571748628571 -0.2101963969508848 0 -0.34047770528546362 -0.2019509815621614 0 -0.35303310702934909 -0.20231631441727971 0 -0.34737571748628571 -0.2101963969508848 0 -0.33850246058748812 -0.21389845468103499 0 -0.34737571748628571 -0.2101963969508848 0 -0.34687159193856038 -0.2183762197826761 0 -0.35626724818121019 -0.21440977701126371 0 -0.34737571748628571 -0.2101963969508848 0 -0.34687159193856038 -0.2183762197826761 0 -0.34687159193856038 -0.2183762197826761 0 -0.3448729074691318 -0.22568858673477191 0 -0.3403652740897718 -0.22150288532491411 0 -0.34687159193856038 -0.2183762197826761 0 -0.3448729074691318 -0.22568858673477191 0 -0.35361393690670712 -0.22275298964725909 0 -0.3448729074691318 -0.22568858673477191 0 -0.35311939258201253 -0.23120947699362049 0 -0.35361393690670712 -0.22275298964725909 0 -0.3448729074691318 -0.22568858673477191 0 -0.35311939258201253 -0.23120947699362049 0 -0.3466300329275056 -0.23782645962689411 0 -0.35311939258201253 -0.23120947699362049 0 -0.35361393690670712 -0.22275298964725909 0 -0.36278739720748587 -0.22937453583313699 0 -0.35311939258201253 -0.23120947699362049 0 -0.36278739720748587 -0.22937453583313699 0 -0.35743223323550471 -0.2390192939344549 0 -0.35626724818121019 -0.21440977701126371 0 -0.35361393690670712 -0.22275298964725909 0 -0.36460053442081081 -0.21946742083422599 0 -0.36460053442081081 -0.21946742083422599 0 -0.36278739720748587 -0.22937453583313699 0 -0.37306962678156358 -0.22430756502184571 0 -0.35361393690670712 -0.22275298964725909 0 -0.36460053442081081 -0.21946742083422599 0 -0.36278739720748587 -0.22937453583313699 0 -0.36278739720748587 -0.22937453583313699 0 -0.37393716339703942 -0.23401667981853819 0 -0.37306962678156358 -0.22430756502184571 0 -0.36278739720748587 -0.22937453583313699 0 -0.37393716339703942 -0.23401667981853819 0 -0.36594725961251939 -0.23889039006825119 0 -0.37273312771996808 -0.21396345107145709 0 -0.36460053442081081 -0.21946742083422599 0 -0.37306962678156358 -0.22430756502184571 0 -0.37393540655460039 -0.25504906339868932 0 -0.37362469669529808 -0.24416340610428999 0 -0.363557814049559 -0.2486896754833777 0 -0.37362469669529808 -0.24416340610428999 0 -0.36594725961251939 -0.23889039006825119 0 -0.363557814049559 -0.2486896754833777 0 -0.37393716339703942 -0.23401667981853819 0 -0.37362469669529808 -0.24416340610428999 0 -0.36594725961251939 -0.23889039006825119 0 -0.36278739720748587 -0.22937453583313699 0 -0.36594725961251939 -0.23889039006825119 0 -0.35743223323550471 -0.2390192939344549 0 -0.36594725961251939 -0.23889039006825119 0 -0.363557814049559 -0.2486896754833777 0 -0.35743223323550471 -0.2390192939344549 0 -0.363557814049559 -0.2486896754833777 0 -0.35255150303394622 -0.24812522560144931 0 -0.35743223323550471 -0.2390192939344549 0 -0.35311939258201253 -0.23120947699362049 0 -0.35743223323550471 -0.2390192939344549 0 -0.3466300329275056 -0.23782645962689411 0 -0.35255150303394622 -0.24812522560144931 0 -0.35743223323550471 -0.2390192939344549 0 -0.3466300329275056 -0.23782645962689411 0 -0.35255150303394622 -0.24812522560144931 0 -0.3466300329275056 -0.23782645962689411 0 -0.3420777495351906 -0.24844208584564559 0 -0.33131030172746923 -0.25321851497678438 0 -0.33373364759712132 -0.2373308373461466 0 -0.32202724095639168 -0.2495658441092535 0 -0.33131030172746923 -0.25321851497678438 0 -0.33373364759712132 -0.2373308373461466 0 -0.33131030172746923 -0.25321851497678438 0 -0.3420777495351906 -0.24844208584564559 0 -0.33373364759712132 -0.2373308373461466 0 -0.3466300329275056 -0.23782645962689411 0 -0.3420777495351906 -0.24844208584564559 0 -0.33373364759712132 -0.2373308373461466 0 -0.3448729074691318 -0.22568858673477191 0 -0.33373364759712132 -0.2373308373461466 0 -0.33513500532203722 -0.22814340766163391 0 -0.3448729074691318 -0.22568858673477191 0 -0.33373364759712132 -0.2373308373461466 0 -0.3448729074691318 -0.22568858673477191 0 -0.3466300329275056 -0.23782645962689411 0 -0.33373364759712132 -0.2373308373461466 0 -0.3362922079916828 -0.22587923687089109 0 -0.33513500532203722 -0.22814340766163391 0 -0.31547147842988582 -0.2330670094454039 0 -0.3448729074691318 -0.22568858673477191 0 -0.3362922079916828 -0.22587923687089109 0 -0.33513500532203722 -0.22814340766163391 0 -0.3448729074691318 -0.22568858673477191 0 -0.3403652740897718 -0.22150288532491411 0 -0.3362922079916828 -0.22587923687089109 0 -0.3403652740897718 -0.22150288532491411 0 -0.3362922079916828 -0.22587923687089109 0 -0.33596699493009807 -0.21993263715474329 0 -0.32870803705144969 -0.21844997174213321 0 -0.3362922079916828 -0.22587923687089109 0 -0.33596699493009807 -0.21993263715474329 0 -0.33373364759712132 -0.2373308373461466 0 -0.33513500532203722 -0.22814340766163391 0 -0.31790591229007997 -0.21133065133653661 0 -0.32870803705144969 -0.21844997174213321 0 -0.31547147842988582 -0.2330670094454039 0 -0.3362922079916828 -0.22587923687089109 0 -0.31547147842988582 -0.2330670094454039 0 -0.32870803705144969 -0.21844997174213321 0 -0.3362922079916828 -0.22587923687089109 0 -0.31547147842988582 -0.2330670094454039 0 -0.33373364759712132 -0.2373308373461466 0 -0.33513500532203722 -0.22814340766163391 0 -0.31547147842988582 -0.2330670094454039 0 -0.33373364759712132 -0.2373308373461466 0 -0.31547147842988582 -0.2330670094454039 0 -0.32202724095639168 -0.2495658441092535 0 -0.31283906540333922 -0.25031215033235238 0 -0.31547147842988582 -0.2330670094454039 0 -0.32202724095639168 -0.2495658441092535 0 -0.33373364759712132 -0.2373308373461466 0 -0.32202724095639168 -0.2495658441092535 0 -0.42931567121415071 -0.25028064732030619 0 -0.41974440223132548 -0.2277223948390894 0 -0.42931567121415071 -0.25028064732030619 0 -0.43665732485841618 -0.24137016429136929 0 -0.41974440223132548 -0.2277223948390894 0 -0.43487007995442373 -0.25384069753834382 0 -0.42931567121415071 -0.25028064732030619 0 -0.43665732485841618 -0.24137016429136929 0 -0.43665732485841618 -0.24137016429136929 0 -0.41974440223132548 -0.2277223948390894 0 -0.44277641758923081 -0.23102430468348881 0 -0.43377720402095787 -0.21991138490827611 0 -0.41974440223132548 -0.2277223948390894 0 -0.44277641758923081 -0.23102430468348881 0 -0.43377720402095787 -0.21991138490827611 0 -0.41974440223132548 -0.2277223948390894 0 -0.42075205755079043 -0.21398522646416529 0 -0.41974440223132548 -0.2277223948390894 0 -0.40847937369743209 -0.24258689873782929 0 -0.40379864078896821 -0.22147517947459039 0 -0.42931567121415071 -0.25028064732030619 0 -0.41974440223132548 -0.2277223948390894 0 -0.40847937369743209 -0.24258689873782929 0 -0.3945867816951415 -0.25828321704239809 0 -0.40847937369743209 -0.24258689873782929 0 -0.3933004523496676 -0.24484402304582939 0 -0.40847937369743209 -0.24258689873782929 0 -0.3933004523496676 -0.24484402304582939 0 -0.39478669289115392 -0.23309544567896751 0 -0.3933004523496676 -0.24484402304582939 0 -0.38349803953804651 -0.2389949919606586 0 -0.38258347849844832 -0.24967798674395081 0 -0.3933004523496676 -0.24484402304582939 0 -0.38349803953804651 -0.2389949919606586 0 -0.39478669289115392 -0.23309544567896751 0 -0.37393716339703942 -0.23401667981853819 0 -0.37362469669529808 -0.24416340610428999 0 -0.38349803953804651 -0.2389949919606586 0 -0.37393540655460039 -0.25504906339868932 0 -0.37362469669529808 -0.24416340610428999 0 -0.38258347849844832 -0.24967798674395081 0 -0.37362469669529808 -0.24416340610428999 0 -0.38349803953804651 -0.2389949919606586 0 -0.38258347849844832 -0.24967798674395081 0 -0.37306962678156358 -0.22430756502184571 0 -0.38469596054732291 -0.22836918992304631 0 -0.38295547739377761 -0.21861943378263729 0 -0.37273312771996808 -0.21396345107145709 0 -0.37306962678156358 -0.22430756502184571 0 -0.38295547739377761 -0.21861943378263729 0 -0.37393716339703942 -0.23401667981853819 0 -0.38349803953804651 -0.2389949919606586 0 -0.38469596054732291 -0.22836918992304631 0 -0.37393716339703942 -0.23401667981853819 0 -0.37306962678156358 -0.22430756502184571 0 -0.38469596054732291 -0.22836918992304631 0 -0.38349803953804651 -0.2389949919606586 0 -0.38469596054732291 -0.22836918992304631 0 -0.39478669289115392 -0.23309544567896751 0 -0.38469596054732291 -0.22836918992304631 0 -0.39264909581396568 -0.2229573829789786 0 -0.38295547739377761 -0.21861943378263729 0 -0.39264909581396568 -0.2229573829789786 0 -0.39478669289115392 -0.23309544567896751 0 -0.40379864078896821 -0.22147517947459039 0 -0.40847937369743209 -0.24258689873782929 0 -0.39478669289115392 -0.23309544567896751 0 -0.40379864078896821 -0.22147517947459039 0 -0.40847937369743209 -0.24258689873782929 0 -0.40379864078896821 -0.22147517947459039 0 -0.39264909581396568 -0.2229573829789786 0 -0.40379864078896821 -0.22147517947459039 0 -0.39247153470499518 -0.2129117927155128 0 -0.38469596054732291 -0.22836918992304631 0 -0.39264909581396568 -0.2229573829789786 0 -0.39478669289115392 -0.23309544567896751 0 -0.40379864078896821 -0.22147517947459039 0 -0.39911790788050461 -0.2003634602113514 0 -0.40379864078896821 -0.22147517947459039 0 -0.39247153470499518 -0.2129117927155128 0 -0.39911790788050461 -0.2003634602113514 0 -0.40379864078896821 -0.22147517947459039 0 -0.40520524043689871 -0.20626505254016059 0 -0.39911790788050461 -0.2003634602113514 0 -0.40520524043689871 -0.20626505254016059 0 -0.39911790788050461 -0.2003634602113514 0 -0.41017313324850019 -0.2051641423578727 0 -0.40520524043689871 -0.20626505254016059 0 -0.39911790788050461 -0.2003634602113514 0 -0.39247153470499518 -0.2129117927155128 0 -0.38971867217429529 -0.20303686442097379 0 -0.39911790788050461 -0.2003634602113514 0 -0.39247153470499518 -0.2129117927155128 0 -0.38295547739377761 -0.21861943378263729 0 -0.38211351879485039 -0.2092072209849834 0 -0.39264909581396568 -0.2229573829789786 0 -0.39247153470499518 -0.2129117927155128 0 -0.38295547739377761 -0.21861943378263729 0 -0.38211351879485039 -0.2092072209849834 0 -0.38151862494823319 -0.19996558655041019 0 -0.38971867217429529 -0.20303686442097379 0 -0.39247153470499518 -0.2129117927155128 0 -0.38211351879485039 -0.2092072209849834 0 -0.38971867217429529 -0.20303686442097379 0 -0.37273312771996808 -0.21396345107145709 0 -0.37301156641091737 -0.20337184000283479 0 -0.38211351879485039 -0.2092072209849834 0 -0.37301156641091737 -0.20337184000283479 0 -0.38211351879485039 -0.2092072209849834 0 -0.38151862494823319 -0.19996558655041019 0 -0.37273312771996808 -0.21396345107145709 0 -0.38295547739377761 -0.21861943378263729 0 -0.38211351879485039 -0.2092072209849834 0 -0.36802329911298681 -0.18587483615006681 0 -0.37438048369549509 -0.19384422148204511 0 -0.38452179946839471 -0.1862127167391712 0 -0.38151862494823319 -0.19996558655041019 0 -0.38971867217429529 -0.20303686442097379 0 -0.38452179946839471 -0.1862127167391712 0 -0.37438048369549509 -0.19384422148204511 0 -0.38151862494823319 -0.19996558655041019 0 -0.38452179946839471 -0.1862127167391712 0 -0.37438048369549509 -0.19384422148204511 0 -0.37301156641091737 -0.20337184000283479 0 -0.38151862494823319 -0.19996558655041019 0 -0.39911790788050461 -0.2003634602113514 0 -0.39550730918059213 -0.18407841519480589 0 -0.38452179946839471 -0.1862127167391712 0 -0.39911790788050461 -0.2003634602113514 0 -0.40135005364381798 -0.19305297691017151 0 -0.39550730918059213 -0.18407841519480589 0 -0.39911790788050461 -0.2003634602113514 0 -0.39550730918059213 -0.18407841519480589 0 -0.38971867217429529 -0.20303686442097379 0 -0.39911790788050461 -0.2003634602113514 0 -0.38452179946839471 -0.1862127167391712 0 -0.41017313324850019 -0.2051641423578727 0 -0.40060186426567512 -0.18260588987665591 0 -0.40135005364381798 -0.19305297691017151 0 -0.41017313324850019 -0.2051641423578727 0 -0.40060186426567512 -0.18260588987665591 0 -0.39911790788050461 -0.2003634602113514 0 -0.38452179946839471 -0.1862127167391712 0 -0.39911790788050461 -0.2003634602113514 0 -0.40135005364381798 -0.19305297691017151 0 -0.41017313324850019 -0.2051641423578727 0 -0.40882722491020068 -0.19324634934951379 0 -0.40670914653930851 -0.1871811045826946 0 -0.40060186426567512 -0.18260588987665591 0 -0.40882722491020068 -0.19324634934951379 0 -0.41182634361573828 -0.18846823012601879 0 -0.40670914653930851 -0.1871811045826946 0 -0.40882722491020068 -0.19324634934951379 0 -0.41017313324850019 -0.2051641423578727 0 -0.40060186426567512 -0.18260588987665591 0 -0.40882722491020068 -0.19324634934951379 0 -0.41332632127240471 -0.19520135196246871 0 -0.41182634361573828 -0.18846823012601879 0 -0.41182634361573828 -0.18846823012601879 0 -0.42015528071935893 -0.19373976728588371 0 -0.42086010939994178 -0.18624419393877539 0 -0.41332632127240471 -0.19520135196246871 0 -0.41182634361573828 -0.18846823012601879 0 -0.42015528071935893 -0.19373976728588371 0 -0.42015528071935893 -0.19373976728588371 0 -0.41596892406105851 -0.2005599774501266 0 -0.4250272884910265 -0.2012921483654643 0 -0.41596892406105851 -0.2005599774501266 0 -0.41798035083784391 -0.20525037365940721 0 -0.4250272884910265 -0.2012921483654643 0 -0.41332632127240471 -0.19520135196246871 0 -0.42015528071935893 -0.19373976728588371 0 -0.41596892406105851 -0.2005599774501266 0 -0.41596892406105851 -0.2005599774501266 0 -0.41190905555667651 -0.19876129696974801 0 -0.41017313324850019 -0.2051641423578727 0 -0.40882722491020068 -0.19324634934951379 0 -0.41190905555667651 -0.19876129696974801 0 -0.41017313324850019 -0.2051641423578727 0 -0.40882722491020068 -0.19324634934951379 0 -0.41332632127240471 -0.19520135196246871 0 -0.41190905555667651 -0.19876129696974801 0 -0.41332632127240471 -0.19520135196246871 0 -0.41596892406105851 -0.2005599774501266 0 -0.41190905555667651 -0.19876129696974801 0 -0.41974440223132548 -0.2277223948390894 0 -0.40379864078896821 -0.22147517947459039 0 -0.41017313324850019 -0.2051641423578727 0 -0.41974440223132548 -0.2277223948390894 0 -0.41017313324850019 -0.2051641423578727 0 -0.42075205755079043 -0.21398522646416529 0 -0.40379864078896821 -0.22147517947459039 0 -0.40520524043689871 -0.20626505254016059 0 -0.41017313324850019 -0.2051641423578727 0 -0.41974440223132548 -0.2277223948390894 0 -0.41017313324850019 -0.2051641423578727 0 -0.41017313324850019 -0.2051641423578727 0 -0.42075205755079043 -0.21398522646416529 0 -0.41798035083784391 -0.20525037365940721 0 -0.42075205755079043 -0.21398522646416529 0 -0.41798035083784391 -0.20525037365940721 0 -0.4250272884910265 -0.2012921483654643 0 -0.41596892406105851 -0.2005599774501266 0 -0.41017313324850019 -0.2051641423578727 0 -0.41798035083784391 -0.20525037365940721 0 -0.42075205755079043 -0.21398522646416529 0 -0.43601245252430942 -0.20793643678791121 0 -0.4250272884910265 -0.2012921483654643 0 -0.43377720402095787 -0.21991138490827611 0 -0.42075205755079043 -0.21398522646416529 0 -0.43601245252430942 -0.20793643678791121 0 -0.42704416580793209 -0.1915833167308334 0 -0.4250272884910265 -0.2012921483654643 0 -0.43829012180726529 -0.19322062900912909 0 -0.43601245252430942 -0.20793643678791121 0 -0.4250272884910265 -0.2012921483654643 0 -0.43829012180726529 -0.19322062900912909 0 -0.42704416580793209 -0.1915833167308334 0 -0.43088802862206788 -0.18341984505491449 0 -0.43829012180726529 -0.19322062900912909 0 -0.42015528071935893 -0.19373976728588371 0 -0.42704416580793209 -0.1915833167308334 0 -0.42086010939994178 -0.18624419393877539 0 -0.42015528071935893 -0.19373976728588371 0 -0.42704416580793209 -0.1915833167308334 0 -0.4250272884910265 -0.2012921483654643 0 -0.4285734277027195 -0.1734756855885477 0 -0.43088802862206788 -0.18341984505491449 0 -0.41995474680429618 -0.17713819565942951 0 -0.42704416580793209 -0.1915833167308334 0 -0.43088802862206788 -0.18341984505491449 0 -0.42086010939994178 -0.18624419393877539 0 -0.43088802862206788 -0.18341984505491449 0 -0.41995474680429618 -0.17713819565942951 0 -0.42086010939994178 -0.18624419393877539 0 -0.43088802862206788 -0.18341984505491449 0 -0.44104422433457419 -0.1777922577957152 0 -0.43829012180726529 -0.19322062900912909 0 -0.4285734277027195 -0.1734756855885477 0 -0.43088802862206788 -0.18341984505491449 0 -0.44104422433457419 -0.1777922577957152 0 -0.4285734277027195 -0.1734756855885477 0 -0.4344270590450659 -0.1609053943072484 0 -0.44104422433457419 -0.1777922577957152 0 -0.4285734277027195 -0.1734756855885477 0 -0.4344270590450659 -0.1609053943072484 0 -0.4151480566294905 -0.1680004084026471 0 -0.4151480566294905 -0.1680004084026471 0 -0.40323096316088519 -0.16793215078578741 0 -0.41306883257355248 -0.1475019853524365 0 -0.4344270590450659 -0.1609053943072484 0 -0.4151480566294905 -0.1680004084026471 0 -0.41306883257355248 -0.1475019853524365 0 -0.4151480566294905 -0.1680004084026471 0 -0.40690801218449152 -0.1762036959065488 0 -0.40323096316088519 -0.16793215078578741 0 -0.4151480566294905 -0.1680004084026471 0 -0.40690801218449152 -0.1762036959065488 0 -0.4136865446123984 -0.1757543503219206 0 -0.40690801218449152 -0.1762036959065488 0 -0.4136865446123984 -0.1757543503219206 0 -0.41273536283131562 -0.1816751013190569 0 -0.4151480566294905 -0.1680004084026471 0 -0.4136865446123984 -0.1757543503219206 0 -0.41995474680429618 -0.17713819565942951 0 -0.4285734277027195 -0.1734756855885477 0 -0.4151480566294905 -0.1680004084026471 0 -0.41995474680429618 -0.17713819565942951 0 -0.4136865446123984 -0.1757543503219206 0 -0.41995474680429618 -0.17713819565942951 0 -0.41273536283131562 -0.1816751013190569 0 -0.41995474680429618 -0.17713819565942951 0 -0.42086010939994178 -0.18624419393877539 0 -0.41273536283131562 -0.1816751013190569 0 -0.41182634361573828 -0.18846823012601879 0 -0.42086010939994178 -0.18624419393877539 0 -0.41273536283131562 -0.1816751013190569 0 -0.41182634361573828 -0.18846823012601879 0 -0.41273536283131562 -0.1816751013190569 0 -0.4077561458873058 -0.18322680436219499 0 -0.40690801218449152 -0.1762036959065488 0 -0.41273536283131562 -0.1816751013190569 0 -0.4077561458873058 -0.18322680436219499 0 -0.41182634361573828 -0.18846823012601879 0 -0.4077561458873058 -0.18322680436219499 0 -0.40670914653930851 -0.1871811045826946 0 -0.39550730918059213 -0.18407841519480589 0 -0.38736231178750308 -0.177259124355894 0 -0.39189671048067998 -0.1677933701782604 0 -0.40135005364381798 -0.19305297691017151 0 -0.40060186426567512 -0.18260588987665591 0 -0.39550730918059213 -0.18407841519480589 0 -0.4077561458873058 -0.18322680436219499 0 -0.40670914653930851 -0.1871811045826946 0 -0.40060186426567512 -0.18260588987665591 0 -0.39550730918059213 -0.18407841519480589 0 -0.39189671048067998 -0.1677933701782604 0 -0.40060186426567512 -0.18260588987665591 0 -0.39550730918059213 -0.18407841519480589 0 -0.39189671048067998 -0.1677933701782604 0 -0.40690801218449152 -0.1762036959065488 0 -0.4077561458873058 -0.18322680436219499 0 -0.40060186426567512 -0.18260588987665591 0 -0.40690801218449152 -0.1762036959065488 0 -0.40060186426567512 -0.18260588987665591 0 -0.40323096316088519 -0.16793215078578741 0 -0.36992569105628492 -0.1720619732669908 0 -0.38736231178750308 -0.177259124355894 0 -0.39189671048067998 -0.1677933701782604 0 -0.36992569105628492 -0.1720619732669908 0 -0.38452179946839471 -0.1862127167391712 0 -0.38736231178750308 -0.177259124355894 0 -0.39550730918059213 -0.18407841519480589 0 -0.38452179946839471 -0.1862127167391712 0 -0.38736231178750308 -0.177259124355894 0 -0.36992569105628492 -0.1720619732669908 0 -0.38452179946839471 -0.1862127167391712 0 -0.36992569105628492 -0.1720619732669908 0 -0.37692746124962329 -0.16011968929401549 0 -0.39103059528285172 -0.16004763739543851 0 -0.36992569105628492 -0.1720619732669908 0 -0.39189671048067998 -0.1677933701782604 0 -0.39103059528285172 -0.16004763739543851 0 -0.36992569105628492 -0.1720619732669908 0 -0.39103059528285172 -0.16004763739543851 0 -0.37692746124962329 -0.16011968929401549 0 -0.39103059528285172 -0.16004763739543851 0 -0.38828980922767731 -0.15358795645443499 0 -0.39103059528285172 -0.16004763739543851 0 -0.38828980922767731 -0.15358795645443499 0 -0.40060186426567512 -0.18260588987665591 0 -0.39103059528285172 -0.16004763739543851 0 -0.40323096316088519 -0.16793215078578741 0 -0.40060186426567512 -0.18260588987665591 0 -0.39189671048067998 -0.1677933701782604 0 -0.39103059528285172 -0.16004763739543851 0 -0.40060186426567512 -0.18260588987665591 0 -0.39103059528285172 -0.16004763739543851 0 -0.39103059528285172 -0.16004763739543851 0 -0.40323096316088519 -0.16793215078578741 0 -0.41306883257355248 -0.1475019853524365 0 -0.39103059528285172 -0.16004763739543851 0 -0.39795981207507403 -0.14502431583870179 0 -0.41306883257355248 -0.1475019853524365 0 -0.39795981207507403 -0.14502431583870179 0 -0.40633267592073652 -0.13102661860532899 0 -0.41306883257355248 -0.1475019853524365 0 -0.39103059528285172 -0.16004763739543851 0 -0.41306883257355248 -0.1475019853524365 0 -0.39103059528285172 -0.16004763739543851 0 -0.39795981207507403 -0.14502431583870179 0 -0.38828980922767731 -0.15358795645443499 0 -0.39795981207507403 -0.14502431583870179 0 -0.38828980922767731 -0.15358795645443499 0 -0.38190833683646341 -0.1417380771930716 0 -0.38828980922767731 -0.15358795645443499 0 -0.38190833683646341 -0.1417380771930716 0 -0.37945525551812698 -0.15104483685056111 0 -0.37069541475874412 -0.1487336244607225 0 -0.38190833683646341 -0.1417380771930716 0 -0.37945525551812698 -0.15104483685056111 0 -0.37692746124962329 -0.16011968929401549 0 -0.38828980922767731 -0.15358795645443499 0 -0.37945525551812698 -0.15104483685056111 0 -0.37069541475874412 -0.1487336244607225 0 -0.37692746124962329 -0.16011968929401549 0 -0.37945525551812698 -0.15104483685056111 0 -0.37152802352755399 -0.13164580699010159 0 -0.38190833683646341 -0.1417380771930716 0 -0.38235470820745771 -0.123978498660336 0 -0.38190833683646341 -0.1417380771930716 0 -0.39228294530364349 -0.13316426080004001 0 -0.38235470820745771 -0.123978498660336 0 -0.39228294530364349 -0.13316426080004001 0 -0.40633267592073652 -0.13102661860532899 0 -0.39306930808202878 -0.1142539450673672 0 -0.39795981207507403 -0.14502431583870179 0 -0.38190833683646341 -0.1417380771930716 0 -0.39228294530364349 -0.13316426080004001 0 -0.39795981207507403 -0.14502431583870179 0 -0.39228294530364349 -0.13316426080004001 0 -0.40633267592073652 -0.13102661860532899 0 -0.40633267592073652 -0.13102661860532899 0 -0.42371591628165239 -0.12841039464220819 0 -0.41294233195137359 -0.116724400289887 0 -0.40633267592073652 -0.13102661860532899 0 -0.41306883257355248 -0.1475019853524365 0 -0.42371591628165239 -0.12841039464220819 0 -0.4344270590450659 -0.1609053943072484 0 -0.41306883257355248 -0.1475019853524365 0 -0.43782831476482847 -0.1415704877041897 0 -0.41306883257355248 -0.1475019853524365 0 -0.42371591628165239 -0.12841039464220819 0 -0.43782831476482847 -0.1415704877041897 0 -0.42371591628165239 -0.12841039464220819 0 -0.43782831476482847 -0.1415704877041897 0 -0.44295770465017009 -0.12292285668534771 0 -0.43782831476482847 -0.1415704877041897 0 -0.45407528277834919 -0.1346042898317954 0 -0.44295770465017009 -0.12292285668534771 0 -0.43782831476482847 -0.1415704877041897 0 -0.45305184803309972 -0.15210272433296521 0 -0.45407528277834919 -0.1346042898317954 0 -0.4344270590450659 -0.1609053943072484 0 -0.43782831476482847 -0.1415704877041897 0 -0.45305184803309972 -0.15210272433296521 0 -0.45305184803309972 -0.15210272433296521 0 -0.45407528277834919 -0.1346042898317954 0 -0.47213782278640881 -0.13623393318828281 0 -0.45305184803309972 -0.15210272433296521 0 -0.47213782278640881 -0.13623393318828281 0 -0.46702369577757719 -0.16066454859793791 0 -0.45407528277834919 -0.1346042898317954 0 -0.47213782278640881 -0.13623393318828281 0 -0.46296805171726468 -0.11640170438458371 0 -0.47213782278640881 -0.13623393318828281 0 -0.5 -0.14556247672259531 0 -0.48245330698995931 -0.121898764666846 0 -0.5 -0.14556247672259531 0 -0.48245330698995931 -0.121898764666846 0 -0.50000000000000089 -0.1198938119733675 0 -0.47213782278640881 -0.13623393318828281 0 -0.5 -0.14556247672259531 0 -0.48142521519093828 -0.15645589086587239 0 -0.47213782278640881 -0.13623393318828281 0 -0.48142521519093828 -0.15645589086587239 0 -0.47213782278640881 -0.13623393318828281 0 -0.48142521519093828 -0.15645589086587239 0 -0.46702369577757719 -0.16066454859793791 0 -0.48142521519093828 -0.15645589086587239 0 -0.47632052375980027 -0.17461649056753861 0 -0.46702369577757719 -0.16066454859793791 0 -0.48142521519093828 -0.15645589086587239 0 -0.49071260759546798 -0.17667784854346191 0 -0.47632052375980027 -0.17461649056753861 0 -0.47632052375980027 -0.17461649056753861 0 -0.46570520523623959 -0.1757931846103527 0 -0.46702369577757719 -0.16066454859793791 0 -0.48142521519093828 -0.15645589086587239 0 -0.49071260759546798 -0.17667784854346191 0 -0.5 -0.14556247672259531 0 -0.48142521519093828 -0.15645589086587239 0 -0.5 -0.17123114147182319 0 -0.48142521519093828 -0.15645589086587239 0 -0.5 -0.17123114147182319 0 -0.49071260759546798 -0.17667784854346191 0 -0.49071260759546798 -0.17667784854346191 0 -0.49999999999999861 -0.19689980622105099 0 -0.5 -0.17123114147182319 0 -0.49071260759546798 -0.17667784854346191 0 -0.49999999999999861 -0.19689980622105099 0 -0.49071260759546798 -0.17667784854346191 0 -0.47632052375980027 -0.17461649056753861 0 -0.47993034859498662 -0.18922987045237161 0 -0.47632052375980027 -0.17461649056753861 0 -0.46763136520864318 -0.18653340036078911 0 -0.46570520523623959 -0.1757931846103527 0 -0.47632052375980027 -0.17461649056753861 0 -0.46763136520864318 -0.18653340036078911 0 -0.47993034859498662 -0.18922987045237161 0 -0.46570520523623959 -0.1757931846103527 0 -0.45350155965897682 -0.1687850680226157 0 -0.45596312027128949 -0.18794868189772959 0 -0.46763136520864318 -0.18653340036078911 0 -0.46570520523623959 -0.1757931846103527 0 -0.45596312027128949 -0.18794868189772959 0 -0.45305184803309972 -0.15210272433296521 0 -0.46702369577757719 -0.16066454859793791 0 -0.45350155965897682 -0.1687850680226157 0 -0.46570520523623959 -0.1757931846103527 0 -0.46702369577757719 -0.16066454859793791 0 -0.45350155965897682 -0.1687850680226157 0 -0.4344270590450659 -0.1609053943072484 0 -0.45305184803309972 -0.15210272433296521 0 -0.45350155965897682 -0.1687850680226157 0 -0.4344270590450659 -0.1609053943072484 0 -0.45350155965897682 -0.1687850680226157 0 -0.44104422433457419 -0.1777922577957152 0 -0.45350155965897682 -0.1687850680226157 0 -0.44104422433457419 -0.1777922577957152 0 -0.45596312027128949 -0.18794868189772959 0 -0.44104422433457419 -0.1777922577957152 0 -0.43829012180726529 -0.19322062900912909 0 -0.45596312027128949 -0.18794868189772959 0 -0.45013906333809789 -0.2009404811944836 0 -0.43829012180726529 -0.19322062900912909 0 -0.45596312027128949 -0.18794868189772959 0 -0.43601245252430942 -0.20793643678791121 0 -0.45013906333809789 -0.2009404811944836 0 -0.43829012180726529 -0.19322062900912909 0 -0.43377720402095787 -0.21991138490827611 0 -0.43601245252430942 -0.20793643678791121 0 -0.45297794936819918 -0.2159919965998246 0 -0.43601245252430942 -0.20793643678791121 0 -0.45013906333809789 -0.2009404811944836 0 -0.45297794936819918 -0.2159919965998246 0 -0.45013906333809789 -0.2009404811944836 0 -0.45297794936819918 -0.2159919965998246 0 -0.46745167271942573 -0.1996046616778234 0 -0.45297794936819918 -0.2159919965998246 0 -0.46745167271942573 -0.1996046616778234 0 -0.46956062781061803 -0.21704188818370149 0 -0.45013906333809789 -0.2009404811944836 0 -0.46745167271942573 -0.1996046616778234 0 -0.45596312027128949 -0.18794868189772959 0 -0.46763136520864318 -0.18653340036078911 0 -0.46745167271942573 -0.1996046616778234 0 -0.45596312027128949 -0.18794868189772959 0 -0.46745167271942573 -0.1996046616778234 0 -0.47993034859498662 -0.18922987045237161 0 -0.48475058775642699 -0.21058337118561141 0 -0.46763136520864318 -0.18653340036078911 0 -0.46745167271942573 -0.1996046616778234 0 -0.47993034859498662 -0.18922987045237161 0 -0.47993034859498662 -0.18922987045237161 0 -0.49999999999999861 -0.19689980622105099 0 -0.48475058775642699 -0.21058337118561141 0 -0.49071260759546798 -0.17667784854346191 0 -0.47993034859498662 -0.18922987045237161 0 -0.49999999999999861 -0.19689980622105099 0 -0.49999999999999861 -0.19689980622105099 0 -0.48475058775642699 -0.21058337118561141 0 -0.50000000000000355 -0.22426693615016591 0 -0.46745167271942573 -0.1996046616778234 0 -0.48475058775642699 -0.21058337118561141 0 -0.46956062781061803 -0.21704188818370149 0 -0.46956062781061803 -0.21704188818370149 0 -0.47829002665147741 -0.2341248566128927 0 -0.46279731583591321 -0.22891002208815581 0 -0.48475058775642699 -0.21058337118561141 0 -0.46956062781061803 -0.21704188818370149 0 -0.47829002665147741 -0.2341248566128927 0 -0.47829002665147741 -0.2341248566128927 0 -0.49757451855253881 -0.23053548086278239 0 -0.50000000000000355 -0.22426693615016591 0 -0.48475058775642699 -0.21058337118561141 0 -0.47829002665147741 -0.2341248566128927 0 -0.50000000000000355 -0.22426693615016591 0 -0.47829002665147741 -0.2341248566128927 0 -0.50000000000000355 -0.22426693615016591 0 -0.47829002665147741 -0.2341248566128927 0 -0.49757451855253881 -0.23053548086278239 0 -0.47793059070477772 -0.24540990329775009 0 -0.5 -0.25006354863638108 0 -0.49757451855253881 -0.23053548086278239 0 -0.49068252501969761 -0.24549971615663649 0 -0.49757451855253881 -0.23053548086278239 0 -0.49068252501969761 -0.24549971615663649 0 -0.47793059070477772 -0.24540990329775009 0 -0.49757451855253881 -0.23053548086278239 0 -0.47793059070477772 -0.24540990329775009 0 -0.5 -0.25006354863638108 0 -0.49757451855253881 -0.23053548086278239 0 -0.50000000000000355 -0.22426693615016591 0 -0.4872249908214738 -0.25598993182963242 0 -0.49068252501969761 -0.24549971615663649 0 -0.47793059070477772 -0.24540990329775009 0 -0.47829002665147741 -0.2341248566128927 0 -0.47793059070477772 -0.24540990329775009 0 -0.45658005330295048 -0.2439827770756183 0 -0.45658005330295048 -0.2439827770756183 0 -0.46279731583591321 -0.22891002208815581 0 -0.44277641758923081 -0.23102430468348881 0 -0.47829002665147741 -0.2341248566128927 0 -0.45658005330295048 -0.2439827770756183 0 -0.45828666285701658 -0.26028432573271792 0 -0.47793059070477772 -0.24540990329775009 0 -0.45658005330295048 -0.2439827770756183 0 -0.47829002665147741 -0.2341248566128927 0 -0.45658005330295048 -0.2439827770756183 0 -0.46279731583591321 -0.22891002208815581 0 -0.45297794936819918 -0.2159919965998246 0 -0.46956062781061803 -0.21704188818370149 0 -0.46279731583591321 -0.22891002208815581 0 -0.45297794936819918 -0.2159919965998246 0 -0.46279731583591321 -0.22891002208815581 0 -0.44277641758923081 -0.23102430468348881 0 -0.43377720402095787 -0.21991138490827611 0 -0.45297794936819918 -0.2159919965998246 0 -0.44277641758923081 -0.23102430468348881 0 -0.43487007995442373 -0.25384069753834382 0 -0.45658005330295048 -0.2439827770756183 0 -0.43487007995442373 -0.25384069753834382 0 -0.43665732485841618 -0.24137016429136929 0 -0.45658005330295048 -0.2439827770756183 0 -0.43665732485841618 -0.24137016429136929 0 -0.45658005330295048 -0.2439827770756183 0 -0.44277641758923081 -0.23102430468348881 0 -0.42837915354319411 -0.040827216461995969 0 -0.4199205163048339 -0.024265820886729 0 -0.40528095782104068 -0.044243292517360297 0 -0.42343463197652342 -0.05874232933513765 0 -0.42837915354319411 -0.040827216461995969 0 -0.40528095782104068 -0.044243292517360297 0 -0.42343463197652342 -0.05874232933513765 0 -0.40528095782104068 -0.044243292517360297 0 -0.42343463197652342 -0.05874232933513765 0 -0.40528095782104068 -0.044243292517360297 0 -0.40670414160736479 -0.063195666982337848 0 -0.42343463197652342 -0.05874232933513765 0 -0.42837915354319411 -0.040827216461995969 0 -0.44094154444346079 -0.04995238034171972 0 -0.42343463197652342 -0.05874232933513765 0 -0.44158830613200611 -0.073241366152915127 0 -0.44094154444346079 -0.04995238034171972 0 -0.42837915354319411 -0.040827216461995969 0 -0.4342900889778567 -0.026770694848987801 0 -0.4453801544960031 -0.037531923181514312 0 -0.4342900889778567 -0.026770694848987801 0 -0.43033724725149269 -0.0037964727450953309 0 -0.4199205163048339 -0.024265820886729 0 -0.4342900889778567 -0.026770694848987801 0 -0.43033724725149269 -0.0037964727450953309 0 -0.44743337329375982 -0.027432040969604381 0 -0.42837915354319411 -0.040827216461995969 0 -0.4342900889778567 -0.026770694848987801 0 -0.4199205163048339 -0.024265820886729 0 -0.43033724725149269 -0.0037964727450953309 0 -0.4131572459017161 -0.004875649818797438 0 -0.4199205163048339 -0.024265820886729 0 -0.4131572459017161 -0.004875649818797438 0 -0.4199205163048339 -0.024265820886729 0 -0.40195427741026962 -0.018113178269922089 0 -0.4199205163048339 -0.024265820886729 0 -0.40195427741026962 -0.018113178269922089 0 -0.40528095782104068 -0.044243292517360297 0 -0.40195427741026962 -0.018113178269922089 0 -0.38465333842141641 -0.0066435457767305304 0 -0.38712728366555788 -0.02974425569958293 0 -0.40195427741026962 -0.018113178269922089 0 -0.38712728366555788 -0.02974425569958293 0 -0.40528095782104068 -0.044243292517360297 0 -0.40195427741026962 -0.018113178269922089 0 -0.38465333842141641 -0.0066435457767305304 0 -0.40033306733275759 0.0019581273283447299 0 -0.4131572459017161 -0.004875649818797438 0 -0.40195427741026962 -0.018113178269922089 0 -0.40033306733275759 0.0019581273283447299 0 -0.38465333842141641 -0.0066435457767305304 0 -0.40033306733275759 0.0019581273283447299 0 -0.36897360951007507 -0.015245218881805699 0 -0.38465333842141641 -0.0066435457767305304 0 -0.36897360951007507 -0.015245218881805699 0 -0.38465333842141641 -0.0066435457767305304 0 -0.38712728366555788 -0.02974425569958293 0 -0.36897360951007507 -0.015245218881805699 0 -0.38712728366555788 -0.02974425569958293 0 -0.37357085562444819 -0.050327950541553881 0 -0.38712728366555788 -0.02974425569958293 0 -0.39147992867528753 -0.058279446621744307 0 -0.38712728366555788 -0.02974425569958293 0 -0.40528095782104068 -0.044243292517360297 0 -0.38712728366555788 -0.02974425569958293 0 -0.40528095782104068 -0.044243292517360297 0 -0.39147992867528753 -0.058279446621744307 0 -0.40528095782104068 -0.044243292517360297 0 -0.39147992867528753 -0.058279446621744307 0 -0.40670414160736479 -0.063195666982337848 0 -0.37357085562444819 -0.050327950541553881 0 -0.39147992867528753 -0.058279446621744307 0 -0.37513495807632252 -0.068027960422620465 0 -0.39147992867528753 -0.058279446621744307 0 -0.37513495807632252 -0.068027960422620465 0 -0.3944429598887787 -0.078419500118194568 0 -0.37347114863240299 -0.089088331268139143 0 -0.37513495807632252 -0.068027960422620465 0 -0.3944429598887787 -0.078419500118194568 0 -0.37347114863240299 -0.089088331268139143 0 -0.3944429598887787 -0.078419500118194568 0 -0.38844874713165228 -0.097169733216879689 0 -0.3944429598887787 -0.078419500118194568 0 -0.38844874713165228 -0.097169733216879689 0 -0.40907098738890341 -0.097978282768044114 0 -0.39147992867528753 -0.058279446621744307 0 -0.3944429598887787 -0.078419500118194568 0 -0.40670414160736479 -0.063195666982337848 0 -0.3944429598887787 -0.078419500118194568 0 -0.41749625226094061 -0.077358517460495352 0 -0.40670414160736479 -0.063195666982337848 0 -0.39228294530364349 -0.13316426080004001 0 -0.38235470820745771 -0.123978498660336 0 -0.39306930808202878 -0.1142539450673672 0 -0.36980343247362518 -0.1100922289949047 0 -0.38235470820745771 -0.123978498660336 0 -0.39306930808202878 -0.1142539450673672 0 -0.36980343247362518 -0.1100922289949047 0 -0.37347114863240299 -0.089088331268139143 0 -0.38844874713165228 -0.097169733216879689 0 -0.36980343247362518 -0.1100922289949047 0 -0.38844874713165228 -0.097169733216879689 0 -0.39306930808202878 -0.1142539450673672 0 -0.38844874713165228 -0.097169733216879689 0 -0.39306930808202878 -0.1142539450673672 0 -0.40907098738890341 -0.097978282768044114 0 -0.39306930808202878 -0.1142539450673672 0 -0.41294233195137359 -0.116724400289887 0 -0.40907098738890341 -0.097978282768044114 0 -0.40633267592073652 -0.13102661860532899 0 -0.39306930808202878 -0.1142539450673672 0 -0.41294233195137359 -0.116724400289887 0 -0.41294233195137359 -0.116724400289887 0 -0.40907098738890341 -0.097978282768044114 0 -0.42916563782925382 -0.1107160192160596 0 -0.42916563782925382 -0.1107160192160596 0 -0.42904349786494111 -0.093106334976964328 0 -0.44668080241849201 -0.10304266906569499 0 -0.40907098738890341 -0.097978282768044114 0 -0.42916563782925382 -0.1107160192160596 0 -0.42904349786494111 -0.093106334976964328 0 -0.42371591628165239 -0.12841039464220819 0 -0.42916563782925382 -0.1107160192160596 0 -0.44295770465017009 -0.12292285668534771 0 -0.42371591628165239 -0.12841039464220819 0 -0.41294233195137359 -0.116724400289887 0 -0.42916563782925382 -0.1107160192160596 0 -0.42343463197652342 -0.05874232933513765 0 -0.41749625226094061 -0.077358517460495352 0 -0.40670414160736479 -0.063195666982337848 0 -0.40907098738890341 -0.097978282768044114 0 -0.41749625226094061 -0.077358517460495352 0 -0.42904349786494111 -0.093106334976964328 0 -0.3944429598887787 -0.078419500118194568 0 -0.40907098738890341 -0.097978282768044114 0 -0.41749625226094061 -0.077358517460495352 0 -0.41749625226094061 -0.077358517460495352 0 -0.42904349786494111 -0.093106334976964328 0 -0.44158830613200611 -0.073241366152915127 0 -0.42904349786494111 -0.093106334976964328 0 -0.44158830613200611 -0.073241366152915127 0 -0.42343463197652342 -0.05874232933513765 0 -0.44158830613200611 -0.073241366152915127 0 -0.42343463197652342 -0.05874232933513765 0 -0.41749625226094061 -0.077358517460495352 0 -0.44158830613200611 -0.073241366152915127 0 -0.44158830613200611 -0.073241366152915127 0 -0.46118581313569179 -0.071431252447136412 0 -0.45067286806919349 -0.058855770468984832 0 -0.44158830613200611 -0.073241366152915127 0 -0.45067286806919349 -0.058855770468984832 0 -0.44158830613200611 -0.073241366152915127 0 -0.44459286929252761 -0.089545637905493386 0 -0.46105887075467122 -0.088792181426399025 0 -0.42904349786494111 -0.093106334976964328 0 -0.44158830613200611 -0.073241366152915127 0 -0.44459286929252761 -0.089545637905493386 0 -0.44158830613200611 -0.073241366152915127 0 -0.46105887075467122 -0.088792181426399025 0 -0.46105887075467122 -0.088792181426399025 0 -0.46118581313569179 -0.071431252447136412 0 -0.48115195350555812 -0.076249636056848105 0 -0.44158830613200611 -0.073241366152915127 0 -0.46105887075467122 -0.088792181426399025 0 -0.46118581313569179 -0.071431252447136412 0 -0.44295770465017009 -0.12292285668534771 0 -0.44668080241849201 -0.10304266906569499 0 -0.46296805171726468 -0.11640170438458371 0 -0.42916563782925382 -0.1107160192160596 0 -0.44295770465017009 -0.12292285668534771 0 -0.44668080241849201 -0.10304266906569499 0 -0.44459286929252761 -0.089545637905493386 0 -0.46105887075467122 -0.088792181426399025 0 -0.44668080241849201 -0.10304266906569499 0 -0.42904349786494111 -0.093106334976964328 0 -0.44459286929252761 -0.089545637905493386 0 -0.44668080241849201 -0.10304266906569499 0 -0.46105887075467122 -0.088792181426399025 0 -0.46296805171726468 -0.11640170438458371 0 -0.48052943537733628 -0.1043429966998831 0 -0.46105887075467122 -0.088792181426399025 0 -0.44668080241849201 -0.10304266906569499 0 -0.46296805171726468 -0.11640170438458371 0 -0.45407528277834919 -0.1346042898317954 0 -0.44295770465017009 -0.12292285668534771 0 -0.46296805171726468 -0.11640170438458371 0 -0.46296805171726468 -0.11640170438458371 0 -0.48245330698995931 -0.121898764666846 0 -0.48052943537733628 -0.1043429966998831 0 -0.47213782278640881 -0.13623393318828281 0 -0.46296805171726468 -0.11640170438458371 0 -0.48245330698995931 -0.121898764666846 0 -0.46105887075467122 -0.088792181426399025 0 -0.48052943537733628 -0.1043429966998831 0 -0.48052943537733628 -0.1043429966998831 0 -0.50000000000000089 -0.1198938119733675 0 -0.5 -0.090898883536528308 0 -0.48245330698995931 -0.121898764666846 0 -0.48052943537733628 -0.1043429966998831 0 -0.50000000000000089 -0.1198938119733675 0 -0.48052943537733628 -0.1043429966998831 0 -0.50000000000000089 -0.1198938119733675 0 -0.46118581313569179 -0.071431252447136412 0 -0.48115195350555812 -0.076249636056848105 0 -0.46833584839527592 -0.05632992550213807 0 -0.48115195350555812 -0.076249636056848105 0 -0.48490864188954641 -0.055044389119401932 0 -0.46833584839527592 -0.05632992550213807 0 -0.46105887075467122 -0.088792181426399025 0 -0.48052943537733628 -0.1043429966998831 0 -0.48115195350555812 -0.076249636056848105 0 -0.48052943537733628 -0.1043429966998831 0 -0.48115195350555812 -0.076249636056848105 0 -0.5 -0.090898883536528308 0 -0.48115195350555812 -0.076249636056848105 0 -0.5 -0.090898883536528308 0 -0.5 -0.061903955099689163 0 -0.48115195350555812 -0.076249636056848105 0 -0.5 -0.061903955099689163 0 -0.48490864188954641 -0.055044389119401932 0 -0.5 -0.061903955099689163 0 -0.48490864188954641 -0.055044389119401932 0 -0.5 -0.032909026662849998 0 -0.48490864188954641 -0.055044389119401932 0 -0.5 -0.032909026662849998 0 -0.47623700986288742 -0.042296174380792313 0 -0.47623700986288742 -0.042296174380792313 0 -0.45975743000638192 -0.044470174785055258 0 -0.47133789178420182 -0.026132268992706809 0 -0.5 -0.032909026662849998 0 -0.47623700986288742 -0.042296174380792313 0 -0.47133789178420182 -0.026132268992706809 0 -0.48490864188954641 -0.055044389119401932 0 -0.47623700986288742 -0.042296174380792313 0 -0.46833584839527592 -0.05632992550213807 0 -0.46118581313569179 -0.071431252447136412 0 -0.46833584839527592 -0.05632992550213807 0 -0.45067286806919349 -0.058855770468984832 0 -0.47623700986288742 -0.042296174380792313 0 -0.46833584839527592 -0.05632992550213807 0 -0.45975743000638192 -0.044470174785055258 0 -0.46833584839527592 -0.05632992550213807 0 -0.45975743000638192 -0.044470174785055258 0 -0.45067286806919349 -0.058855770468984832 0 -0.45975743000638192 -0.044470174785055258 0 -0.45067286806919349 -0.058855770468984832 0 -0.46833584839527592 -0.05632992550213807 0 -0.45975743000638192 -0.044470174785055258 0 -0.45964620516156041 -0.031574428691672249 0 -0.45975743000638192 -0.044470174785055258 0 -0.44743337329375982 -0.027432040969604381 0 -0.45975743000638192 -0.044470174785055258 0 -0.44743337329375982 -0.027432040969604381 0 -0.45975743000638192 -0.044470174785055258 0 -0.47133789178420182 -0.026132268992706809 0 -0.45964620516156041 -0.031574428691672249 0 -0.45975743000638192 -0.044470174785055258 0 -0.47133789178420182 -0.026132268992706809 0 -0.45975743000638192 -0.044470174785055258 0 -0.4453801544960031 -0.037531923181514312 0 -0.44743337329375982 -0.027432040969604381 0 -0.45975743000638192 -0.044470174785055258 0 -0.4453801544960031 -0.037531923181514312 0 -0.44094154444346079 -0.04995238034171972 0 -0.42837915354319411 -0.040827216461995969 0 -0.4453801544960031 -0.037531923181514312 0 -0.44094154444346079 -0.04995238034171972 0 -0.4453801544960031 -0.037531923181514312 0 -0.44743337329375982 -0.027432040969604381 0 -0.44158830613200611 -0.073241366152915127 0 -0.44094154444346079 -0.04995238034171972 0 -0.45067286806919349 -0.058855770468984832 0 -0.45975743000638192 -0.044470174785055258 0 -0.44094154444346079 -0.04995238034171972 0 -0.45067286806919349 -0.058855770468984832 0 -0.43033724725149269 -0.0037964727450953309 0 -0.45268467479845531 -0.00160063580491273 0 -0.44743337329375982 -0.027432040969604381 0 -0.45268467479845531 -0.00160063580491273 0 -0.44743337329375982 -0.027432040969604381 0 -0.43033724725149269 -0.0037964727450953309 0 -0.44743337329375982 -0.027432040969604381 0 -0.4342900889778567 -0.026770694848987801 0 -0.4453801544960031 -0.037531923181514312 0 -0.44743337329375982 -0.027432040969604381 0 -0.45964620516156041 -0.031574428691672249 0 -0.44743337329375982 -0.027432040969604381 0 -0.46065164258955998 -0.015998841515816709 0 -0.45964620516156041 -0.031574428691672249 0 -0.46065164258955998 -0.015998841515816709 0 -0.47133789178420182 -0.026132268992706809 0 -0.45268467479845531 -0.00160063580491273 0 -0.46065164258955998 -0.015998841515816709 0 -0.47044579822050858 0.003730308873902122 0 -0.45268467479845531 -0.00160063580491273 0 -0.44743337329375982 -0.027432040969604381 0 -0.46065164258955998 -0.015998841515816709 0 -0.46065164258955998 -0.015998841515816709 0 -0.48291835356202167 -0.0077943632003582772 0 -0.47044579822050858 0.003730308873902122 0 -0.46065164258955998 -0.015998841515816709 0 -0.48291835356202167 -0.0077943632003582772 0 -0.47133789178420182 -0.026132268992706809 0 -0.48291835356202167 -0.0077943632003582772 0 -0.47133789178420182 -0.026132268992706809 0 -0.5 -0.032909026662849998 0 -0.48291835356202167 -0.0077943632003582772 0 -0.47133789178420182 -0.026132268992706809 0 -0.5 -0.032909026662849998 0 -0.48291835356202167 -0.0077943632003582772 0 -0.5 -0.0039140982260107426 0 -0.48291835356202167 -0.0077943632003582772 0 -0.5 -0.0039140982260107426 0 -0.48656778433615411 0.0071434676601368312 0 -0.5 -0.0039140982260107426 0 -0.48656778433615411 0.0071434676601368312 0 -0.5 0.02508083021082835 0 -0.5 0.02508083021082835 0 -0.47947476989823978 0.0186146606423227 0 -0.48053744464613157 0.038241937480116027 0 -0.48656778433615411 0.0071434676601368312 0 -0.5 0.02508083021082835 0 -0.47947476989823978 0.0186146606423227 0 -0.47947476989823978 0.0186146606423227 0 -0.48053744464613157 0.038241937480116027 0 -0.45793597630314969 0.024230769359779091 0 -0.48656778433615411 0.0071434676601368312 0 -0.47947476989823978 0.0186146606423227 0 -0.47044579822050858 0.003730308873902122 0 -0.48291835356202167 -0.0077943632003582772 0 -0.48656778433615411 0.0071434676601368312 0 -0.47044579822050858 0.003730308873902122 0 -0.47947476989823978 0.0186146606423227 0 -0.47044579822050858 0.003730308873902122 0 -0.45793597630314969 0.024230769359779091 0 -0.5 0.05407575864766756 0 -0.48053744464613157 0.038241937480116027 0 -0.48160115767747708 0.06010989829645641 0 -0.5 0.02508083021082835 0 -0.5 0.05407575864766756 0 -0.48053744464613157 0.038241937480116027 0 -0.48053744464613157 0.038241937480116027 0 -0.48160115767747708 0.06010989829645641 0 -0.4631872778078443 0.050062174524471058 0 -0.48160115767747708 0.06010989829645641 0 -0.4631872778078443 0.050062174524471058 0 -0.46843857931253879 0.07589357968916309 0 -0.4631872778078443 0.050062174524471058 0 -0.4467001814262947 0.061097152827744368 0 -0.46843857931253879 0.07589357968916309 0 -0.48053744464613157 0.038241937480116027 0 -0.4631872778078443 0.050062174524471058 0 -0.45793597630314969 0.024230769359779091 0 -0.4631872778078443 0.050062174524471058 0 -0.45793597630314969 0.024230769359779091 0 -0.4631872778078443 0.050062174524471058 0 -0.44755765064800451 0.039790068000500847 0 -0.45793597630314969 0.024230769359779091 0 -0.44755765064800451 0.039790068000500847 0 -0.43523671041618939 0.023434885238954581 0 -0.43070758581248142 0.047053180835022322 0 -0.4631872778078443 0.050062174524471058 0 -0.44755765064800451 0.039790068000500847 0 -0.4467001814262947 0.061097152827744368 0 -0.44755765064800451 0.039790068000500847 0 -0.4467001814262947 0.061097152827744368 0 -0.43070758581248142 0.047053180835022322 0 -0.45268467479845531 -0.00160063580491273 0 -0.45793597630314969 0.024230769359779091 0 -0.45268467479845531 -0.00160063580491273 0 -0.47044579822050858 0.003730308873902122 0 -0.45793597630314969 0.024230769359779091 0 -0.44755765064800451 0.039790068000500847 0 -0.45793597630314969 0.024230769359779091 0 -0.43523671041618939 0.023434885238954581 0 -0.45268467479845531 -0.00160063580491273 0 -0.45793597630314969 0.024230769359779091 0 -0.43523671041618939 0.023434885238954581 0 -0.43033724725149269 -0.0037964727450953309 0 -0.45268467479845531 -0.00160063580491273 0 -0.43523671041618939 0.023434885238954581 0 -0.43033724725149269 -0.0037964727450953309 0 -0.41324112120922679 0.019839095479414509 0 -0.43523671041618939 0.023434885238954581 0 -0.4131572459017161 -0.004875649818797438 0 -0.41324112120922679 0.019839095479414509 0 -0.40033306733275759 0.0019581273283447299 0 -0.43033724725149269 -0.0037964727450953309 0 -0.4131572459017161 -0.004875649818797438 0 -0.41324112120922679 0.019839095479414509 0 -0.43033724725149269 -0.0037964727450953309 0 -0.41324112120922679 0.019839095479414509 0 -0.41324112120922679 0.019839095479414509 0 -0.43523671041618939 0.023434885238954581 0 -0.4159879611894004 0.038538653043845933 0 -0.43523671041618939 0.023434885238954581 0 -0.43070758581248142 0.047053180835022322 0 -0.4159879611894004 0.038538653043845933 0 -0.4467001814262947 0.061097152827744368 0 -0.43070758581248142 0.047053180835022322 0 -0.43187545736445182 0.065921103617004775 0 -0.43070758581248142 0.047053180835022322 0 -0.41322656597679058 0.058941655142102069 0 -0.43187545736445182 0.065921103617004775 0 -0.43070758581248142 0.047053180835022322 0 -0.41322656597679058 0.058941655142102069 0 -0.4159879611894004 0.038538653043845933 0 -0.41322656597679058 0.058941655142102069 0 -0.4159879611894004 0.038538653043845933 0 -0.39614499516696089 0.04347466370392436 0 -0.41324112120922679 0.019839095479414509 0 -0.4159879611894004 0.038538653043845933 0 -0.39614499516696089 0.04347466370392436 0 -0.41324112120922679 0.019839095479414509 0 -0.39614499516696089 0.04347466370392436 0 -0.39614499516696089 0.04347466370392436 0 -0.37904886912469499 0.067110231928434197 0 -0.39695674231957478 0.074929810419583368 0 -0.41322656597679058 0.058941655142102069 0 -0.39614499516696089 0.04347466370392436 0 -0.39695674231957478 0.074929810419583368 0 -0.39614499516696089 0.04347466370392436 0 -0.37904886912469499 0.067110231928434197 0 -0.39614499516696089 0.04347466370392436 0 -0.37830855690199738 0.048851891747440382 0 -0.37904886912469499 0.067110231928434197 0 -0.37830855690199738 0.048851891747440382 0 -0.37904886912469499 0.067110231928434197 0 -0.37119345183321822 0.058853827639881867 0 -0.39614499516696089 0.04347466370392436 0 -0.37753126207020948 0.034899308803226177 0 -0.39262774316901877 0.02112007510405265 0 -0.39614499516696089 0.04347466370392436 0 -0.37830855690199738 0.048851891747440382 0 -0.37753126207020948 0.034899308803226177 0 -0.38389636562500351 0.0078670615218947963 0 -0.39262774316901877 0.02112007510405265 0 -0.37274578052696178 0.01868977009819147 0 -0.37753126207020948 0.034899308803226177 0 -0.39262774316901877 0.02112007510405265 0 -0.37274578052696178 0.01868977009819147 0 -0.38465333842141641 -0.0066435457767305304 0 -0.38389636562500351 0.0078670615218947963 0 -0.40033306733275759 0.0019581273283447299 0 -0.38389636562500351 0.0078670615218947963 0 -0.37274578052696178 0.01868977009819147 0 -0.36979036210562988 0.0025511841975563729 0 -0.38465333842141641 -0.0066435457767305304 0 -0.38389636562500351 0.0078670615218947963 0 -0.36979036210562988 0.0025511841975563729 0 -0.38389636562500351 0.0078670615218947963 0 -0.40033306733275759 0.0019581273283447299 0 -0.39262774316901877 0.02112007510405265 0 -0.41324112120922679 0.019839095479414509 0 -0.40033306733275759 0.0019581273283447299 0 -0.39262774316901877 0.02112007510405265 0 -0.41324112120922679 0.019839095479414509 0 -0.39614499516696089 0.04347466370392436 0 -0.39262774316901877 0.02112007510405265 0 -0.38940712396436111 0.098535478259042519 0 -0.39976920250104669 0.086913075381088473 0 -0.40655062222011962 0.096340958868671334 0 -0.39063101314785642 0.1199442217017349 0 -0.40655062222011962 0.096340958868671334 0 -0.40795026737523371 0.1101441825861223 0 -0.39063101314785642 0.1199442217017349 0 -0.38940712396436111 0.098535478259042519 0 -0.40655062222011962 0.096340958868671334 0 -0.39063101314785642 0.1199442217017349 0 -0.40655062222011962 0.096340958868671334 0 -0.39063101314785642 0.1199442217017349 0 -0.40795026737523371 0.1101441825861223 0 -0.40406865080306442 0.1250183431131778 0 -0.39063101314785642 0.1199442217017349 0 -0.37896648635229202 0.10715504183998489 0 -0.36716541190589658 0.118616890008602 0 -0.39063101314785642 0.1199442217017349 0 -0.37896648635229202 0.10715504183998489 0 -0.38940712396436111 0.098535478259042519 0 -0.37896648635229202 0.10715504183998489 0 -0.38940712396436111 0.098535478259042519 0 -0.37643332436138899 0.09558572737664002 0 -0.38119130922167832 0.078766060501995444 0 -0.3856317933390121 0.08567132342606161 0 -0.39695674231957478 0.074929810419583368 0 -0.37643332436138899 0.09558572737664002 0 -0.3856317933390121 0.08567132342606161 0 -0.37016311523106599 0.083751267223082917 0 -0.38119130922167832 0.078766060501995444 0 -0.3856317933390121 0.08567132342606161 0 -0.37016311523106599 0.083751267223082917 0 -0.38940712396436111 0.098535478259042519 0 -0.37643332436138899 0.09558572737664002 0 -0.3856317933390121 0.08567132342606161 0 -0.39695674231957478 0.074929810419583368 0 -0.37201358599706058 0.070711840939253895 0 -0.38119130922167832 0.078766060501995444 0 -0.39695674231957478 0.074929810419583368 0 -0.37201358599706058 0.070711840939253895 0 -0.37904886912469499 0.067110231928434197 0 -0.39695674231957478 0.074929810419583368 0 -0.37201358599706058 0.070711840939253895 0 -0.39695674231957478 0.074929810419583368 0 -0.39976920250104669 0.086913075381088473 0 -0.42189989864208899 0.079147779899912826 0 -0.38940712396436111 0.098535478259042519 0 -0.3856317933390121 0.08567132342606161 0 -0.39976920250104669 0.086913075381088473 0 -0.3856317933390121 0.08567132342606161 0 -0.39695674231957478 0.074929810419583368 0 -0.39976920250104669 0.086913075381088473 0 -0.42189989864208899 0.079147779899912826 0 -0.41823283762125668 0.10021421029095 0 -0.40655062222011962 0.096340958868671334 0 -0.39976920250104669 0.086913075381088473 0 -0.42189989864208899 0.079147779899912826 0 -0.40655062222011962 0.096340958868671334 0 -0.39695674231957478 0.074929810419583368 0 -0.42189989864208899 0.079147779899912826 0 -0.41322656597679058 0.058941655142102069 0 -0.39695674231957478 0.074929810419583368 0 -0.42189989864208899 0.079147779899912826 0 -0.43187545736445182 0.065921103617004775 0 -0.42189989864208899 0.079147779899912826 0 -0.44684305496460319 0.083365749380242285 0 -0.41322656597679058 0.058941655142102069 0 -0.43187545736445182 0.065921103617004775 0 -0.42189989864208899 0.079147779899912826 0 -0.42189989864208899 0.079147779899912826 0 -0.43230900050581528 0.10074033507248679 0 -0.44684305496460319 0.083365749380242285 0 -0.42189989864208899 0.079147779899912826 0 -0.43230900050581528 0.10074033507248679 0 -0.41823283762125668 0.10021421029095 0 -0.42189989864208899 0.079147779899912826 0 -0.44684305496460319 0.083365749380242285 0 -0.43230900050581528 0.10074033507248679 0 -0.41823283762125668 0.10021421029095 0 -0.42245439936302609 0.1146977950275566 0 -0.41823283762125668 0.10021421029095 0 -0.40795026737523371 0.1101441825861223 0 -0.42245439936302609 0.1146977950275566 0 -0.41823283762125668 0.10021421029095 0 -0.40655062222011962 0.096340958868671334 0 -0.40795026737523371 0.1101441825861223 0 -0.40795026737523371 0.1101441825861223 0 -0.42245439936302609 0.1146977950275566 0 -0.41854804079657681 0.1335618185962307 0 -0.40795026737523371 0.1101441825861223 0 -0.41854804079657681 0.1335618185962307 0 -0.40795026737523371 0.1101441825861223 0 -0.41854804079657681 0.1335618185962307 0 -0.40406865080306442 0.1250183431131778 0 -0.4361514068569779 0.1212930370016405 0 -0.42245439936302609 0.1146977950275566 0 -0.41854804079657681 0.1335618185962307 0 -0.43230900050581528 0.10074033507248679 0 -0.4361514068569779 0.1212930370016405 0 -0.42245439936302609 0.1146977950275566 0 -0.4361514068569779 0.1212930370016405 0 -0.45131059104818438 0.10389771754541841 0 -0.45603072582896947 0.12415654782577901 0 -0.43230900050581528 0.10074033507248679 0 -0.4361514068569779 0.1212930370016405 0 -0.45131059104818438 0.10389771754541841 0 -0.43230900050581528 0.10074033507248679 0 -0.45131059104818438 0.10389771754541841 0 -0.44684305496460319 0.083365749380242285 0 -0.45131059104818438 0.10389771754541841 0 -0.46040635620489312 0.091287960740373597 0 -0.47503319949424611 0.10199479634667059 0 -0.45131059104818438 0.10389771754541841 0 -0.45603072582896947 0.12415654782577901 0 -0.47503319949424611 0.10199479634667059 0 -0.4467001814262947 0.061097152827744368 0 -0.43187545736445182 0.065921103617004775 0 -0.44684305496460319 0.083365749380242285 0 -0.45131059104818438 0.10389771754541841 0 -0.44684305496460319 0.083365749380242285 0 -0.46040635620489312 0.091287960740373597 0 -0.46040635620489312 0.091287960740373597 0 -0.46843857931253879 0.07589357968916309 0 -0.47503319949424611 0.10199479634667059 0 -0.44684305496460319 0.083365749380242285 0 -0.46040635620489312 0.091287960740373597 0 -0.46843857931253879 0.07589357968916309 0 -0.4631872778078443 0.050062174524471058 0 -0.46843857931253879 0.07589357968916309 0 -0.4467001814262947 0.061097152827744368 0 -0.44684305496460319 0.083365749380242285 0 -0.46843857931253879 0.07589357968916309 0 -0.48160115767747708 0.06010989829645641 0 -0.46843857931253879 0.07589357968916309 0 -0.5 0.083070687084506711 0 -0.46843857931253879 0.07589357968916309 0 -0.5 0.083070687084506711 0 -0.47503319949424611 0.10199479634667059 0 -0.5 0.05407575864766756 0 -0.48160115767747708 0.06010989829645641 0 -0.5 0.083070687084506711 0 -0.45603072582896947 0.12415654782577901 0 -0.47503319949424611 0.10199479634667059 0 -0.47840746745339868 0.1318715347448986 0 -0.5 0.083070687084506711 0 -0.47503319949424611 0.10199479634667059 0 -0.5 0.11206561552134579 0 -0.47503319949424611 0.10199479634667059 0 -0.5 0.11206561552134579 0 -0.47840746745339868 0.1318715347448986 0 -0.5 0.11206561552134579 0 -0.47840746745339868 0.1318715347448986 0 -0.5 0.14106054395818479 0 -0.47840746745339868 0.1318715347448986 0 -0.4813713775429343 0.15534342778339541 0 -0.45584990199199521 0.14839652371063539 0 -0.47840746745339868 0.1318715347448986 0 -0.4813713775429343 0.15534342778339541 0 -0.5 0.14106054395818479 0 -0.4813713775429343 0.15534342778339541 0 -0.5 0.14106054395818479 0 -0.5 0.17005547239502389 0 -0.4813713775429343 0.15534342778339541 0 -0.5 0.17005547239502389 0 -0.47888983910924399 0.1833910978263659 0 -0.5 0.17005547239502389 0 -0.47888983910924399 0.1833910978263659 0 -0.49999999999999639 0.19905040083186301 0 -0.4813713775429343 0.15534342778339541 0 -0.47888983910924399 0.1833910978263659 0 -0.46013732273498392 0.17116473448995881 0 -0.4813713775429343 0.15534342778339541 0 -0.47888983910924399 0.1833910978263659 0 -0.4813713775429343 0.15534342778339541 0 -0.46013732273498392 0.17116473448995881 0 -0.45584990199199521 0.14839652371063539 0 -0.47888983910924399 0.1833910978263659 0 -0.46013732273498392 0.17116473448995881 0 -0.4553652866229031 0.19812390853730849 0 -0.46013732273498392 0.17116473448995881 0 -0.43974358763926291 0.18039709061644729 0 -0.4553652866229031 0.19812390853730849 0 -0.46013732273498392 0.17116473448995881 0 -0.45584990199199521 0.14839652371063539 0 -0.42914581421791992 0.156979454606339 0 -0.46013732273498392 0.17116473448995881 0 -0.43974358763926291 0.18039709061644729 0 -0.42914581421791992 0.156979454606339 0 -0.43890233478009338 0.1378395493323826 0 -0.45584990199199521 0.14839652371063539 0 -0.42914581421791992 0.156979454606339 0 -0.4361514068569779 0.1212930370016405 0 -0.45603072582896947 0.12415654782577901 0 -0.43890233478009338 0.1378395493323826 0 -0.45603072582896947 0.12415654782577901 0 -0.43890233478009338 0.1378395493323826 0 -0.45584990199199521 0.14839652371063539 0 -0.45603072582896947 0.12415654782577901 0 -0.47840746745339868 0.1318715347448986 0 -0.45584990199199521 0.14839652371063539 0 -0.48510068849613291 0.2464952989699998 0 -0.5 0.22952651967534751 0 -0.5 0.27058277969487637 0 -0.48510068849613291 0.2464952989699998 0 -0.47450648191078398 0.23293413722231679 0 -0.4662317729600568 0.24711617116125539 0 -0.48510068849613291 0.2464952989699998 0 -0.5 0.22952651967534751 0 -0.47450648191078398 0.23293413722231679 0 -0.5 0.22952651967534751 0 -0.47450648191078398 0.23293413722231679 0 -0.47640830067555312 0.21143876786933641 0 -0.47450648191078398 0.23293413722231679 0 -0.47640830067555312 0.21143876786933641 0 -0.47640830067555312 0.21143876786933641 0 -0.49999999999999639 0.19905040083186301 0 -0.5 0.22952651967534751 0 -0.47640830067555312 0.21143876786933641 0 -0.49999999999999639 0.19905040083186301 0 -0.47888983910924399 0.1833910978263659 0 -0.47640830067555312 0.21143876786933641 0 -0.49999999999999639 0.19905040083186301 0 -0.47888983910924399 0.1833910978263659 0 -0.47640830067555312 0.21143876786933641 0 -0.47888983910924399 0.1833910978263659 0 -0.47640830067555312 0.21143876786933641 0 -0.4553652866229031 0.19812390853730849 0 -0.43974358763926291 0.18039709061644729 0 -0.4553652866229031 0.19812390853730849 0 -0.43067986422853077 0.20940139548392031 0 -0.4553652866229031 0.19812390853730849 0 -0.45283971357182312 0.22381499832142371 0 -0.43067986422853077 0.20940139548392031 0 -0.47640830067555312 0.21143876786933641 0 -0.4553652866229031 0.19812390853730849 0 -0.45283971357182312 0.22381499832142371 0 -0.47640830067555312 0.21143876786933641 0 -0.45283971357182312 0.22381499832142371 0 -0.47450648191078398 0.23293413722231679 0 -0.45283971357182312 0.22381499832142371 0 -0.45078000859246359 0.24156244513336969 0 -0.47450648191078398 0.23293413722231679 0 -0.47640830067555312 0.21143876786933641 0 -0.45283971357182312 0.22381499832142371 0 -0.45283971357182312 0.22381499832142371 0 -0.43294786837480398 0.2404538296894207 0 -0.42927112646809362 0.23619122877351181 0 -0.45283971357182312 0.22381499832142371 0 -0.42927112646809362 0.23619122877351181 0 -0.45283971357182312 0.22381499832142371 0 -0.42927112646809362 0.23619122877351181 0 -0.43067986422853077 0.20940139548392031 0 -0.45283971357182312 0.22381499832142371 0 -0.45078000859246359 0.24156244513336969 0 -0.43294786837480398 0.2404538296894207 0 -0.43294786837480398 0.2404538296894207 0 -0.44957601688056159 0.25938839971938082 0 -0.45078000859246359 0.24156244513336969 0 -0.43294786837480398 0.2404538296894207 0 -0.44957601688056159 0.25938839971938082 0 -0.45078000859246359 0.24156244513336969 0 -0.4662317729600568 0.24711617116125539 0 -0.44957601688056159 0.25938839971938082 0 -0.47450648191078398 0.23293413722231679 0 -0.45078000859246359 0.24156244513336969 0 -0.4662317729600568 0.24711617116125539 0 -0.42927112646809362 0.23619122877351181 0 -0.40439403923729561 0.237116777479636 0 -0.40570253936436479 0.24856745922560119 0 -0.42927112646809362 0.23619122877351181 0 -0.40570253936436479 0.24856745922560119 0 -0.43294786837480398 0.2404538296894207 0 -0.42927112646809362 0.23619122877351181 0 -0.40570253936436479 0.24856745922560119 0 -0.42927112646809362 0.23619122877351181 0 -0.41099867150134572 0.22378265931279079 0 -0.43067986422853077 0.20940139548392031 0 -0.42927112646809362 0.23619122877351181 0 -0.41099867150134572 0.22378265931279079 0 -0.40439403923729561 0.237116777479636 0 -0.40693149157881192 0.20854646138297669 0 -0.43067986422853077 0.20940139548392031 0 -0.41468845130467291 0.19268004053423909 0 -0.41099867150134572 0.22378265931279079 0 -0.40693149157881192 0.20854646138297669 0 -0.43067986422853077 0.20940139548392031 0 -0.43974358763926291 0.18039709061644729 0 -0.43067986422853077 0.20940139548392031 0 -0.41468845130467291 0.19268004053423909 0 -0.40693149157881192 0.20854646138297669 0 -0.41468845130467291 0.19268004053423909 0 -0.3971577940731173 0.19827573187671929 0 -0.41468845130467291 0.19268004053423909 0 -0.3971577940731173 0.19827573187671929 0 -0.39721082993519219 0.18448993107768991 0 -0.3971577940731173 0.19827573187671929 0 -0.38589476142810619 0.19424352100093389 0 -0.39721082993519219 0.18448993107768991 0 -0.38589476142810619 0.19424352100093389 0 -0.37633455857784293 0.18261391494179069 0 -0.37360736010814782 0.20134128663860251 0 -0.38589476142810619 0.19424352100093389 0 -0.388204088430469 0.2080493245121296 0 -0.37360736010814782 0.20134128663860251 0 -0.3971577940731173 0.19827573187671929 0 -0.38589476142810619 0.19424352100093389 0 -0.388204088430469 0.2080493245121296 0 -0.388204088430469 0.2080493245121296 0 -0.37752279527241261 0.21261086987475841 0 -0.37360736010814782 0.20134128663860251 0 -0.388204088430469 0.2080493245121296 0 -0.39698893960476778 0.22105750592270679 0 -0.38334950790794681 0.2216260941536595 0 -0.388204088430469 0.2080493245121296 0 -0.37752279527241261 0.21261086987475841 0 -0.38334950790794681 0.2216260941536595 0 -0.40693149157881192 0.20854646138297669 0 -0.3971577940731173 0.19827573187671929 0 -0.388204088430469 0.2080493245121296 0 -0.40693149157881192 0.20854646138297669 0 -0.388204088430469 0.2080493245121296 0 -0.39698893960476778 0.22105750592270679 0 -0.41099867150134572 0.22378265931279079 0 -0.40693149157881192 0.20854646138297669 0 -0.39698893960476778 0.22105750592270679 0 -0.41099867150134572 0.22378265931279079 0 -0.39817935363044121 0.2307605800777236 0 -0.39698893960476778 0.22105750592270679 0 -0.41099867150134572 0.22378265931279079 0 -0.39817935363044121 0.2307605800777236 0 -0.40439403923729561 0.237116777479636 0 -0.39817935363044121 0.2307605800777236 0 -0.39698893960476778 0.22105750592270679 0 -0.38938082192181989 0.23429513208400299 0 -0.39698893960476778 0.22105750592270679 0 -0.38334950790794681 0.2216260941536595 0 -0.38938082192181989 0.23429513208400299 0 -0.37752279527241261 0.21261086987475841 0 -0.38334950790794681 0.2216260941536595 0 -0.37349668708843092 0.2226496950895116 0 -0.38334950790794681 0.2216260941536595 0 -0.37780308712422273 0.23309721308500589 0 -0.37349668708843092 0.2226496950895116 0 -0.38334950790794681 0.2216260941536595 0 -0.37780308712422273 0.23309721308500589 0 -0.38938082192181989 0.23429513208400299 0 -0.37780308712422273 0.23309721308500589 0 -0.38938082192181989 0.23429513208400299 0 -0.38455494932564349 0.24416718140159829 0 -0.38938082192181989 0.23429513208400299 0 -0.38455494932564349 0.24416718140159829 0 -0.39556747567899392 0.24292135359640349 0 -0.37780308712422273 0.23309721308500589 0 -0.37552267705158737 0.2431978490864326 0 -0.38455494932564349 0.24416718140159829 0 -0.37552267705158737 0.2431978490864326 0 -0.38455494932564349 0.24416718140159829 0 -0.37675611103540763 0.25409865512553548 0 -0.38455494932564349 0.24416718140159829 0 -0.39556747567899392 0.24292135359640349 0 -0.38900306751682168 0.25733661077056619 0 -0.39556747567899392 0.24292135359640349 0 -0.40570253936436479 0.24856745922560119 0 -0.38900306751682168 0.25733661077056619 0 -0.39817935363044121 0.2307605800777236 0 -0.38938082192181989 0.23429513208400299 0 -0.39556747567899392 0.24292135359640349 0 -0.39817935363044121 0.2307605800777236 0 -0.39556747567899392 0.24292135359640349 0 -0.40439403923729561 0.237116777479636 0 -0.39556747567899392 0.24292135359640349 0 -0.40439403923729561 0.237116777479636 0 -0.40570253936436479 0.24856745922560119 0 -0.40439403923729561 0.237116777479636 0 -0.40570253936436479 0.24856745922560119 0 -0.41854804079657681 0.1335618185962307 0 -0.42914581421791992 0.156979454606339 0 -0.40043471814444209 0.15516303321545699 0 -0.41854804079657681 0.1335618185962307 0 -0.39914528189259102 0.13642314956862331 0 -0.40406865080306442 0.1250183431131778 0 -0.4361514068569779 0.1212930370016405 0 -0.43890233478009338 0.1378395493323826 0 -0.41854804079657681 0.1335618185962307 0 -0.41854804079657681 0.1335618185962307 0 -0.42914581421791992 0.156979454606339 0 -0.43890233478009338 0.1378395493323826 0 -0.41854804079657681 0.1335618185962307 0 -0.42914581421791992 0.156979454606339 0 -0.43974358763926291 0.18039709061644729 0 -0.42914581421791992 0.156979454606339 0 -0.43974358763926291 0.18039709061644729 0 -0.42914581421791992 0.156979454606339 0 -0.41320507520050959 0.17295104721716609 0 -0.43974358763926291 0.18039709061644729 0 -0.41468845130467291 0.19268004053423909 0 -0.41320507520050959 0.17295104721716609 0 -0.41468845130467291 0.19268004053423909 0 -0.41320507520050959 0.17295104721716609 0 -0.39721082993519219 0.18448993107768991 0 -0.42914581421791992 0.156979454606339 0 -0.41320507520050959 0.17295104721716609 0 -0.40043471814444209 0.15516303321545699 0 -0.41320507520050959 0.17295104721716609 0 -0.39020731289493082 0.17075062011690681 0 -0.40043471814444209 0.15516303321545699 0 -0.41320507520050959 0.17295104721716609 0 -0.39721082993519219 0.18448993107768991 0 -0.39020731289493082 0.17075062011690681 0 -0.38589476142810619 0.19424352100093389 0 -0.39721082993519219 0.18448993107768991 0 -0.37633455857784293 0.18261391494179069 0 -0.39721082993519219 0.18448993107768991 0 -0.37633455857784293 0.18261391494179069 0 -0.39020731289493082 0.17075062011690681 0 -0.37604315808934557 0.1616159605326225 0 -0.39020731289493082 0.17075062011690681 0 -0.40043471814444209 0.15516303321545699 0 -0.37633455857784293 0.18261391494179069 0 -0.37604315808934557 0.1616159605326225 0 -0.39020731289493082 0.17075062011690681 0 -0.37604315808934557 0.1616159605326225 0 -0.40043471814444209 0.15516303321545699 0 -0.37471140407559322 0.1435474845347986 0 -0.40043471814444209 0.15516303321545699 0 -0.39914528189259102 0.13642314956862331 0 -0.37471140407559322 0.1435474845347986 0 -0.41854804079657681 0.1335618185962307 0 -0.40043471814444209 0.15516303321545699 0 -0.39914528189259102 0.13642314956862331 0 -0.39063101314785642 0.1199442217017349 0 -0.39914528189259102 0.13642314956862331 0 -0.40406865080306442 0.1250183431131778 0 -0.39063101314785642 0.1199442217017349 0 -0.37471140407559322 0.1435474845347986 0 -0.39063101314785642 0.1199442217017349 0 -0.39914528189259102 0.13642314956862331 0 -0.37471140407559322 0.1435474845347986 0 -0.39063101314785642 0.1199442217017349 0 -0.37471140407559322 0.1435474845347986 0 -0.36716541190589658 0.118616890008602 0 -0.35994195951422209 0.1344452768815545 0 -0.37471140407559322 0.1435474845347986 0 -0.36716541190589658 0.118616890008602 0 -0.35994195951422209 0.1344452768815545 0 -0.36716541190589658 0.118616890008602 0 -0.35352278934268327 0.12307152153672141 0 -0.34641309729257957 0.13731862859844601 0 -0.34013489564456101 0.1359120708212119 0 -0.34492978578452338 0.1096826786703838 0 -0.35994195951422209 0.1344452768815545 0 -0.34641309729257957 0.13731862859844601 0 -0.35352278934268327 0.12307152153672141 0 -0.35994195951422209 0.1344452768815545 0 -0.34641309729257957 0.13731862859844601 0 -0.35789709495435779 0.14967185972920441 0 -0.34641309729257957 0.13731862859844601 0 -0.34789640880063583 0.16495457852650819 0 -0.34475730797662613 0.16425129963789131 0 -0.34641309729257957 0.13731862859844601 0 -0.34789640880063583 0.16495457852650819 0 -0.34641309729257957 0.13731862859844601 0 -0.35789709495435779 0.14967185972920441 0 -0.34789640880063583 0.16495457852650819 0 -0.34641309729257957 0.13731862859844601 0 -0.34475730797662613 0.16425129963789131 0 -0.34013489564456101 0.1359120708212119 0 -0.35994195951422209 0.1344452768815545 0 -0.35789709495435779 0.14967185972920441 0 -0.37471140407559322 0.1435474845347986 0 -0.37471140407559322 0.1435474845347986 0 -0.35879179500333003 0.16715074736786231 0 -0.35789709495435779 0.14967185972920441 0 -0.37471140407559322 0.1435474845347986 0 -0.35879179500333003 0.16715074736786231 0 -0.37604315808934557 0.1616159605326225 0 -0.37471140407559322 0.1435474845347986 0 -0.35879179500333003 0.16715074736786231 0 -0.37604315808934557 0.1616159605326225 0 -0.36770080355277779 0.17295393471821821 0 -0.35879179500333003 0.16715074736786231 0 -0.37633455857784293 0.18261391494179069 0 -0.37604315808934557 0.1616159605326225 0 -0.36770080355277779 0.17295393471821821 0 -0.37633455857784293 0.18261391494179069 0 -0.36024484160731629 0.17922248672973989 0 -0.36412185028301147 0.19234279238731111 0 -0.37633455857784293 0.18261391494179069 0 -0.36770080355277779 0.17295393471821821 0 -0.36024484160731629 0.17922248672973989 0 -0.36770080355277779 0.17295393471821821 0 -0.36024484160731629 0.17922248672973989 0 -0.35879179500333003 0.16715074736786231 0 -0.34475730797662613 0.16425129963789131 0 -0.34937972030869158 0.1925905284545705 0 -0.34475730797662613 0.16425129963789131 0 -0.33955964773429331 0.17429409395644799 0 -0.34937972030869158 0.1925905284545705 0 -0.34789640880063583 0.16495457852650819 0 -0.34937972030869158 0.1925905284545705 0 -0.36024484160731629 0.17922248672973989 0 -0.34789640880063583 0.16495457852650819 0 -0.34937972030869158 0.1925905284545705 0 -0.34789640880063583 0.16495457852650819 0 -0.34475730797662613 0.16425129963789131 0 -0.34937972030869158 0.1925905284545705 0 -0.35789709495435779 0.14967185972920441 0 -0.35879179500333003 0.16715074736786231 0 -0.34789640880063583 0.16495457852650819 0 -0.36024484160731629 0.17922248672973989 0 -0.35879179500333003 0.16715074736786231 0 -0.34789640880063583 0.16495457852650819 0 -0.34475730797662613 0.16425129963789131 0 -0.33718479128260948 0.15937809544746401 0 -0.33738994680948231 0.15124435901621999 0 -0.34475730797662613 0.16425129963789131 0 -0.33718479128260948 0.15937809544746401 0 -0.33813633189250208 0.16634522180797001 0 -0.34475730797662613 0.16425129963789131 0 -0.33813633189250208 0.16634522180797001 0 -0.33955964773429331 0.17429409395644799 0 -0.33813633189250208 0.16634522180797001 0 -0.33104358057647992 0.16745739819007679 0 -0.33955964773429331 0.17429409395644799 0 -0.33718479128260948 0.15937809544746401 0 -0.33813633189250208 0.16634522180797001 0 -0.33104358057647992 0.16745739819007679 0 -0.33718479128260948 0.15937809544746401 0 -0.33104358057647992 0.16745739819007679 0 -0.33026858376101731 0.15190637449176561 0 -0.33104358057647992 0.16745739819007679 0 -0.33403331992976748 0.18227938602527921 0 -0.31962491903722229 0.18594758427241961 0 -0.33955964773429331 0.17429409395644799 0 -0.33403331992976748 0.18227938602527921 0 -0.34937972030869158 0.1925905284545705 0 -0.33104358057647992 0.16745739819007679 0 -0.33955964773429331 0.17429409395644799 0 -0.33403331992976748 0.18227938602527921 0 -0.31962491903722229 0.18594758427241961 0 -0.31796283648197832 0.1633337389314328 0 -0.30596240671843039 0.18080678990447141 0 -0.31962491903722229 0.18594758427241961 0 -0.31796283648197832 0.1633337389314328 0 -0.33104358057647992 0.16745739819007679 0 -0.31962491903722229 0.18594758427241961 0 -0.31796283648197832 0.1633337389314328 0 -0.33104358057647992 0.16745739819007679 0 -0.31796283648197832 0.1633337389314328 0 -0.33026858376101731 0.15190637449176561 0 -0.31796283648197832 0.1633337389314328 0 -0.31630075392673418 0.14071989359044609 0 -0.31796283648197832 0.1633337389314328 0 -0.31630075392673418 0.14071989359044609 0 -0.33026858376101731 0.15190637449176561 0 -0.31630075392673418 0.14071989359044609 0 -0.32855297285770901 0.13997743418302819 0 -0.33026858376101731 0.15190637449176561 0 -0.31630075392673418 0.14071989359044609 0 -0.30835875028686138 0.12836861128214669 0 -0.32196666651361477 0.12487749701900901 0 -0.31630075392673418 0.14071989359044609 0 -0.32855297285770901 0.13997743418302819 0 -0.32196666651361477 0.12487749701900901 0 -0.32855297285770901 0.13997743418302819 0 -0.33106980320980312 0.1246503866679774 0 -0.32196666651361477 0.12487749701900901 0 -0.32855297285770901 0.13997743418302819 0 -0.34013489564456101 0.1359120708212119 0 -0.3346041553825978 0.14477395468276741 0 -0.32855297285770901 0.13997743418302819 0 -0.34013489564456101 0.1359120708212119 0 -0.33106980320980312 0.1246503866679774 0 -0.34475730797662613 0.16425129963789131 0 -0.34013489564456101 0.1359120708212119 0 -0.34013489564456101 0.1359120708212119 0 -0.33738994680948231 0.15124435901621999 0 -0.3346041553825978 0.14477395468276741 0 -0.34475730797662613 0.16425129963789131 0 -0.34013489564456101 0.1359120708212119 0 -0.33738994680948231 0.15124435901621999 0 -0.33718479128260948 0.15937809544746401 0 -0.33738994680948231 0.15124435901621999 0 -0.33026858376101731 0.15190637449176561 0 -0.33738994680948231 0.15124435901621999 0 -0.33026858376101731 0.15190637449176561 0 -0.3346041553825978 0.14477395468276741 0 -0.32855297285770901 0.13997743418302819 0 -0.33026858376101731 0.15190637449176561 0 -0.3346041553825978 0.14477395468276741 0 -0.35208907389890948 0.24306917690434299 0 -0.33787454055877381 0.24529314191448051 0 -0.34142207509263922 0.25572960106260723 0 -0.35208907389890948 0.24306917690434299 0 -0.34508884738596168 0.2342440782649087 0 -0.33787454055877381 0.24529314191448051 0 -0.35689366634974828 0.23865726176967661 0 -0.35926376548055328 0.2486735779402334 0 -0.35208907389890948 0.24306917690434299 0 -0.35926376548055328 0.2486735779402334 0 -0.36665925593476811 0.2402392529692276 0 -0.36723308052532222 0.25309369692869038 0 -0.35689366634974828 0.23865726176967661 0 -0.35926376548055328 0.2486735779402334 0 -0.36665925593476811 0.2402392529692276 0 -0.37552267705158737 0.2431978490864326 0 -0.36665925593476811 0.2402392529692276 0 -0.36723308052532222 0.25309369692869038 0 -0.37780308712422273 0.23309721308500589 0 -0.37552267705158737 0.2431978490864326 0 -0.36665925593476811 0.2402392529692276 0 -0.37780308712422273 0.23309721308500589 0 -0.36665925593476811 0.2402392529692276 0 -0.36843053074319038 0.2307028505946831 0 -0.3637449320256837 0.23462317477255459 0 -0.36665925593476811 0.2402392529692276 0 -0.36843053074319038 0.2307028505946831 0 -0.35689366634974828 0.23865726176967661 0 -0.3637449320256837 0.23462317477255459 0 -0.36304404037139409 0.23042929735762199 0 -0.35689366634974828 0.23865726176967661 0 -0.3637449320256837 0.23462317477255459 0 -0.36665925593476811 0.2402392529692276 0 -0.35689366634974828 0.23865726176967661 0 -0.36304404037139409 0.23042929735762199 0 -0.36041387714694573 0.22521835140317789 0 -0.36304404037139409 0.23042929735762199 0 -0.36843053074319038 0.2307028505946831 0 -0.36573719559140289 0.222944848248018 0 -0.3637449320256837 0.23462317477255459 0 -0.36304404037139409 0.23042929735762199 0 -0.36843053074319038 0.2307028505946831 0 -0.37780308712422273 0.23309721308500589 0 -0.36843053074319038 0.2307028505946831 0 -0.37349668708843092 0.2226496950895116 0 -0.36843053074319038 0.2307028505946831 0 -0.37349668708843092 0.2226496950895116 0 -0.36573719559140289 0.222944848248018 0 -0.37349668708843092 0.2226496950895116 0 -0.36573719559140289 0.222944848248018 0 -0.36813700589141007 0.21491629458094519 0 -0.36304404037139409 0.23042929735762199 0 -0.36573719559140289 0.222944848248018 0 -0.36041387714694573 0.22521835140317789 0 -0.36573719559140289 0.222944848248018 0 -0.36041387714694573 0.22521835140317789 0 -0.36096209089537368 0.21759825830877291 0 -0.36041387714694573 0.22521835140317789 0 -0.35785158193032179 0.22427444164843771 0 -0.36096209089537368 0.21759825830877291 0 -0.35689366634974828 0.23865726176967661 0 -0.35785158193032179 0.22427444164843771 0 -0.35313669332921982 0.21562389511212349 0 -0.35785158193032179 0.22427444164843771 0 -0.35313669332921982 0.21562389511212349 0 -0.36096209089537368 0.21759825830877291 0 -0.35689366634974828 0.23865726176967661 0 -0.35313669332921982 0.21562389511212349 0 -0.35208907389890948 0.24306917690434299 0 -0.34508884738596168 0.2342440782649087 0 -0.35073439710380072 0.2178298526794567 0 -0.34508884738596168 0.2342440782649087 0 -0.35073439710380072 0.2178298526794567 0 -0.33965737798236312 0.2307841415613546 0 -0.35208907389890948 0.24306917690434299 0 -0.35073439710380072 0.2178298526794567 0 -0.35689366634974828 0.23865726176967661 0 -0.35073439710380072 0.2178298526794567 0 -0.35313669332921982 0.21562389511212349 0 -0.35689366634974828 0.23865726176967661 0 -0.35208907389890948 0.24306917690434299 0 -0.35073439710380072 0.2178298526794567 0 -0.35689366634974828 0.23865726176967661 0 -0.36041387714694573 0.22521835140317789 0 -0.35785158193032179 0.22427444164843771 0 -0.35073439710380072 0.2178298526794567 0 -0.34937972030869158 0.1925905284545705 0 -0.35313669332921982 0.21562389511212349 0 -0.36104277081305908 0.20594574517185199 0 -0.34937972030869158 0.1925905284545705 0 -0.35073439710380072 0.2178298526794567 0 -0.35313669332921982 0.21562389511212349 0 -0.34937972030869158 0.1925905284545705 0 -0.35313669332921982 0.21562389511212349 0 -0.34937972030869158 0.1925905284545705 0 -0.35073439710380072 0.2178298526794567 0 -0.34937972030869158 0.1925905284545705 0 -0.34310613959102931 0.2055031457500841 0 -0.35073439710380072 0.2178298526794567 0 -0.34310613959102931 0.2055031457500841 0 -0.34102096872395049 0.21330790674795511 0 -0.35073439710380072 0.2178298526794567 0 -0.34102096872395049 0.21330790674795511 0 -0.34050958406480097 0.2204489809667724 0 -0.35313669332921982 0.21562389511212349 0 -0.36096209089537368 0.21759825830877291 0 -0.36104277081305908 0.20594574517185199 0 -0.36573719559140289 0.222944848248018 0 -0.36096209089537368 0.21759825830877291 0 -0.36813700589141007 0.21491629458094519 0 -0.36096209089537368 0.21759825830877291 0 -0.36813700589141007 0.21491629458094519 0 -0.36104277081305908 0.20594574517185199 0 -0.37752279527241261 0.21261086987475841 0 -0.37349668708843092 0.2226496950895116 0 -0.36813700589141007 0.21491629458094519 0 -0.37752279527241261 0.21261086987475841 0 -0.36813700589141007 0.21491629458094519 0 -0.37360736010814782 0.20134128663860251 0 -0.36813700589141007 0.21491629458094519 0 -0.36104277081305908 0.20594574517185199 0 -0.37360736010814782 0.20134128663860251 0 -0.37633455857784293 0.18261391494179069 0 -0.37360736010814782 0.20134128663860251 0 -0.36412185028301147 0.19234279238731111 0 -0.36104277081305908 0.20594574517185199 0 -0.37360736010814782 0.20134128663860251 0 -0.36412185028301147 0.19234279238731111 0 -0.36024484160731629 0.17922248672973989 0 -0.36412185028301147 0.19234279238731111 0 -0.34937972030869158 0.1925905284545705 0 -0.36104277081305908 0.20594574517185199 0 -0.36412185028301147 0.19234279238731111 0 -0.34937972030869158 0.1925905284545705 0 -0.33403331992976748 0.18227938602527921 0 -0.34937972030869158 0.1925905284545705 0 -0.33132558757267788 0.19645560619981381 0 -0.34937972030869158 0.1925905284545705 0 -0.33132558757267788 0.19645560619981381 0 -0.34310613959102931 0.2055031457500841 0 -0.33132558757267788 0.19645560619981381 0 -0.33206760714527173 0.20694684499318661 0 -0.34310613959102931 0.2055031457500841 0 -0.33403331992976748 0.18227938602527921 0 -0.31962491903722229 0.18594758427241961 0 -0.33132558757267788 0.19645560619981381 0 -0.31962491903722229 0.18594758427241961 0 -0.33132558757267788 0.19645560619981381 0 -0.32128700159246643 0.2085614296134064 0 -0.31962491903722229 0.18594758427241961 0 -0.32128700159246643 0.2085614296134064 0 -0.31094130810426679 0.20146887601233149 0 -0.31962491903722229 0.18594758427241961 0 -0.32128700159246643 0.2085614296134064 0 -0.32128700159246643 0.2085614296134064 0 -0.30991457648112369 0.2265504040794763 0 -0.30833129431909739 0.21334832502430981 0 -0.32128700159246643 0.2085614296134064 0 -0.30833129431909739 0.21334832502430981 0 -0.31094130810426679 0.20146887601233149 0 -0.32128700159246643 0.2085614296134064 0 -0.334517009846864 0.21514148884522391 0 -0.33414886994078158 0.22469785659874761 0 -0.334517009846864 0.21514148884522391 0 -0.33206760714527173 0.20694684499318661 0 -0.34102096872395049 0.21330790674795511 0 -0.33132558757267788 0.19645560619981381 0 -0.32128700159246643 0.2085614296134064 0 -0.33206760714527173 0.20694684499318661 0 -0.32128700159246643 0.2085614296134064 0 -0.334517009846864 0.21514148884522391 0 -0.33206760714527173 0.20694684499318661 0 -0.33206760714527173 0.20694684499318661 0 -0.34310613959102931 0.2055031457500841 0 -0.34102096872395049 0.21330790674795511 0 -0.334517009846864 0.21514148884522391 0 -0.34102096872395049 0.21330790674795511 0 -0.34050958406480097 0.2204489809667724 0 -0.33965737798236312 0.2307841415613546 0 -0.33414886994078158 0.22469785659874761 0 -0.32294908414771051 0.231175274954393 0 -0.34050958406480097 0.2204489809667724 0 -0.33965737798236312 0.2307841415613546 0 -0.33414886994078158 0.22469785659874761 0 -0.334517009846864 0.21514148884522391 0 -0.34050958406480097 0.2204489809667724 0 -0.33414886994078158 0.22469785659874761 0 -0.35073439710380072 0.2178298526794567 0 -0.34050958406480097 0.2204489809667724 0 -0.33965737798236312 0.2307841415613546 0 -0.32128700159246643 0.2085614296134064 0 -0.33414886994078158 0.22469785659874761 0 -0.32294908414771051 0.231175274954393 0 -0.32128700159246643 0.2085614296134064 0 -0.32294908414771051 0.231175274954393 0 -0.32128700159246643 0.2085614296134064 0 -0.32294908414771051 0.231175274954393 0 -0.30991457648112369 0.2265504040794763 0 -0.32294908414771051 0.231175274954393 0 -0.30659471691689572 0.242716670786389 0 -0.30991457648112369 0.2265504040794763 0 -0.32294908414771051 0.231175274954393 0 -0.30659471691689572 0.242716670786389 0 -0.32493898666941562 0.25370598596143412 0 -0.33965737798236312 0.2307841415613546 0 -0.32294908414771051 0.231175274954393 0 -0.33787454055877381 0.24529314191448051 0 -0.32294908414771051 0.231175274954393 0 -0.33787454055877381 0.24529314191448051 0 -0.32493898666941562 0.25370598596143412 0 -0.34508884738596168 0.2342440782649087 0 -0.33965737798236312 0.2307841415613546 0 -0.33787454055877381 0.24529314191448051 0 -0.28392805579818597 0.24584677119781029 0 -0.30659471691689572 0.242716670786389 0 -0.29475597619187288 0.23283261746471121 0 -0.28392805579818597 0.24584677119781029 0 -0.29475597619187288 0.23283261746471121 0 -0.28109078806307641 0.23123665432302171 0 -0.30991457648112369 0.2265504040794763 0 -0.2995127007984647 0.22240216811521779 0 -0.29475597619187288 0.23283261746471121 0 -0.30659471691689572 0.242716670786389 0 -0.30991457648112369 0.2265504040794763 0 -0.29475597619187288 0.23283261746471121 0 -0.30991457648112369 0.2265504040794763 0 -0.2995127007984647 0.22240216811521779 0 -0.30833129431909739 0.21334832502430981 0 -0.2995127007984647 0.22240216811521779 0 -0.29475597619187288 0.23283261746471121 0 -0.28658767146556752 0.2208426317688808 0 -0.29475597619187288 0.23283261746471121 0 -0.28658767146556752 0.2208426317688808 0 -0.28109078806307641 0.23123665432302171 0 -0.28658767146556752 0.2208426317688808 0 -0.28549164962408852 0.20589081089837991 0 -0.27599235506858921 0.213338138612501 0 -0.2995127007984647 0.22240216811521779 0 -0.28658767146556752 0.2208426317688808 0 -0.29782091388006071 0.2077851852193662 0 -0.28658767146556752 0.2208426317688808 0 -0.28549164962408852 0.20589081089837991 0 -0.29782091388006071 0.2077851852193662 0 -0.2995127007984647 0.22240216811521779 0 -0.30833129431909739 0.21334832502430981 0 -0.29782091388006071 0.2077851852193662 0 -0.30833129431909739 0.21334832502430981 0 -0.29782091388006071 0.2077851852193662 0 -0.31094130810426679 0.20146887601233149 0 -0.31094130810426679 0.20146887601233149 0 -0.28918285092023371 0.18809301854234381 0 -0.30596240671843039 0.18080678990447141 0 -0.31094130810426679 0.20146887601233149 0 -0.28918285092023371 0.18809301854234381 0 -0.31962491903722229 0.18594758427241961 0 -0.31094130810426679 0.20146887601233149 0 -0.30596240671843039 0.18080678990447141 0 -0.29782091388006071 0.2077851852193662 0 -0.31094130810426679 0.20146887601233149 0 -0.28918285092023371 0.18809301854234381 0 -0.28549164962408852 0.20589081089837991 0 -0.28918285092023371 0.18809301854234381 0 -0.27469451239495962 0.19856643751398209 0 -0.28549164962408852 0.20589081089837991 0 -0.29782091388006071 0.2077851852193662 0 -0.28918285092023371 0.18809301854234381 0 -0.27469451239495962 0.19856643751398209 0 -0.25846339158769432 0.19477026040294029 0 -0.26742439373620053 0.1747171610723561 0 -0.27469451239495962 0.19856643751398209 0 -0.25846339158769432 0.19477026040294029 0 -0.26373521695980739 0.20854805576629271 0 -0.25846339158769432 0.19477026040294029 0 -0.25264776582176801 0.2054066783297176 0 -0.24512564856919611 0.1966003761625241 0 -0.25846339158769432 0.19477026040294029 0 -0.26373521695980739 0.20854805576629271 0 -0.25264776582176801 0.2054066783297176 0 -0.26373521695980739 0.20854805576629271 0 -0.25264776582176801 0.2054066783297176 0 -0.25326648915379463 0.21765104414027969 0 -0.26373521695980739 0.20854805576629271 0 -0.25326648915379463 0.21765104414027969 0 -0.26696116117740232 0.2188897629996385 0 -0.26373521695980739 0.20854805576629271 0 -0.27599235506858921 0.213338138612501 0 -0.26696116117740232 0.2188897629996385 0 -0.27469451239495962 0.19856643751398209 0 -0.26373521695980739 0.20854805576629271 0 -0.27599235506858921 0.213338138612501 0 -0.28549164962408852 0.20589081089837991 0 -0.27469451239495962 0.19856643751398209 0 -0.27599235506858921 0.213338138612501 0 -0.28658767146556752 0.2208426317688808 0 -0.27599235506858921 0.213338138612501 0 -0.27366575233363138 0.22408994750137051 0 -0.28658767146556752 0.2208426317688808 0 -0.27366575233363138 0.22408994750137051 0 -0.28109078806307641 0.23123665432302171 0 -0.27366575233363138 0.22408994750137051 0 -0.28109078806307641 0.23123665432302171 0 -0.26613842301448931 0.22948780180005629 0 -0.27366575233363138 0.22408994750137051 0 -0.26613842301448931 0.22948780180005629 0 -0.27599235506858921 0.213338138612501 0 -0.27366575233363138 0.22408994750137051 0 -0.26696116117740232 0.2188897629996385 0 -0.27366575233363138 0.22408994750137051 0 -0.26613842301448931 0.22948780180005629 0 -0.26696116117740232 0.2188897629996385 0 -0.25326648915379463 0.21765104414027969 0 -0.26613842301448931 0.22948780180005629 0 -0.25326648915379463 0.21765104414027969 0 -0.26613842301448931 0.22948780180005629 0 -0.26696116117740232 0.2188897629996385 0 -0.26613842301448931 0.22948780180005629 0 -0.25250373055295899 0.22903132158689779 0 -0.2468893326351202 0.24329134098969171 0 -0.25326648915379463 0.21765104414027969 0 -0.26613842301448931 0.22948780180005629 0 -0.25250373055295899 0.22903132158689779 0 -0.26613842301448931 0.22948780180005629 0 -0.2468893326351202 0.24329134098969171 0 -0.26613842301448931 0.22948780180005629 0 -0.26514282027817931 0.24842266601513599 0 -0.2468893326351202 0.24329134098969171 0 -0.28392805579818597 0.24584677119781029 0 -0.26613842301448931 0.22948780180005629 0 -0.26514282027817931 0.24842266601513599 0 -0.28392805579818597 0.24584677119781029 0 -0.26613842301448931 0.22948780180005629 0 -0.28392805579818597 0.24584677119781029 0 -0.28109078806307641 0.23123665432302171 0 -0.26613842301448931 0.22948780180005629 0 -0.29674228528268098 0.14167201189203629 0 -0.29210011904845101 0.16519073176382951 0 -0.2788144627000812 0.14703818685698561 0 -0.29674228528268098 0.14167201189203629 0 -0.2788144627000812 0.14703818685698561 0 -0.2804226891664876 0.12940513594623221 0 -0.29674228528268098 0.14167201189203629 0 -0.2804226891664876 0.12940513594623221 0 -0.29563289833704792 0.1211109261551389 0 -0.29674228528268098 0.14167201189203629 0 -0.30835875028686138 0.12836861128214669 0 -0.29563289833704792 0.1211109261551389 0 -0.31630075392673418 0.14071989359044609 0 -0.29674228528268098 0.14167201189203629 0 -0.30835875028686138 0.12836861128214669 0 -0.31796283648197832 0.1633337389314328 0 -0.31630075392673418 0.14071989359044609 0 -0.29674228528268098 0.14167201189203629 0 -0.31796283648197832 0.1633337389314328 0 -0.30596240671843039 0.18080678990447141 0 -0.29210011904845101 0.16519073176382951 0 -0.31796283648197832 0.1633337389314328 0 -0.29674228528268098 0.14167201189203629 0 -0.29210011904845101 0.16519073176382951 0 -0.28918285092023371 0.18809301854234381 0 -0.30596240671843039 0.18080678990447141 0 -0.29210011904845101 0.16519073176382951 0 -0.28918285092023371 0.18809301854234381 0 -0.29210011904845101 0.16519073176382951 0 -0.26742439373620053 0.1747171610723561 0 -0.29210011904845101 0.16519073176382951 0 -0.26645859331151961 0.15770478106228089 0 -0.2788144627000812 0.14703818685698561 0 -0.29210011904845101 0.16519073176382951 0 -0.26645859331151961 0.15770478106228089 0 -0.26742439373620053 0.1747171610723561 0 -0.28918285092023371 0.18809301854234381 0 -0.27469451239495962 0.19856643751398209 0 -0.26742439373620053 0.1747171610723561 0 -0.28918285092023371 0.18809301854234381 0 -0.26742439373620053 0.1747171610723561 0 -0.25846339158769432 0.19477026040294029 0 -0.26742439373620053 0.1747171610723561 0 -0.2425545525554833 0.18325607046718431 0 -0.26742439373620053 0.1747171610723561 0 -0.24566593655216731 0.1613413036023684 0 -0.2425545525554833 0.18325607046718431 0 -0.26742439373620053 0.1747171610723561 0 -0.24566593655216731 0.1613413036023684 0 -0.26645859331151961 0.15770478106228089 0 -0.26742439373620053 0.1747171610723561 0 -0.24566593655216731 0.1613413036023684 0 -0.26645859331151961 0.15770478106228089 0 -0.26077588748637798 0.14053443996503889 0 -0.24566593655216731 0.1613413036023684 0 -0.26645859331151961 0.15770478106228089 0 -0.2788144627000812 0.14703818685698561 0 -0.26077588748637798 0.14053443996503889 0 -0.2788144627000812 0.14703818685698561 0 -0.2804226891664876 0.12940513594623221 0 -0.26077588748637798 0.14053443996503889 0 -0.2804226891664876 0.12940513594623221 0 -0.26077588748637798 0.14053443996503889 0 -0.26620622488190782 0.1187168322113534 0 -0.26077588748637798 0.14053443996503889 0 -0.25033803458298193 0.12914144363467839 0 -0.2394413917758374 0.14053574488666021 0 -0.26077588748637798 0.14053443996503889 0 -0.25033803458298193 0.12914144363467839 0 -0.26620622488190782 0.1187168322113534 0 -0.25033803458298193 0.12914144363467839 0 -0.25364395357421121 0.10678394025260531 0 -0.26620622488190782 0.1187168322113534 0 -0.25364395357421121 0.10678394025260531 0 -0.26910496068450029 0.10059928658519129 0 -0.26340159681891351 0.087305486383429762 0 -0.25364395357421121 0.10678394025260531 0 -0.26910496068450029 0.10059928658519129 0 -0.26620622488190782 0.1187168322113534 0 -0.26910496068450029 0.10059928658519129 0 -0.28436437631082973 0.10735841859683989 0 -0.28176033911896858 0.090840469038767704 0 -0.26910496068450029 0.10059928658519129 0 -0.26620622488190782 0.1187168322113534 0 -0.28436437631082973 0.10735841859683989 0 -0.2804226891664876 0.12940513594623221 0 -0.26620622488190782 0.1187168322113534 0 -0.28436437631082973 0.10735841859683989 0 -0.2804226891664876 0.12940513594623221 0 -0.29563289833704792 0.1211109261551389 0 -0.28436437631082973 0.10735841859683989 0 -0.29563289833704792 0.1211109261551389 0 -0.28436437631082973 0.10735841859683989 0 -0.30333203744139958 0.1018092028156232 0 -0.28436437631082973 0.10735841859683989 0 -0.30333203744139958 0.1018092028156232 0 -0.29505738772415852 0.092466809089677027 0 -0.28436437631082973 0.10735841859683989 0 -0.29505738772415852 0.092466809089677027 0 -0.28176033911896858 0.090840469038767704 0 -0.30333203744139958 0.1018092028156232 0 -0.31115114737422961 0.1134627277541034 0 -0.31621893882499519 0.096173217231134644 0 -0.29563289833704792 0.1211109261551389 0 -0.30333203744139958 0.1018092028156232 0 -0.31115114737422961 0.1134627277541034 0 -0.30835875028686138 0.12836861128214669 0 -0.29563289833704792 0.1211109261551389 0 -0.31115114737422961 0.1134627277541034 0 -0.2988364877494265 0.069896585727329402 0 -0.3095990562077543 0.082833834969606807 0 -0.31708477734686968 0.066938799678275263 0 -0.2988364877494265 0.069896585727329402 0 -0.30266664287706341 0.054708362279179482 0 -0.31708477734686968 0.066938799678275263 0 -0.2988364877494265 0.069896585727329402 0 -0.28935545939309398 0.062964548691125152 0 -0.30266664287706341 0.054708362279179482 0 -0.30333203744139958 0.1018092028156232 0 -0.3095990562077543 0.082833834969606807 0 -0.31621893882499519 0.096173217231134644 0 -0.30333203744139958 0.1018092028156232 0 -0.3095990562077543 0.082833834969606807 0 -0.29505738772415852 0.092466809089677027 0 -0.3095990562077543 0.082833834969606807 0 -0.29687345717375091 0.081902945336330912 0 -0.29505738772415852 0.092466809089677027 0 -0.2988364877494265 0.069896585727329402 0 -0.3095990562077543 0.082833834969606807 0 -0.29687345717375091 0.081902945336330912 0 -0.29687345717375091 0.081902945336330912 0 -0.28176033911896858 0.090840469038767704 0 -0.2804463735768567 0.075556206852953223 0 -0.29687345717375091 0.081902945336330912 0 -0.29505738772415852 0.092466809089677027 0 -0.28176033911896858 0.090840469038767704 0 -0.2988364877494265 0.069896585727329402 0 -0.28935545939309398 0.062964548691125152 0 -0.2804463735768567 0.075556206852953223 0 -0.2988364877494265 0.069896585727329402 0 -0.29687345717375091 0.081902945336330912 0 -0.2804463735768567 0.075556206852953223 0 -0.28935545939309398 0.062964548691125152 0 -0.28020443427428848 0.065937434716272045 0 -0.28232948387749679 0.060243429622273227 0 -0.28935545939309398 0.062964548691125152 0 -0.28020443427428848 0.065937434716272045 0 -0.2804463735768567 0.075556206852953223 0 -0.2804463735768567 0.075556206852953223 0 -0.26340159681891351 0.087305486383429762 0 -0.26195798501385009 0.070226375813507561 0 -0.28020443427428848 0.065937434716272045 0 -0.26195798501385009 0.070226375813507561 0 -0.2800946942601637 0.055740888585776333 0 -0.28020443427428848 0.065937434716272045 0 -0.2804463735768567 0.075556206852953223 0 -0.26195798501385009 0.070226375813507561 0 -0.26195798501385009 0.070226375813507561 0 -0.2800946942601637 0.055740888585776333 0 -0.26910496068450029 0.10059928658519129 0 -0.28176033911896858 0.090840469038767704 0 -0.26340159681891351 0.087305486383429762 0 -0.28176033911896858 0.090840469038767704 0 -0.2804463735768567 0.075556206852953223 0 -0.26340159681891351 0.087305486383429762 0 -0.26340159681891351 0.087305486383429762 0 -0.26195798501385009 0.070226375813507561 0 -0.24382127576753621 0.084711863041238192 0 -0.25364395357421121 0.10678394025260531 0 -0.26340159681891351 0.087305486383429762 0 -0.24382127576753621 0.084711863041238192 0 -0.26195798501385009 0.070226375813507561 0 -0.24382127576753621 0.084711863041238192 0 -0.26195798501385009 0.070226375813507561 0 -0.26253060434091768 0.04486583530805522 0 -0.24534917185526489 0.049526218608574313 0 -0.26253060434091768 0.04486583530805522 0 -0.25642639863326749 0.02710060176493858 0 -0.24534917185526489 0.049526218608574313 0 -0.26253060434091768 0.04486583530805522 0 -0.27431483662099609 0.037465275048419483 0 -0.25642639863326749 0.02710060176493858 0 -0.26253060434091768 0.04486583530805522 0 -0.27431483662099609 0.037465275048419483 0 -0.2800946942601637 0.055740888585776333 0 -0.26195798501385009 0.070226375813507561 0 -0.26253060434091768 0.04486583530805522 0 -0.2800946942601637 0.055740888585776333 0 -0.28020443427428848 0.065937434716272045 0 -0.2800946942601637 0.055740888585776333 0 -0.28232948387749679 0.060243429622273227 0 -0.26431478179583978 -0.01186883573312463 0 -0.25132042997239518 0.0027134119798401068 0 -0.26646431581863778 0.01029557754540468 0 -0.25132042997239518 0.0027134119798401068 0 -0.25642639863326749 0.02710060176493858 0 -0.26646431581863778 0.01029557754540468 0 -0.27431483662099609 0.037465275048419483 0 -0.25642639863326749 0.02710060176493858 0 -0.27962863155723588 0.021383722316491719 0 -0.25642639863326749 0.02710060176493858 0 -0.27962863155723588 0.021383722316491719 0 -0.26646431581863778 0.01029557754540468 0 -0.2820771903446922 -0.0013122005201030101 0 -0.27962863155723588 0.021383722316491719 0 -0.26646431581863778 0.01029557754540468 0 -0.2820771903446922 -0.0013122005201030101 0 -0.30047775033007851 -0.00039401612408775783 0 -0.29196914664965867 0.01010181790504874 0 -0.2820771903446922 -0.0013122005201030101 0 -0.27962863155723588 0.021383722316491719 0 -0.29196914664965867 0.01010181790504874 0 -0.27962863155723588 0.021383722316491719 0 -0.29196914664965867 0.01010181790504874 0 -0.3056930143666281 0.020729765947894 0 -0.27962863155723588 0.021383722316491719 0 -0.3056930143666281 0.020729765947894 0 -0.2928938543133956 0.038235327266834943 0 -0.3056930143666281 0.020729765947894 0 -0.2928938543133956 0.038235327266834943 0 -0.3056930143666281 0.020729765947894 0 -0.30086997028822832 0.039148022070134687 0 -0.32164524631629432 0.022555155554494829 0 -0.30086997028822832 0.039148022070134687 0 -0.32164524631629432 0.022555155554494829 0 -0.3056930143666281 0.020729765947894 0 -0.31849217441985911 0.0032242046289520012 0 -0.30047775033007851 -0.00039401612408775783 0 -0.3056930143666281 0.020729765947894 0 -0.31849217441985911 0.0032242046289520012 0 -0.30047775033007851 -0.00039401612408775783 0 -0.29196914664965867 0.01010181790504874 0 -0.3056930143666281 0.020729765947894 0 -0.2800946942601637 0.055740888585776333 0 -0.30086997028822832 0.039148022070134687 0 -0.28935545939309398 0.062964548691125152 0 -0.2800946942601637 0.055740888585776333 0 -0.30266664287706341 0.054708362279179482 0 -0.2800946942601637 0.055740888585776333 0 -0.2928938543133956 0.038235327266834943 0 -0.2800946942601637 0.055740888585776333 0 -0.30086997028822832 0.039148022070134687 0 -0.30266664287706341 0.054708362279179482 0 -0.28935545939309398 0.062964548691125152 0 -0.2800946942601637 0.055740888585776333 0 -0.28232948387749679 0.060243429622273227 0 -0.2800946942601637 0.055740888585776333 0 -0.2928938543133956 0.038235327266834943 0 -0.30086997028822832 0.039148022070134687 0 -0.27431483662099609 0.037465275048419483 0 -0.27962863155723588 0.021383722316491719 0 -0.2928938543133956 0.038235327266834943 0 -0.27431483662099609 0.037465275048419483 0 -0.2800946942601637 0.055740888585776333 0 -0.2928938543133956 0.038235327266834943 0 -0.3056930143666281 0.020729765947894 0 -0.2928938543133956 0.038235327266834943 0 -0.30086997028822832 0.039148022070134687 0 -0.30086997028822832 0.039148022070134687 0 -0.30266664287706341 0.054708362279179482 0 -0.3262676586483656 0.050894384371173287 0 -0.30266664287706341 0.054708362279179482 0 -0.3262676586483656 0.050894384371173287 0 -0.31708477734686968 0.066938799678275263 0 -0.3262676586483656 0.050894384371173287 0 -0.32164524631629432 0.022555155554494829 0 -0.30086997028822832 0.039148022070134687 0 -0.3262676586483656 0.050894384371173287 0 -0.32164524631629432 0.022555155554494829 0 -0.3262676586483656 0.050894384371173287 0 -0.32164524631629432 0.022555155554494829 0 -0.34047985126035502 0.026774828886197279 0 -0.3419631627684111 0.054410778814259472 0 -0.34047985126035502 0.026774828886197279 0 -0.3262676586483656 0.050894384371173287 0 -0.3419631627684111 0.054410778814259472 0 -0.34047985126035502 0.026774828886197279 0 -0.3262676586483656 0.050894384371173287 0 -0.3419631627684111 0.054410778814259472 0 -0.33089007098043072 0.079233613187852742 0 -0.3056930143666281 0.020729765947894 0 -0.31849217441985911 0.0032242046289520012 0 -0.32164524631629432 0.022555155554494829 0 -0.31849217441985911 0.0032242046289520012 0 -0.32164524631629432 0.022555155554494829 0 -0.33742136738088668 0.0099550307423931228 0 -0.31849217441985911 0.0032242046289520012 0 -0.32164524631629432 0.022555155554494829 0 -0.32164524631629432 0.022555155554494829 0 -0.33742136738088668 0.0099550307423931228 0 -0.32164524631629432 0.022555155554494829 0 -0.34047985126035502 0.026774828886197279 0 -0.33742136738088668 0.0099550307423931228 0 -0.35319748844548088 -0.0026450940697062141 0 -0.33742136738088668 0.0099550307423931228 0 -0.35319748844548088 -0.0026450940697062141 0 -0.33742136738088668 0.0099550307423931228 0 -0.35568472126330458 0.01398178967161531 0 -0.34047985126035502 0.026774828886197279 0 -0.35568472126330458 0.01398178967161531 0 -0.36050468596179641 0.029201478886372499 0 -0.34047985126035502 0.026774828886197279 0 -0.33742136738088668 0.0099550307423931228 0 -0.35568472126330458 0.01398178967161531 0 -0.35568472126330458 0.01398178967161531 0 -0.36050468596179641 0.029201478886372499 0 -0.37274578052696178 0.01868977009819147 0 -0.37753126207020948 0.034899308803226177 0 -0.36050468596179641 0.029201478886372499 0 -0.37274578052696178 0.01868977009819147 0 -0.35319748844548088 -0.0026450940697062141 0 -0.35568472126330458 0.01398178967161531 0 -0.36979036210562988 0.0025511841975563729 0 -0.35568472126330458 0.01398178967161531 0 -0.37274578052696178 0.01868977009819147 0 -0.36979036210562988 0.0025511841975563729 0 -0.35367539322405089 0.052192583201526178 0 -0.35229578078182711 0.042127528613546239 0 -0.36485581069452189 0.048057973279375742 0 -0.35367539322405089 0.052192583201526178 0 -0.36174043644781612 0.059537200304905107 0 -0.34707042967454638 0.066493871458924422 0 -0.3419631627684111 0.054410778814259472 0 -0.35367539322405089 0.052192583201526178 0 -0.34707042967454638 0.066493871458924422 0 -0.3419631627684111 0.054410778814259472 0 -0.35367539322405089 0.052192583201526178 0 -0.35229578078182711 0.042127528613546239 0 -0.34047985126035502 0.026774828886197279 0 -0.36050468596179641 0.029201478886372499 0 -0.35229578078182711 0.042127528613546239 0 -0.3419631627684111 0.054410778814259472 0 -0.34047985126035502 0.026774828886197279 0 -0.35229578078182711 0.042127528613546239 0 -0.36050468596179641 0.029201478886372499 0 -0.35229578078182711 0.042127528613546239 0 -0.36485581069452189 0.048057973279375742 0 -0.37753126207020948 0.034899308803226177 0 -0.36050468596179641 0.029201478886372499 0 -0.36485581069452189 0.048057973279375742 0 -0.37830855690199738 0.048851891747440382 0 -0.37753126207020948 0.034899308803226177 0 -0.36485581069452189 0.048057973279375742 0 -0.37830855690199738 0.048851891747440382 0 -0.36485581069452189 0.048057973279375742 0 -0.37119345183321822 0.058853827639881867 0 -0.35367539322405089 0.052192583201526178 0 -0.36485581069452189 0.048057973279375742 0 -0.36174043644781612 0.059537200304905107 0 -0.36485581069452189 0.048057973279375742 0 -0.36174043644781612 0.059537200304905107 0 -0.37119345183321822 0.058853827639881867 0 -0.37201358599706058 0.070711840939253895 0 -0.36026946930678239 0.075913175113325196 0 -0.34707042967454638 0.066493871458924422 0 -0.37904886912469499 0.067110231928434197 0 -0.37119345183321822 0.058853827639881867 0 -0.37201358599706058 0.070711840939253895 0 -0.37201358599706058 0.070711840939253895 0 -0.34707042967454638 0.066493871458924422 0 -0.36174043644781612 0.059537200304905107 0 -0.37119345183321822 0.058853827639881867 0 -0.37201358599706058 0.070711840939253895 0 -0.36174043644781612 0.059537200304905107 0 -0.37201358599706058 0.070711840939253895 0 -0.34707042967454638 0.066493871458924422 0 -0.37201358599706058 0.070711840939253895 0 -0.36026946930678239 0.075913175113325196 0 -0.37016311523106599 0.083751267223082917 0 -0.38119130922167832 0.078766060501995444 0 -0.37201358599706058 0.070711840939253895 0 -0.37016311523106599 0.083751267223082917 0 -0.3419631627684111 0.054410778814259472 0 -0.34707042967454638 0.066493871458924422 0 -0.34344647427646718 0.082046728742321648 0 -0.36026946930678239 0.075913175113325196 0 -0.35274187612612162 0.077211514003190262 0 -0.34707042967454638 0.066493871458924422 0 -0.35274187612612162 0.077211514003190262 0 -0.34707042967454638 0.066493871458924422 0 -0.34344647427646718 0.082046728742321648 0 -0.35295667425925747 0.085123838591775802 0 -0.35001973748798287 0.095551702326820934 0 -0.34344647427646718 0.082046728742321648 0 -0.35274187612612162 0.077211514003190262 0 -0.35295667425925747 0.085123838591775802 0 -0.34344647427646718 0.082046728742321648 0 -0.35274187612612162 0.077211514003190262 0 -0.35295667425925747 0.085123838591775802 0 -0.35935833950511731 0.08139738194217451 0 -0.35295667425925747 0.085123838591775802 0 -0.35935833950511731 0.08139738194217451 0 -0.35921694390059838 0.089411865944371699 0 -0.36026946930678239 0.075913175113325196 0 -0.35274187612612162 0.077211514003190262 0 -0.35935833950511731 0.08139738194217451 0 -0.35295667425925747 0.085123838591775802 0 -0.35921694390059838 0.089411865944371699 0 -0.35001973748798287 0.095551702326820934 0 -0.35921694390059838 0.089411865944371699 0 -0.37016311523106599 0.083751267223082917 0 -0.36611800641667808 0.094109198156665408 0 -0.36026946930678239 0.075913175113325196 0 -0.35935833950511731 0.08139738194217451 0 -0.37016311523106599 0.083751267223082917 0 -0.35935833950511731 0.08139738194217451 0 -0.35921694390059838 0.089411865944371699 0 -0.37016311523106599 0.083751267223082917 0 -0.37643332436138899 0.09558572737664002 0 -0.37016311523106599 0.083751267223082917 0 -0.36611800641667808 0.094109198156665408 0 -0.37643332436138899 0.09558572737664002 0 -0.36831342086492491 0.1042920553550029 0 -0.36611800641667808 0.094109198156665408 0 -0.37896648635229202 0.10715504183998489 0 -0.37643332436138899 0.09558572737664002 0 -0.36831342086492491 0.1042920553550029 0 -0.36831342086492491 0.1042920553550029 0 -0.35948680904503588 0.10793893666500461 0 -0.35938862515943509 0.099383552161339872 0 -0.35921694390059838 0.089411865944371699 0 -0.35938862515943509 0.099383552161339872 0 -0.36611800641667808 0.094109198156665408 0 -0.36831342086492491 0.1042920553550029 0 -0.35938862515943509 0.099383552161339872 0 -0.36611800641667808 0.094109198156665408 0 -0.37896648635229202 0.10715504183998489 0 -0.36831342086492491 0.1042920553550029 0 -0.36716541190589658 0.118616890008602 0 -0.36831342086492491 0.1042920553550029 0 -0.35948680904503588 0.10793893666500461 0 -0.36716541190589658 0.118616890008602 0 -0.35948680904503588 0.10793893666500461 0 -0.36716541190589658 0.118616890008602 0 -0.35375916145188291 0.11350041634001019 0 -0.34641309729257957 0.13731862859844601 0 -0.34492978578452338 0.1096826786703838 0 -0.34641309729257957 0.13731862859844601 0 -0.35352278934268327 0.12307152153672141 0 -0.34492978578452338 0.1096826786703838 0 -0.36716541190589658 0.118616890008602 0 -0.35352278934268327 0.12307152153672141 0 -0.35375916145188291 0.11350041634001019 0 -0.35375916145188291 0.11350041634001019 0 -0.34492978578452338 0.1096826786703838 0 -0.35317683324139082 0.10499755452017361 0 -0.35352278934268327 0.12307152153672141 0 -0.35375916145188291 0.11350041634001019 0 -0.34492978578452338 0.1096826786703838 0 -0.34492978578452338 0.1096826786703838 0 -0.35001973748798287 0.095551702326820934 0 -0.34344647427646718 0.082046728742321648 0 -0.34492978578452338 0.1096826786703838 0 -0.34344647427646718 0.082046728742321648 0 -0.35921694390059838 0.089411865944371699 0 -0.35938862515943509 0.099383552161339872 0 -0.35001973748798287 0.095551702326820934 0 -0.35938862515943509 0.099383552161339872 0 -0.35317683324139082 0.10499755452017361 0 -0.35001973748798287 0.095551702326820934 0 -0.35948680904503588 0.10793893666500461 0 -0.35938862515943509 0.099383552161339872 0 -0.35317683324139082 0.10499755452017361 0 -0.35948680904503588 0.10793893666500461 0 -0.35375916145188291 0.11350041634001019 0 -0.35317683324139082 0.10499755452017361 0 -0.34492978578452338 0.1096826786703838 0 -0.35317683324139082 0.10499755452017361 0 -0.35001973748798287 0.095551702326820934 0 -0.33551248331249578 0.10757284200453231 0 -0.32636827877939262 0.096437598311714251 0 -0.33089007098043072 0.079233613187852742 0 -0.34492978578452338 0.1096826786703838 0 -0.33551248331249578 0.10757284200453231 0 -0.34344647427646718 0.082046728742321648 0 -0.34013489564456101 0.1359120708212119 0 -0.33551248331249578 0.10757284200453231 0 -0.33106980320980312 0.1246503866679774 0 -0.33551248331249578 0.10757284200453231 0 -0.33106980320980312 0.1246503866679774 0 -0.3276422557938925 0.11637059862038419 0 -0.34013489564456101 0.1359120708212119 0 -0.33551248331249578 0.10757284200453231 0 -0.34013489564456101 0.1359120708212119 0 -0.34492978578452338 0.1096826786703838 0 -0.33551248331249578 0.10757284200453231 0 -0.33551248331249578 0.10757284200453231 0 -0.3276422557938925 0.11637059862038419 0 -0.32202007013965611 0.108381668790018 0 -0.31115114737422961 0.1134627277541034 0 -0.32196666651361477 0.12487749701900901 0 -0.32202007013965611 0.108381668790018 0 -0.32196666651361477 0.12487749701900901 0 -0.3276422557938925 0.11637059862038419 0 -0.32202007013965611 0.108381668790018 0 -0.33106980320980312 0.1246503866679774 0 -0.32196666651361477 0.12487749701900901 0 -0.3276422557938925 0.11637059862038419 0 -0.30835875028686138 0.12836861128214669 0 -0.31115114737422961 0.1134627277541034 0 -0.32196666651361477 0.12487749701900901 0 -0.31115114737422961 0.1134627277541034 0 -0.32202007013965611 0.108381668790018 0 -0.31621893882499519 0.096173217231134644 0 -0.32636827877939262 0.096437598311714251 0 -0.32202007013965611 0.108381668790018 0 -0.31621893882499519 0.096173217231134644 0 -0.33551248331249578 0.10757284200453231 0 -0.32636827877939262 0.096437598311714251 0 -0.32202007013965611 0.108381668790018 0 -0.32636827877939262 0.096437598311714251 0 -0.3206518095107353 0.086423961441370711 0 -0.33089007098043072 0.079233613187852742 0 -0.3095990562077543 0.082833834969606807 0 -0.31621893882499519 0.096173217231134644 0 -0.3206518095107353 0.086423961441370711 0 -0.32636827877939262 0.096437598311714251 0 -0.31621893882499519 0.096173217231134644 0 -0.3206518095107353 0.086423961441370711 0 -0.3206518095107353 0.086423961441370711 0 -0.3195564285114475 0.078857552319276381 0 -0.33089007098043072 0.079233613187852742 0 -0.3095990562077543 0.082833834969606807 0 -0.3206518095107353 0.086423961441370711 0 -0.3195564285114475 0.078857552319276381 0 -0.3095990562077543 0.082833834969606807 0 -0.3195564285114475 0.078857552319276381 0 -0.31708477734686968 0.066938799678275263 0 -0.3262676586483656 0.050894384371173287 0 -0.31708477734686968 0.066938799678275263 0 -0.33089007098043072 0.079233613187852742 0 -0.3195564285114475 0.078857552319276381 0 -0.31708477734686968 0.066938799678275263 0 -0.33089007098043072 0.079233613187852742 0 -0.3262676586483656 0.050894384371173287 0 -0.33089007098043072 0.079233613187852742 0 -0.3419631627684111 0.054410778814259472 0 -0.34344647427646718 0.082046728742321648 0 -0.3419631627684111 0.054410778814259472 0 -0.34344647427646718 0.082046728742321648 0 -0.33089007098043072 0.079233613187852742 0 -0.33551248331249578 0.10757284200453231 0 -0.34344647427646718 0.082046728742321648 0 -0.33089007098043072 0.079233613187852742 0 -0.33551248331249578 0.10757284200453231 0 -0.33089007098043072 0.079233613187852742 0 -0.38413367002432852 0.48466820949397371 0 -0.39197467039505129 0.46611734068214988 0 -0.41460981883164078 0.48516798004791117 0 -0.3981750166650535 0.50000000000000056 0 -0.38413367002432852 0.48466820949397371 0 -0.41460981883164078 0.48516798004791117 0 -0.3981750166650535 0.50000000000000056 0 -0.38413367002432852 0.48466820949397371 0 -0.37107410569903487 0.5 0 -0.39197467039505129 0.46611734068214988 0 -0.36482960672615539 0.47476559140937902 0 -0.38413367002432852 0.48466820949397371 0 -0.39197467039505129 0.46611734068214988 0 -0.36580706476392733 0.47631646954851292 0 -0.38785270990024268 0.44600589254376838 0 -0.39197467039505129 0.46611734068214988 0 -0.37006527051019528 0.45259743283909409 0 -0.39197467039505129 0.46611734068214988 0 -0.37006527051019528 0.45259743283909409 0 -0.36482960672615539 0.47476559140937902 0 -0.38785270990024268 0.44600589254376838 0 -0.37388199021079188 0.43349662060099697 0 -0.37006527051019528 0.45259743283909409 0 -0.38785270990024268 0.44600589254376838 0 -0.40320620376676342 0.45007503942677379 0 -0.39595691431975 0.42995942871021692 0 -0.38785270990024268 0.44600589254376838 0 -0.40320620376676342 0.45007503942677379 0 -0.39197467039505129 0.46611734068214988 0 -0.40320620376676342 0.45007503942677379 0 -0.39197467039505129 0.46611734068214988 0 -0.41277096383307582 0.46532813801804862 0 -0.40320620376676342 0.45007503942677379 0 -0.42781315099835598 0.44205737320498029 0 -0.39595691431975 0.42995942871021692 0 -0.40320620376676342 0.45007503942677379 0 -0.41277096383307582 0.46532813801804862 0 -0.42781315099835598 0.44205737320498029 0 -0.42781315099835598 0.44205737320498029 0 -0.43466730821188831 0.46706657063262308 0 -0.44460389203804629 0.44806533343805571 0 -0.42781315099835598 0.44205737320498029 0 -0.4310446209982266 0.47033596009582029 0 -0.42781315099835598 0.44205737320498029 0 -0.43466730821188831 0.46706657063262308 0 -0.4310446209982266 0.47033596009582029 0 -0.41277096383307582 0.46532813801804862 0 -0.42781315099835598 0.44205737320498029 0 -0.4310446209982266 0.47033596009582029 0 -0.43466730821188831 0.46706657063262308 0 -0.4310446209982266 0.47033596009582029 0 -0.4310446209982266 0.47033596009582029 0 -0.43443441043131342 0.50000000000000755 0 -0.4447827686264566 0.47926022536349122 0 -0.4310446209982266 0.47033596009582029 0 -0.41460981883164078 0.48516798004791117 0 -0.4310446209982266 0.47033596009582029 0 -0.41460981883164078 0.48516798004791117 0 -0.42409839095234109 0.48887598503593521 0 -0.43466730821188831 0.46706657063262308 0 -0.4310446209982266 0.47033596009582029 0 -0.4447827686264566 0.47926022536349122 0 -0.39197467039505129 0.46611734068214988 0 -0.41277096383307582 0.46532813801804862 0 -0.41460981883164078 0.48516798004791117 0 -0.41277096383307582 0.46532813801804862 0 -0.4310446209982266 0.47033596009582029 0 -0.41460981883164078 0.48516798004791117 0 -0.3981750166650535 0.50000000000000056 0 -0.41460981883164078 0.48516798004791117 0 -0.3981750166650535 0.50000000000000056 0 -0.41460981883164078 0.48516798004791117 0 -0.41630471354818338 0.5 0 -0.41460981883164078 0.48516798004791117 0 -0.41630471354818338 0.5 0 -0.42409839095234109 0.48887598503593521 0 -0.41630471354818338 0.5 0 -0.43443441043131342 0.50000000000000755 0 -0.42409839095234109 0.48887598503593521 0 -0.4310446209982266 0.47033596009582029 0 -0.43443441043131342 0.50000000000000755 0 -0.4310446209982266 0.47033596009582029 0 -0.43443441043131342 0.50000000000000755 0 -0.42409839095234109 0.48887598503593521 0 -0.43443441043131342 0.50000000000000755 0 -0.4447827686264566 0.47926022536349122 0 -0.4595127163698095 0.50000000000000022 0 -0.5 0.5 0 -0.47335596745111108 0.44169355163120572 0 -0.5 0.40038011321019712 0 -0.43466730821188831 0.46706657063262308 0 -0.4447827686264566 0.47926022536349122 0 -0.44899911668232212 0.46303481381032341 0 -0.4447827686264566 0.47926022536349122 0 -0.46015144363500948 0.47359397987248231 0 -0.44899911668232212 0.46303481381032341 0 -0.4447827686264566 0.47926022536349122 0 -0.46015144363500948 0.47359397987248231 0 -0.4595127163698095 0.50000000000000022 0 -0.46015144363500948 0.47359397987248231 0 -0.4595127163698095 0.50000000000000022 0 -0.46015144363500948 0.47359397987248231 0 -0.4595127163698095 0.50000000000000022 0 -0.5 0.5 0 -0.46015144363500948 0.47359397987248231 0 -0.5 0.5 0 -0.47335596745111108 0.44169355163120572 0 -0.46015144363500948 0.47359397987248231 0 -0.47335596745111108 0.44169355163120572 0 -0.46079017090020952 0.44718795974496428 0 -0.46079017090020952 0.44718795974496428 0 -0.44460389203804629 0.44806533343805571 0 -0.45590269758544211 0.43346995798949911 0 -0.47335596745111108 0.44169355163120572 0 -0.46079017090020952 0.44718795974496428 0 -0.45590269758544211 0.43346995798949911 0 -0.46015144363500948 0.47359397987248231 0 -0.46079017090020952 0.44718795974496428 0 -0.44899911668232212 0.46303481381032341 0 -0.46015144363500948 0.47359397987248231 0 -0.46079017090020952 0.44718795974496428 0 -0.43466730821188831 0.46706657063262308 0 -0.44899911668232212 0.46303481381032341 0 -0.44460389203804629 0.44806533343805571 0 -0.42781315099835598 0.44205737320498029 0 -0.44460389203804629 0.44806533343805571 0 -0.44268906624812487 0.42665452579602331 0 -0.46079017090020952 0.44718795974496428 0 -0.44899911668232212 0.46303481381032341 0 -0.44460389203804629 0.44806533343805571 0 -0.44460389203804629 0.44806533343805571 0 -0.44268906624812487 0.42665452579602331 0 -0.45590269758544211 0.43346995798949911 0 -0.44268906624812487 0.42665452579602331 0 -0.45186506472241439 0.42144574071262142 0 -0.45590269758544211 0.43346995798949911 0 -0.44268906624812487 0.42665452579602331 0 -0.45186506472241439 0.42144574071262142 0 -0.44576315445017062 0.40546276927260178 0 -0.44268906624812487 0.42665452579602331 0 -0.44576315445017062 0.40546276927260178 0 -0.42458168099848842 0.41377878631413989 0 -0.46310534060592018 0.42019570979236182 0 -0.47346151536459102 0.41731684507507272 0 -0.46374026742882618 0.39151162716981691 0 -0.45186506472241439 0.42144574071262142 0 -0.46310534060592018 0.42019570979236182 0 -0.44576315445017062 0.40546276927260178 0 -0.47335596745111108 0.44169355163120572 0 -0.46310534060592018 0.42019570979236182 0 -0.45590269758544211 0.43346995798949911 0 -0.45186506472241439 0.42144574071262142 0 -0.46310534060592018 0.42019570979236182 0 -0.45590269758544211 0.43346995798949911 0 -0.47335596745111108 0.44169355163120572 0 -0.46310534060592018 0.42019570979236182 0 -0.47346151536459102 0.41731684507507272 0 -0.47335596745111108 0.44169355163120572 0 -0.47346151536459102 0.41731684507507272 0 -0.5 0.40038011321019712 0 -0.47346151536459102 0.41731684507507272 0 -0.5 0.40038011321019712 0 -0.47533567507008778 0.39330498401591851 0 -0.47346151536459102 0.41731684507507272 0 -0.47533567507008778 0.39330498401591851 0 -0.47346151536459102 0.41731684507507272 0 -0.47533567507008778 0.39330498401591851 0 -0.46374026742882618 0.39151162716981691 0 -0.5 0.40038011321019712 0 -0.47533567507008778 0.39330498401591851 0 -0.47720983477558448 0.36929312295676431 0 -0.47533567507008778 0.39330498401591851 0 -0.47720983477558448 0.36929312295676431 0 -0.47533567507008778 0.39330498401591851 0 -0.46374026742882618 0.39151162716981691 0 -0.47720983477558448 0.36929312295676431 0 -0.46374026742882618 0.39151162716981691 0 -0.45297946443592813 0.37787116286410599 0 -0.46437519425173218 0.36282754454727217 0 -0.46374026742882618 0.39151162716981691 0 -0.45297946443592813 0.37787116286410599 0 -0.44807155782876301 0.39051600802545461 0 -0.46374026742882618 0.39151162716981691 0 -0.46437519425173218 0.36282754454727217 0 -0.46310534060592018 0.42019570979236182 0 -0.46374026742882618 0.39151162716981691 0 -0.46310534060592018 0.42019570979236182 0 -0.46374026742882618 0.39151162716981691 0 -0.44576315445017062 0.40546276927260178 0 -0.46374026742882618 0.39151162716981691 0 -0.44576315445017062 0.40546276927260178 0 -0.44807155782876301 0.39051600802545461 0 -0.44576315445017062 0.40546276927260178 0 -0.44807155782876301 0.39051600802545461 0 -0.43603237714897469 0.39502180629923989 0 -0.45297946443592813 0.37787116286410599 0 -0.44807155782876301 0.39051600802545461 0 -0.44039528146883089 0.37985126846070372 0 -0.44807155782876301 0.39051600802545461 0 -0.44039528146883089 0.37985126846070372 0 -0.43603237714897469 0.39502180629923989 0 -0.44039528146883089 0.37985126846070372 0 -0.42135021099862069 0.38550019942329938 0 -0.43603237714897469 0.39502180629923989 0 -0.44039528146883089 0.37985126846070372 0 -0.42135021099862069 0.38550019942329938 0 -0.43330693618304927 0.36743111704715392 0 -0.42135021099862069 0.38550019942329938 0 -0.3928737426436214 0.38288862872844909 0 -0.41811874099875312 0.35722161253245888 0 -0.42135021099862069 0.38550019942329938 0 -0.42458168099848842 0.41377878631413989 0 -0.40302940150938782 0.40252809503019821 0 -0.44576315445017062 0.40546276927260178 0 -0.43603237714897469 0.39502180629923989 0 -0.42458168099848842 0.41377878631413989 0 -0.42135021099862069 0.38550019942329938 0 -0.42458168099848842 0.41377878631413989 0 -0.42135021099862069 0.38550019942329938 0 -0.43603237714897469 0.39502180629923989 0 -0.42458168099848842 0.41377878631413989 0 -0.42781315099835598 0.44205737320498029 0 -0.42458168099848842 0.41377878631413989 0 -0.39595691431975 0.42995942871021692 0 -0.42781315099835598 0.44205737320498029 0 -0.44268906624812487 0.42665452579602331 0 -0.42458168099848842 0.41377878631413989 0 -0.42781315099835598 0.44205737320498029 0 -0.42458168099848842 0.41377878631413989 0 -0.42458168099848842 0.41377878631413989 0 -0.39595691431975 0.42995942871021692 0 -0.40302940150938782 0.40252809503019821 0 -0.39595691431975 0.42995942871021692 0 -0.38133644129271771 0.41060795377957438 0 -0.40302940150938782 0.40252809503019821 0 -0.39595691431975 0.42995942871021692 0 -0.38133644129271771 0.41060795377957438 0 -0.37388199021079188 0.43349662060099697 0 -0.38785270990024268 0.44600589254376838 0 -0.39595691431975 0.42995942871021692 0 -0.37388199021079188 0.43349662060099697 0 -0.39595691431975 0.42995942871021692 0 -0.38133644129271771 0.41060795377957438 0 -0.38133644129271771 0.41060795377957438 0 -0.3928737426436214 0.38288862872844909 0 -0.36671596826568531 0.39125647884893172 0 -0.3928737426436214 0.38288862872844909 0 -0.37126589511329411 0.37377724987418581 0 -0.36671596826568531 0.39125647884893172 0 -0.42135021099862069 0.38550019942329938 0 -0.3928737426436214 0.38288862872844909 0 -0.40302940150938782 0.40252809503019821 0 -0.38133644129271771 0.41060795377957438 0 -0.3928737426436214 0.38288862872844909 0 -0.40302940150938782 0.40252809503019821 0 -0.39068435811404417 0.36093702398180222 0 -0.39395667907880888 0.34326368506717603 0 -0.41811874099875312 0.35722161253245888 0 -0.3928737426436214 0.38288862872844909 0 -0.39068435811404417 0.36093702398180222 0 -0.41811874099875312 0.35722161253245888 0 -0.3928737426436214 0.38288862872844909 0 -0.39068435811404417 0.36093702398180222 0 -0.37126589511329411 0.37377724987418581 0 -0.39068435811404417 0.36093702398180222 0 -0.37302608715873109 0.35758434449273291 0 -0.37126589511329411 0.37377724987418581 0 -0.39395667907880888 0.34326368506717603 0 -0.37302608715873109 0.35758434449273291 0 -0.39068435811404417 0.36093702398180222 0 -0.39395667907880888 0.34326368506717603 0 -0.37302608715873109 0.35758434449273291 0 -0.37563375498023588 0.33893957100260502 0 -0.39395667907880888 0.34326368506717603 0 -0.37302608715873109 0.35758434449273291 0 -0.37563375498023588 0.33893957100260502 0 -0.3809584867257152 0.31995934924364311 0 -0.39395667907880888 0.34326368506717603 0 -0.3809584867257152 0.31995934924364311 0 -0.40019053093036899 0.31727751782089808 0 -0.39395667907880888 0.34326368506717603 0 -0.40019053093036899 0.31727751782089808 0 -0.39395667907880888 0.34326368506717603 0 -0.414887270998886 0.32894302564161831 0 -0.39395667907880888 0.34326368506717603 0 -0.414887270998886 0.32894302564161831 0 -0.414887270998886 0.32894302564161831 0 -0.41811874099875312 0.35722161253245888 0 -0.39395667907880888 0.34326368506717603 0 -0.414887270998886 0.32894302564161831 0 -0.41811874099875312 0.35722161253245888 0 -0.414887270998886 0.32894302564161831 0 -0.4287524947490482 0.33739992334137159 0 -0.41811874099875312 0.35722161253245888 0 -0.414887270998886 0.32894302564161831 0 -0.42784370751339318 0.3200782636988328 0 -0.41182569378737999 0.30215117016961263 0 -0.414887270998886 0.32894302564161831 0 -0.41182569378737999 0.30215117016961263 0 -0.40019053093036899 0.31727751782089808 0 -0.414887270998886 0.32894302564161831 0 -0.41182569378737999 0.30215117016961263 0 -0.414887270998886 0.32894302564161831 0 -0.42784370751339318 0.3200782636988328 0 -0.42784370751339318 0.3200782636988328 0 -0.44080014402789969 0.3112135017560464 0 -0.414887270998886 0.32894302564161831 0 -0.42784370751339318 0.3200782636988328 0 -0.4287524947490482 0.33739992334137159 0 -0.42784370751339318 0.3200782636988328 0 -0.4287524947490482 0.33739992334137159 0 -0.44455732798665581 0.33082357613192309 0 -0.4287524947490482 0.33739992334137159 0 -0.43835542624755341 0.34993313870202492 0 -0.44455732798665581 0.33082357613192309 0 -0.4287524947490482 0.33739992334137159 0 -0.41811874099875312 0.35722161253245888 0 -0.43835542624755341 0.34993313870202492 0 -0.41811874099875312 0.35722161253245888 0 -0.43330693618304927 0.36743111704715392 0 -0.43835542624755341 0.34993313870202492 0 -0.42135021099862069 0.38550019942329938 0 -0.41811874099875312 0.35722161253245888 0 -0.42135021099862069 0.38550019942329938 0 -0.41811874099875312 0.35722161253245888 0 -0.43330693618304927 0.36743111704715392 0 -0.44039528146883089 0.37985126846070372 0 -0.43330693618304927 0.36743111704715392 0 -0.44831502120148831 0.36464936611728249 0 -0.5 0.40038011321019712 0 -0.47720983477558448 0.36929312295676431 0 -0.5 0.32588146503443682 0 -0.43330693618304927 0.36743111704715392 0 -0.44831502120148831 0.36464936611728249 0 -0.43835542624755341 0.34993313870202492 0 -0.45297946443592813 0.37787116286410599 0 -0.44039528146883089 0.37985126846070372 0 -0.44831502120148831 0.36464936611728249 0 -0.44831502120148831 0.36464936611728249 0 -0.45212261815241361 0.34847541748464589 0 -0.43835542624755341 0.34993313870202492 0 -0.46437519425173218 0.36282754454727217 0 -0.46501012107463818 0.3341434619247271 0 -0.45212261815241361 0.34847541748464589 0 -0.46437519425173218 0.36282754454727217 0 -0.46501012107463818 0.3341434619247271 0 -0.44831502120148831 0.36464936611728249 0 -0.45212261815241361 0.34847541748464589 0 -0.46437519425173218 0.36282754454727217 0 -0.45297946443592813 0.37787116286410599 0 -0.44831502120148831 0.36464936611728249 0 -0.46437519425173218 0.36282754454727217 0 -0.46374026742882618 0.39151162716981691 0 -0.46437519425173218 0.36282754454727217 0 -0.47720983477558448 0.36929312295676431 0 -0.47720983477558448 0.36929312295676431 0 -0.4790839944810813 0.34528126189761021 0 -0.5 0.32588146503443682 0 -0.46437519425173218 0.36282754454727217 0 -0.47720983477558448 0.36929312295676431 0 -0.4790839944810813 0.34528126189761021 0 -0.46437519425173218 0.36282754454727217 0 -0.4790839944810813 0.34528126189761021 0 -0.46501012107463818 0.3341434619247271 0 -0.47720983477558448 0.36929312295676431 0 -0.4790839944810813 0.34528126189761021 0 -0.5 0.32588146503443682 0 -0.48095815418657811 0.32126940083845601 0 -0.48438341280173691 0.2990237851864897 0 -0.4790839944810813 0.34528126189761021 0 -0.5 0.32588146503443682 0 -0.48095815418657811 0.32126940083845601 0 -0.4790839944810813 0.34528126189761021 0 -0.48095815418657811 0.32126940083845601 0 -0.4790839944810813 0.34528126189761021 0 -0.48095815418657811 0.32126940083845601 0 -0.46501012107463818 0.3341434619247271 0 -0.48095815418657811 0.32126940083845601 0 -0.46501012107463818 0.3341434619247271 0 -0.46564504789754418 0.30545937930218209 0 -0.46501012107463818 0.3341434619247271 0 -0.46564504789754418 0.30545937930218209 0 -0.45334860311094782 0.31584311053598302 0 -0.46501012107463818 0.3341434619247271 0 -0.44455732798665581 0.33082357613192309 0 -0.45334860311094782 0.31584311053598302 0 -0.46501012107463818 0.3341434619247271 0 -0.46564504789754418 0.30545937930218209 0 -0.45212261815241361 0.34847541748464589 0 -0.46501012107463818 0.3341434619247271 0 -0.44455732798665581 0.33082357613192309 0 -0.45212261815241361 0.34847541748464589 0 -0.43835542624755341 0.34993313870202492 0 -0.44455732798665581 0.33082357613192309 0 -0.45334860311094782 0.31584311053598302 0 -0.44455732798665581 0.33082357613192309 0 -0.44080014402789969 0.3112135017560464 0 -0.42784370751339318 0.3200782636988328 0 -0.44455732798665581 0.33082357613192309 0 -0.44080014402789969 0.3112135017560464 0 -0.45334860311094782 0.31584311053598302 0 -0.44080014402789969 0.3112135017560464 0 -0.45212090372732222 0.29751224224269018 0 -0.44080014402789969 0.3112135017560464 0 -0.45212090372732222 0.29751224224269018 0 -0.43098419661848369 0.29848737705662681 0 -0.45212090372732222 0.29751224224269018 0 -0.44106680473088589 0.27968718865599468 0 -0.43098419661848369 0.29848737705662681 0 -0.45212090372732222 0.29751224224269018 0 -0.46878861662768212 0.293945894508436 0 -0.46620416538631942 0.27832296974934079 0 -0.45212090372732222 0.29751224224269018 0 -0.46620416538631942 0.27832296974934079 0 -0.44106680473088589 0.27968718865599468 0 -0.45334860311094782 0.31584311053598302 0 -0.45212090372732222 0.29751224224269018 0 -0.46564504789754418 0.30545937930218209 0 -0.45212090372732222 0.29751224224269018 0 -0.46564504789754418 0.30545937930218209 0 -0.46878861662768212 0.293945894508436 0 -0.48095815418657811 0.32126940083845601 0 -0.46564504789754418 0.30545937930218209 0 -0.47422271850004488 0.30257989257828583 0 -0.48095815418657811 0.32126940083845601 0 -0.48283231389207593 0.29725753977930192 0 -0.48095815418657811 0.32126940083845601 0 -0.48283231389207593 0.29725753977930192 0 -0.48438341280173691 0.2990237851864897 0 -0.48095815418657811 0.32126940083845601 0 -0.48283231389207593 0.29725753977930192 0 -0.47422271850004488 0.30257989257828583 0 -0.5 0.32588146503443682 0 -0.48438341280173691 0.2990237851864897 0 -0.5 0.27058277969487637 0 -0.48283231389207593 0.29725753977930192 0 -0.48438341280173691 0.2990237851864897 0 -0.48283231389207593 0.29725753977930192 0 -0.47422271850004488 0.30257989257828583 0 -0.46878861662768212 0.293945894508436 0 -0.46564504789754418 0.30545937930218209 0 -0.47422271850004488 0.30257989257828583 0 -0.46878861662768212 0.293945894508436 0 -0.48283231389207593 0.29725753977930192 0 -0.46620416538631942 0.27832296974934079 0 -0.4832665619079245 0.29169392479429618 0 -0.48272378290968532 0.2745465744653578 0 -0.46620416538631942 0.27832296974934079 0 -0.48283231389207593 0.29725753977930192 0 -0.46878861662768212 0.293945894508436 0 -0.46620416538631942 0.27832296974934079 0 -0.48283231389207593 0.29725753977930192 0 -0.4832665619079245 0.29169392479429618 0 -0.46620416538631942 0.27832296974934079 0 -0.48283231389207593 0.29725753977930192 0 -0.4832665619079245 0.29169392479429618 0 -0.48438341280173691 0.2990237851864897 0 -0.48283231389207593 0.29725753977930192 0 -0.4832665619079245 0.29169392479429618 0 -0.4832665619079245 0.29169392479429618 0 -0.48438341280173691 0.2990237851864897 0 -0.5 0.27058277969487637 0 -0.48510068849613291 0.2464952989699998 0 -0.5 0.27058277969487637 0 -0.47736829551405641 0.25971614189080378 0 -0.4832665619079245 0.29169392479429618 0 -0.5 0.27058277969487637 0 -0.48272378290968532 0.2745465744653578 0 -0.5 0.27058277969487637 0 -0.48272378290968532 0.2745465744653578 0 -0.47736829551405641 0.25971614189080378 0 -0.48272378290968532 0.2745465744653578 0 -0.47736829551405641 0.25971614189080378 0 -0.46620416538631942 0.27832296974934079 0 -0.48510068849613291 0.2464952989699998 0 -0.4662317729600568 0.24711617116125539 0 -0.47736829551405641 0.25971614189080378 0 -0.4662317729600568 0.24711617116125539 0 -0.47736829551405641 0.25971614189080378 0 -0.44957601688056159 0.25938839971938082 0 -0.47736829551405641 0.25971614189080378 0 -0.46620416538631942 0.27832296974934079 0 -0.44957601688056159 0.25938839971938082 0 -0.46620416538631942 0.27832296974934079 0 -0.44957601688056159 0.25938839971938082 0 -0.46620416538631942 0.27832296974934079 0 -0.44106680473088589 0.27968718865599468 0 -0.44957601688056159 0.25938839971938082 0 -0.44106680473088589 0.27968718865599468 0 -0.44957601688056159 0.25938839971938082 0 -0.42702456861835142 0.26373592368695459 0 -0.43294786837480398 0.2404538296894207 0 -0.44957601688056159 0.25938839971938082 0 -0.42702456861835142 0.26373592368695459 0 -0.43294786837480398 0.2404538296894207 0 -0.40570253936436479 0.24856745922560119 0 -0.42702456861835142 0.26373592368695459 0 -0.40570253936436479 0.24856745922560119 0 -0.40876411657587441 0.27535931469760672 0 -0.40570253936436479 0.24856745922560119 0 -0.42702456861835142 0.26373592368695459 0 -0.40876411657587441 0.27535931469760672 0 -0.42702456861835142 0.26373592368695459 0 -0.40876411657587441 0.27535931469760672 0 -0.42393307606619501 0.28388419485335897 0 -0.44106680473088589 0.27968718865599468 0 -0.42702456861835142 0.26373592368695459 0 -0.42393307606619501 0.28388419485335897 0 -0.44106680473088589 0.27968718865599468 0 -0.42393307606619501 0.28388419485335897 0 -0.43098419661848369 0.29848737705662681 0 -0.42393307606619501 0.28388419485335897 0 -0.43098419661848369 0.29848737705662681 0 -0.41182569378737999 0.30215117016961263 0 -0.42784370751339318 0.3200782636988328 0 -0.44080014402789969 0.3112135017560464 0 -0.43098419661848369 0.29848737705662681 0 -0.42784370751339318 0.3200782636988328 0 -0.43098419661848369 0.29848737705662681 0 -0.41182569378737999 0.30215117016961263 0 -0.40876411657587441 0.27535931469760672 0 -0.42393307606619501 0.28388419485335897 0 -0.41182569378737999 0.30215117016961263 0 -0.40876411657587441 0.27535931469760672 0 -0.41182569378737999 0.30215117016961263 0 -0.40876411657587441 0.27535931469760672 0 -0.41182569378737999 0.30215117016961263 0 -0.38942632587964537 0.29641120061531351 0 -0.40876411657587441 0.27535931469760672 0 -0.38942632587964537 0.29641120061531351 0 -0.38778179087320769 0.27529621765694001 0 -0.40019053093036899 0.31727751782089808 0 -0.41182569378737999 0.30215117016961263 0 -0.38942632587964537 0.29641120061531351 0 -0.3809584867257152 0.31995934924364311 0 -0.38942632587964537 0.29641120061531351 0 -0.36990774782730562 0.30465198401604282 0 -0.3809584867257152 0.31995934924364311 0 -0.40019053093036899 0.31727751782089808 0 -0.38942632587964537 0.29641120061531351 0 -0.38942632587964537 0.29641120061531351 0 -0.38778179087320769 0.27529621765694001 0 -0.37124129201382 0.2841753332327091 0 -0.38942632587964537 0.29641120061531351 0 -0.37124129201382 0.2841753332327091 0 -0.36990774782730562 0.30465198401604282 0 -0.38778179087320769 0.27529621765694001 0 -0.37230359566927929 0.26610576231553251 0 -0.37124129201382 0.2841753332327091 0 -0.38778179087320769 0.27529621765694001 0 -0.38900306751682168 0.25733661077056619 0 -0.37230359566927929 0.26610576231553251 0 -0.38900306751682168 0.25733661077056619 0 -0.37230359566927929 0.26610576231553251 0 -0.37675611103540763 0.25409865512553548 0 -0.38900306751682168 0.25733661077056619 0 -0.37230359566927929 0.26610576231553251 0 -0.38455494932564349 0.24416718140159829 0 -0.37675611103540763 0.25409865512553548 0 -0.38900306751682168 0.25733661077056619 0 -0.40570253936436479 0.24856745922560119 0 -0.40876411657587441 0.27535931469760672 0 -0.38900306751682168 0.25733661077056619 0 -0.40570253936436479 0.24856745922560119 0 -0.38900306751682168 0.25733661077056619 0 -0.40876411657587441 0.27535931469760672 0 -0.38778179087320769 0.27529621765694001 0 -0.38900306751682168 0.25733661077056619 0 -0.35344375069401829 0.26830850112922933 0 -0.35479842748912699 0.29354782535411539 0 -0.33783775680192157 0.27023153782616838 0 -0.35344375069401829 0.26830850112922933 0 -0.35479842748912699 0.29354782535411539 0 -0.35926376548055328 0.2486735779402334 0 -0.35208907389890948 0.24306917690434299 0 -0.35344375069401829 0.26830850112922933 0 -0.35208907389890948 0.24306917690434299 0 -0.35344375069401829 0.26830850112922933 0 -0.34142207509263922 0.25572960106260723 0 -0.35208907389890948 0.24306917690434299 0 -0.35344375069401829 0.26830850112922933 0 -0.35344375069401829 0.26830850112922933 0 -0.33783775680192157 0.27023153782616838 0 -0.34142207509263922 0.25572960106260723 0 -0.35344375069401829 0.26830850112922933 0 -0.36723308052532222 0.25309369692869038 0 -0.37230359566927929 0.26610576231553251 0 -0.35926376548055328 0.2486735779402334 0 -0.35344375069401829 0.26830850112922933 0 -0.36723308052532222 0.25309369692869038 0 -0.37552267705158737 0.2431978490864326 0 -0.37675611103540763 0.25409865512553548 0 -0.36723308052532222 0.25309369692869038 0 -0.37675611103540763 0.25409865512553548 0 -0.36723308052532222 0.25309369692869038 0 -0.37230359566927929 0.26610576231553251 0 -0.35344375069401829 0.26830850112922933 0 -0.37230359566927929 0.26610576231553251 0 -0.37124129201382 0.2841753332327091 0 -0.37124129201382 0.2841753332327091 0 -0.36990774782730562 0.30465198401604282 0 -0.35479842748912699 0.29354782535411539 0 -0.35344375069401829 0.26830850112922933 0 -0.37124129201382 0.2841753332327091 0 -0.35479842748912699 0.29354782535411539 0 -0.36990774782730562 0.30465198401604282 0 -0.35479842748912699 0.29354782535411539 0 -0.35615310428423591 0.31878714957900162 0 -0.35479842748912699 0.29354782535411539 0 -0.35615310428423591 0.31878714957900162 0 -0.35479842748912699 0.29354782535411539 0 -0.33790089425573833 0.30106400074382289 0 -0.35615310428423591 0.31878714957900162 0 -0.35479842748912699 0.29354782535411539 0 -0.32994760687178648 0.28429515218691809 0 -0.33783775680192157 0.27023153782616838 0 -0.35479842748912699 0.29354782535411539 0 -0.32994760687178648 0.28429515218691809 0 -0.33790089425573833 0.30106400074382289 0 -0.33790089425573833 0.30106400074382289 0 -0.31376474629655843 0.30225304786416751 0 -0.33257481532433891 0.31836647764434117 0 -0.32994760687178648 0.28429515218691809 0 -0.33790089425573833 0.30106400074382289 0 -0.31376474629655843 0.30225304786416751 0 -0.32994760687178648 0.28429515218691809 0 -0.31376474629655843 0.30225304786416751 0 -0.30745975664346697 0.28108303278283259 0 -0.32994760687178648 0.28429515218691809 0 -0.32025265357816562 0.27050697347699348 0 -0.30745975664346697 0.28108303278283259 0 -0.32994760687178648 0.28429515218691809 0 -0.32025265357816562 0.27050697347699348 0 -0.33783775680192157 0.27023153782616838 0 -0.33783775680192157 0.27023153782616838 0 -0.34142207509263922 0.25572960106260723 0 -0.32493898666941562 0.25370598596143412 0 -0.33787454055877381 0.24529314191448051 0 -0.34142207509263922 0.25572960106260723 0 -0.32493898666941562 0.25370598596143412 0 -0.32025265357816562 0.27050697347699348 0 -0.32493898666941562 0.25370598596143412 0 -0.3017176885818823 0.26220574059556451 0 -0.32025265357816562 0.27050697347699348 0 -0.33783775680192157 0.27023153782616838 0 -0.32493898666941562 0.25370598596143412 0 -0.28392805579818597 0.24584677119781029 0 -0.30659471691689572 0.242716670786389 0 -0.3017176885818823 0.26220574059556451 0 -0.30659471691689572 0.242716670786389 0 -0.32493898666941562 0.25370598596143412 0 -0.3017176885818823 0.26220574059556451 0 -0.32025265357816562 0.27050697347699348 0 -0.3017176885818823 0.26220574059556451 0 -0.30745975664346697 0.28108303278283259 0 -0.3017176885818823 0.26220574059556451 0 -0.30745975664346697 0.28108303278283259 0 -0.28581088023419748 0.27213864639403801 0 -0.28392805579818597 0.24584677119781029 0 -0.3017176885818823 0.26220574059556451 0 -0.28392805579818597 0.24584677119781029 0 -0.3017176885818823 0.26220574059556451 0 -0.28581088023419748 0.27213864639403801 0 -0.28392805579818597 0.24584677119781029 0 -0.28581088023419748 0.27213864639403801 0 -0.26655259030946182 0.26726307071448002 0 -0.28392805579818597 0.24584677119781029 0 -0.26514282027817931 0.24842266601513599 0 -0.26655259030946182 0.26726307071448002 0 -0.28581088023419748 0.27213864639403801 0 -0.26655259030946182 0.26726307071448002 0 -0.26709784128719349 0.28662765883125513 0 -0.26655259030946182 0.26726307071448002 0 -0.26709784128719349 0.28662765883125513 0 -0.24190471242523851 0.27972751922608308 0 -0.26655259030946182 0.26726307071448002 0 -0.24943129659764751 0.26000894523212309 0 -0.24190471242523851 0.27972751922608308 0 -0.26514282027817931 0.24842266601513599 0 -0.26655259030946182 0.26726307071448002 0 -0.24943129659764751 0.26000894523212309 0 -0.26514282027817931 0.24842266601513599 0 -0.24943129659764751 0.26000894523212309 0 -0.2468893326351202 0.24329134098969171 0 -0.25616918259472732 0.30236015827283808 0 -0.26709784128719349 0.28662765883125513 0 -0.24190471242523851 0.27972751922608308 0 -0.28581088023419748 0.27213864639403801 0 -0.26709784128719349 0.28662765883125513 0 -0.29016097772449478 0.2935014559625142 0 -0.26709784128719349 0.28662765883125513 0 -0.27491611994182802 0.30516871221215541 0 -0.29016097772449478 0.2935014559625142 0 -0.25616918259472732 0.30236015827283808 0 -0.27491611994182802 0.30516871221215541 0 -0.27043365276421599 0.32499279731959319 0 -0.25616918259472732 0.30236015827283808 0 -0.26709784128719349 0.28662765883125513 0 -0.27491611994182802 0.30516871221215541 0 -0.27491611994182802 0.30516871221215541 0 -0.29016097772449478 0.2935014559625142 0 -0.29169578744288521 0.31398791816734961 0 -0.30745975664346697 0.28108303278283259 0 -0.28581088023419748 0.27213864639403801 0 -0.29016097772449478 0.2935014559625142 0 -0.31376474629655843 0.30225304786416751 0 -0.30745975664346697 0.28108303278283259 0 -0.29016097772449478 0.2935014559625142 0 -0.31376474629655843 0.30225304786416751 0 -0.29016097772449478 0.2935014559625142 0 -0.29169578744288521 0.31398791816734961 0 -0.31376474629655843 0.30225304786416751 0 -0.31074538478735791 0.32738191455196902 0 -0.29169578744288521 0.31398791816734961 0 -0.31074538478735791 0.32738191455196902 0 -0.29170910681836448 0.3316805874579164 0 -0.29169578744288521 0.31398791816734961 0 -0.31074538478735791 0.32738191455196902 0 -0.30097258616365841 0.34441487088432199 0 -0.31556783578130437 0.34561409599239279 0 -0.31074538478735791 0.32738191455196902 0 -0.29170910681836448 0.3316805874579164 0 -0.30097258616365841 0.34441487088432199 0 -0.29170910681836448 0.3316805874579164 0 -0.28469812293370489 0.34762543636634829 0 -0.30097258616365841 0.34441487088432199 0 -0.29170910681836448 0.3316805874579164 0 -0.27043365276421599 0.32499279731959319 0 -0.28469812293370489 0.34762543636634829 0 -0.29170910681836448 0.3316805874579164 0 -0.29169578744288521 0.31398791816734961 0 -0.27043365276421599 0.32499279731959319 0 -0.27491611994182802 0.30516871221215541 0 -0.29169578744288521 0.31398791816734961 0 -0.27043365276421599 0.32499279731959319 0 -0.27043365276421599 0.32499279731959319 0 -0.26243222306204511 0.35090504016953772 0 -0.28469812293370489 0.34762543636634829 0 -0.27043365276421599 0.32499279731959319 0 -0.28469812293370489 0.34762543636634829 0 -0.27043365276421599 0.32499279731959319 0 -0.25002058798003007 0.3320526588471332 0 -0.26243222306204511 0.35090504016953772 0 -0.25616918259472732 0.30236015827283808 0 -0.27043365276421599 0.32499279731959319 0 -0.25616918259472732 0.30236015827283808 0 -0.27043365276421599 0.32499279731959319 0 -0.25002058798003007 0.3320526588471332 0 -0.25717133997193298 0.37426095615225607 0 -0.26243222306204511 0.35090504016953772 0 -0.27169383631612543 0.36953364855257259 0 -0.25717133997193298 0.37426095615225607 0 -0.26243222306204511 0.35090504016953772 0 -0.24481421723968019 0.36490975255658048 0 -0.27524778858216448 0.35766291394235578 0 -0.28324842690769031 0.36508823660180101 0 -0.28469812293370489 0.34762543636634829 0 -0.26243222306204511 0.35090504016953772 0 -0.27524778858216448 0.35766291394235578 0 -0.27169383631612543 0.36953364855257259 0 -0.26243222306204511 0.35090504016953772 0 -0.27524778858216448 0.35766291394235578 0 -0.28469812293370489 0.34762543636634829 0 -0.27524778858216448 0.35766291394235578 0 -0.27169383631612543 0.36953364855257259 0 -0.28324842690769031 0.36508823660180101 0 -0.27169383631612543 0.36953364855257259 0 -0.28324842690769031 0.36508823660180101 0 -0.28209338532393202 0.38222600668133688 0 -0.28324842690769031 0.36508823660180101 0 -0.28469812293370489 0.34762543636634829 0 -0.29896259310319367 0.37025807541310352 0 -0.28324842690769031 0.36508823660180101 0 -0.29896259310319367 0.37025807541310352 0 -0.28209338532393202 0.38222600668133688 0 -0.28469812293370489 0.34762543636634829 0 -0.29896259310319367 0.37025807541310352 0 -0.28469812293370489 0.34762543636634829 0 -0.30097258616365841 0.34441487088432199 0 -0.29896259310319367 0.37025807541310352 0 -0.30097258616365841 0.34441487088432199 0 -0.30971140611047582 0.35873879640362499 0 -0.29896259310319367 0.37025807541310352 0 -0.30097258616365841 0.34441487088432199 0 -0.29896259310319367 0.37025807541310352 0 -0.30097258616365841 0.34441487088432199 0 -0.30971140611047582 0.35873879640362499 0 -0.31556783578130437 0.34561409599239279 0 -0.30971140611047582 0.35873879640362499 0 -0.29896259310319367 0.37025807541310352 0 -0.31229554397435733 0.37005867265250031 0 -0.29896259310319367 0.37025807541310352 0 -0.31229554397435733 0.37005867265250031 0 -0.30732872976294823 0.38353215772995369 0 -0.31229554397435733 0.37005867265250031 0 -0.32118050234516199 0.36201264788746418 0 -0.32091897818789411 0.37757395005697603 0 -0.30971140611047582 0.35873879640362499 0 -0.31229554397435733 0.37005867265250031 0 -0.32118050234516199 0.36201264788746418 0 -0.32118050234516199 0.36201264788746418 0 -0.33508210951592582 0.36870163953731322 0 -0.32091897818789411 0.37757395005697603 0 -0.33508210951592582 0.36870163953731322 0 -0.35209549523865291 0.37190500391828912 0 -0.33393211710626841 0.38433234248782061 0 -0.32118050234516199 0.36201264788746418 0 -0.33508210951592582 0.36870163953731322 0 -0.33321476088078839 0.35466849371962073 0 -0.33508210951592582 0.36870163953731322 0 -0.33321476088078839 0.35466849371962073 0 -0.34577529297467657 0.36353966338233001 0 -0.33321476088078839 0.35466849371962073 0 -0.34577529297467657 0.36353966338233001 0 -0.34447532111727192 0.34884924989517158 0 -0.33321476088078839 0.35466849371962073 0 -0.33003563329740881 0.33925758124412497 0 -0.34447532111727192 0.34884924989517158 0 -0.32118050234516199 0.36201264788746418 0 -0.33321476088078839 0.35466849371962073 0 -0.31556783578130437 0.34561409599239279 0 -0.30971140611047582 0.35873879640362499 0 -0.32118050234516199 0.36201264788746418 0 -0.31556783578130437 0.34561409599239279 0 -0.33321476088078839 0.35466849371962073 0 -0.31556783578130437 0.34561409599239279 0 -0.33003563329740881 0.33925758124412497 0 -0.31074538478735791 0.32738191455196902 0 -0.33257481532433891 0.31836647764434117 0 -0.33003563329740881 0.33925758124412497 0 -0.31074538478735791 0.32738191455196902 0 -0.31556783578130437 0.34561409599239279 0 -0.33003563329740881 0.33925758124412497 0 -0.31376474629655843 0.30225304786416751 0 -0.31074538478735791 0.32738191455196902 0 -0.33257481532433891 0.31836647764434117 0 -0.33790089425573833 0.30106400074382289 0 -0.33257481532433891 0.31836647764434117 0 -0.35615310428423591 0.31878714957900162 0 -0.33257481532433891 0.31836647764434117 0 -0.33003563329740881 0.33925758124412497 0 -0.34490357793898208 0.33379293979876401 0 -0.33003563329740881 0.33925758124412497 0 -0.34490357793898208 0.33379293979876401 0 -0.34447532111727192 0.34884924989517158 0 -0.34490357793898208 0.33379293979876401 0 -0.34447532111727192 0.34884924989517158 0 -0.35750778107934472 0.34402647380388779 0 -0.35615310428423591 0.31878714957900162 0 -0.35750778107934472 0.34402647380388779 0 -0.34490357793898208 0.33379293979876401 0 -0.35615310428423591 0.31878714957900162 0 -0.35750778107934472 0.34402647380388779 0 -0.33257481532433891 0.31836647764434117 0 -0.34490357793898208 0.33379293979876401 0 -0.35615310428423591 0.31878714957900162 0 -0.3809584867257152 0.31995934924364311 0 -0.36990774782730562 0.30465198401604282 0 -0.35615310428423591 0.31878714957900162 0 -0.37563375498023588 0.33893957100260502 0 -0.3809584867257152 0.31995934924364311 0 -0.35615310428423591 0.31878714957900162 0 -0.37563375498023588 0.33893957100260502 0 -0.35615310428423591 0.31878714957900162 0 -0.35750778107934472 0.34402647380388779 0 -0.37563375498023588 0.33893957100260502 0 -0.37302608715873109 0.35758434449273291 0 -0.35750778107934472 0.34402647380388779 0 -0.37302608715873109 0.35758434449273291 0 -0.35750778107934472 0.34402647380388779 0 -0.35541488053243109 0.35781034742230239 0 -0.37302608715873109 0.35758434449273291 0 -0.35209549523865291 0.37190500391828912 0 -0.35541488053243109 0.35781034742230239 0 -0.37302608715873109 0.35758434449273291 0 -0.37126589511329411 0.37377724987418581 0 -0.35209549523865291 0.37190500391828912 0 -0.37302608715873109 0.35758434449273291 0 -0.35209549523865291 0.37190500391828912 0 -0.33508210951592582 0.36870163953731322 0 -0.35209549523865291 0.37190500391828912 0 -0.34577529297467657 0.36353966338233001 0 -0.35209549523865291 0.37190500391828912 0 -0.34577529297467657 0.36353966338233001 0 -0.35209549523865291 0.37190500391828912 0 -0.34577529297467657 0.36353966338233001 0 -0.35541488053243109 0.35781034742230239 0 -0.34577529297467657 0.36353966338233001 0 -0.34447532111727192 0.34884924989517158 0 -0.35541488053243109 0.35781034742230239 0 -0.34447532111727192 0.34884924989517158 0 -0.35750778107934472 0.34402647380388779 0 -0.35541488053243109 0.35781034742230239 0 -0.35026082972236822 0.40458613969335172 0 -0.34862050747833878 0.38874946299455448 0 -0.33552343261133938 0.40009846525415782 0 -0.35026082972236822 0.40458613969335172 0 -0.34862050747833878 0.38874946299455448 0 -0.36671596826568531 0.39125647884893172 0 -0.35209549523865291 0.37190500391828912 0 -0.34862050747833878 0.38874946299455448 0 -0.33393211710626841 0.38433234248782061 0 -0.35209549523865291 0.37190500391828912 0 -0.34862050747833878 0.38874946299455448 0 -0.36671596826568531 0.39125647884893172 0 -0.35209549523865291 0.37190500391828912 0 -0.36671596826568531 0.39125647884893172 0 -0.37126589511329411 0.37377724987418581 0 -0.35209549523865291 0.37190500391828912 0 -0.36671596826568531 0.39125647884893172 0 -0.38133644129271771 0.41060795377957438 0 -0.36671596826568531 0.39125647884893172 0 -0.35026082972236822 0.40458613969335172 0 -0.36671596826568531 0.39125647884893172 0 -0.36333227490387549 0.41594406858258898 0 -0.38133644129271771 0.41060795377957438 0 -0.36671596826568531 0.39125647884893172 0 -0.36333227490387549 0.41594406858258898 0 -0.38133644129271771 0.41060795377957438 0 -0.36333227490387549 0.41594406858258898 0 -0.37388199021079188 0.43349662060099697 0 -0.36333227490387549 0.41594406858258898 0 -0.37388199021079188 0.43349662060099697 0 -0.35906691460358248 0.43302642702751659 0 -0.36333227490387549 0.41594406858258898 0 -0.35906691460358248 0.43302642702751659 0 -0.35160825139420282 0.41805423523185442 0 -0.35906691460358248 0.43302642702751659 0 -0.34586475289765162 0.42738691828786168 0 -0.34964894770477822 0.45067928662270329 0 -0.35906691460358248 0.43302642702751659 0 -0.34586475289765162 0.42738691828786168 0 -0.35160825139420282 0.41805423523185442 0 -0.35026082972236822 0.40458613969335172 0 -0.36333227490387549 0.41594406858258898 0 -0.35160825139420282 0.41805423523185442 0 -0.34586475289765162 0.42738691828786168 0 -0.35160825139420282 0.41805423523185442 0 -0.33955069738530769 0.4144169953609998 0 -0.35026082972236822 0.40458613969335172 0 -0.35160825139420282 0.41805423523185442 0 -0.33955069738530769 0.4144169953609998 0 -0.35026082972236822 0.40458613969335172 0 -0.33955069738530769 0.4144169953609998 0 -0.33552343261133938 0.40009846525415782 0 -0.33446828868340289 0.42659298183602629 0 -0.325081577553051 0.41169961094141633 0 -0.33955069738530769 0.4144169953609998 0 -0.33446828868340289 0.42659298183602629 0 -0.325081577553051 0.41169961094141633 0 -0.33955069738530769 0.4144169953609998 0 -0.325081577553051 0.41169961094141633 0 -0.33552343261133938 0.40009846525415782 0 -0.33446828868340289 0.42659298183602629 0 -0.32353211865850812 0.43458959004027897 0 -0.33054677899099522 0.44587833955602901 0 -0.34586475289765162 0.42738691828786168 0 -0.33446828868340289 0.42659298183602629 0 -0.34964894770477822 0.45067928662270329 0 -0.34586475289765162 0.42738691828786168 0 -0.33446828868340289 0.42659298183602629 0 -0.34586475289765162 0.42738691828786168 0 -0.33955069738530769 0.4144169953609998 0 -0.33446828868340289 0.42659298183602629 0 -0.33446828868340289 0.42659298183602629 0 -0.31463215430362917 0.42521109444957261 0 -0.33446828868340289 0.42659298183602629 0 -0.31463215430362917 0.42521109444957261 0 -0.32353211865850812 0.43458959004027897 0 -0.31463215430362917 0.42521109444957261 0 -0.32353211865850812 0.43458959004027897 0 -0.30632691414132052 0.4383163993433048 0 -0.325081577553051 0.41169961094141633 0 -0.31576873897388319 0.39675968105735149 0 -0.30808160252936673 0.4121977433748496 0 -0.31463215430362917 0.42521109444957261 0 -0.325081577553051 0.41169961094141633 0 -0.30808160252936673 0.4121977433748496 0 -0.33446828868340289 0.42659298183602629 0 -0.31463215430362917 0.42521109444957261 0 -0.325081577553051 0.41169961094141633 0 -0.325081577553051 0.41169961094141633 0 -0.31576873897388319 0.39675968105735149 0 -0.33552343261133938 0.40009846525415782 0 -0.325081577553051 0.41169961094141633 0 -0.31576873897388319 0.39675968105735149 0 -0.34862050747833878 0.38874946299455448 0 -0.33552343261133938 0.40009846525415782 0 -0.33393211710626841 0.38433234248782061 0 -0.31576873897388319 0.39675968105735149 0 -0.33552343261133938 0.40009846525415782 0 -0.33393211710626841 0.38433234248782061 0 -0.35209549523865291 0.37190500391828912 0 -0.33393211710626841 0.38433234248782061 0 -0.33508210951592582 0.36870163953731322 0 -0.33393211710626841 0.38433234248782061 0 -0.32091897818789411 0.37757395005697603 0 -0.31576873897388319 0.39675968105735149 0 -0.32091897818789411 0.37757395005697603 0 -0.30732872976294823 0.38353215772995369 0 -0.31576873897388319 0.39675968105735149 0 -0.33393211710626841 0.38433234248782061 0 -0.31576873897388319 0.39675968105735149 0 -0.33393211710626841 0.38433234248782061 0 -0.32091897818789411 0.37757395005697603 0 -0.31229554397435733 0.37005867265250031 0 -0.32091897818789411 0.37757395005697603 0 -0.30732872976294823 0.38353215772995369 0 -0.29896259310319367 0.37025807541310352 0 -0.30732872976294823 0.38353215772995369 0 -0.29700674132229032 0.39540516601558717 0 -0.29896259310319367 0.37025807541310352 0 -0.29700674132229032 0.39540516601558717 0 -0.31576873897388319 0.39675968105735149 0 -0.30732872976294823 0.38353215772995369 0 -0.29896259310319367 0.37025807541310352 0 -0.30732872976294823 0.38353215772995369 0 -0.29700674132229032 0.39540516601558717 0 -0.30259284054109448 0.40478096048040529 0 -0.29641605771867308 0.41403951143914192 0 -0.31576873897388319 0.39675968105735149 0 -0.29700674132229032 0.39540516601558717 0 -0.30259284054109448 0.40478096048040529 0 -0.31576873897388319 0.39675968105735149 0 -0.30732872976294823 0.38353215772995369 0 -0.29700674132229032 0.39540516601558717 0 -0.31576873897388319 0.39675968105735149 0 -0.30259284054109448 0.40478096048040529 0 -0.30808160252936673 0.4121977433748496 0 -0.29700674132229032 0.39540516601558717 0 -0.28209338532393202 0.38222600668133688 0 -0.27839968129949771 0.4031848713431353 0 -0.29896259310319367 0.37025807541310352 0 -0.29700674132229032 0.39540516601558717 0 -0.28209338532393202 0.38222600668133688 0 -0.27169383631612543 0.36953364855257259 0 -0.28209338532393202 0.38222600668133688 0 -0.26324903299479457 0.38988604216182182 0 -0.27839968129949771 0.4031848713431353 0 -0.26324903299479457 0.38988604216182182 0 -0.26044543261494202 0.40722350202507612 0 -0.28209338532393202 0.38222600668133688 0 -0.27839968129949771 0.4031848713431353 0 -0.26324903299479457 0.38988604216182182 0 -0.26324903299479457 0.38988604216182182 0 -0.26044543261494202 0.40722350202507612 0 -0.24448809762487089 0.40050868906775772 0 -0.25717133997193298 0.37426095615225607 0 -0.26324903299479457 0.38988604216182182 0 -0.24074374520667241 0.38242687998337299 0 -0.25717133997193298 0.37426095615225607 0 -0.27169383631612543 0.36953364855257259 0 -0.26324903299479457 0.38988604216182182 0 -0.25382358621835049 0.43542260228310259 0 -0.27015352040741047 0.42211248350195679 0 -0.2459368307481366 0.42042542405070832 0 -0.27015352040741047 0.42211248350195679 0 -0.2459368307481366 0.42042542405070832 0 -0.26044543261494202 0.40722350202507612 0 -0.2459368307481366 0.42042542405070832 0 -0.24448809762487089 0.40050868906775772 0 -0.26044543261494202 0.40722350202507612 0 -0.27015352040741047 0.42211248350195679 0 -0.2459368307481366 0.42042542405070832 0 -0.27839968129949771 0.4031848713431353 0 -0.26044543261494202 0.40722350202507612 0 -0.27015352040741047 0.42211248350195679 0 -0.27839968129949771 0.4031848713431353 0 -0.27015352040741047 0.42211248350195679 0 -0.2950508895413867 0.42055225661807089 0 -0.25382358621835049 0.43542260228310259 0 -0.27015352040741047 0.42211248350195679 0 -0.27451598641054692 0.44016370142941202 0 -0.27015352040741047 0.42211248350195679 0 -0.28251112199335982 0.43211478794536817 0 -0.27451598641054692 0.44016370142941202 0 -0.28251112199335982 0.43211478794536817 0 -0.29479601992385501 0.42382920706312738 0 -0.29069111349206073 0.44135124015641658 0 -0.29479601992385501 0.42382920706312738 0 -0.29069111349206073 0.44135124015641658 0 -0.27015352040741047 0.42211248350195679 0 -0.28251112199335982 0.43211478794536817 0 -0.29479601992385501 0.42382920706312738 0 -0.27015352040741047 0.42211248350195679 0 -0.29479601992385501 0.42382920706312738 0 -0.27015352040741047 0.42211248350195679 0 -0.29479601992385501 0.42382920706312738 0 -0.2950508895413867 0.42055225661807089 0 -0.29479601992385501 0.42382920706312738 0 -0.2950508895413867 0.42055225661807089 0 -0.29700674132229032 0.39540516601558717 0 -0.2950508895413867 0.42055225661807089 0 -0.29641605771867308 0.41403951143914192 0 -0.29700674132229032 0.39540516601558717 0 -0.27839968129949771 0.4031848713431353 0 -0.2950508895413867 0.42055225661807089 0 -0.29700674132229032 0.39540516601558717 0 -0.2950508895413867 0.42055225661807089 0 -0.2950508895413867 0.42055225661807089 0 -0.29641605771867308 0.41403951143914192 0 -0.31463215430362917 0.42521109444957261 0 -0.2950508895413867 0.42055225661807089 0 -0.30808160252936673 0.4121977433748496 0 -0.30259284054109448 0.40478096048040529 0 -0.29641605771867308 0.41403951143914192 0 -0.30808160252936673 0.4121977433748496 0 -0.2950508895413867 0.42055225661807089 0 -0.29641605771867308 0.41403951143914192 0 -0.30808160252936673 0.4121977433748496 0 -0.31463215430362917 0.42521109444957261 0 -0.29479601992385501 0.42382920706312738 0 -0.2950508895413867 0.42055225661807089 0 -0.31463215430362917 0.42521109444957261 0 -0.29479601992385501 0.42382920706312738 0 -0.30632691414132052 0.4383163993433048 0 -0.29479601992385501 0.42382920706312738 0 -0.30632691414132052 0.4383163993433048 0 -0.29069111349206073 0.44135124015641658 0 -0.31463215430362917 0.42521109444957261 0 -0.29479601992385501 0.42382920706312738 0 -0.30632691414132052 0.4383163993433048 0 -0.3106014077299023 0.45452137664490028 0 -0.31918078655937843 0.44538174228416588 0 -0.30632691414132052 0.4383163993433048 0 -0.29796494780926752 0.45236230629258078 0 -0.3106014077299023 0.45452137664490028 0 -0.30632691414132052 0.4383163993433048 0 -0.29796494780926752 0.45236230629258078 0 -0.29069111349206073 0.44135124015641658 0 -0.3106014077299023 0.45452137664490028 0 -0.30192672627001949 0.46374394226332799 0 -0.31684143562260331 0.46858494716702748 0 -0.30192672627001949 0.46374394226332799 0 -0.31684143562260331 0.46858494716702748 0 -0.29796494780926752 0.45236230629258078 0 -0.3106014077299023 0.45452137664490028 0 -0.30192672627001949 0.46374394226332799 0 -0.28701201691743577 0.45890293735962839 0 -0.28352738281579593 0.4755269213664215 0 -0.30192672627001949 0.46374394226332799 0 -0.28701201691743577 0.45890293735962839 0 -0.30030559437380339 0.47420586516231239 0 -0.30192672627001949 0.46374394226332799 0 -0.28701201691743577 0.45890293735962839 0 -0.29796494780926752 0.45236230629258078 0 -0.30192672627001949 0.46374394226332799 0 -0.28701201691743577 0.45890293735962839 0 -0.28701201691743577 0.45890293735962839 0 -0.29069111349206073 0.44135124015641658 0 -0.28701201691743577 0.45890293735962839 0 -0.29069111349206073 0.44135124015641658 0 -0.27451598641054692 0.44016370142941202 0 -0.29796494780926752 0.45236230629258078 0 -0.28701201691743577 0.45890293735962839 0 -0.29069111349206073 0.44135124015641658 0 -0.28251112199335982 0.43211478794536817 0 -0.29069111349206073 0.44135124015641658 0 -0.27451598641054692 0.44016370142941202 0 -0.28701201691743577 0.45890293735962839 0 -0.27451598641054692 0.44016370142941202 0 -0.2629045594346644 0.45107815732999917 0 -0.28701201691743577 0.45890293735962839 0 -0.2629045594346644 0.45107815732999917 0 -0.28701201691743577 0.45890293735962839 0 -0.27023974482395158 0.46466667776273851 0 -0.28352738281579593 0.4755269213664215 0 -0.28701201691743577 0.45890293735962839 0 -0.27023974482395158 0.46466667776273851 0 -0.2629045594346644 0.45107815732999917 0 -0.27023974482395158 0.46466667776273851 0 -0.2629045594346644 0.45107815732999917 0 -0.2489120775907421 0.45611132706247232 0 -0.27023974482395158 0.46466667776273851 0 -0.24576275637927339 0.47027392540463459 0 -0.2489120775907421 0.45611132706247232 0 -0.25382358621835049 0.43542260228310259 0 -0.2629045594346644 0.45107815732999917 0 -0.2387971019518931 0.44325337730036979 0 -0.2629045594346644 0.45107815732999917 0 -0.2387971019518931 0.44325337730036979 0 -0.2629045594346644 0.45107815732999917 0 -0.2387971019518931 0.44325337730036979 0 -0.2489120775907421 0.45611132706247232 0 -0.25382358621835049 0.43542260228310259 0 -0.27451598641054692 0.44016370142941202 0 -0.2629045594346644 0.45107815732999917 0 -0.26267046183496029 0.5 0 -0.26550391405888962 0.48189416376756322 0 -0.24740973726578031 0.48747235416832729 0 -0.26550391405888962 0.48189416376756322 0 -0.24576275637927339 0.47027392540463459 0 -0.24740973726578031 0.48747235416832729 0 -0.27023974482395158 0.46466667776273851 0 -0.26550391405888962 0.48189416376756322 0 -0.24576275637927339 0.47027392540463459 0 -0.27023974482395158 0.46466667776273851 0 -0.26550391405888962 0.48189416376756322 0 -0.28352738281579593 0.4755269213664215 0 -0.26550391405888962 0.48189416376756322 0 -0.28004274871415491 0.49215090537321432 0 -0.28352738281579593 0.4755269213664215 0 -0.26267046183496029 0.5 0 -0.26550391405888962 0.48189416376756322 0 -0.28004274871415491 0.49215090537321432 0 -0.26267046183496029 0.5 0 -0.28004274871415491 0.49215090537321432 0 -0.28977137280097909 0.5 0 -0.28004274871415491 0.49215090537321432 0 -0.29422506909847679 0.48481709335143458 0 -0.28977137280097909 0.5 0 -0.29422506909847679 0.48481709335143458 0 -0.28977137280097909 0.5 0 -0.30059562840125281 0.49523014277448563 0 -0.29422506909847679 0.48481709335143458 0 -0.28352738281579593 0.4755269213664215 0 -0.30030559437380339 0.47420586516231239 0 -0.28004274871415491 0.49215090537321432 0 -0.29422506909847679 0.48481709335143458 0 -0.28352738281579593 0.4755269213664215 0 -0.28701201691743577 0.45890293735962839 0 -0.28352738281579593 0.4755269213664215 0 -0.30030559437380339 0.47420586516231239 0 -0.28004274871415491 0.49215090537321432 0 -0.28352738281579593 0.4755269213664215 0 -0.30192672627001949 0.46374394226332799 0 -0.30030559437380339 0.47420586516231239 0 -0.31684143562260331 0.46858494716702748 0 -0.30030559437380339 0.47420586516231239 0 -0.3087338265938282 0.48140676030859753 0 -0.31684143562260331 0.46858494716702748 0 -0.29422506909847679 0.48481709335143458 0 -0.30030559437380339 0.47420586516231239 0 -0.3087338265938282 0.48140676030859753 0 -0.28977137280097909 0.5 0 -0.30059562840125281 0.49523014277448563 0 -0.31687228376699761 0.5 0 -0.3087338265938282 0.48140676030859753 0 -0.30059562840125281 0.49523014277448563 0 -0.32200695450955369 0.48840862565278359 0 -0.30059562840125281 0.49523014277448563 0 -0.32200695450955369 0.48840862565278359 0 -0.29422506909847679 0.48481709335143458 0 -0.3087338265938282 0.48140676030859753 0 -0.30059562840125281 0.49523014277448563 0 -0.30059562840125281 0.49523014277448563 0 -0.31687228376699761 0.5 0 -0.32200695450955369 0.48840862565278359 0 -0.31687228376699761 0.5 0 -0.32200695450955369 0.48840862565278359 0 -0.33307541777069588 0.49179723018598798 0 -0.32200695450955369 0.48840862565278359 0 -0.34341828061785462 0.48158710853108161 0 -0.32200695450955369 0.48840862565278359 0 -0.33307541777069588 0.49179723018598798 0 -0.34341828061785462 0.48158710853108161 0 -0.33307541777069588 0.49179723018598798 0 -0.34341828061785462 0.48158710853108161 0 -0.34397319473301619 0.5 0 -0.31687228376699761 0.5 0 -0.33307541777069588 0.49179723018598798 0 -0.34397319473301619 0.5 0 -0.32200695450955369 0.48840862565278359 0 -0.34341828061785462 0.48158710853108161 0 -0.32987443399239552 0.47516769423785971 0 -0.34341828061785462 0.48158710853108161 0 -0.32987443399239552 0.47516769423785971 0 -0.34602126269748001 0.46829680282094799 0 -0.32987443399239552 0.47516769423785971 0 -0.31870391104731738 0.47862303310617538 0 -0.31684143562260331 0.46858494716702748 0 -0.32200695450955369 0.48840862565278359 0 -0.32987443399239552 0.47516769423785971 0 -0.31870391104731738 0.47862303310617538 0 -0.3087338265938282 0.48140676030859753 0 -0.32200695450955369 0.48840862565278359 0 -0.31870391104731738 0.47862303310617538 0 -0.3087338265938282 0.48140676030859753 0 -0.31870391104731738 0.47862303310617538 0 -0.31684143562260331 0.46858494716702748 0 -0.31684143562260331 0.46858494716702748 0 -0.32297313966047753 0.4563916054492167 0 -0.33347739267942988 0.46163483110378051 0 -0.32987443399239552 0.47516769423785971 0 -0.31684143562260331 0.46858494716702748 0 -0.33347739267942988 0.46163483110378051 0 -0.3106014077299023 0.45452137664490028 0 -0.31684143562260331 0.46858494716702748 0 -0.32297313966047753 0.4563916054492167 0 -0.32353211865850812 0.43458959004027897 0 -0.30632691414132052 0.4383163993433048 0 -0.31918078655937843 0.44538174228416588 0 -0.3106014077299023 0.45452137664490028 0 -0.32297313966047753 0.4563916054492167 0 -0.31918078655937843 0.44538174228416588 0 -0.32297313966047753 0.4563916054492167 0 -0.31918078655937843 0.44538174228416588 0 -0.33054677899099522 0.44587833955602901 0 -0.32353211865850812 0.43458959004027897 0 -0.31918078655937843 0.44538174228416588 0 -0.33054677899099522 0.44587833955602901 0 -0.33054677899099522 0.44587833955602901 0 -0.33347739267942988 0.46163483110378051 0 -0.34964894770477822 0.45067928662270329 0 -0.33446828868340289 0.42659298183602629 0 -0.34964894770477822 0.45067928662270329 0 -0.33446828868340289 0.42659298183602629 0 -0.33054677899099522 0.44587833955602901 0 -0.34964894770477822 0.45067928662270329 0 -0.32297313966047753 0.4563916054492167 0 -0.33054677899099522 0.44587833955602901 0 -0.33347739267942988 0.46163483110378051 0 -0.33347739267942988 0.46163483110378051 0 -0.34602126269748001 0.46829680282094799 0 -0.34964894770477822 0.45067928662270329 0 -0.32987443399239552 0.47516769423785971 0 -0.33347739267942988 0.46163483110378051 0 -0.34602126269748001 0.46829680282094799 0 -0.34964894770477822 0.45067928662270329 0 -0.36482960672615539 0.47476559140937902 0 -0.34602126269748001 0.46829680282094799 0 -0.34964894770477822 0.45067928662270329 0 -0.36482960672615539 0.47476559140937902 0 -0.37388199021079188 0.43349662060099697 0 -0.35906691460358248 0.43302642702751659 0 -0.37006527051019528 0.45259743283909409 0 -0.35906691460358248 0.43302642702751659 0 -0.34964894770477822 0.45067928662270329 0 -0.37006527051019528 0.45259743283909409 0 -0.34964894770477822 0.45067928662270329 0 -0.37006527051019528 0.45259743283909409 0 -0.36482960672615539 0.47476559140937902 0 -0.39197467039505129 0.46611734068214988 0 -0.36580706476392733 0.47631646954851292 0 -0.36482960672615539 0.47476559140937902 0 -0.38413367002432852 0.48466820949397371 0 -0.36580706476392733 0.47631646954851292 0 -0.36922226322768142 0.48798439540463678 0 -0.36580706476392733 0.47631646954851292 0 -0.36482960672615539 0.47476559140937902 0 -0.36580706476392733 0.47631646954851292 0 -0.36011621247549508 0.48220740160321018 0 -0.36922226322768142 0.48798439540463678 0 -0.36580706476392733 0.47631646954851292 0 -0.36482960672615539 0.47476559140937902 0 -0.36011621247549508 0.48220740160321018 0 -0.38413367002432852 0.48466820949397371 0 -0.36922226322768142 0.48798439540463678 0 -0.37107410569903487 0.5 0 -0.36922226322768142 0.48798439540463678 0 -0.37107410569903487 0.5 0 -0.35730384704185653 0.49038344312244059 0 -0.36011621247549508 0.48220740160321018 0 -0.36922226322768142 0.48798439540463678 0 -0.35730384704185653 0.49038344312244059 0 -0.34341828061785462 0.48158710853108161 0 -0.36011621247549508 0.48220740160321018 0 -0.35730384704185653 0.49038344312244059 0 -0.37107410569903487 0.5 0 -0.35730384704185653 0.49038344312244059 0 -0.34397319473301619 0.5 0 -0.34341828061785462 0.48158710853108161 0 -0.35730384704185653 0.49038344312244059 0 -0.34397319473301619 0.5 0 -0.34341828061785462 0.48158710853108161 0 -0.36482960672615539 0.47476559140937902 0 -0.36011621247549508 0.48220740160321018 0 -0.34341828061785462 0.48158710853108161 0 -0.34602126269748001 0.46829680282094799 0 -0.36482960672615539 0.47476559140937902 0 -0.34341828061785462 0.48158710853108161 0 -0.36482960672615539 0.47476559140937902 0 -0.14108182703901029 0.47856052106912539 0 -0.15218575011213231 0.48928026053456308 0 -0.15838645381207381 0.47784012782054008 0 -0.14108182703901029 0.47856052106912539 0 -0.15141758041572639 0.46790752156545012 0 -0.15838645381207381 0.47784012782054008 0 -0.14108182703901029 0.47856052106912539 0 -0.15218575011213231 0.48928026053456308 0 -0.14103512141071931 0.48261116844817892 0 -0.14108182703901029 0.47856052106912539 0 -0.15218575011213231 0.48928026053456308 0 -0.14103512141071931 0.48261116844817892 0 -0.14108182703901029 0.47856052106912539 0 -0.15218575011213231 0.48928026053456308 0 -0.14247376316698551 0.5 0 -0.1632896731852537 0.50000000000000155 0 -0.15218575011213231 0.48928026053456308 0 -0.14247376316698551 0.5 0 -0.14194011071192181 0.49099964735320722 0 -0.14103512141071931 0.48261116844817892 0 -0.15218575011213231 0.48928026053456308 0 -0.14194011071192181 0.49099964735320722 0 -0.14247376316698551 0.5 0 -0.13206580815784999 0.49210716043008701 0 -0.1216578531487173 0.50000000000000155 0 -0.13206580815784999 0.49210716043008701 0 -0.1215246548466888 0.48036061179670092 0 -0.1216578531487173 0.50000000000000155 0 -0.14103512141071931 0.48261116844817892 0 -0.13206580815784999 0.49210716043008701 0 -0.1215246548466888 0.48036061179670092 0 -0.14103512141071931 0.48261116844817892 0 -0.14194011071192181 0.49099964735320722 0 -0.13206580815784999 0.49210716043008701 0 -0.14247376316698551 0.5 0 -0.14194011071192181 0.49099964735320722 0 -0.13206580815784999 0.49210716043008701 0 -0.14103512141071931 0.48261116844817892 0 -0.14108182703901029 0.47856052106912539 0 -0.1215246548466888 0.48036061179670092 0 -0.14108182703901029 0.47856052106912539 0 -0.11987972175203609 0.45809198546251739 0 -0.1215246548466888 0.48036061179670092 0 -0.14108182703901029 0.47856052106912539 0 -0.14131813266979709 0.45806640035822538 0 -0.11987972175203609 0.45809198546251739 0 -0.14108182703901029 0.47856052106912539 0 -0.11987972175203609 0.45809198546251739 0 -0.12509104342100061 0.44188941827772182 0 -0.14131813266979709 0.45806640035822538 0 -0.11987972175203609 0.45809198546251739 0 -0.12509104342100061 0.44188941827772182 0 -0.14155443830058789 0.43757227964732542 0 -0.14131813266979709 0.45806640035822538 0 -0.14155443830058789 0.43757227964732542 0 -0.1590732886589914 0.44456462379371309 0 -0.14157918638415079 0.43542594817740249 0 -0.1590732886589914 0.44456462379371309 0 -0.1665175895587078 0.4467511244817659 0 -0.14157918638415079 0.43542594817740249 0 -0.1665175895587078 0.4467511244817659 0 -0.15486041744653839 0.43233395996053492 0 -0.14157918638415079 0.43542594817740249 0 -0.14155443830058789 0.43757227964732542 0 -0.14890115189103559 0.44846787442591368 0 -0.1590732886589914 0.44456462379371309 0 -0.1665175895587078 0.4467511244817659 0 -0.14157918638415079 0.43542594817740249 0 -0.14155443830058789 0.43757227964732542 0 -0.14890115189103559 0.44846787442591368 0 -0.14131813266979709 0.45806640035822538 0 -0.14155443830058789 0.43757227964732542 0 -0.1590732886589914 0.44456462379371309 0 -0.14155443830058789 0.43757227964732542 0 -0.14131813266979709 0.45806640035822538 0 -0.14890115189103559 0.44846787442591368 0 -0.15489186999573309 0.45643812449532861 0 -0.1590732886589914 0.44456462379371309 0 -0.14108182703901029 0.47856052106912539 0 -0.14131813266979709 0.45806640035822538 0 -0.14108182703901029 0.47856052106912539 0 -0.14131813266979709 0.45806640035822538 0 -0.15141758041572639 0.46790752156545012 0 -0.14890115189103559 0.44846787442591368 0 -0.14131813266979709 0.45806640035822538 0 -0.15489186999573309 0.45643812449532861 0 -0.14131813266979709 0.45806640035822538 0 -0.15489186999573309 0.45643812449532861 0 -0.15141758041572639 0.46790752156545012 0 -0.15489186999573309 0.45643812449532861 0 -0.15141758041572639 0.46790752156545012 0 -0.1637083375647361 0.46571847743475431 0 -0.15489186999573309 0.45643812449532861 0 -0.1637083375647361 0.46571847743475431 0 -0.16576602081972819 0.45650349861697093 0 -0.1637083375647361 0.46571847743475431 0 -0.1745644688617857 0.46423929942095737 0 -0.17520348646433229 0.47613194070040032 0 -0.1637083375647361 0.46571847743475431 0 -0.16576602081972819 0.45650349861697093 0 -0.1745644688617857 0.46423929942095737 0 -0.1590732886589914 0.44456462379371309 0 -0.17659213901739471 0.45155696794010108 0 -0.1590732886589914 0.44456462379371309 0 -0.1665175895587078 0.4467511244817659 0 -0.17659213901739471 0.45155696794010108 0 -0.16576602081972819 0.45650349861697093 0 -0.1590732886589914 0.44456462379371309 0 -0.17659213901739471 0.45155696794010108 0 -0.1665175895587078 0.4467511244817659 0 -0.1659354897241099 0.43449929542802312 0 -0.15486041744653839 0.43233395996053492 0 -0.15489186999573309 0.45643812449532861 0 -0.16576602081972819 0.45650349861697093 0 -0.1590732886589914 0.44456462379371309 0 -0.1665175895587078 0.4467511244817659 0 -0.1740586998674569 0.43899754936367941 0 -0.1659354897241099 0.43449929542802312 0 -0.1740586998674569 0.43899754936367941 0 -0.17659213901739471 0.45155696794010108 0 -0.1868590329817707 0.43357197228301869 0 -0.1665175895587078 0.4467511244817659 0 -0.1740586998674569 0.43899754936367941 0 -0.17659213901739471 0.45155696794010108 0 -0.1745644688617857 0.46423929942095737 0 -0.18738907724301901 0.4651958722260251 0 -0.17520348646433229 0.47613194070040032 0 -0.17659213901739471 0.45155696794010108 0 -0.1745644688617857 0.46423929942095737 0 -0.18738907724301901 0.4651958722260251 0 -0.16576602081972819 0.45650349861697093 0 -0.17659213901739471 0.45155696794010108 0 -0.1745644688617857 0.46423929942095737 0 -0.17520348646433229 0.47613194070040032 0 -0.17737148462513211 0.4885994124146576 0 -0.1949767913905355 0.48049775525153071 0 -0.18738907724301901 0.4651958722260251 0 -0.17520348646433229 0.47613194070040032 0 -0.1949767913905355 0.48049775525153071 0 -0.17520348646433229 0.47613194070040032 0 -0.1660045063390565 0.48636736612135473 0 -0.17737148462513211 0.4885994124146576 0 -0.17520348646433229 0.47613194070040032 0 -0.15838645381207381 0.47784012782054008 0 -0.1660045063390565 0.48636736612135473 0 -0.1637083375647361 0.46571847743475431 0 -0.17520348646433229 0.47613194070040032 0 -0.15838645381207381 0.47784012782054008 0 -0.15141758041572639 0.46790752156545012 0 -0.1637083375647361 0.46571847743475431 0 -0.15838645381207381 0.47784012782054008 0 -0.15218575011213231 0.48928026053456308 0 -0.1632896731852537 0.50000000000000155 0 -0.15218575011213231 0.48928026053456308 0 -0.15838645381207381 0.47784012782054008 0 -0.1660045063390565 0.48636736612135473 0 -0.15218575011213231 0.48928026053456308 0 -0.1632896731852537 0.50000000000000155 0 -0.1660045063390565 0.48636736612135473 0 -0.1632896731852537 0.50000000000000155 0 -0.1660045063390565 0.48636736612135473 0 -0.17737148462513211 0.4885994124146576 0 -0.1632896731852537 0.50000000000000155 0 -0.18738296574648311 0.5 0 -0.17737148462513211 0.4885994124146576 0 -0.18738296574648311 0.5 0 -0.17737148462513211 0.4885994124146576 0 -0.1949767913905355 0.48049775525153071 0 -0.18738296574648311 0.5 0 -0.1949767913905355 0.48049775525153071 0 -0.21147625830771241 0.5 0 -0.1949767913905355 0.48049775525153071 0 -0.2193327115732171 0.47785732409434201 0 -0.2030958722774939 0.45571464818868052 0 -0.1949767913905355 0.48049775525153071 0 -0.21147625830771241 0.5 0 -0.2193327115732171 0.47785732409434201 0 -0.21147625830771241 0.5 0 -0.2193327115732171 0.47785732409434201 0 -0.23556955086894171 0.50000000000000278 0 -0.2193327115732171 0.47785732409434201 0 -0.24740973726578031 0.48747235416832729 0 -0.23556955086894171 0.50000000000000278 0 -0.2193327115732171 0.47785732409434201 0 -0.23556955086894171 0.50000000000000278 0 -0.2193327115732171 0.47785732409434201 0 -0.24576275637927339 0.47027392540463459 0 -0.24740973726578031 0.48747235416832729 0 -0.26267046183496029 0.5 0 -0.24740973726578031 0.48747235416832729 0 -0.23556955086894171 0.50000000000000278 0 -0.2387971019518931 0.44325337730036979 0 -0.2489120775907421 0.45611132706247232 0 -0.22784244863720851 0.45419089524536999 0 -0.24576275637927339 0.47027392540463459 0 -0.2489120775907421 0.45611132706247232 0 -0.22784244863720851 0.45419089524536999 0 -0.2193327115732171 0.47785732409434201 0 -0.24576275637927339 0.47027392540463459 0 -0.22784244863720851 0.45419089524536999 0 -0.2387971019518931 0.44325337730036979 0 -0.22784244863720851 0.45419089524536999 0 -0.22695118484456259 0.43760496865691229 0 -0.22784244863720851 0.45419089524536999 0 -0.22695118484456259 0.43760496865691229 0 -0.21077827595677989 0.43843038173964088 0 -0.2387971019518931 0.44325337730036979 0 -0.22695118484456259 0.43760496865691229 0 -0.23717077667227929 0.4322920750106754 0 -0.22784244863720851 0.45419089524536999 0 -0.21077827595677989 0.43843038173964088 0 -0.2030958722774939 0.45571464818868052 0 -0.2193327115732171 0.47785732409434201 0 -0.22784244863720851 0.45419089524536999 0 -0.2030958722774939 0.45571464818868052 0 -0.2193327115732171 0.47785732409434201 0 -0.2030958722774939 0.45571464818868052 0 -0.18738907724301901 0.4651958722260251 0 -0.1949767913905355 0.48049775525153071 0 -0.2030958722774939 0.45571464818868052 0 -0.17659213901739471 0.45155696794010108 0 -0.18738907724301901 0.4651958722260251 0 -0.2030958722774939 0.45571464818868052 0 -0.17659213901739471 0.45155696794010108 0 -0.2030958722774939 0.45571464818868052 0 -0.1868590329817707 0.43357197228301869 0 -0.21077827595677989 0.43843038173964088 0 -0.2030958722774939 0.45571464818868052 0 -0.1868590329817707 0.43357197228301869 0 -0.2030958722774939 0.45571464818868052 0 -0.1868590329817707 0.43357197228301869 0 -0.21077827595677989 0.43843038173964088 0 -0.20038953475864499 0.42285930103310698 0 -0.1868590329817707 0.43357197228301869 0 -0.20038953475864499 0.42285930103310698 0 -0.18865851951403981 0.41114723081592358 0 -0.1868590329817707 0.43357197228301869 0 -0.20038953475864499 0.42285930103310698 0 -0.18865851951403981 0.41114723081592358 0 -0.20316386533702549 0.40742415296633488 0 -0.20038953475864499 0.42285930103310698 0 -0.20316386533702549 0.40742415296633488 0 -0.22016732100465239 0.41985811398850509 0 -0.20316386533702549 0.40742415296633488 0 -0.22016732100465239 0.41985811398850509 0 -0.21769018938602511 0.40540249138439582 0 -0.20316386533702549 0.40742415296633488 0 -0.22016732100465239 0.41985811398850509 0 -0.21077827595677989 0.43843038173964088 0 -0.20038953475864499 0.42285930103310698 0 -0.22016732100465239 0.41985811398850509 0 -0.22695118484456259 0.43760496865691229 0 -0.22016732100465239 0.41985811398850509 0 -0.23717077667227929 0.4322920750106754 0 -0.22695118484456259 0.43760496865691229 0 -0.21077827595677989 0.43843038173964088 0 -0.22016732100465239 0.41985811398850509 0 -0.22016732100465239 0.41985811398850509 0 -0.23358788463652869 0.41983625247023992 0 -0.23717077667227929 0.4322920750106754 0 -0.22016732100465239 0.41985811398850509 0 -0.23717077667227929 0.4322920750106754 0 -0.22016732100465239 0.41985811398850509 0 -0.23115288141678619 0.40759276862782062 0 -0.21769018938602511 0.40540249138439582 0 -0.22016732100465239 0.41985811398850509 0 -0.23115288141678619 0.40759276862782062 0 -0.23358788463652869 0.41983625247023992 0 -0.23115288141678619 0.40759276862782062 0 -0.2459368307481366 0.42042542405070832 0 -0.24448809762487089 0.40050868906775772 0 -0.23115288141678619 0.40759276862782062 0 -0.23358788463652869 0.41983625247023992 0 -0.2459368307481366 0.42042542405070832 0 -0.25382358621835049 0.43542260228310259 0 -0.2459368307481366 0.42042542405070832 0 -0.23717077667227929 0.4322920750106754 0 -0.25382358621835049 0.43542260228310259 0 -0.2387971019518931 0.44325337730036979 0 -0.23717077667227929 0.4322920750106754 0 -0.23358788463652869 0.41983625247023992 0 -0.2459368307481366 0.42042542405070832 0 -0.23717077667227929 0.4322920750106754 0 -0.26324903299479457 0.38988604216182182 0 -0.24074374520667241 0.38242687998337299 0 -0.24448809762487089 0.40050868906775772 0 -0.24074374520667241 0.38242687998337299 0 -0.24448809762487089 0.40050868906775772 0 -0.22634736018434309 0.39356380059118778 0 -0.23115288141678619 0.40759276862782062 0 -0.24448809762487089 0.40050868906775772 0 -0.22634736018434309 0.39356380059118778 0 -0.23115288141678619 0.40759276862782062 0 -0.22634736018434309 0.39356380059118778 0 -0.21769018938602511 0.40540249138439582 0 -0.24074374520667241 0.38242687998337299 0 -0.22634736018434309 0.39356380059118778 0 -0.21798062289891881 0.38062313327343511 0 -0.24074374520667241 0.38242687998337299 0 -0.21798062289891881 0.38062313327343511 0 -0.22441740966967141 0.36662202833489849 0 -0.21798062289891881 0.38062313327343511 0 -0.2053182195646632 0.38898911660535768 0 -0.20402060209966261 0.36833430411321649 0 -0.22634736018434309 0.39356380059118778 0 -0.21798062289891881 0.38062313327343511 0 -0.2053182195646632 0.38898911660535768 0 -0.22634736018434309 0.39356380059118778 0 -0.2053182195646632 0.38898911660535768 0 -0.21769018938602511 0.40540249138439582 0 -0.20316386533702549 0.40742415296633488 0 -0.2053182195646632 0.38898911660535768 0 -0.21769018938602511 0.40540249138439582 0 -0.20316386533702549 0.40742415296633488 0 -0.2053182195646632 0.38898911660535768 0 -0.18616040966939809 0.39499019194416529 0 -0.20316386533702549 0.40742415296633488 0 -0.18616040966939809 0.39499019194416529 0 -0.18865851951403981 0.41114723081592358 0 -0.20316386533702549 0.40742415296633488 0 -0.18616040966939809 0.39499019194416529 0 -0.2053182195646632 0.38898911660535768 0 -0.1927326532436788 0.38193994064591369 0 -0.18616040966939809 0.39499019194416529 0 -0.2053182195646632 0.38898911660535768 0 -0.1927326532436788 0.38193994064591369 0 -0.20402060209966261 0.36833430411321649 0 -0.1927326532436788 0.38193994064591369 0 -0.18374665136976759 0.37937871402705908 0 -0.18616040966939809 0.39499019194416529 0 -0.1744309637910503 0.37769149803556362 0 -0.1642142843906749 0.3789418502636645 0 -0.1838985270783616 0.39091510453828221 0 -0.1642142843906749 0.3789418502636645 0 -0.18616040966939809 0.39499019194416529 0 -0.1838985270783616 0.39091510453828221 0 -0.1927326532436788 0.38193994064591369 0 -0.18374665136976759 0.37937871402705908 0 -0.18362379452965399 0.37004657989153639 0 -0.18374665136976759 0.37937871402705908 0 -0.1744309637910503 0.37769149803556362 0 -0.1838985270783616 0.39091510453828221 0 -0.1642142843906749 0.3789418502636645 0 -0.18616040966939809 0.39499019194416529 0 -0.18374665136976759 0.37937871402705908 0 -0.1744309637910503 0.37769149803556362 0 -0.18362379452965399 0.37004657989153639 0 -0.18374665136976759 0.37937871402705908 0 -0.18616040966939809 0.39499019194416529 0 -0.18374665136976759 0.37937871402705908 0 -0.1838985270783616 0.39091510453828221 0 -0.18374665136976759 0.37937871402705908 0 -0.18616040966939809 0.39499019194416529 0 -0.1838985270783616 0.39091510453828221 0 -0.1642142843906749 0.3789418502636645 0 -0.1639919076143399 0.3974747808383628 0 -0.1489802686125267 0.38257497248127392 0 -0.1642142843906749 0.3789418502636645 0 -0.1639919076143399 0.3974747808383628 0 -0.18616040966939809 0.39499019194416529 0 -0.1744309637910503 0.37769149803556362 0 -0.1642142843906749 0.3789418502636645 0 -0.15874130784498061 0.37213542046662212 0 -0.1639919076143399 0.3974747808383628 0 -0.17750104491285451 0.40432040146684922 0 -0.17119334285363949 0.41366940226894577 0 -0.18865851951403981 0.41114723081592358 0 -0.18616040966939809 0.39499019194416529 0 -0.18865851951403981 0.41114723081592358 0 -0.17750104491285451 0.40432040146684922 0 -0.18616040966939809 0.39499019194416529 0 -0.1639919076143399 0.3974747808383628 0 -0.17750104491285451 0.40432040146684922 0 -0.18616040966939809 0.39499019194416529 0 -0.18865851951403981 0.41114723081592358 0 -0.17750104491285451 0.40432040146684922 0 -0.17119334285363949 0.41366940226894577 0 -0.18865851951403981 0.41114723081592358 0 -0.17459283461559361 0.42601523789076512 0 -0.17119334285363949 0.41366940226894577 0 -0.18865851951403981 0.41114723081592358 0 -0.1868590329817707 0.43357197228301869 0 -0.17459283461559361 0.42601523789076512 0 -0.1740586998674569 0.43899754936367941 0 -0.1868590329817707 0.43357197228301869 0 -0.17459283461559361 0.42601523789076512 0 -0.1740586998674569 0.43899754936367941 0 -0.17459283461559361 0.42601523789076512 0 -0.1659354897241099 0.43449929542802312 0 -0.17459283461559361 0.42601523789076512 0 -0.1659354897241099 0.43449929542802312 0 -0.16085192275254509 0.42420597718500008 0 -0.1659354897241099 0.43449929542802312 0 -0.16085192275254509 0.42420597718500008 0 -0.15486041744653839 0.43233395996053492 0 -0.1639919076143399 0.3974747808383628 0 -0.17119334285363949 0.41366940226894577 0 -0.1558060921739825 0.41026488178479492 0 -0.17459283461559361 0.42601523789076512 0 -0.16085192275254509 0.42420597718500008 0 -0.17119334285363949 0.41366940226894577 0 -0.16085192275254509 0.42420597718500008 0 -0.17119334285363949 0.41366940226894577 0 -0.1558060921739825 0.41026488178479492 0 -0.1558060921739825 0.41026488178479492 0 -0.1418117271851779 0.41525834053060801 0 -0.14204426798620681 0.39509073288381358 0 -0.16085192275254509 0.42420597718500008 0 -0.1558060921739825 0.41026488178479492 0 -0.1418117271851779 0.41525834053060801 0 -0.1418117271851779 0.41525834053060801 0 -0.14157918638415079 0.43542594817740249 0 -0.16085192275254509 0.42420597718500008 0 -0.1418117271851779 0.41525834053060801 0 -0.15486041744653839 0.43233395996053492 0 -0.1418117271851779 0.41525834053060801 0 -0.15486041744653839 0.43233395996053492 0 -0.14157918638415079 0.43542594817740249 0 -0.14155443830058789 0.43757227964732542 0 -0.14157918638415079 0.43542594817740249 0 -0.14155443830058789 0.43757227964732542 0 -0.14157918638415079 0.43542594817740249 0 -0.12025274126089 0.42574105579372712 0 -0.14155443830058789 0.43757227964732542 0 -0.1161249595423428 0.42742254588607831 0 -0.14157918638415079 0.43542594817740249 0 -0.12025274126089 0.42574105579372712 0 -0.1418117271851779 0.41525834053060801 0 -0.14157918638415079 0.43542594817740249 0 -0.12025274126089 0.42574105579372712 0 -0.14155443830058789 0.43757227964732542 0 -0.12025274126089 0.42574105579372712 0 -0.1161249595423428 0.42742254588607831 0 -0.12509104342100061 0.44188941827772182 0 -0.14155443830058789 0.43757227964732542 0 -0.1161249595423428 0.42742254588607831 0 -0.1418117271851779 0.41525834053060801 0 -0.1277268958593005 0.40709158096490278 0 -0.12025274126089 0.42574105579372712 0 -0.1418117271851779 0.41525834053060801 0 -0.1277268958593005 0.40709158096490278 0 -0.14204426798620681 0.39509073288381358 0 -0.1277268958593005 0.40709158096490278 0 -0.14204426798620681 0.39509073288381358 0 -0.1224972888069677 0.39405447109156733 0 -0.13238272395945991 0.37847398983736519 0 -0.1224972888069677 0.39405447109156733 0 -0.13238272395945991 0.37847398983736519 0 -0.14204426798620681 0.39509073288381358 0 -0.1224972888069677 0.39405447109156733 0 -0.13238272395945991 0.37847398983736519 0 -0.1489802686125267 0.38257497248127392 0 -0.14204426798620681 0.39509073288381358 0 -0.1639919076143399 0.3974747808383628 0 -0.1558060921739825 0.41026488178479492 0 -0.14204426798620681 0.39509073288381358 0 -0.1639919076143399 0.3974747808383628 0 -0.1489802686125267 0.38257497248127392 0 -0.14204426798620681 0.39509073288381358 0 -0.1418117271851779 0.41525834053060801 0 -0.14204426798620681 0.39509073288381358 0 -0.15552397359905151 0.35856797270850038 0 -0.1422681591119519 0.36289350858316322 0 -0.15574239997404821 0.34165669361972989 0 -0.1422681591119519 0.36289350858316322 0 -0.15574239997404821 0.34165669361972989 0 -0.13774544015442541 0.3595862213862932 0 -0.1344905665345571 0.34689990383467079 0 -0.15574239997404821 0.34165669361972989 0 -0.1422681591119519 0.36289350858316322 0 -0.13774544015442541 0.3595862213862932 0 -0.15574239997404821 0.34165669361972989 0 -0.1642142843906749 0.3789418502636645 0 -0.1422681591119519 0.36289350858316322 0 -0.13238272395945991 0.37847398983736519 0 -0.1489802686125267 0.38257497248127392 0 -0.1422681591119519 0.36289350858316322 0 -0.1642142843906749 0.3789418502636645 0 -0.1422681591119519 0.36289350858316322 0 -0.15874130784498061 0.37213542046662212 0 -0.1642142843906749 0.3789418502636645 0 -0.1489802686125267 0.38257497248127392 0 -0.1422681591119519 0.36289350858316322 0 -0.15552397359905151 0.35856797270850038 0 -0.1422681591119519 0.36289350858316322 0 -0.15874130784498061 0.37213542046662212 0 -0.1422681591119519 0.36289350858316322 0 -0.13774544015442541 0.3595862213862932 0 -0.12881796099468981 0.36725667352730101 0 -0.13238272395945991 0.37847398983736519 0 -0.12881796099468981 0.36725667352730101 0 -0.114951385737499 0.37611001703161828 0 -0.1422681591119519 0.36289350858316322 0 -0.13774544015442541 0.3595862213862932 0 -0.13238272395945991 0.37847398983736519 0 -0.1422681591119519 0.36289350858316322 0 -0.13238272395945991 0.37847398983736519 0 -0.1422681591119519 0.36289350858316322 0 -0.12881796099468981 0.36725667352730101 0 -0.13774544015442541 0.3595862213862932 0 -0.12881796099468981 0.36725667352730101 0 -0.13085154266849261 0.35745626259395852 0 -0.12881796099468981 0.36725667352730101 0 -0.13085154266849261 0.35745626259395852 0 -0.1223522029902982 0.35608225162756879 0 -0.13085154266849261 0.35745626259395852 0 -0.1344905665345571 0.34689990383467079 0 -0.1223522029902982 0.35608225162756879 0 -0.1344905665345571 0.34689990383467079 0 -0.1215793900664241 0.33965542352680428 0 -0.1223522029902982 0.35608225162756879 0 -0.13774544015442541 0.3595862213862932 0 -0.13085154266849261 0.35745626259395852 0 -0.1344905665345571 0.34689990383467079 0 -0.13871584827508379 0.32805163350527011 0 -0.1213981112161233 0.32606083512094008 0 -0.1215793900664241 0.33965542352680428 0 -0.1344905665345571 0.34689990383467079 0 -0.13871584827508379 0.32805163350527011 0 -0.1215793900664241 0.33965542352680428 0 -0.13871584827508379 0.32805163350527011 0 -0.122665507124936 0.30739316482981133 0 -0.1213981112161233 0.32606083512094008 0 -0.13871584827508379 0.32805163350527011 0 -0.1433184724342442 0.30536206331891741 0 -0.122665507124936 0.30739316482981133 0 -0.13871584827508379 0.32805163350527011 0 -0.1692166408361446 0.32041987865629651 0 -0.1433184724342442 0.30536206331891741 0 -0.1344905665345571 0.34689990383467079 0 -0.13871584827508379 0.32805163350527011 0 -0.15574239997404821 0.34165669361972989 0 -0.13871584827508379 0.32805163350527011 0 -0.15574239997404821 0.34165669361972989 0 -0.1692166408361446 0.32041987865629651 0 -0.15574239997404821 0.34165669361972989 0 -0.16882657531294051 0.33343050367394028 0 -0.16727942812343491 0.34541839291957183 0 -0.16882657531294051 0.33343050367394028 0 -0.1740652221397718 0.31676208059972089 0 -0.17253785706623809 0.33742704001517521 0 -0.15574239997404821 0.34165669361972989 0 -0.1692166408361446 0.32041987865629651 0 -0.15574239997404821 0.34165669361972989 0 -0.16882657531294051 0.33343050367394028 0 -0.1692166408361446 0.32041987865629651 0 -0.17253785706623809 0.33742704001517521 0 -0.17248005025835489 0.34536210115862542 0 -0.16727942812343491 0.34541839291957183 0 -0.16882657531294051 0.33343050367394028 0 -0.17253785706623809 0.33742704001517521 0 -0.16727942812343491 0.34541839291957183 0 -0.16882657531294051 0.33343050367394028 0 -0.1692166408361446 0.32041987865629651 0 -0.1740652221397718 0.31676208059972089 0 -0.18300185264204469 0.32280423575908729 0 -0.1740652221397718 0.31676208059972089 0 -0.17819295282042311 0.34345902717413063 0 -0.18300185264204469 0.32280423575908729 0 -0.1740652221397718 0.31676208059972089 0 -0.18269088169824049 0.29918306369286279 0 -0.18300185264204469 0.32280423575908729 0 -0.17819295282042311 0.34345902717413063 0 -0.18331282358584941 0.34642540782531189 0 -0.1740652221397718 0.31676208059972089 0 -0.17819295282042311 0.34345902717413063 0 -0.1740652221397718 0.31676208059972089 0 -0.17253785706623809 0.33742704001517521 0 -0.17819295282042311 0.34345902717413063 0 -0.18300185264204469 0.32280423575908729 0 -0.18331282358584941 0.34642540782531189 0 -0.17253785706623809 0.33742704001517521 0 -0.17819295282042311 0.34345902717413063 0 -0.17248005025835489 0.34536210115862542 0 -0.17819295282042311 0.34345902717413063 0 -0.17266476351591969 0.35237730914779941 0 -0.18362379452965399 0.37004657989153639 0 -0.17819295282042311 0.34345902717413063 0 -0.18331282358584941 0.34642540782531189 0 -0.18362379452965399 0.37004657989153639 0 -0.17819295282042311 0.34345902717413063 0 -0.18362379452965399 0.37004657989153639 0 -0.18331282358584941 0.34642540782531189 0 -0.18362379452965399 0.37004657989153639 0 -0.19396205315185269 0.35773027909378607 0 -0.18331282358584941 0.34642540782531189 0 -0.18362379452965399 0.37004657989153639 0 -0.17819295282042311 0.34345902717413063 0 -0.17266476351591969 0.35237730914779941 0 -0.17248005025835489 0.34536210115862542 0 -0.17266476351591969 0.35237730914779941 0 -0.16727942812343491 0.34541839291957183 0 -0.16404697378228 0.35342911006401911 0 -0.15552397359905151 0.35856797270850038 0 -0.15574239997404821 0.34165669361972989 0 -0.16404697378228 0.35342911006401911 0 -0.17266476351591969 0.35237730914779941 0 -0.17248005025835489 0.34536210115862542 0 -0.16727942812343491 0.34541839291957183 0 -0.17266476351591969 0.35237730914779941 0 -0.1697011683865553 0.35883091161224728 0 -0.16404697378228 0.35342911006401911 0 -0.1697011683865553 0.35883091161224728 0 -0.16404697378228 0.35342911006401911 0 -0.1633701090946704 0.36372338037626623 0 -0.15552397359905151 0.35856797270850038 0 -0.16404697378228 0.35342911006401911 0 -0.1633701090946704 0.36372338037626623 0 -0.15574239997404821 0.34165669361972989 0 -0.16727942812343491 0.34541839291957183 0 -0.16404697378228 0.35342911006401911 0 -0.15874130784498061 0.37213542046662212 0 -0.18362379452965399 0.37004657989153639 0 -0.15874130784498061 0.37213542046662212 0 -0.1633701090946704 0.36372338037626623 0 -0.18362379452965399 0.37004657989153639 0 -0.15552397359905151 0.35856797270850038 0 -0.15874130784498061 0.37213542046662212 0 -0.1633701090946704 0.36372338037626623 0 -0.17266476351591969 0.35237730914779941 0 -0.1697011683865553 0.35883091161224728 0 -0.18362379452965399 0.37004657989153639 0 -0.1697011683865553 0.35883091161224728 0 -0.1633701090946704 0.36372338037626623 0 -0.18362379452965399 0.37004657989153639 0 -0.1744309637910503 0.37769149803556362 0 -0.15874130784498061 0.37213542046662212 0 -0.18362379452965399 0.37004657989153639 0 -0.18374665136976759 0.37937871402705908 0 -0.18362379452965399 0.37004657989153639 0 -0.1927326532436788 0.38193994064591369 0 -0.18362379452965399 0.37004657989153639 0 -0.20402060209966261 0.36833430411321649 0 -0.18362379452965399 0.37004657989153639 0 -0.20402060209966261 0.36833430411321649 0 -0.18362379452965399 0.37004657989153639 0 -0.19396205315185269 0.35773027909378607 0 -0.20402060209966261 0.36833430411321649 0 -0.19396205315185269 0.35773027909378607 0 -0.208999317395312 0.3446492875548014 0 -0.20402060209966261 0.36833430411321649 0 -0.18331282358584941 0.34642540782531189 0 -0.19396205315185269 0.35773027909378607 0 -0.208999317395312 0.3446492875548014 0 -0.208999317395312 0.3446492875548014 0 -0.20402060209966261 0.36833430411321649 0 -0.22441740966967141 0.36662202833489849 0 -0.20402060209966261 0.36833430411321649 0 -0.22441740966967141 0.36662202833489849 0 -0.21798062289891881 0.38062313327343511 0 -0.20402060209966261 0.36833430411321649 0 -0.22441740966967141 0.36662202833489849 0 -0.208999317395312 0.3446492875548014 0 -0.23479591562654789 0.35148704487088239 0 -0.2313273246892763 0.33558392302215828 0 -0.208999317395312 0.3446492875548014 0 -0.22441740966967141 0.36662202833489849 0 -0.23479591562654789 0.35148704487088239 0 -0.25002058798003007 0.3320526588471332 0 -0.26243222306204511 0.35090504016953772 0 -0.23479591562654789 0.35148704487088239 0 -0.26243222306204511 0.35090504016953772 0 -0.23479591562654789 0.35148704487088239 0 -0.24481421723968019 0.36490975255658048 0 -0.22441740966967141 0.36662202833489849 0 -0.24481421723968019 0.36490975255658048 0 -0.24074374520667241 0.38242687998337299 0 -0.22441740966967141 0.36662202833489849 0 -0.24481421723968019 0.36490975255658048 0 -0.22441740966967141 0.36662202833489849 0 -0.23479591562654789 0.35148704487088239 0 -0.24481421723968019 0.36490975255658048 0 -0.25717133997193298 0.37426095615225607 0 -0.24074374520667241 0.38242687998337299 0 -0.24481421723968019 0.36490975255658048 0 -0.25616918259472732 0.30236015827283808 0 -0.25002058798003007 0.3320526588471332 0 -0.23403114015321011 0.31709209002172778 0 -0.25002058798003007 0.3320526588471332 0 -0.23479591562654789 0.35148704487088239 0 -0.2313273246892763 0.33558392302215828 0 -0.25002058798003007 0.3320526588471332 0 -0.2313273246892763 0.33558392302215828 0 -0.23403114015321011 0.31709209002172778 0 -0.208999317395312 0.3446492875548014 0 -0.2313273246892763 0.33558392302215828 0 -0.21850591254547599 0.32628872173457818 0 -0.23403114015321011 0.31709209002172778 0 -0.21850591254547599 0.32628872173457818 0 -0.21603293622121081 0.30879617143541382 0 -0.2313273246892763 0.33558392302215828 0 -0.23403114015321011 0.31709209002172778 0 -0.21850591254547599 0.32628872173457818 0 -0.21850591254547599 0.32628872173457818 0 -0.20213884426837089 0.32532213663878978 0 -0.21603293622121081 0.30879617143541382 0 -0.20213884426837089 0.32532213663878978 0 -0.19725183072938909 0.30509230858372249 0 -0.21603293622121081 0.30879617143541382 0 -0.208999317395312 0.3446492875548014 0 -0.21850591254547599 0.32628872173457818 0 -0.20213884426837089 0.32532213663878978 0 -0.18331282358584941 0.34642540782531189 0 -0.208999317395312 0.3446492875548014 0 -0.20213884426837089 0.32532213663878978 0 -0.18300185264204469 0.32280423575908729 0 -0.18331282358584941 0.34642540782531189 0 -0.20213884426837089 0.32532213663878978 0 -0.18300185264204469 0.32280423575908729 0 -0.20213884426837089 0.32532213663878978 0 -0.19725183072938909 0.30509230858372249 0 -0.19725183072938909 0.30509230858372249 0 -0.1906964717749009 0.28656541518329992 0 -0.18269088169824049 0.29918306369286279 0 -0.18300185264204469 0.32280423575908729 0 -0.19725183072938909 0.30509230858372249 0 -0.18269088169824049 0.29918306369286279 0 -0.19725183072938909 0.30509230858372249 0 -0.1906964717749009 0.28656541518329992 0 -0.20894999777156681 0.28788282879288141 0 -0.1906964717749009 0.28656541518329992 0 -0.20894999777156681 0.28788282879288141 0 -0.19560748054403571 0.27391850694798181 0 -0.19725183072938909 0.30509230858372249 0 -0.20894999777156681 0.28788282879288141 0 -0.21603293622121081 0.30879617143541382 0 -0.20894999777156681 0.28788282879288141 0 -0.21603293622121081 0.30879617143541382 0 -0.23010937568771669 0.29589673977315029 0 -0.23403114015321011 0.31709209002172778 0 -0.21603293622121081 0.30879617143541382 0 -0.23010937568771669 0.29589673977315029 0 -0.20894999777156681 0.28788282879288141 0 -0.23010937568771669 0.29589673977315029 0 -0.2234747025956966 0.27824585991597089 0 -0.23010937568771669 0.29589673977315029 0 -0.24190471242523851 0.27972751922608308 0 -0.2234747025956966 0.27824585991597089 0 -0.25616918259472732 0.30236015827283808 0 -0.24190471242523851 0.27972751922608308 0 -0.25616918259472732 0.30236015827283808 0 -0.23010937568771669 0.29589673977315029 0 -0.24190471242523851 0.27972751922608308 0 -0.25616918259472732 0.30236015827283808 0 -0.23403114015321011 0.31709209002172778 0 -0.23010937568771669 0.29589673977315029 0 -0.24943129659764751 0.26000894523212309 0 -0.24190471242523851 0.27972751922608308 0 -0.22764024225575111 0.25709488017932702 0 -0.22764024225575111 0.25709488017932702 0 -0.2468893326351202 0.24329134098969171 0 -0.24943129659764751 0.26000894523212309 0 -0.22764024225575111 0.25709488017932702 0 -0.2468893326351202 0.24329134098969171 0 -0.24190471242523851 0.27972751922608308 0 -0.22764024225575111 0.25709488017932702 0 -0.24190471242523851 0.27972751922608308 0 -0.2234747025956966 0.27824585991597089 0 -0.22764024225575111 0.25709488017932702 0 -0.2234747025956966 0.27824585991597089 0 -0.22764024225575111 0.25709488017932702 0 -0.20876918483820989 0.27062733160841262 0 -0.22764024225575111 0.25709488017932702 0 -0.21239874098331929 0.25437807278244762 0 -0.20876918483820989 0.27062733160841262 0 -0.22764024225575111 0.25709488017932702 0 -0.20876918483820989 0.27062733160841262 0 -0.21239874098331929 0.25437807278244762 0 -0.20876918483820989 0.27062733160841262 0 -0.2025020270240801 0.26019521754276942 0 -0.21239874098331929 0.25437807278244762 0 -0.2025020270240801 0.26019521754276942 0 -0.2046840695697589 0.2451395929661444 0 -0.20894999777156681 0.28788282879288141 0 -0.2234747025956966 0.27824585991597089 0 -0.20876918483820989 0.27062733160841262 0 -0.20894999777156681 0.28788282879288141 0 -0.20876918483820989 0.27062733160841262 0 -0.19560748054403571 0.27391850694798181 0 -0.19560748054403571 0.27391850694798181 0 -0.18940688912330481 0.25610334311205268 0 -0.18232207730982461 0.27116889680334472 0 -0.20876918483820989 0.27062733160841262 0 -0.19560748054403571 0.27391850694798181 0 -0.2025020270240801 0.26019521754276942 0 -0.1906964717749009 0.28656541518329992 0 -0.19560748054403571 0.27391850694798181 0 -0.18232207730982461 0.27116889680334472 0 -0.19560748054403571 0.27391850694798181 0 -0.2025020270240801 0.26019521754276942 0 -0.18940688912330481 0.25610334311205268 0 -0.2025020270240801 0.26019521754276942 0 -0.18940688912330481 0.25610334311205268 0 -0.2046840695697589 0.2451395929661444 0 -0.18940688912330481 0.25610334311205268 0 -0.17508206900779469 0.25918785244088571 0 -0.18195408303730121 0.23534357450296481 0 -0.18940688912330481 0.25610334311205268 0 -0.17508206900779469 0.25918785244088571 0 -0.18232207730982461 0.27116889680334472 0 -0.16225317791305921 0.25358582624422438 0 -0.1601147340924314 0.27132493958040771 0 -0.14746997276257359 0.25293699741112718 0 -0.17508206900779469 0.25918785244088571 0 -0.16225317791305921 0.25358582624422438 0 -0.1601147340924314 0.27132493958040771 0 -0.1601147340924314 0.27132493958040771 0 -0.18232207730982461 0.27116889680334472 0 -0.1715163911286523 0.28419500503467149 0 -0.17508206900779469 0.25918785244088571 0 -0.1601147340924314 0.27132493958040771 0 -0.18232207730982461 0.27116889680334472 0 -0.1906964717749009 0.28656541518329992 0 -0.18232207730982461 0.27116889680334472 0 -0.18269088169824049 0.29918306369286279 0 -0.18232207730982461 0.27116889680334472 0 -0.18269088169824049 0.29918306369286279 0 -0.1715163911286523 0.28419500503467149 0 -0.18232207730982461 0.27116889680334472 0 -0.18269088169824049 0.29918306369286279 0 -0.1906964717749009 0.28656541518329992 0 -0.18269088169824049 0.29918306369286279 0 -0.18300185264204469 0.32280423575908729 0 -0.18269088169824049 0.29918306369286279 0 -0.1692166408361446 0.32041987865629651 0 -0.18269088169824049 0.29918306369286279 0 -0.1692166408361446 0.32041987865629651 0 -0.1740652221397718 0.31676208059972089 0 -0.18269088169824049 0.29918306369286279 0 -0.1692166408361446 0.32041987865629651 0 -0.16093787141411231 0.2951031200620709 0 -0.1433184724342442 0.30536206331891741 0 -0.1692166408361446 0.32041987865629651 0 -0.18269088169824049 0.29918306369286279 0 -0.16093787141411231 0.2951031200620709 0 -0.18269088169824049 0.29918306369286279 0 -0.1715163911286523 0.28419500503467149 0 -0.16093787141411231 0.2951031200620709 0 -0.1601147340924314 0.27132493958040771 0 -0.1715163911286523 0.28419500503467149 0 -0.16093787141411231 0.2951031200620709 0 -0.1601147340924314 0.27132493958040771 0 -0.16093787141411231 0.2951031200620709 0 -0.140940242444347 0.28770890845956881 0 -0.16093787141411231 0.2951031200620709 0 -0.140940242444347 0.28770890845956881 0 -0.16093787141411231 0.2951031200620709 0 -0.140940242444347 0.28770890845956881 0 -0.1433184724342442 0.30536206331891741 0 -0.1433184724342442 0.30536206331891741 0 -0.12743472451084159 0.29349567440048657 0 -0.122665507124936 0.30739316482981133 0 -0.140940242444347 0.28770890845956881 0 -0.1433184724342442 0.30536206331891741 0 -0.12743472451084159 0.29349567440048657 0 -0.140940242444347 0.28770890845956881 0 -0.1209426134745812 0.28031469685706822 0 -0.140940242444347 0.28770890845956881 0 -0.12743472451084159 0.29349567440048657 0 -0.1209426134745812 0.28031469685706822 0 -0.140940242444347 0.28770890845956881 0 -0.12748957136376979 0.2697364722205553 0 -0.1209426134745812 0.28031469685706822 0 -0.140940242444347 0.28770890845956881 0 -0.1385418352730507 0.26582091200169278 0 -0.12748957136376979 0.2697364722205553 0 -0.1385418352730507 0.26582091200169278 0 -0.1252623291810667 0.25912953992318971 0 -0.13357218109292621 0.2499317644564327 0 -0.1385418352730507 0.26582091200169278 0 -0.14746997276257359 0.25293699741112718 0 -0.13357218109292621 0.2499317644564327 0 -0.1385418352730507 0.26582091200169278 0 -0.12748957136376979 0.2697364722205553 0 -0.1252623291810667 0.25912953992318971 0 -0.1252623291810667 0.25912953992318971 0 -0.13357218109292621 0.2499317644564327 0 -0.1213089330464012 0.24626659804535689 0 -0.1601147340924314 0.27132493958040771 0 -0.1385418352730507 0.26582091200169278 0 -0.14746997276257359 0.25293699741112718 0 -0.1601147340924314 0.27132493958040771 0 -0.140940242444347 0.28770890845956881 0 -0.1385418352730507 0.26582091200169278 0 -0.095230237001734636 0.27080743213428882 0 -0.101831548476812 0.26048951589785008 0 -0.1165241005361865 0.26558405137515151 0 -0.095230237001734636 0.27080743213428882 0 -0.1209426134745812 0.28031469685706822 0 -0.095230237001734636 0.27080743213428882 0 -0.101831548476812 0.26048951589785008 0 -0.101831548476812 0.26048951589785008 0 -0.112097455783086 0.24444379951602521 0 -0.096974545082976191 0.25880538532589209 0 -0.101831548476812 0.26048951589785008 0 -0.112097455783086 0.24444379951602521 0 -0.095230237001734636 0.27080743213428882 0 -0.096974545082976191 0.25880538532589209 0 -0.101831548476812 0.26048951589785008 0 -0.096974545082976191 0.25880538532589209 0 -0.101831548476812 0.26048951589785008 0 -0.101831548476812 0.26048951589785008 0 -0.1165241005361865 0.26558405137515151 0 -0.101831548476812 0.26048951589785008 0 -0.11521273165378559 0.25497892835963998 0 -0.112097455783086 0.24444379951602521 0 -0.101831548476812 0.26048951589785008 0 -0.1165241005361865 0.26558405137515151 0 -0.11521273165378559 0.25497892835963998 0 -0.1252623291810667 0.25912953992318971 0 -0.11521273165378559 0.25497892835963998 0 -0.1213089330464012 0.24626659804535689 0 -0.12748957136376979 0.2697364722205553 0 -0.1252623291810667 0.25912953992318971 0 -0.1165241005361865 0.26558405137515151 0 -0.1252623291810667 0.25912953992318971 0 -0.1165241005361865 0.26558405137515151 0 -0.11521273165378559 0.25497892835963998 0 -0.12748957136376979 0.2697364722205553 0 -0.1165241005361865 0.26558405137515151 0 -0.11826192468166601 0.27279143104315778 0 -0.095230237001734636 0.27080743213428882 0 -0.1165241005361865 0.26558405137515151 0 -0.11826192468166601 0.27279143104315778 0 -0.095230237001734636 0.27080743213428882 0 -0.11826192468166601 0.27279143104315778 0 -0.1209426134745812 0.28031469685706822 0 -0.12748957136376979 0.2697364722205553 0 -0.11826192468166601 0.27279143104315778 0 -0.1209426134745812 0.28031469685706822 0 -0.1209426134745812 0.28031469685706822 0 -0.099156256926613839 0.29556062278638268 0 -0.12743472451084159 0.29349567440048657 0 -0.1209426134745812 0.28031469685706822 0 -0.099156256926613839 0.29556062278638268 0 -0.12743472451084159 0.29349567440048657 0 -0.122665507124936 0.30739316482981133 0 -0.099156256926613839 0.29556062278638268 0 -0.1041414057358224 0.31201579539373148 0 -0.099156256926613839 0.29556062278638268 0 -0.091673901452025128 0.31746800270450398 0 -0.122665507124936 0.30739316482981133 0 -0.1041414057358224 0.31201579539373148 0 -0.099156256926613839 0.29556062278638268 0 -0.095230237001734636 0.27080743213428882 0 -0.1209426134745812 0.28031469685706822 0 -0.099156256926613839 0.29556062278638268 0 -0.081993310338176556 0.29149688165626692 0 -0.071574905525993715 0.28647654560898889 0 -0.088307373389434785 0.26824767274871397 0 -0.095230237001734636 0.27080743213428882 0 -0.099156256926613839 0.29556062278638268 0 -0.081993310338176556 0.29149688165626692 0 -0.099156256926613839 0.29556062278638268 0 -0.0773699003786468 0.31080654871569757 0 -0.091673901452025128 0.31746800270450398 0 -0.099156256926613839 0.29556062278638268 0 -0.0773699003786468 0.31080654871569757 0 -0.081993310338176556 0.29149688165626692 0 -0.0773699003786468 0.31080654871569757 0 -0.099156256926613839 0.29556062278638268 0 -0.081993310338176556 0.29149688165626692 0 -0.0773699003786468 0.31080654871569757 0 -0.081993310338176556 0.29149688165626692 0 -0.0773699003786468 0.31080654871569757 0 -0.07000108740115632 0.31024084673351238 0 -0.081993310338176556 0.29149688165626692 0 -0.07000108740115632 0.31024084673351238 0 -0.07082691849754412 0.29686868922251758 0 -0.081993310338176556 0.29149688165626692 0 -0.07000108740115632 0.31024084673351238 0 -0.06406362287003417 0.30105685935529619 0 -0.07000108740115632 0.31024084673351238 0 -0.07082691849754412 0.29686868922251758 0 -0.06406362287003417 0.30105685935529619 0 -0.07000108740115632 0.31024084673351238 0 -0.05903493703298672 0.30842013861035528 0 -0.081993310338176556 0.29149688165626692 0 -0.071574905525993715 0.28647654560898889 0 -0.07082691849754412 0.29686868922251758 0 -0.071574905525993715 0.28647654560898889 0 -0.07082691849754412 0.29686868922251758 0 -0.064150197611200194 0.29028153745804169 0 -0.06406362287003417 0.30105685935529619 0 -0.07082691849754412 0.29686868922251758 0 -0.064150197611200194 0.29028153745804169 0 -0.071574905525993715 0.28647654560898889 0 -0.064150197611200194 0.29028153745804169 0 -0.066272470786091969 0.27951596978905408 0 -0.066272470786091969 0.27951596978905408 0 -0.064867048676514966 0.26815492676469338 0 -0.075116873927680253 0.27479103085629453 0 -0.066272470786091969 0.27951596978905408 0 -0.064867048676514966 0.26815492676469338 0 -0.056753075498150757 0.28085207326825551 0 -0.064867048676514966 0.26815492676469338 0 -0.075116873927680253 0.27479103085629453 0 -0.074399806026204385 0.26466482186588819 0 -0.075116873927680253 0.27479103085629453 0 -0.079975847673146208 0.26885948770409202 0 -0.074399806026204385 0.26466482186588819 0 -0.071574905525993715 0.28647654560898889 0 -0.066272470786091969 0.27951596978905408 0 -0.075116873927680253 0.27479103085629453 0 -0.095230237001734636 0.27080743213428882 0 -0.081993310338176556 0.29149688165626692 0 -0.095230237001734636 0.27080743213428882 0 -0.081993310338176556 0.29149688165626692 0 -0.088307373389434785 0.26824767274871397 0 -0.071574905525993715 0.28647654560898889 0 -0.088307373389434785 0.26824767274871397 0 -0.071574905525993715 0.28647654560898889 0 -0.075116873927680253 0.27479103085629453 0 -0.088307373389434785 0.26824767274871397 0 -0.079975847673146208 0.26885948770409202 0 -0.084329260359261832 0.26677674789216088 0 -0.074399806026204385 0.26466482186588819 0 -0.075116873927680253 0.27479103085629453 0 -0.079975847673146208 0.26885948770409202 0 -0.088307373389434785 0.26824767274871397 0 -0.079975847673146208 0.26885948770409202 0 -0.084329260359261832 0.26677674789216088 0 -0.088307373389434785 0.26824767274871397 0 -0.095230237001734636 0.27080743213428882 0 -0.096974545082976191 0.25880538532589209 0 -0.088307373389434785 0.26824767274871397 0 -0.084329260359261832 0.26677674789216088 0 -0.088307373389434785 0.26824767274871397 0 -0.095230237001734636 0.27080743213428882 0 -0.088307373389434785 0.26824767274871397 0 -0.096974545082976191 0.25880538532589209 0 -0.073553522625709841 0.25068431627396631 0 -0.088715331182393942 0.2449718195011524 0 -0.096974545082976191 0.25880538532589209 0 -0.084329260359261832 0.26677674789216088 0 -0.073553522625709841 0.25068431627396631 0 -0.096974545082976191 0.25880538532589209 0 -0.073553522625709841 0.25068431627396631 0 -0.096974545082976191 0.25880538532589209 0 -0.088307373389434785 0.26824767274871397 0 -0.096974545082976191 0.25880538532589209 0 -0.084329260359261832 0.26677674789216088 0 -0.088307373389434785 0.26824767274871397 0 -0.084329260359261832 0.26677674789216088 0 -0.073553522625709841 0.25068431627396631 0 -0.074399806026204385 0.26466482186588819 0 -0.064867048676514966 0.26815492676469338 0 -0.073553522625709841 0.25068431627396631 0 -0.050450936449665702 0.26047062327699849 0 -0.064867048676514966 0.26815492676469338 0 -0.073553522625709841 0.25068431627396631 0 -0.074399806026204385 0.26466482186588819 0 -0.073553522625709841 0.25068431627396631 0 -0.050450936449665702 0.26047062327699849 0 -0.050132500168443887 0.2425632472220397 0 -0.064867048676514966 0.26815492676469338 0 -0.050450936449665702 0.26047062327699849 0 -0.056753075498150757 0.28085207326825551 0 -0.050450936449665702 0.26047062327699849 0 -0.056753075498150757 0.28085207326825551 0 -0.041567118232982071 0.28155035039042642 0 -0.050450936449665702 0.26047062327699849 0 -0.032664289439585513 0.26886008103247921 0 -0.041567118232982071 0.28155035039042642 0 -0.032664289439585513 0.26886008103247921 0 -0.025724023578003428 0.28484302527062832 0 -0.041567118232982071 0.28155035039042642 0 -0.050450936449665702 0.26047062327699849 0 -0.032664289439585513 0.26886008103247921 0 -0.029881977245259539 0.25372898958001938 0 -0.050450936449665702 0.26047062327699849 0 -0.029881977245259539 0.25372898958001938 0 -0.050132500168443887 0.2425632472220397 0 -0.029881977245259539 0.25372898958001938 0 -0.019473314891880141 0.26767922737850353 0 -0.0082457657602449386 0.25246627485226031 0 -0.032664289439585513 0.26886008103247921 0 -0.029881977245259539 0.25372898958001938 0 -0.019473314891880141 0.26767922737850353 0 -0.019473314891880141 0.26767922737850353 0 -0.0042610585373493576 0.2771562680236046 0 -0.025724023578003428 0.28484302527062832 0 -0.032664289439585513 0.26886008103247921 0 -0.019473314891880141 0.26767922737850353 0 -0.025724023578003428 0.28484302527062832 0 -0.019473314891880141 0.26767922737850353 0 -0.0042610585373493576 0.2771562680236046 0 -0.0082457657602449386 0.25246627485226031 0 -0.0042610585373493576 0.2771562680236046 0 -0.0082457657602449386 0.25246627485226031 0 0.0071094060709509964 0.26564087220093879 0 -0.0069555348311276686 0.31079851600377723 0 -0.00058836015198596755 0.32088344941533808 0 0.0054341821912287152 0.30403492879740468 0 -0.013098506886936411 0.29875518722530359 0 -0.0069555348311276686 0.31079851600377723 0 0.0054341821912287152 0.30403492879740468 0 -0.013098506886936411 0.29875518722530359 0 -0.0069555348311276686 0.31079851600377723 0 -0.020687787070248039 0.31403805852116051 0 -0.0042610585373493576 0.2771562680236046 0 -0.013098506886936411 0.29875518722530359 0 -0.025724023578003428 0.28484302527062832 0 -0.0042610585373493576 0.2771562680236046 0 -0.013098506886936411 0.29875518722530359 0 0.0054341821912287152 0.30403492879740468 0 -0.013098506886936411 0.29875518722530359 0 -0.025724023578003428 0.28484302527062832 0 -0.02904570801181227 0.30414560716861699 0 -0.013098506886936411 0.29875518722530359 0 -0.02904570801181227 0.30414560716861699 0 -0.020687787070248039 0.31403805852116051 0 -0.02904570801181227 0.30414560716861699 0 -0.034308890996313193 0.31619803717231232 0 -0.020687787070248039 0.31403805852116051 0 -0.02904570801181227 0.30414560716861699 0 -0.04581664775108537 0.30961879620062571 0 -0.039958169045478269 0.29575445567546388 0 -0.02904570801181227 0.30414560716861699 0 -0.04581664775108537 0.30961879620062571 0 -0.034308890996313193 0.31619803717231232 0 -0.025724023578003428 0.28484302527062832 0 -0.02904570801181227 0.30414560716861699 0 -0.039958169045478269 0.29575445567546388 0 -0.025724023578003428 0.28484302527062832 0 -0.039958169045478269 0.29575445567546388 0 -0.041567118232982071 0.28155035039042642 0 -0.039958169045478269 0.29575445567546388 0 -0.041567118232982071 0.28155035039042642 0 -0.055410192489386563 0.29691908750413831 0 -0.056753075498150757 0.28085207326825551 0 -0.041567118232982071 0.28155035039042642 0 -0.055410192489386563 0.29691908750413831 0 -0.064150197611200194 0.29028153745804169 0 -0.056753075498150757 0.28085207326825551 0 -0.055410192489386563 0.29691908750413831 0 -0.06406362287003417 0.30105685935529619 0 -0.064150197611200194 0.29028153745804169 0 -0.055410192489386563 0.29691908750413831 0 -0.064150197611200194 0.29028153745804169 0 -0.066272470786091969 0.27951596978905408 0 -0.056753075498150757 0.28085207326825551 0 -0.04581664775108537 0.30961879620062571 0 -0.055410192489386563 0.29691908750413831 0 -0.05903493703298672 0.30842013861035528 0 -0.04581664775108537 0.30961879620062571 0 -0.039958169045478269 0.29575445567546388 0 -0.055410192489386563 0.29691908750413831 0 -0.06406362287003417 0.30105685935529619 0 -0.055410192489386563 0.29691908750413831 0 -0.05903493703298672 0.30842013861035528 0 -0.04581664775108537 0.30961879620062571 0 -0.05999398685661865 0.32296608029812152 0 -0.042756171354298787 0.3224483405388896 0 -0.05999398685661865 0.32296608029812152 0 -0.04261807333459134 0.33512561188054663 0 -0.042756171354298787 0.3224483405388896 0 -0.04581664775108537 0.30961879620062571 0 -0.05903493703298672 0.30842013861035528 0 -0.05999398685661865 0.32296608029812152 0 -0.05999398685661865 0.32296608029812152 0 -0.056804034856699187 0.33429177223338907 0 -0.04261807333459134 0.33512561188054663 0 -0.056804034856699187 0.33429177223338907 0 -0.046192251460743447 0.34598703554363702 0 -0.071259793987160716 0.33632540193228971 0 -0.046192251460743447 0.34598703554363702 0 -0.071259793987160716 0.33632540193228971 0 -0.05999398685661865 0.32296608029812152 0 -0.04261807333459134 0.33512561188054663 0 -0.05999398685661865 0.32296608029812152 0 -0.056804034856699187 0.33429177223338907 0 -0.064831017760781137 0.32924814232959693 0 -0.056804034856699187 0.33429177223338907 0 -0.04261807333459134 0.33512561188054663 0 -0.046192251460743447 0.34598703554363702 0 -0.04261807333459134 0.33512561188054663 0 -0.034276320251641283 0.34282206612864702 0 -0.046192251460743447 0.34598703554363702 0 -0.04261807333459134 0.33512561188054663 0 -0.034276320251641283 0.34282206612864702 0 -0.031043257832885369 0.32833317714284199 0 -0.04261807333459134 0.33512561188054663 0 -0.042756171354298787 0.3224483405388896 0 -0.031043257832885369 0.32833317714284199 0 -0.04581664775108537 0.30961879620062571 0 -0.042756171354298787 0.3224483405388896 0 -0.034308890996313193 0.31619803717231232 0 -0.042756171354298787 0.3224483405388896 0 -0.034308890996313193 0.31619803717231232 0 -0.031043257832885369 0.32833317714284199 0 -0.020687787070248039 0.31403805852116051 0 -0.031043257832885369 0.32833317714284199 0 -0.01426308592107553 0.32709781564023149 0 -0.034308890996313193 0.31619803717231232 0 -0.020687787070248039 0.31403805852116051 0 -0.031043257832885369 0.32833317714284199 0 -0.025032962324117471 0.33875149869244531 0 -0.01426308592107553 0.32709781564023149 0 -0.014716180493599089 0.34442071988127893 0 -0.031043257832885369 0.32833317714284199 0 -0.025032962324117471 0.33875149869244531 0 -0.01426308592107553 0.32709781564023149 0 -0.034276320251641283 0.34282206612864702 0 -0.025032962324117471 0.33875149869244531 0 -0.023787543000920942 0.34541073846433867 0 -0.034276320251641283 0.34282206612864702 0 -0.031043257832885369 0.32833317714284199 0 -0.025032962324117471 0.33875149869244531 0 -0.025032962324117471 0.33875149869244531 0 -0.014716180493599089 0.34442071988127893 0 -0.023787543000920942 0.34541073846433867 0 -0.0025616559074486049 0.3329031852911295 0 -0.01426308592107553 0.32709781564023149 0 -0.014716180493599089 0.34442071988127893 0 -0.0025616559074486049 0.3329031852911295 0 -0.002583240235104544 0.34489224502179239 0 -0.014716180493599089 0.34442071988127893 0 -0.0069555348311276686 0.31079851600377723 0 -0.020687787070248039 0.31403805852116051 0 -0.01426308592107553 0.32709781564023149 0 -0.0025616559074486049 0.3329031852911295 0 -0.00058836015198596755 0.32088344941533808 0 -0.01426308592107553 0.32709781564023149 0 -0.0069555348311276686 0.31079851600377723 0 -0.00058836015198596755 0.32088344941533808 0 -0.01426308592107553 0.32709781564023149 0 -0.012102714267097759 0.36590539057294968 0 -0.001064505034491721 0.37161458349227261 0 0.0039428335920915006 0.36531030276633031 0 -0.021124708934325921 0.35564866915498361 0 0.0039428335920915006 0.36531030276633031 0 -0.001064505034491721 0.37161458349227261 0 -0.017677659244944521 0.37122807787390621 0 -0.017803283764421592 0.37921609746689411 0 -0.012102714267097759 0.36590539057294968 0 -0.001064505034491721 0.37161458349227261 0 -0.017677659244944521 0.37122807787390621 0 -0.012102714267097759 0.36590539057294968 0 -0.021124708934325921 0.35564866915498361 0 0.0039428335920915006 0.36531030276633031 0 -0.0064988099748367559 0.35299106404641623 0 -0.021124708934325921 0.35564866915498361 0 0.0039428335920915006 0.36531030276633031 0 -0.0064988099748367559 0.35299106404641623 0 -0.002583240235104544 0.34489224502179239 0 0.0032447233134405931 0.35422125060834359 0 -0.0064988099748367559 0.35299106404641623 0 -0.002583240235104544 0.34489224502179239 0 -0.014716180493599089 0.34442071988127893 0 -0.0064988099748367559 0.35299106404641623 0 -0.014716180493599089 0.34442071988127893 0 -0.021124708934325921 0.35564866915498361 0 -0.021124708934325921 0.35564866915498361 0 -0.03312405361854439 0.36059385714354403 0 -0.039104805720823227 0.35618275869992938 0 -0.014716180493599089 0.34442071988127893 0 -0.021124708934325921 0.35564866915498361 0 -0.023787543000920942 0.34541073846433867 0 -0.034276320251641283 0.34282206612864702 0 -0.021124708934325921 0.35564866915498361 0 -0.023787543000920942 0.34541073846433867 0 -0.021124708934325921 0.35564866915498361 0 -0.0246585823330631 0.36616539344166837 0 -0.03312405361854439 0.36059385714354403 0 -0.0246585823330631 0.36616539344166837 0 -0.033447590357386023 0.36570071259042941 0 -0.03312405361854439 0.36059385714354403 0 -0.012102714267097759 0.36590539057294968 0 -0.021124708934325921 0.35564866915498361 0 -0.0246585823330631 0.36616539344166837 0 -0.017677659244944521 0.37122807787390621 0 -0.032897312064139907 0.37411907212457252 0 -0.017803283764421592 0.37921609746689411 0 -0.012102714267097759 0.36590539057294968 0 -0.0246585823330631 0.36616539344166837 0 -0.017677659244944521 0.37122807787390621 0 -0.0246585823330631 0.36616539344166837 0 -0.017677659244944521 0.37122807787390621 0 -0.032897312064139907 0.37411907212457252 0 -0.0246585823330631 0.36616539344166837 0 -0.032897312064139907 0.37411907212457252 0 -0.0246585823330631 0.36616539344166837 0 -0.032897312064139907 0.37411907212457252 0 -0.033447590357386023 0.36570071259042941 0 -0.032897312064139907 0.37411907212457252 0 -0.059723517795068168 0.36506026769318489 0 -0.032897312064139907 0.37411907212457252 0 -0.033447590357386023 0.36570071259042941 0 -0.04311041341379776 0.36192452765193173 0 -0.032897312064139907 0.37411907212457252 0 -0.046925961112427347 0.36446589286881009 0 -0.059723517795068168 0.36506026769318489 0 -0.032897312064139907 0.37411907212457252 0 -0.049098878804771373 0.3725140996878949 0 -0.043775979817191349 0.37615739516056462 0 -0.03312405361854439 0.36059385714354403 0 -0.04311041341379776 0.36192452765193173 0 -0.039104805720823227 0.35618275869992938 0 -0.033447590357386023 0.36570071259042941 0 -0.03312405361854439 0.36059385714354403 0 -0.04311041341379776 0.36192452765193173 0 -0.032897312064139907 0.37411907212457252 0 -0.04311041341379776 0.36192452765193173 0 -0.046925961112427347 0.36446589286881009 0 -0.034276320251641283 0.34282206612864702 0 -0.021124708934325921 0.35564866915498361 0 -0.046192251460743447 0.34598703554363702 0 -0.021124708934325921 0.35564866915498361 0 -0.039104805720823227 0.35618275869992938 0 -0.046192251460743447 0.34598703554363702 0 -0.021124708934325921 0.35564866915498361 0 -0.046192251460743447 0.34598703554363702 0 -0.039104805720823227 0.35618275869992938 0 -0.046192251460743447 0.34598703554363702 0 -0.051972601176704672 0.35675970400555063 0 -0.04311041341379776 0.36192452765193173 0 -0.039104805720823227 0.35618275869992938 0 -0.051972601176704672 0.35675970400555063 0 -0.046192251460743447 0.34598703554363702 0 -0.066911938965716039 0.35448421406914471 0 -0.071259793987160716 0.33632540193228971 0 -0.046192251460743447 0.34598703554363702 0 -0.051972601176704672 0.35675970400555063 0 -0.066911938965716039 0.35448421406914471 0 -0.051972601176704672 0.35675970400555063 0 -0.059723517795068168 0.36506026769318489 0 -0.066911938965716039 0.35448421406914471 0 -0.032897312064139907 0.37411907212457252 0 -0.049098878804771373 0.3725140996878949 0 -0.059723517795068168 0.36506026769318489 0 -0.049098878804771373 0.3725140996878949 0 -0.056089193364373929 0.37273715424054699 0 -0.050724207312953518 0.37700173675436199 0 -0.051972601176704672 0.35675970400555063 0 -0.046925961112427347 0.36446589286881009 0 -0.059723517795068168 0.36506026769318489 0 -0.04311041341379776 0.36192452765193173 0 -0.051972601176704672 0.35675970400555063 0 -0.046925961112427347 0.36446589286881009 0 -0.049098878804771373 0.3725140996878949 0 -0.059723517795068168 0.36506026769318489 0 -0.056089193364373929 0.37273715424054699 0 -0.059723517795068168 0.36506026769318489 0 -0.056089193364373929 0.37273715424054699 0 -0.062564083944274151 0.37264302620600032 0 -0.062075486208271788 0.37468365416042188 0 -0.062564083944274151 0.37264302620600032 0 -0.062075486208271788 0.37468365416042188 0 -0.062564083944274151 0.37264302620600032 0 -0.064607287490063475 0.3752877934920828 0 -0.069626031180744216 0.37451783031500979 0 -0.079039419043354958 0.3748493973737258 0 -0.082597891671162132 0.35089307241393791 0 -0.062564083944274151 0.37264302620600032 0 -0.066911938965716039 0.35448421406914471 0 -0.062564083944274151 0.37264302620600032 0 -0.069626031180744216 0.37451783031500979 0 -0.064607287490063475 0.3752877934920828 0 -0.062564083944274151 0.37264302620600032 0 -0.069626031180744216 0.37451783031500979 0 -0.082597891671162132 0.35089307241393791 0 -0.062564083944274151 0.37264302620600032 0 -0.082597891671162132 0.35089307241393791 0 -0.059723517795068168 0.36506026769318489 0 -0.062564083944274151 0.37264302620600032 0 -0.066911938965716039 0.35448421406914471 0 -0.090941745129797052 0.36956363188929697 0 -0.082597891671162132 0.35089307241393791 0 -0.097939085056313616 0.35825468271447503 0 -0.079039419043354958 0.3748493973737258 0 -0.090941745129797052 0.36956363188929697 0 -0.082597891671162132 0.35089307241393791 0 -0.082597891671162132 0.35089307241393791 0 -0.097939085056313616 0.35825468271447503 0 -0.099795521962392192 0.34663223796478099 0 -0.066911938965716039 0.35448421406914471 0 -0.071259793987160716 0.33632540193228971 0 -0.082597891671162132 0.35089307241393791 0 -0.066911938965716039 0.35448421406914471 0 -0.079003984513522238 0.34200566120660753 0 -0.066911938965716039 0.35448421406914471 0 -0.071259793987160716 0.33632540193228971 0 -0.079003984513522238 0.34200566120660753 0 -0.062564083944274151 0.37264302620600032 0 -0.082597891671162132 0.35089307241393791 0 -0.066911938965716039 0.35448421406914471 0 -0.056804034856699187 0.33429177223338907 0 -0.064831017760781137 0.32924814232959693 0 -0.071259793987160716 0.33632540193228971 0 -0.071259793987160716 0.33632540193228971 0 -0.079659291821908368 0.33308803351003258 0 -0.071259793987160716 0.33632540193228971 0 -0.079003984513522238 0.34200566120660753 0 -0.079659291821908368 0.33308803351003258 0 -0.0773699003786468 0.31080654871569757 0 -0.07000108740115632 0.31024084673351238 0 -0.05999398685661865 0.32296608029812152 0 -0.0773699003786468 0.31080654871569757 0 -0.071259793987160716 0.33632540193228971 0 -0.0773699003786468 0.31080654871569757 0 -0.071259793987160716 0.33632540193228971 0 -0.079659291821908368 0.33308803351003258 0 -0.0773699003786468 0.31080654871569757 0 -0.05999398685661865 0.32296608029812152 0 -0.0773699003786468 0.31080654871569757 0 -0.064831017760781137 0.32924814232959693 0 -0.071259793987160716 0.33632540193228971 0 -0.0773699003786468 0.31080654871569757 0 -0.05999398685661865 0.32296608029812152 0 -0.064831017760781137 0.32924814232959693 0 -0.07000108740115632 0.31024084673351238 0 -0.05903493703298672 0.30842013861035528 0 -0.05999398685661865 0.32296608029812152 0 -0.091673901452025128 0.31746800270450398 0 -0.079659291821908368 0.33308803351003258 0 -0.1026316993980491 0.32914311862187462 0 -0.0773699003786468 0.31080654871569757 0 -0.091673901452025128 0.31746800270450398 0 -0.079659291821908368 0.33308803351003258 0 -0.082597891671162132 0.35089307241393791 0 -0.1026316993980491 0.32914311862187462 0 -0.082597891671162132 0.35089307241393791 0 -0.079003984513522238 0.34200566120660753 0 -0.1026316993980491 0.32914311862187462 0 -0.079003984513522238 0.34200566120660753 0 -0.079659291821908368 0.33308803351003258 0 -0.1026316993980491 0.32914311862187462 0 -0.082597891671162132 0.35089307241393791 0 -0.1026316993980491 0.32914311862187462 0 -0.099795521962392192 0.34663223796478099 0 -0.1026316993980491 0.32914311862187462 0 -0.11309959964963499 0.35023802862820708 0 -0.099795521962392192 0.34663223796478099 0 -0.1041414057358224 0.31201579539373148 0 -0.091673901452025128 0.31746800270450398 0 -0.1026316993980491 0.32914311862187462 0 -0.122665507124936 0.30739316482981133 0 -0.1041414057358224 0.31201579539373148 0 -0.1026316993980491 0.32914311862187462 0 -0.122665507124936 0.30739316482981133 0 -0.1026316993980491 0.32914311862187462 0 -0.1213981112161233 0.32606083512094008 0 -0.122665507124936 0.30739316482981133 0 -0.1026316993980491 0.32914311862187462 0 -0.1026316993980491 0.32914311862187462 0 -0.1215793900664241 0.33965542352680428 0 -0.11309959964963499 0.35023802862820708 0 -0.1026316993980491 0.32914311862187462 0 -0.1213981112161233 0.32606083512094008 0 -0.1215793900664241 0.33965542352680428 0 -0.1215793900664241 0.33965542352680428 0 -0.11309959964963499 0.35023802862820708 0 -0.1223522029902982 0.35608225162756879 0 -0.11309959964963499 0.35023802862820708 0 -0.1223522029902982 0.35608225162756879 0 -0.1091573093543224 0.361674516205302 0 -0.12881796099468981 0.36725667352730101 0 -0.1223522029902982 0.35608225162756879 0 -0.11881971476920231 0.36528086459794751 0 -0.12881796099468981 0.36725667352730101 0 -0.11881971476920231 0.36528086459794751 0 -0.114951385737499 0.37611001703161828 0 -0.11881971476920231 0.36528086459794751 0 -0.1091573093543224 0.361674516205302 0 -0.114951385737499 0.37611001703161828 0 -0.1223522029902982 0.35608225162756879 0 -0.11881971476920231 0.36528086459794751 0 -0.1091573093543224 0.361674516205302 0 -0.1091573093543224 0.361674516205302 0 -0.1012990589455684 0.36953412384373102 0 -0.097939085056313616 0.35825468271447503 0 -0.1091573093543224 0.361674516205302 0 -0.1012990589455684 0.36953412384373102 0 -0.114951385737499 0.37611001703161828 0 -0.090941745129797052 0.36956363188929697 0 -0.1012990589455684 0.36953412384373102 0 -0.098890550417286477 0.38099249480062602 0 -0.090941745129797052 0.36956363188929697 0 -0.1012990589455684 0.36953412384373102 0 -0.097939085056313616 0.35825468271447503 0 -0.11309959964963499 0.35023802862820708 0 -0.097939085056313616 0.35825468271447503 0 -0.099795521962392192 0.34663223796478099 0 -0.11309959964963499 0.35023802862820708 0 -0.1091573093543224 0.361674516205302 0 -0.097939085056313616 0.35825468271447503 0 -0.094424665366596924 0.39634464281418252 0 -0.11202845405726 0.40531330452479791 0 -0.098926296137628822 0.41605616341005208 0 -0.1085605322944487 0.39079571404043828 0 -0.094424665366596924 0.39634464281418252 0 -0.11202845405726 0.40531330452479791 0 -0.1085605322944487 0.39079571404043828 0 -0.098890550417286477 0.38099249480062602 0 -0.114951385737499 0.37611001703161828 0 -0.1085605322944487 0.39079571404043828 0 -0.094424665366596924 0.39634464281418252 0 -0.098890550417286477 0.38099249480062602 0 -0.1012990589455684 0.36953412384373102 0 -0.098890550417286477 0.38099249480062602 0 -0.114951385737499 0.37611001703161828 0 -0.1085605322944487 0.39079571404043828 0 -0.114951385737499 0.37611001703161828 0 -0.1224972888069677 0.39405447109156733 0 -0.13238272395945991 0.37847398983736519 0 -0.114951385737499 0.37611001703161828 0 -0.1224972888069677 0.39405447109156733 0 -0.1277268958593005 0.40709158096490278 0 -0.1224972888069677 0.39405447109156733 0 -0.11202845405726 0.40531330452479791 0 -0.1085605322944487 0.39079571404043828 0 -0.1224972888069677 0.39405447109156733 0 -0.11202845405726 0.40531330452479791 0 -0.11202845405726 0.40531330452479791 0 -0.12025274126089 0.42574105579372712 0 -0.098926296137628822 0.41605616341005208 0 -0.12025274126089 0.42574105579372712 0 -0.098926296137628822 0.41605616341005208 0 -0.1277268958593005 0.40709158096490278 0 -0.11202845405726 0.40531330452479791 0 -0.12025274126089 0.42574105579372712 0 -0.12025274126089 0.42574105579372712 0 -0.1161249595423428 0.42742254588607831 0 -0.098926296137628822 0.41605616341005208 0 -0.12509104342100061 0.44188941827772182 0 -0.1161249595423428 0.42742254588607831 0 -0.098677616465060528 0.43762344985591101 0 -0.1161249595423428 0.42742254588607831 0 -0.090695480784097504 0.41727281212483158 0 -0.1161249595423428 0.42742254588607831 0 -0.090695480784097504 0.41727281212483158 0 -0.098677616465060528 0.43762344985591101 0 -0.1161249595423428 0.42742254588607831 0 -0.098926296137628822 0.41605616341005208 0 -0.090695480784097504 0.41727281212483158 0 -0.098926296137628822 0.41605616341005208 0 -0.077599851014367602 0.40637127102637732 0 -0.094424665366596924 0.39634464281418252 0 -0.098926296137628822 0.41605616341005208 0 -0.077599851014367602 0.40637127102637732 0 -0.098926296137628822 0.41605616341005208 0 -0.090695480784097504 0.41727281212483158 0 -0.077599851014367602 0.40637127102637732 0 -0.090695480784097504 0.41727281212483158 0 -0.077599851014367602 0.40637127102637732 0 -0.077475511178084946 0.4171549142493044 0 -0.077475511178084946 0.4171549142493044 0 -0.098677616465060528 0.43762344985591101 0 -0.090695480784097504 0.41727281212483158 0 -0.077475511178084946 0.4171549142493044 0 -0.098677616465060528 0.43762344985591101 0 -0.077475511178084946 0.4171549142493044 0 -0.078698858269308614 0.44343419105434712 0 -0.098677616465060528 0.43762344985591101 0 -0.077475511178084946 0.4171549142493044 0 -0.059178928229814701 0.4365201208845606 0 -0.055106871557328428 0.42305161159228227 0 -0.077475511178084946 0.4171549142493044 0 -0.059178928229814701 0.4365201208845606 0 -0.078698858269308614 0.44343419105434712 0 -0.077475511178084946 0.4171549142493044 0 -0.056273405891107527 0.39668637864269979 0 -0.077599851014367602 0.40637127102637732 0 -0.077475511178084946 0.4171549142493044 0 -0.056273405891107527 0.39668637864269979 0 -0.077599851014367602 0.40637127102637732 0 -0.056273405891107527 0.39668637864269979 0 -0.077599851014367602 0.40637127102637732 0 -0.078331801269405671 0.3911923311589619 0 -0.056273405891107527 0.39668637864269979 0 -0.094424665366596924 0.39634464281418252 0 -0.077599851014367602 0.40637127102637732 0 -0.078331801269405671 0.3911923311589619 0 -0.094424665366596924 0.39634464281418252 0 -0.078331801269405671 0.3911923311589619 0 -0.087166581823546807 0.38268142547449258 0 -0.079039419043354958 0.3748493973737258 0 -0.078331801269405671 0.3911923311589619 0 -0.087166581823546807 0.38268142547449258 0 -0.090941745129797052 0.36956363188929697 0 -0.098890550417286477 0.38099249480062602 0 -0.087166581823546807 0.38268142547449258 0 -0.094424665366596924 0.39634464281418252 0 -0.098890550417286477 0.38099249480062602 0 -0.087166581823546807 0.38268142547449258 0 -0.079039419043354958 0.3748493973737258 0 -0.090941745129797052 0.36956363188929697 0 -0.087166581823546807 0.38268142547449258 0 -0.078331801269405671 0.3911923311589619 0 -0.070241768304658683 0.38125320512289401 0 -0.062400115896225239 0.38328565763688038 0 -0.078331801269405671 0.3911923311589619 0 -0.047880784994249512 0.38858413326022379 0 -0.069626031180744216 0.37451783031500979 0 -0.079039419043354958 0.3748493973737258 0 -0.070241768304658683 0.38125320512289401 0 -0.078331801269405671 0.3911923311589619 0 -0.062400115896225239 0.38328565763688038 0 -0.047880784994249512 0.38858413326022379 0 -0.079039419043354958 0.3748493973737258 0 -0.078331801269405671 0.3911923311589619 0 -0.070241768304658683 0.38125320512289401 0 -0.070241768304658683 0.38125320512289401 0 -0.064210651178174066 0.37904237845721811 0 -0.062400115896225239 0.38328565763688038 0 -0.069626031180744216 0.37451783031500979 0 -0.070241768304658683 0.38125320512289401 0 -0.064210651178174066 0.37904237845721811 0 -0.069626031180744216 0.37451783031500979 0 -0.064210651178174066 0.37904237845721811 0 -0.064607287490063475 0.3752877934920828 0 -0.062075486208271788 0.37468365416042188 0 -0.064210651178174066 0.37904237845721811 0 -0.064607287490063475 0.3752877934920828 0 -0.062075486208271788 0.37468365416042188 0 -0.064210651178174066 0.37904237845721811 0 -0.059083848751135488 0.37840884602566088 0 -0.059083848751135488 0.37840884602566088 0 -0.062400115896225239 0.38328565763688038 0 -0.054293362626053041 0.38162223819359442 0 -0.062075486208271788 0.37468365416042188 0 -0.062564083944274151 0.37264302620600032 0 -0.059083848751135488 0.37840884602566088 0 -0.062564083944274151 0.37264302620600032 0 -0.054293362626053041 0.38162223819359442 0 -0.062564083944274151 0.37264302620600032 0 -0.059083848751135488 0.37840884602566088 0 -0.054293362626053041 0.38162223819359442 0 -0.056089193364373929 0.37273715424054699 0 -0.062564083944274151 0.37264302620600032 0 -0.054293362626053041 0.38162223819359442 0 -0.059083848751135488 0.37840884602566088 0 -0.054293362626053041 0.38162223819359442 0 -0.064210651178174066 0.37904237845721811 0 -0.059083848751135488 0.37840884602566088 0 -0.062400115896225239 0.38328565763688038 0 -0.062400115896225239 0.38328565763688038 0 -0.047880784994249512 0.38858413326022379 0 -0.054293362626053041 0.38162223819359442 0 -0.047880784994249512 0.38858413326022379 0 -0.054293362626053041 0.38162223819359442 0 -0.047880784994249512 0.38858413326022379 0 -0.054293362626053041 0.38162223819359442 0 -0.046254793771615982 0.3870143995575549 0 -0.047836657145122599 0.38128015361824008 0 -0.054293362626053041 0.38162223819359442 0 -0.046254793771615982 0.3870143995575549 0 -0.054293362626053041 0.38162223819359442 0 -0.046254793771615982 0.3870143995575549 0 -0.047880784994249512 0.38858413326022379 0 -0.046254793771615982 0.3870143995575549 0 -0.056089193364373929 0.37273715424054699 0 -0.050724207312953518 0.37700173675436199 0 -0.054293362626053041 0.38162223819359442 0 -0.049098878804771373 0.3725140996878949 0 -0.050724207312953518 0.37700173675436199 0 -0.043775979817191349 0.37615739516056462 0 -0.047836657145122599 0.38128015361824008 0 -0.050724207312953518 0.37700173675436199 0 -0.043775979817191349 0.37615739516056462 0 -0.047836657145122599 0.38128015361824008 0 -0.050724207312953518 0.37700173675436199 0 -0.054293362626053041 0.38162223819359442 0 -0.078331801269405671 0.3911923311589619 0 -0.047880784994249512 0.38858413326022379 0 -0.056273405891107527 0.39668637864269979 0 -0.047880784994249512 0.38858413326022379 0 -0.056273405891107527 0.39668637864269979 0 -0.045094078598563243 0.39160955589403151 0 -0.056273405891107527 0.39668637864269979 0 -0.048342871606355781 0.40097934792702961 0 -0.045094078598563243 0.39160955589403151 0 -0.047880784994249512 0.38858413326022379 0 -0.056273405891107527 0.39668637864269979 0 -0.056273405891107527 0.39668637864269979 0 -0.045094078598563243 0.39160955589403151 0 -0.056273405891107527 0.39668637864269979 0 -0.048342871606355781 0.40097934792702961 0 -0.051161828253680347 0.40954535298997258 0 -0.04342775431262437 0.39341862168501102 0 -0.028839939204686131 0.40925606551247828 0 -0.042973684961738069 0.41592643291826231 0 -0.048342871606355781 0.40097934792702961 0 -0.04342775431262437 0.39341862168501102 0 -0.042973684961738069 0.41592643291826231 0 -0.041701311968281377 0.39006881248802111 0 -0.02243782954129785 0.40299049140363558 0 -0.041701311968281377 0.39006881248802111 0 -0.03457878247319518 0.38683428693719679 0 -0.02243782954129785 0.40299049140363558 0 -0.04342775431262437 0.39341862168501102 0 -0.041701311968281377 0.39006881248802111 0 -0.02243782954129785 0.40299049140363558 0 -0.04342775431262437 0.39341862168501102 0 -0.028839939204686131 0.40925606551247828 0 -0.04342775431262437 0.39341862168501102 0 -0.042973684961738069 0.41592643291826231 0 -0.04342775431262437 0.39341862168501102 0 -0.02243782954129785 0.40299049140363558 0 -0.028839939204686131 0.40925606551247828 0 -0.048342871606355781 0.40097934792702961 0 -0.04342775431262437 0.39341862168501102 0 -0.045094078598563243 0.39160955589403151 0 -0.04342775431262437 0.39341862168501102 0 -0.045094078598563243 0.39160955589403151 0 -0.043479046219812342 0.39087612776318198 0 -0.04342775431262437 0.39341862168501102 0 -0.043479046219812342 0.39087612776318198 0 -0.045094078598563243 0.39160955589403151 0 -0.043479046219812342 0.39087612776318198 0 -0.045094078598563243 0.39160955589403151 0 -0.043479046219812342 0.39087612776318198 0 -0.045172553619539632 0.38973569244798251 0 -0.04342775431262437 0.39341862168501102 0 -0.045094078598563243 0.39160955589403151 0 -0.04342775431262437 0.39341862168501102 0 -0.043479046219812342 0.39087612776318198 0 -0.041701311968281377 0.39006881248802111 0 -0.047836657145122599 0.38128015361824008 0 -0.043775979817191349 0.37615739516056462 0 -0.043608491196287617 0.38445965616034072 0 -0.043775979817191349 0.37615739516056462 0 -0.043608491196287617 0.38445965616034072 0 -0.032897312064139907 0.37411907212457252 0 -0.043775979817191349 0.37615739516056462 0 -0.043608491196287617 0.38445965616034072 0 -0.047836657145122599 0.38128015361824008 0 -0.043608491196287617 0.38445965616034072 0 -0.046254793771615982 0.3870143995575549 0 -0.043542573639619581 0.38772713043400647 0 -0.041701311968281377 0.39006881248802111 0 -0.03457878247319518 0.38683428693719679 0 -0.043608491196287617 0.38445965616034072 0 -0.043542573639619581 0.38772713043400647 0 -0.03457878247319518 0.38683428693719679 0 -0.043608491196287617 0.38445965616034072 0 -0.046254793771615982 0.3870143995575549 0 -0.043608491196287617 0.38445965616034072 0 -0.046254793771615982 0.3870143995575549 0 -0.043542573639619581 0.38772713043400647 0 -0.043608491196287617 0.38445965616034072 0 -0.043542573639619581 0.38772713043400647 0 -0.047880784994249512 0.38858413326022379 0 -0.045094078598563243 0.39160955589403151 0 -0.047880784994249512 0.38858413326022379 0 -0.045094078598563243 0.39160955589403151 0 -0.045172553619539632 0.38973569244798251 0 -0.047880784994249512 0.38858413326022379 0 -0.045172553619539632 0.38973569244798251 0 -0.046254793771615982 0.3870143995575549 0 -0.045172553619539632 0.38973569244798251 0 -0.046254793771615982 0.3870143995575549 0 -0.043542573639619581 0.38772713043400647 0 -0.046254793771615982 0.3870143995575549 0 -0.043542573639619581 0.38772713043400647 0 -0.043479046219812342 0.39087612776318198 0 -0.045172553619539632 0.38973569244798251 0 -0.043542573639619581 0.38772713043400647 0 -0.043479046219812342 0.39087612776318198 0 -0.043542573639619581 0.38772713043400647 0 -0.043542573639619581 0.38772713043400647 0 -0.041701311968281377 0.39006881248802111 0 -0.043479046219812342 0.39087612776318198 0 -0.043542573639619581 0.38772713043400647 0 -0.041701311968281377 0.39006881248802111 0 -0.043479046219812342 0.39087612776318198 0 -0.041701311968281377 0.39006881248802111 0 -0.043542573639619581 0.38772713043400647 0 -0.03457878247319518 0.38683428693719679 0 -0.041701311968281377 0.39006881248802111 0 -0.03457878247319518 0.38683428693719679 0 -0.032897312064139907 0.37411907212457252 0 -0.043608491196287617 0.38445965616034072 0 -0.032897312064139907 0.37411907212457252 0 -0.043608491196287617 0.38445965616034072 0 -0.03457878247319518 0.38683428693719679 0 -0.03457878247319518 0.38683428693719679 0 -0.017803283764421592 0.37921609746689411 0 -0.03457878247319518 0.38683428693719679 0 -0.017803283764421592 0.37921609746689411 0 -0.019390911734903489 0.38532149046890818 0 -0.032897312064139907 0.37411907212457252 0 -0.017803283764421592 0.37921609746689411 0 -0.032897312064139907 0.37411907212457252 0 -0.03457878247319518 0.38683428693719679 0 -0.017803283764421592 0.37921609746689411 0 -0.03457878247319518 0.38683428693719679 0 -0.019390911734903489 0.38532149046890818 0 -0.019390911734903489 0.38532149046890818 0 -0.02243782954129785 0.40299049140363558 0 -0.0064316016559190746 0.3999483233353413 0 -0.03457878247319518 0.38683428693719679 0 -0.019390911734903489 0.38532149046890818 0 -0.02243782954129785 0.40299049140363558 0 -0.0064316016559190746 0.3999483233353413 0 -0.0042030409966118051 0.38380869400061962 0 0.010437450069317761 0.40463061763750507 0 -0.001064505034491721 0.37161458349227261 0 -0.017803283764421592 0.37921609746689411 0 -0.001064505034491721 0.37161458349227261 0 -0.017803283764421592 0.37921609746689411 0 -0.0042030409966118051 0.38380869400061962 0 -0.019390911734903489 0.38532149046890818 0 -0.0064316016559190746 0.3999483233353413 0 -0.0042030409966118051 0.38380869400061962 0 -0.017803283764421592 0.37921609746689411 0 -0.0042030409966118051 0.38380869400061962 0 -0.017803283764421592 0.37921609746689411 0 -0.019390911734903489 0.38532149046890818 0 -0.0042030409966118051 0.38380869400061962 0 -0.019390911734903489 0.38532149046890818 0 -0.0042030409966118051 0.38380869400061962 0 -0.014252124096747171 0.42509350933994478 0 0.0048617880261327502 0.44584476697033082 0 -0.014252124096747171 0.42509350933994478 0 -0.010454900682288101 0.44126855924159908 0 0.0048617880261327502 0.44584476697033082 0 -0.014252124096747171 0.42509350933994478 0 -0.0026301228576318379 0.42717885202372191 0 0.0048617880261327502 0.44584476697033082 0 -0.014252124096747171 0.42509350933994478 0 -0.0026301228576318379 0.42717885202372191 0 -0.003174347114314008 0.41591217031924949 0 -0.02243782954129785 0.40299049140363558 0 -0.0064316016559190746 0.3999483233353413 0 -0.003174347114314008 0.41591217031924949 0 -0.02243782954129785 0.40299049140363558 0 -0.003174347114314008 0.41591217031924949 0 -0.02243782954129785 0.40299049140363558 0 -0.014252124096747171 0.42509350933994478 0 -0.003174347114314008 0.41591217031924949 0 -0.014252124096747171 0.42509350933994478 0 -0.003174347114314008 0.41591217031924949 0 -0.014252124096747171 0.42509350933994478 0 -0.028839939204686131 0.40925606551247828 0 -0.02243782954129785 0.40299049140363558 0 -0.014252124096747171 0.42509350933994478 0 -0.028839939204686131 0.40925606551247828 0 -0.014252124096747171 0.42509350933994478 0 -0.028839939204686131 0.40925606551247828 0 -0.022470349574322469 0.43190483207895858 0 -0.014252124096747171 0.42509350933994478 0 -0.022470349574322469 0.43190483207895858 0 -0.010454900682288101 0.44126855924159908 0 -0.014252124096747171 0.42509350933994478 0 -0.022470349574322469 0.43190483207895858 0 -0.022470349574322469 0.43190483207895858 0 -0.010454900682288101 0.44126855924159908 0 -0.022470349574322469 0.43190483207895858 0 -0.042646571141636773 0.43214117214318359 0 -0.04231945732153318 0.44835591136810488 0 -0.022470349574322469 0.43190483207895858 0 -0.042646571141636773 0.43214117214318359 0 -0.042973684961738069 0.41592643291826231 0 -0.042646571141636773 0.43214117214318359 0 -0.042973684961738069 0.41592643291826231 0 -0.022470349574322469 0.43190483207895858 0 -0.042973684961738069 0.41592643291826231 0 -0.028839939204686131 0.40925606551247828 0 -0.022470349574322469 0.43190483207895858 0 -0.042973684961738069 0.41592643291826231 0 -0.077475511178084946 0.4171549142493044 0 -0.051161828253680347 0.40954535298997258 0 -0.055106871557328428 0.42305161159228227 0 -0.077475511178084946 0.4171549142493044 0 -0.056273405891107527 0.39668637864269979 0 -0.051161828253680347 0.40954535298997258 0 -0.048342871606355781 0.40097934792702961 0 -0.042973684961738069 0.41592643291826231 0 -0.051161828253680347 0.40954535298997258 0 -0.042973684961738069 0.41592643291826231 0 -0.051161828253680347 0.40954535298997258 0 -0.042973684961738069 0.41592643291826231 0 -0.051161828253680347 0.40954535298997258 0 -0.055106871557328428 0.42305161159228227 0 -0.042646571141636773 0.43214117214318359 0 -0.059178928229814701 0.4365201208845606 0 -0.055106871557328428 0.42305161159228227 0 -0.042646571141636773 0.43214117214318359 0 -0.042973684961738069 0.41592643291826231 0 -0.055106871557328428 0.42305161159228227 0 -0.042646571141636773 0.43214117214318359 0 -0.059178928229814701 0.4365201208845606 0 -0.049245987713513212 0.44319563894678482 0 -0.059178928229814701 0.4365201208845606 0 -0.050742244958162368 0.46439359559444437 0 -0.049245987713513212 0.44319563894678482 0 -0.050742244958162368 0.46439359559444437 0 -0.044608833217136261 0.45025336211807931 0 -0.059178928229814701 0.4365201208845606 0 -0.050742244958162368 0.46439359559444437 0 -0.065484051744298263 0.4513847118260722 0 -0.059178928229814701 0.4365201208845606 0 -0.049245987713513212 0.44319563894678482 0 -0.050742244958162368 0.46439359559444437 0 -0.050742244958162368 0.46439359559444437 0 -0.061707257777874093 0.47273252787991399 0 -0.073231504917427276 0.46237159316971249 0 -0.050742244958162368 0.46439359559444437 0 -0.073231504917427276 0.46237159316971249 0 -0.0419800222431604 0.46518140433549732 0 -0.04231945732153318 0.44835591136810488 0 -0.025697431038521311 0.45487791879973932 0 -0.0419800222431604 0.46518140433549732 0 -0.04231945732153318 0.44835591136810488 0 -0.0419800222431604 0.46518140433549732 0 -0.044608833217136261 0.45025336211807931 0 -0.04231945732153318 0.44835591136810488 0 -0.050742244958162368 0.46439359559444437 0 -0.0419800222431604 0.46518140433549732 0 -0.050742244958162368 0.46439359559444437 0 -0.0419800222431604 0.46518140433549732 0 -0.044608833217136261 0.45025336211807931 0 -0.022470349574322469 0.43190483207895858 0 -0.04231945732153318 0.44835591136810488 0 -0.042646571141636773 0.43214117214318359 0 -0.049245987713513212 0.44319563894678482 0 -0.04231945732153318 0.44835591136810488 0 -0.042646571141636773 0.43214117214318359 0 -0.04231945732153318 0.44835591136810488 0 -0.049245987713513212 0.44319563894678482 0 -0.044608833217136261 0.45025336211807931 0 -0.04231945732153318 0.44835591136810488 0 -0.044608833217136261 0.45025336211807931 0 -0.04231945732153318 0.44835591136810488 0 -0.022470349574322469 0.43190483207895858 0 -0.04231945732153318 0.44835591136810488 0 -0.022362297003099281 0.44511471557515531 0 -0.04231945732153318 0.44835591136810488 0 -0.022362297003099281 0.44511471557515531 0 -0.025697431038521311 0.45487791879973932 0 -0.022470349574322469 0.43190483207895858 0 -0.022362297003099281 0.44511471557515531 0 -0.010454900682288101 0.44126855924159908 0 -0.022362297003099281 0.44511471557515531 0 -0.025697431038521311 0.45487791879973932 0 -0.01311544116488466 0.453963754661173 0 -0.0419800222431604 0.46518140433549732 0 -0.025697431038521311 0.45487791879973932 0 -0.01345201465746383 0.46774634869629322 0 -0.0419800222431604 0.46518140433549732 0 -0.01345201465746383 0.46774634869629322 0 -0.025697431038521311 0.45487791879973932 0 -0.01311544116488466 0.453963754661173 0 -0.01345201465746383 0.46774634869629322 0 -0.0094095992007081283 0.46654139838691122 0 -0.010427957625441169 0.46801824073108461 0 0.0053167838454733218 0.46943384557929257 0 -0.0094095992007081283 0.46654139838691122 0 0.0015605482097463411 0.45063228640423969 0 -0.010427957625441169 0.46801824073108461 0 0.0053167838454733218 0.46943384557929257 0 -0.0094095992007081283 0.46654139838691122 0 0.0080738590363113663 0.46132998490476868 0 -0.01311544116488466 0.453963754661173 0 -0.0094095992007081283 0.46654139838691122 0 0.0015605482097463411 0.45063228640423969 0 -0.01311544116488466 0.453963754661173 0 -0.01345201465746383 0.46774634869629322 0 -0.0094095992007081283 0.46654139838691122 0 -0.01345201465746383 0.46774634869629322 0 -0.010427957625441169 0.46801824073108461 0 -0.01345201465746383 0.46774634869629322 0 -0.0094095992007081283 0.46654139838691122 0 -0.01345201465746383 0.46774634869629322 0 -0.0094095992007081283 0.46654139838691122 0 -0.010427957625441169 0.46801824073108461 0 -0.0094095992007081283 0.46654139838691122 0 -0.010427957625441169 0.46801824073108461 0 -0.01311544116488466 0.453963754661173 0 -0.010454900682288101 0.44126855924159908 0 0.0015605482097463411 0.45063228640423969 0 -0.010454900682288101 0.44126855924159908 0 0.0048617880261327502 0.44584476697033082 0 0.0015605482097463411 0.45063228640423969 0 -0.010454900682288101 0.44126855924159908 0 0.0015605482097463411 0.45063228640423969 0 -0.022362297003099281 0.44511471557515531 0 -0.01311544116488466 0.453963754661173 0 -0.010454900682288101 0.44126855924159908 0 -0.0067005321321746969 0.5 0 -0.003880604538310756 0.48346324919380129 0 -0.021454488019086362 0.48400912036554289 0 -0.01345201465746383 0.46774634869629322 0 -0.010427957625441169 0.46801824073108461 0 -0.021454488019086362 0.48400912036554289 0 -0.010427957625441169 0.46801824073108461 0 -0.003880604538310756 0.48346324919380129 0 -0.021454488019086362 0.48400912036554289 0 -0.010427957625441169 0.46801824073108461 0 -0.001026908195020756 0.47486914558720472 0 0.0053167838454733218 0.46943384557929257 0 -0.010427957625441169 0.46801824073108461 0 -0.003880604538310756 0.48346324919380129 0 -0.001026908195020756 0.47486914558720472 0 -0.010427957625441169 0.46801824073108461 0 -0.021454488019086362 0.48400912036554289 0 -0.01345201465746383 0.46774634869629322 0 -0.021454488019086362 0.48400912036554289 0 -0.032447842195153342 0.48378293317924542 0 -0.01345201465746383 0.46774634869629322 0 -0.032447842195153342 0.48378293317924542 0 -0.041758062999807367 0.47618372532725728 0 -0.01345201465746383 0.46774634869629322 0 -0.041758062999807367 0.47618372532725728 0 -0.021454488019086362 0.48400912036554289 0 -0.032481018412731863 0.50000000000000089 0 -0.033555046977316587 0.49207813668870121 0 -0.021454488019086362 0.48400912036554289 0 -0.032481018412731863 0.50000000000000089 0 -0.021454488019086362 0.48400912036554289 0 -0.033555046977316587 0.49207813668870121 0 -0.032447842195153342 0.48378293317924542 0 -0.0067005321321746969 0.5 0 -0.021454488019086362 0.48400912036554289 0 -0.032481018412731863 0.50000000000000089 0 -0.033555046977316587 0.49207813668870121 0 -0.039964975186860582 0.49999999999999872 0 -0.042139887415076342 0.49281443204190178 0 -0.032481018412731863 0.50000000000000089 0 -0.033555046977316587 0.49207813668870121 0 -0.039964975186860582 0.49999999999999872 0 -0.042139887415076342 0.49281443204190178 0 -0.041758062999807367 0.47618372532725728 0 -0.033555046977316587 0.49207813668870121 0 -0.042139887415076342 0.49281443204190178 0 -0.032447842195153342 0.48378293317924542 0 -0.042139887415076342 0.49281443204190178 0 -0.046725468384182907 0.47766439368476649 0 -0.039964975186860582 0.49999999999999872 0 -0.042139887415076342 0.49281443204190178 0 -0.053580454847170257 0.49193017513362319 0 -0.039964975186860582 0.49999999999999872 0 -0.042139887415076342 0.49281443204190178 0 -0.042139887415076342 0.49281443204190178 0 -0.046725468384182907 0.47766439368476649 0 -0.041758062999807367 0.47618372532725728 0 -0.0419800222431604 0.46518140433549732 0 -0.01345201465746383 0.46774634869629322 0 -0.041758062999807367 0.47618372532725728 0 -0.042139887415076342 0.49281443204190178 0 -0.032447842195153342 0.48378293317924542 0 -0.041758062999807367 0.47618372532725728 0 -0.046725468384182907 0.47766439368476649 0 -0.041758062999807367 0.47618372532725728 0 -0.0419800222431604 0.46518140433549732 0 -0.046725468384182907 0.47766439368476649 0 -0.041758062999807367 0.47618372532725728 0 -0.050742244958162368 0.46439359559444437 0 -0.0419800222431604 0.46518140433549732 0 -0.046725468384182907 0.47766439368476649 0 -0.0419800222431604 0.46518140433549732 0 -0.041758062999807367 0.47618372532725728 0 -0.046725468384182907 0.47766439368476649 0 -0.061707257777874093 0.47273252787991399 0 -0.071702929972361051 0.48510959578984503 0 -0.046725468384182907 0.47766439368476649 0 -0.071702929972361051 0.48510959578984503 0 -0.050742244958162368 0.46439359559444437 0 -0.046725468384182907 0.47766439368476649 0 -0.061707257777874093 0.47273252787991399 0 -0.050742244958162368 0.46439359559444437 0 -0.046725468384182907 0.47766439368476649 0 -0.046725468384182907 0.47766439368476649 0 -0.053580454847170257 0.49193017513362319 0 -0.071702929972361051 0.48510959578984503 0 -0.039964975186860582 0.49999999999999872 0 -0.053580454847170257 0.49193017513362319 0 -0.067195934507479516 0.5 0 -0.042139887415076342 0.49281443204190178 0 -0.046725468384182907 0.47766439368476649 0 -0.053580454847170257 0.49193017513362319 0 -0.053580454847170257 0.49193017513362319 0 -0.067195934507479516 0.5 0 -0.071702929972361051 0.48510959578984503 0 -0.067195934507479516 0.5 0 -0.071702929972361051 0.48510959578984503 0 -0.094426893828098324 0.5 0 -0.071702929972361051 0.48510959578984503 0 -0.096680391560538939 0.49255479789492401 0 -0.071702929972361051 0.48510959578984503 0 -0.094426893828098324 0.5 0 -0.096680391560538939 0.49255479789492401 0 -0.071702929972361051 0.48510959578984503 0 -0.094342239683345888 0.46564946071770819 0 -0.096680391560538939 0.49255479789492401 0 -0.071702929972361051 0.48510959578984503 0 -0.073231504917427276 0.46237159316971249 0 -0.094342239683345888 0.46564946071770819 0 -0.061707257777874093 0.47273252787991399 0 -0.071702929972361051 0.48510959578984503 0 -0.073231504917427276 0.46237159316971249 0 -0.050742244958162368 0.46439359559444437 0 -0.073231504917427276 0.46237159316971249 0 -0.065484051744298263 0.4513847118260722 0 -0.059178928229814701 0.4365201208845606 0 -0.065484051744298263 0.4513847118260722 0 -0.078698858269308614 0.44343419105434712 0 -0.073231504917427276 0.46237159316971249 0 -0.065484051744298263 0.4513847118260722 0 -0.078698858269308614 0.44343419105434712 0 -0.078698858269308614 0.44343419105434712 0 -0.094342239683345888 0.46564946071770819 0 -0.098677616465060528 0.43762344985591101 0 -0.073231504917427276 0.46237159316971249 0 -0.078698858269308614 0.44343419105434712 0 -0.094342239683345888 0.46564946071770819 0 -0.094342239683345888 0.46564946071770819 0 -0.098677616465060528 0.43762344985591101 0 -0.11987972175203609 0.45809198546251739 0 -0.098677616465060528 0.43762344985591101 0 -0.11987972175203609 0.45809198546251739 0 -0.12509104342100061 0.44188941827772182 0 -0.098677616465060528 0.43762344985591101 0 -0.11987972175203609 0.45809198546251739 0 -0.094342239683345888 0.46564946071770819 0 -0.11987972175203609 0.45809198546251739 0 -0.1215246548466888 0.48036061179670092 0 -0.1215246548466888 0.48036061179670092 0 -0.1216578531487173 0.50000000000000155 0 -0.096680391560538939 0.49255479789492401 0 -0.1216578531487173 0.50000000000000155 0 -0.094426893828098324 0.5 0 -0.096680391560538939 0.49255479789492401 0 -0.1216578531487173 0.50000000000000155 0 -0.096680391560538939 0.49255479789492401 0 -0.094342239683345888 0.46564946071770819 0 -0.1215246548466888 0.48036061179670092 0 -0.096680391560538939 0.49255479789492401 0 -0.16310986573530631 0.084156321085019567 0 -0.17544541039362899 0.09436804860009354 0 -0.15783765240444911 0.096274401630791262 0 -0.16310986573530631 0.084156321085019567 0 -0.15783765240444911 0.096274401630791262 0 -0.16310986573530631 0.084156321085019567 0 -0.1657815390990264 0.070802932860687437 0 -0.15463431661472629 0.07014553381523804 0 -0.16310986573530631 0.084156321085019567 0 -0.1657815390990264 0.070802932860687437 0 -0.17966236107341149 0.074300518116336353 0 -0.1657815390990264 0.070802932860687437 0 -0.17966236107341149 0.074300518116336353 0 -0.1657196129726615 0.054609358426155781 0 -0.1657815390990264 0.070802932860687437 0 -0.15463431661472629 0.07014553381523804 0 -0.1657196129726615 0.054609358426155781 0 -0.17966236107341149 0.074300518116336353 0 -0.1657196129726615 0.054609358426155781 0 -0.19326118210642521 0.060262893486061127 0 -0.17966236107341149 0.074300518116336353 0 -0.1657196129726615 0.054609358426155781 0 -0.16310986573530631 0.084156321085019567 0 -0.17966236107341149 0.074300518116336353 0 -0.17544541039362899 0.09436804860009354 0 -0.17966236107341149 0.074300518116336353 0 -0.17544541039362899 0.09436804860009354 0 -0.19360510917416149 0.093991677806516877 0 -0.17966236107341149 0.074300518116336353 0 -0.19360510917416149 0.093991677806516877 0 -0.17544541039362899 0.09436804860009354 0 -0.18934336527218601 0.1087413065502997 0 -0.19360510917416149 0.093991677806516877 0 -0.17544541039362899 0.09436804860009354 0 -0.16911410870225951 0.1087440664115976 0 -0.18934336527218601 0.1087413065502997 0 -0.18039056500006781 0.12121373119240569 0 -0.16911410870225951 0.1087440664115976 0 -0.18934336527218601 0.1087413065502997 0 -0.18039056500006781 0.12121373119240569 0 -0.16911410870225951 0.1087440664115976 0 -0.18039056500006781 0.12121373119240569 0 -0.16911410870225951 0.1087440664115976 0 -0.15507510040999009 0.1056512286087255 0 -0.18039056500006781 0.12121373119240569 0 -0.15507510040999009 0.1056512286087255 0 -0.1628447509754036 0.1248738178506951 0 -0.15507510040999009 0.1056512286087255 0 -0.15358711882774939 0.11801712706942639 0 -0.18039056500006781 0.12121373119240569 0 -0.1628447509754036 0.1248738178506951 0 -0.15507510040999009 0.1056512286087255 0 -0.17544541039362899 0.09436804860009354 0 -0.16911410870225951 0.1087440664115976 0 -0.15783765240444911 0.096274401630791262 0 -0.16911410870225951 0.1087440664115976 0 -0.15783765240444911 0.096274401630791262 0 -0.16911410870225951 0.1087440664115976 0 -0.15783765240444911 0.096274401630791262 0 -0.15507510040999009 0.1056512286087255 0 -0.15783765240444911 0.096274401630791262 0 -0.14455303356647331 0.096744639073681929 0 -0.15139402388202119 0.11108495737684999 0 -0.14455303356647331 0.096744639073681929 0 -0.15139402388202119 0.11108495737684999 0 -0.12991930243541749 0.1020465165188278 0 -0.15783765240444911 0.096274401630791262 0 -0.15507510040999009 0.1056512286087255 0 -0.15139402388202119 0.11108495737684999 0 -0.15783765240444911 0.096274401630791262 0 -0.15139402388202119 0.11108495737684999 0 -0.15139402388202119 0.11108495737684999 0 -0.12991930243541749 0.1020465165188278 0 -0.14495039535959489 0.12589551312290931 0 -0.1628447509754036 0.1248738178506951 0 -0.15358711882774939 0.11801712706942639 0 -0.14495039535959489 0.12589551312290931 0 -0.15358711882774939 0.11801712706942639 0 -0.15139402388202119 0.11108495737684999 0 -0.14495039535959489 0.12589551312290931 0 -0.15507510040999009 0.1056512286087255 0 -0.15358711882774939 0.11801712706942639 0 -0.15139402388202119 0.11108495737684999 0 -0.15139402388202119 0.11108495737684999 0 -0.14495039535959489 0.12589551312290931 0 -0.12991930243541749 0.1020465165188278 0 -0.14495039535959489 0.12589551312290931 0 -0.12991930243541749 0.1020465165188278 0 -0.14495039535959489 0.12589551312290931 0 -0.13028426483969929 0.13221647237215789 0 -0.14455303356647331 0.096744639073681929 0 -0.12991930243541749 0.1020465165188278 0 -0.13683438329036771 0.088098653177494879 0 -0.12991930243541749 0.1020465165188278 0 -0.13683438329036771 0.088098653177494879 0 -0.1248370695698198 0.083226530136874921 0 -0.13683438329036771 0.088098653177494879 0 -0.13729578978526799 0.073558919561796721 0 -0.1248370695698198 0.083226530136874921 0 -0.13683438329036771 0.088098653177494879 0 -0.14756672109485969 0.08491666059629295 0 -0.13729578978526799 0.073558919561796721 0 -0.14455303356647331 0.096744639073681929 0 -0.13683438329036771 0.088098653177494879 0 -0.14756672109485969 0.08491666059629295 0 -0.14756672109485969 0.08491666059629295 0 -0.13729578978526799 0.073558919561796721 0 -0.16310986573530631 0.084156321085019567 0 -0.14756672109485969 0.08491666059629295 0 -0.15463431661472629 0.07014553381523804 0 -0.16310986573530631 0.084156321085019567 0 -0.15783765240444911 0.096274401630791262 0 -0.14756672109485969 0.08491666059629295 0 -0.15783765240444911 0.096274401630791262 0 -0.14756672109485969 0.08491666059629295 0 -0.15783765240444911 0.096274401630791262 0 -0.14455303356647331 0.096744639073681929 0 -0.14756672109485969 0.08491666059629295 0 -0.14756672109485969 0.08491666059629295 0 -0.15463431661472629 0.07014553381523804 0 -0.13729578978526799 0.073558919561796721 0 -0.15463431661472629 0.07014553381523804 0 -0.13729578978526799 0.073558919561796721 0 -0.14428807100988511 0.057223156242914672 0 -0.13729578978526799 0.073558919561796721 0 -0.1311901693420546 0.060374133793646992 0 -0.14428807100988511 0.057223156242914672 0 -0.13729578978526799 0.073558919561796721 0 -0.12498233095038511 0.069533312171706482 0 -0.1248370695698198 0.083226530136874921 0 -0.13729578978526799 0.073558919561796721 0 -0.1311901693420546 0.060374133793646992 0 -0.12498233095038511 0.069533312171706482 0 -0.1311901693420546 0.060374133793646992 0 -0.1304591025064194 0.044551821316570157 0 -0.1169815729820268 0.057446916627697332 0 -0.1311901693420546 0.060374133793646992 0 -0.1304591025064194 0.044551821316570157 0 -0.14428807100988511 0.057223156242914672 0 -0.1304591025064194 0.044551821316570157 0 -0.1338093633065561 0.031702984145267947 0 -0.14718764802187309 0.041237794311798179 0 -0.1304591025064194 0.044551821316570157 0 -0.1338093633065561 0.031702984145267947 0 -0.120950474974805 0.030974477430810402 0 -0.14718764802187309 0.041237794311798179 0 -0.14507935476777459 0.024735833563247479 0 -0.16332082262574071 0.033969476032413119 0 -0.1338093633065561 0.031702984145267947 0 -0.14718764802187309 0.041237794311798179 0 -0.14507935476777459 0.024735833563247479 0 -0.1304591025064194 0.044551821316570157 0 -0.14718764802187309 0.041237794311798179 0 -0.14428807100988511 0.057223156242914672 0 -0.15463431661472629 0.07014553381523804 0 -0.14428807100988511 0.057223156242914672 0 -0.1657196129726615 0.054609358426155781 0 -0.14718764802187309 0.041237794311798179 0 -0.14428807100988511 0.057223156242914672 0 -0.1657196129726615 0.054609358426155781 0 -0.1273771369441013 0.0023450629401116992 0 -0.12537023626190849 0.01701499410391356 0 -0.14358534871595791 0.0085390787577918573 0 -0.14275634286812811 -0.006203461430080404 0 -0.1273771369441013 0.0023450629401116992 0 -0.14358534871595791 0.0085390787577918573 0 -0.1338093633065561 0.031702984145267947 0 -0.12537023626190849 0.01701499410391356 0 -0.14507935476777459 0.024735833563247479 0 -0.12537023626190849 0.01701499410391356 0 -0.14507935476777459 0.024735833563247479 0 -0.14358534871595791 0.0085390787577918573 0 -0.1338093633065561 0.031702984145267947 0 -0.12537023626190849 0.01701499410391356 0 -0.120950474974805 0.030974477430810402 0 -0.14507935476777459 0.024735833563247479 0 -0.14358534871595791 0.0085390787577918573 0 -0.1631610812614456 0.0141265482177085 0 -0.15796117991031841 -0.00029962151665172479 0 -0.14358534871595791 0.0085390787577918573 0 -0.1631610812614456 0.0141265482177085 0 -0.14275634286812811 -0.006203461430080404 0 -0.15796117991031841 -0.00029962151665172479 0 -0.14358534871595791 0.0085390787577918573 0 -0.15796117991031841 -0.00029962151665172479 0 -0.17967452986780849 -0.0030086181600807401 0 -0.1631610812614456 0.0141265482177085 0 -0.1631610812614456 0.0141265482177085 0 -0.18063081477410151 0.02444866588981499 0 -0.16332082262574071 0.033969476032413119 0 -0.14507935476777459 0.024735833563247479 0 -0.1631610812614456 0.0141265482177085 0 -0.16332082262574071 0.033969476032413119 0 -0.17967452986780849 -0.0030086181600807401 0 -0.1631610812614456 0.0141265482177085 0 -0.18063081477410151 0.02444866588981499 0 -0.17967452986780849 -0.0030086181600807401 0 -0.18063081477410151 0.02444866588981499 0 -0.19591489879339791 0.012499298725408061 0 -0.1657196129726615 0.054609358426155781 0 -0.16332082262574071 0.033969476032413119 0 -0.1853408533429271 0.041769259974547668 0 -0.14718764802187309 0.041237794311798179 0 -0.1657196129726615 0.054609358426155781 0 -0.16332082262574071 0.033969476032413119 0 -0.18063081477410151 0.02444866588981499 0 -0.16332082262574071 0.033969476032413119 0 -0.1853408533429271 0.041769259974547668 0 -0.1657196129726615 0.054609358426155781 0 -0.1853408533429271 0.041769259974547668 0 -0.19326118210642521 0.060262893486061127 0 -0.1853408533429271 0.041769259974547668 0 -0.19326118210642521 0.060262893486061127 0 -0.20638984228336041 0.047204147208118788 0 -0.18063081477410151 0.02444866588981499 0 -0.1853408533429271 0.041769259974547668 0 -0.2003712226561333 0.029120430419108619 0 -0.1853408533429271 0.041769259974547668 0 -0.20638984228336041 0.047204147208118788 0 -0.2003712226561333 0.029120430419108619 0 -0.20638984228336041 0.047204147208118788 0 -0.2003712226561333 0.029120430419108619 0 -0.21890969838457369 0.03387481538926377 0 -0.20638984228336041 0.047204147208118788 0 -0.2248274879423891 0.050626958701997932 0 -0.21890969838457369 0.03387481538926377 0 -0.20638984228336041 0.047204147208118788 0 -0.2248274879423891 0.050626958701997932 0 -0.21240822864659401 0.064474545157398255 0 -0.19326118210642521 0.060262893486061127 0 -0.20638984228336041 0.047204147208118788 0 -0.21240822864659401 0.064474545157398255 0 -0.17967452986780849 -0.0030086181600807401 0 -0.20680301002479959 -0.0020434230711429339 0 -0.19591489879339791 0.012499298725408061 0 -0.18063081477410151 0.02444866588981499 0 -0.19591489879339791 0.012499298725408061 0 -0.2003712226561333 0.029120430419108619 0 -0.2003712226561333 0.029120430419108619 0 -0.2150412283584397 0.01492639532749848 0 -0.21890969838457369 0.03387481538926377 0 -0.19591489879339791 0.012499298725408061 0 -0.2003712226561333 0.029120430419108619 0 -0.2150412283584397 0.01492639532749848 0 -0.20680301002479959 -0.0020434230711429339 0 -0.19591489879339791 0.012499298725408061 0 -0.2150412283584397 0.01492639532749848 0 -0.20680301002479959 -0.0020434230711429339 0 -0.2150412283584397 0.01492639532749848 0 -0.22850437187820721 0.00061554774341724197 0 -0.2150412283584397 0.01492639532749848 0 -0.22850437187820721 0.00061554774341724197 0 -0.23416676111704099 0.01917273774715204 0 -0.23416676111704099 0.01917273774715204 0 -0.21890969838457369 0.03387481538926377 0 -0.23451298379830759 0.036058925104307242 0 -0.2150412283584397 0.01492639532749848 0 -0.23416676111704099 0.01917273774715204 0 -0.21890969838457369 0.03387481538926377 0 -0.25132042997239518 0.0027134119798401068 0 -0.25642639863326749 0.02710060176493858 0 -0.23416676111704099 0.01917273774715204 0 -0.25642639863326749 0.02710060176493858 0 -0.23416676111704099 0.01917273774715204 0 -0.23451298379830759 0.036058925104307242 0 -0.25132042997239518 0.0027134119798401068 0 -0.22850437187820721 0.00061554774341724197 0 -0.23416676111704099 0.01917273774715204 0 -0.2248274879423891 0.050626958701997932 0 -0.234130504556473 0.067172247096954504 0 -0.21240822864659401 0.064474545157398255 0 -0.2248274879423891 0.050626958701997932 0 -0.21890969838457369 0.03387481538926377 0 -0.23451298379830759 0.036058925104307242 0 -0.25642639863326749 0.02710060176493858 0 -0.23451298379830759 0.036058925104307242 0 -0.24534917185526489 0.049526218608574313 0 -0.2248274879423891 0.050626958701997932 0 -0.23451298379830759 0.036058925104307242 0 -0.24534917185526489 0.049526218608574313 0 -0.26195798501385009 0.070226375813507561 0 -0.24534917185526489 0.049526218608574313 0 -0.234130504556473 0.067172247096954504 0 -0.2248274879423891 0.050626958701997932 0 -0.24534917185526489 0.049526218608574313 0 -0.234130504556473 0.067172247096954504 0 -0.26195798501385009 0.070226375813507561 0 -0.24382127576753621 0.084711863041238192 0 -0.234130504556473 0.067172247096954504 0 -0.24382127576753621 0.084711863041238192 0 -0.22568456652122221 0.099197350268968809 0 -0.24382127576753621 0.084711863041238192 0 -0.221160002309051 0.081738136999685213 0 -0.22568456652122221 0.099197350268968809 0 -0.221160002309051 0.081738136999685213 0 -0.20949418686790969 0.097522886253834359 0 -0.22568456652122221 0.099197350268968809 0 -0.24382127576753621 0.084711863041238192 0 -0.221160002309051 0.081738136999685213 0 -0.234130504556473 0.067172247096954504 0 -0.221160002309051 0.081738136999685213 0 -0.234130504556473 0.067172247096954504 0 -0.21240822864659401 0.064474545157398255 0 -0.221160002309051 0.081738136999685213 0 -0.21240822864659401 0.064474545157398255 0 -0.19789508720454749 0.077516785054754192 0 -0.221160002309051 0.081738136999685213 0 -0.19789508720454749 0.077516785054754192 0 -0.20949418686790969 0.097522886253834359 0 -0.17966236107341149 0.074300518116336353 0 -0.19789508720454749 0.077516785054754192 0 -0.19360510917416149 0.093991677806516877 0 -0.19789508720454749 0.077516785054754192 0 -0.19360510917416149 0.093991677806516877 0 -0.20949418686790969 0.097522886253834359 0 -0.19326118210642521 0.060262893486061127 0 -0.21240822864659401 0.064474545157398255 0 -0.19789508720454749 0.077516785054754192 0 -0.17966236107341149 0.074300518116336353 0 -0.19326118210642521 0.060262893486061127 0 -0.19789508720454749 0.077516785054754192 0 -0.20040659369392541 0.1193864456313013 0 -0.18934336527218601 0.1087413065502997 0 -0.2075478572749084 0.11368283749669961 0 -0.18039056500006781 0.12121373119240569 0 -0.20040659369392541 0.1193864456313013 0 -0.18934336527218601 0.1087413065502997 0 -0.19360510917416149 0.093991677806516877 0 -0.2075478572749084 0.11368283749669961 0 -0.18934336527218601 0.1087413065502997 0 -0.19360510917416149 0.093991677806516877 0 -0.2075478572749084 0.11368283749669961 0 -0.19360510917416149 0.093991677806516877 0 -0.20949418686790969 0.097522886253834359 0 -0.2075478572749084 0.11368283749669961 0 -0.2075478572749084 0.11368283749669961 0 -0.22568456652122221 0.099197350268968809 0 -0.20949418686790969 0.097522886253834359 0 -0.2075478572749084 0.11368283749669961 0 -0.22568456652122221 0.099197350268968809 0 -0.2075478572749084 0.11368283749669961 0 -0.22488407219564061 0.1186598638475915 0 -0.22370276663374011 0.1364982034250237 0 -0.20040659369392541 0.1193864456313013 0 -0.2075478572749084 0.11368283749669961 0 -0.20214902218410111 0.13458958866239301 0 -0.20040659369392541 0.1193864456313013 0 -0.2075478572749084 0.11368283749669961 0 -0.2075478572749084 0.11368283749669961 0 -0.22488407219564061 0.1186598638475915 0 -0.22568456652122221 0.099197350268968809 0 -0.22488407219564061 0.1186598638475915 0 -0.23975573915859391 0.1186480270080747 0 -0.23562440086935879 0.12869665656040569 0 -0.22488407219564061 0.1186598638475915 0 -0.22568456652122221 0.099197350268968809 0 -0.23888908650362611 0.1045060591559635 0 -0.24382127576753621 0.084711863041238192 0 -0.22568456652122221 0.099197350268968809 0 -0.23888908650362611 0.1045060591559635 0 -0.25364395357421121 0.10678394025260531 0 -0.24382127576753621 0.084711863041238192 0 -0.23888908650362611 0.1045060591559635 0 -0.25033803458298193 0.12914144363467839 0 -0.25364395357421121 0.10678394025260531 0 -0.23975573915859391 0.1186480270080747 0 -0.22488407219564061 0.1186598638475915 0 -0.23888908650362611 0.1045060591559635 0 -0.23975573915859391 0.1186480270080747 0 -0.25364395357421121 0.10678394025260531 0 -0.23888908650362611 0.1045060591559635 0 -0.23975573915859391 0.1186480270080747 0 -0.25033803458298193 0.12914144363467839 0 -0.23975573915859391 0.1186480270080747 0 -0.23562440086935879 0.12869665656040569 0 -0.25033803458298193 0.12914144363467839 0 -0.2394413917758374 0.14053574488666021 0 -0.23562440086935879 0.12869665656040569 0 -0.2394413917758374 0.14053574488666021 0 -0.23562440086935879 0.12869665656040569 0 -0.22370276663374011 0.1364982034250237 0 -0.22488407219564061 0.1186598638475915 0 -0.23562440086935879 0.12869665656040569 0 -0.22370276663374011 0.1364982034250237 0 -0.2394413917758374 0.14053574488666021 0 -0.22370276663374011 0.1364982034250237 0 -0.22390747936813421 0.14796544613238069 0 -0.22390747936813421 0.14796544613238069 0 -0.22774584105848089 0.15976823357977049 0 -0.2168312664826515 0.15850745189495519 0 -0.2394413917758374 0.14053574488666021 0 -0.22390747936813421 0.14796544613238069 0 -0.24566593655216731 0.1613413036023684 0 -0.22390747936813421 0.14796544613238069 0 -0.24566593655216731 0.1613413036023684 0 -0.26077588748637798 0.14053443996503889 0 -0.2394413917758374 0.14053574488666021 0 -0.24566593655216731 0.1613413036023684 0 -0.24566593655216731 0.1613413036023684 0 -0.2425545525554833 0.18325607046718431 0 -0.22457868183097049 0.171258732689378 0 -0.2425545525554833 0.18325607046718431 0 -0.2235130486054053 0.18492553164669809 0 -0.22457868183097049 0.171258732689378 0 -0.2425545525554833 0.18325607046718431 0 -0.2235130486054053 0.18492553164669809 0 -0.2315679775879351 0.19375458513227489 0 -0.2235130486054053 0.18492553164669809 0 -0.22457868183097049 0.171258732689378 0 -0.209750232499154 0.17791844316711489 0 -0.24566593655216731 0.1613413036023684 0 -0.22774584105848089 0.15976823357977049 0 -0.22457868183097049 0.171258732689378 0 -0.22390747936813421 0.14796544613238069 0 -0.24566593655216731 0.1613413036023684 0 -0.22774584105848089 0.15976823357977049 0 -0.22774584105848089 0.15976823357977049 0 -0.22457868183097049 0.171258732689378 0 -0.2168312664826515 0.15850745189495519 0 -0.2168312664826515 0.15850745189495519 0 -0.21186753860838101 0.16733255095299371 0 -0.20758447520558959 0.15683863127083711 0 -0.22457868183097049 0.171258732689378 0 -0.2168312664826515 0.15850745189495519 0 -0.21186753860838101 0.16733255095299371 0 -0.21186753860838101 0.16733255095299371 0 -0.209750232499154 0.17791844316711489 0 -0.20173639765426299 0.1643971743801825 0 -0.21186753860838101 0.16733255095299371 0 -0.20758447520558959 0.15683863127083711 0 -0.20173639765426299 0.1643971743801825 0 -0.20758447520558959 0.15683863127083711 0 -0.20173639765426299 0.1643971743801825 0 -0.20024290349544879 0.15519061181074151 0 -0.22457868183097049 0.171258732689378 0 -0.21186753860838101 0.16733255095299371 0 -0.209750232499154 0.17791844316711489 0 -0.19610042498268601 0.17522502183351021 0 -0.19038698318195549 0.16711234260031069 0 -0.17752183765376101 0.1775748035498933 0 -0.19610042498268601 0.17522502183351021 0 -0.19785886193094021 0.18900131099286041 0 -0.17752183765376101 0.1775748035498933 0 -0.19785886193094021 0.18900131099286041 0 -0.17752183765376101 0.1775748035498933 0 -0.209750232499154 0.17791844316711489 0 -0.19610042498268601 0.17522502183351021 0 -0.19785886193094021 0.18900131099286041 0 -0.209750232499154 0.17791844316711489 0 -0.19610042498268601 0.17522502183351021 0 -0.20173639765426299 0.1643971743801825 0 -0.20173639765426299 0.1643971743801825 0 -0.1927705130470404 0.15866088515044 0 -0.20024290349544879 0.15519061181074151 0 -0.19610042498268601 0.17522502183351021 0 -0.20173639765426299 0.1643971743801825 0 -0.19038698318195549 0.16711234260031069 0 -0.20173639765426299 0.1643971743801825 0 -0.19038698318195549 0.16711234260031069 0 -0.1927705130470404 0.15866088515044 0 -0.19038698318195549 0.16711234260031069 0 -0.1927705130470404 0.15866088515044 0 -0.18413510522225521 0.16259499244525211 0 -0.1927705130470404 0.15866088515044 0 -0.19507878308752141 0.1486405391940768 0 -0.1852646507768699 0.1545619776798173 0 -0.19507878308752141 0.1486405391940768 0 -0.18706065072040501 0.14468661846275019 0 -0.1852646507768699 0.1545619776798173 0 -0.19507878308752141 0.1486405391940768 0 -0.20024290349544879 0.15519061181074151 0 -0.20390252305447459 0.15036513687703029 0 -0.1927705130470404 0.15866088515044 0 -0.19507878308752141 0.1486405391940768 0 -0.20024290349544879 0.15519061181074151 0 -0.19507878308752141 0.1486405391940768 0 -0.202312374299252 0.1441640524023215 0 -0.19563802519160789 0.13807458821396759 0 -0.19507878308752141 0.1486405391940768 0 -0.202312374299252 0.1441640524023215 0 -0.20390252305447459 0.15036513687703029 0 -0.19507878308752141 0.1486405391940768 0 -0.19563802519160789 0.13807458821396759 0 -0.18706065072040501 0.14468661846275019 0 -0.18039056500006781 0.12121373119240569 0 -0.20214902218410111 0.13458958866239301 0 -0.18039056500006781 0.12121373119240569 0 -0.20040659369392541 0.1193864456313013 0 -0.20214902218410111 0.13458958866239301 0 -0.18039056500006781 0.12121373119240569 0 -0.19563802519160789 0.13807458821396759 0 -0.20214902218410111 0.13458958866239301 0 -0.18039056500006781 0.12121373119240569 0 -0.19563802519160789 0.13807458821396759 0 -0.202312374299252 0.1441640524023215 0 -0.19563802519160789 0.13807458821396759 0 -0.20214902218410111 0.13458958866239301 0 -0.2075478572749084 0.11368283749669961 0 -0.22370276663374011 0.1364982034250237 0 -0.20214902218410111 0.13458958866239301 0 -0.2075478572749084 0.11368283749669961 0 -0.22370276663374011 0.1364982034250237 0 -0.22370276663374011 0.1364982034250237 0 -0.22390747936813421 0.14796544613238069 0 -0.20214902218410111 0.13458958866239301 0 -0.22390747936813421 0.14796544613238069 0 -0.20214902218410111 0.13458958866239301 0 -0.22390747936813421 0.14796544613238069 0 -0.20214902218410111 0.13458958866239301 0 -0.20948943058945241 0.14863997276184041 0 -0.22390747936813421 0.14796544613238069 0 -0.2168312664826515 0.15850745189495519 0 -0.20948943058945241 0.14863997276184041 0 -0.2168312664826515 0.15850745189495519 0 -0.20758447520558959 0.15683863127083711 0 -0.20948943058945241 0.14863997276184041 0 -0.20758447520558959 0.15683863127083711 0 -0.20948943058945241 0.14863997276184041 0 -0.20390252305447459 0.15036513687703029 0 -0.20758447520558959 0.15683863127083711 0 -0.20024290349544879 0.15519061181074151 0 -0.20390252305447459 0.15036513687703029 0 -0.202312374299252 0.1441640524023215 0 -0.20214902218410111 0.13458958866239301 0 -0.20948943058945241 0.14863997276184041 0 -0.202312374299252 0.1441640524023215 0 -0.20948943058945241 0.14863997276184041 0 -0.20390252305447459 0.15036513687703029 0 -0.22764024225575111 0.25709488017932702 0 -0.2151106411052526 0.2372148610219694 0 -0.22764024225575111 0.25709488017932702 0 -0.2283272457552897 0.2411225242229286 0 -0.2468893326351202 0.24329134098969171 0 -0.22764024225575111 0.25709488017932702 0 -0.2283272457552897 0.2411225242229286 0 -0.2151106411052526 0.2372148610219694 0 -0.2283272457552897 0.2411225242229286 0 -0.22236430254422471 0.22707510271615991 0 -0.2151106411052526 0.2372148610219694 0 -0.2283272457552897 0.2411225242229286 0 -0.2468893326351202 0.24329134098969171 0 -0.2329273297721271 0.2301735095518313 0 -0.25250373055295899 0.22903132158689779 0 -0.2468893326351202 0.24329134098969171 0 -0.24260825180894061 0.22311859240920151 0 -0.2468893326351202 0.24329134098969171 0 -0.24260825180894061 0.22311859240920151 0 -0.2329273297721271 0.2301735095518313 0 -0.25326648915379463 0.21765104414027969 0 -0.25250373055295899 0.22903132158689779 0 -0.24260825180894061 0.22311859240920151 0 -0.24260825180894061 0.22311859240920151 0 -0.23239639752576971 0.22100751879425451 0 -0.2329273297721271 0.2301735095518313 0 -0.23239639752576971 0.22100751879425451 0 -0.2329273297721271 0.2301735095518313 0 -0.22236430254422471 0.22707510271615991 0 -0.2283272457552897 0.2411225242229286 0 -0.2329273297721271 0.2301735095518313 0 -0.22236430254422471 0.22707510271615991 0 -0.23239639752576971 0.22100751879425451 0 -0.22236430254422471 0.22707510271615991 0 -0.2228431611521535 0.2155973608413651 0 -0.2228431611521535 0.2155973608413651 0 -0.2385329104852989 0.2118543258787943 0 -0.21819588620811961 0.20042781843582741 0 -0.2385329104852989 0.2118543258787943 0 -0.21819588620811961 0.20042781843582741 0 -0.23239639752576971 0.22100751879425451 0 -0.2228431611521535 0.2155973608413651 0 -0.2385329104852989 0.2118543258787943 0 -0.2385329104852989 0.2118543258787943 0 -0.24039455529309961 0.2058142864805034 0 -0.21819588620811961 0.20042781843582741 0 -0.24260825180894061 0.22311859240920151 0 -0.23239639752576971 0.22100751879425451 0 -0.2385329104852989 0.2118543258787943 0 -0.25326648915379463 0.21765104414027969 0 -0.24039455529309961 0.2058142864805034 0 -0.25326648915379463 0.21765104414027969 0 -0.2385329104852989 0.2118543258787943 0 -0.24039455529309961 0.2058142864805034 0 -0.25326648915379463 0.21765104414027969 0 -0.24260825180894061 0.22311859240920151 0 -0.2385329104852989 0.2118543258787943 0 -0.25264776582176801 0.2054066783297176 0 -0.25326648915379463 0.21765104414027969 0 -0.24039455529309961 0.2058142864805034 0 -0.25846339158769432 0.19477026040294029 0 -0.2425545525554833 0.18325607046718431 0 -0.24512564856919611 0.1966003761625241 0 -0.24039455529309961 0.2058142864805034 0 -0.24512564856919611 0.1966003761625241 0 -0.2315679775879351 0.19375458513227489 0 -0.25264776582176801 0.2054066783297176 0 -0.24039455529309961 0.2058142864805034 0 -0.24512564856919611 0.1966003761625241 0 -0.2425545525554833 0.18325607046718431 0 -0.24512564856919611 0.1966003761625241 0 -0.2315679775879351 0.19375458513227489 0 -0.24039455529309961 0.2058142864805034 0 -0.2315679775879351 0.19375458513227489 0 -0.21819588620811961 0.20042781843582741 0 -0.2235130486054053 0.18492553164669809 0 -0.2315679775879351 0.19375458513227489 0 -0.21819588620811961 0.20042781843582741 0 -0.21819588620811961 0.20042781843582741 0 -0.19785886193094021 0.18900131099286041 0 -0.2235130486054053 0.18492553164669809 0 -0.209750232499154 0.17791844316711489 0 -0.21819588620811961 0.20042781843582741 0 -0.209750232499154 0.17791844316711489 0 -0.21819588620811961 0.20042781843582741 0 -0.19785886193094021 0.18900131099286041 0 -0.21819588620811961 0.20042781843582741 0 -0.20376966825666501 0.2022924765927995 0 -0.19785886193094021 0.18900131099286041 0 -0.19785886193094021 0.18900131099286041 0 -0.19005143880425829 0.1974548227072519 0 -0.17752183765376101 0.1775748035498933 0 -0.20376966825666501 0.2022924765927995 0 -0.19785886193094021 0.18900131099286041 0 -0.19005143880425829 0.1974548227072519 0 -0.19005143880425829 0.1974548227072519 0 -0.187650486280975 0.21451757224245291 0 -0.20258103995475549 0.21733484186461069 0 -0.19005143880425829 0.1974548227072519 0 -0.20258103995475549 0.21733484186461069 0 -0.20376966825666501 0.2022924765927995 0 -0.19005143880425829 0.1974548227072519 0 -0.20258103995475549 0.21733484186461069 0 -0.2228431611521535 0.2155973608413651 0 -0.21819588620811961 0.20042781843582741 0 -0.20258103995475549 0.21733484186461069 0 -0.21819588620811961 0.20042781843582741 0 -0.20376966825666501 0.2022924765927995 0 -0.20258103995475549 0.21733484186461069 0 -0.20258103995475549 0.21733484186461069 0 -0.19839606398960871 0.22991008851962841 0 -0.2151106411052526 0.2372148610219694 0 -0.22236430254422471 0.22707510271615991 0 -0.2228431611521535 0.2155973608413651 0 -0.20258103995475549 0.21733484186461069 0 -0.22236430254422471 0.22707510271615991 0 -0.20258103995475549 0.21733484186461069 0 -0.2151106411052526 0.2372148610219694 0 -0.20258103995475549 0.21733484186461069 0 -0.2151106411052526 0.2372148610219694 0 -0.187650486280975 0.21451757224245291 0 -0.20258103995475549 0.21733484186461069 0 -0.19839606398960871 0.22991008851962841 0 -0.187650486280975 0.21451757224245291 0 -0.19839606398960871 0.22991008851962841 0 -0.18195408303730121 0.23534357450296481 0 -0.18940688912330481 0.25610334311205268 0 -0.2046840695697589 0.2451395929661444 0 -0.18195408303730121 0.23534357450296481 0 -0.2046840695697589 0.2451395929661444 0 -0.18195408303730121 0.23534357450296481 0 -0.19839606398960871 0.22991008851962841 0 -0.2046840695697589 0.2451395929661444 0 -0.18195408303730121 0.23534357450296481 0 -0.21239874098331929 0.25437807278244762 0 -0.2046840695697589 0.2451395929661444 0 -0.2151106411052526 0.2372148610219694 0 -0.19839606398960871 0.22991008851962841 0 -0.2046840695697589 0.2451395929661444 0 -0.2151106411052526 0.2372148610219694 0 -0.22764024225575111 0.25709488017932702 0 -0.21239874098331929 0.25437807278244762 0 -0.2151106411052526 0.2372148610219694 0 -0.16225317791305921 0.25358582624422438 0 -0.18195408303730121 0.23534357450296481 0 -0.155242522585569 0.24016045739440639 0 -0.17508206900779469 0.25918785244088571 0 -0.16225317791305921 0.25358582624422438 0 -0.18195408303730121 0.23534357450296481 0 -0.187650486280975 0.21451757224245291 0 -0.18195408303730121 0.23534357450296481 0 -0.17144823439391829 0.2141895330645725 0 -0.18195408303730121 0.23534357450296481 0 -0.15922409650484359 0.2255475560397853 0 -0.18195408303730121 0.23534357450296481 0 -0.15922409650484359 0.2255475560397853 0 -0.155242522585569 0.24016045739440639 0 -0.18195408303730121 0.23534357450296481 0 -0.15922409650484359 0.2255475560397853 0 -0.17144823439391829 0.2141895330645725 0 -0.15922409650484359 0.2255475560397853 0 -0.15900733689739069 0.21062159977010589 0 -0.17144823439391829 0.2141895330645725 0 -0.15900733689739069 0.21062159977010589 0 -0.1653418357915476 0.2018213455952054 0 -0.15361129879784891 0.20139719057542019 0 -0.17144823439391829 0.2141895330645725 0 -0.17723797391968729 0.20390802022475071 0 -0.1653418357915476 0.2018213455952054 0 -0.15900733689739069 0.21062159977010589 0 -0.17144823439391829 0.2141895330645725 0 -0.1653418357915476 0.2018213455952054 0 -0.187650486280975 0.21451757224245291 0 -0.17144823439391829 0.2141895330645725 0 -0.17723797391968729 0.20390802022475071 0 -0.19005143880425829 0.1974548227072519 0 -0.187650486280975 0.21451757224245291 0 -0.17723797391968729 0.20390802022475071 0 -0.19005143880425829 0.1974548227072519 0 -0.17169787432773731 0.19155682751427069 0 -0.17752183765376101 0.1775748035498933 0 -0.19005143880425829 0.1974548227072519 0 -0.17723797391968729 0.20390802022475071 0 -0.17169787432773731 0.19155682751427069 0 -0.19005143880425829 0.1974548227072519 0 -0.17752183765376101 0.1775748035498933 0 -0.17169787432773731 0.19155682751427069 0 -0.1653418357915476 0.2018213455952054 0 -0.15791164184663151 0.19274793286901881 0 -0.17723797391968729 0.20390802022475071 0 -0.17169787432773731 0.19155682751427069 0 -0.1653418357915476 0.2018213455952054 0 -0.1653418357915476 0.2018213455952054 0 -0.15791164184663151 0.19274793286901881 0 -0.15361129879784891 0.20139719057542019 0 -0.17169787432773731 0.19155682751427069 0 -0.15791164184663151 0.19274793286901881 0 -0.16134243263699979 0.18146195783717889 0 -0.15791164184663151 0.19274793286901881 0 -0.15361129879784891 0.20139719057542019 0 -0.14754997702249989 0.19123102061556399 0 -0.15791164184663151 0.19274793286901881 0 -0.14754997702249989 0.19123102061556399 0 -0.15378055215212841 0.1853342336718547 0 -0.15361129879784891 0.20139719057542019 0 -0.144337775963609 0.20069921068637719 0 -0.14754997702249989 0.19123102061556399 0 -0.14754997702249989 0.19123102061556399 0 -0.13411435042981179 0.19106266128805069 0 -0.1463292802833521 0.18023770330257241 0 -0.144337775963609 0.20069921068637719 0 -0.14754997702249989 0.19123102061556399 0 -0.13411435042981179 0.19106266128805069 0 -0.13411435042981179 0.19106266128805069 0 -0.12967955466007261 0.2074258594294596 0 -0.1235431789710726 0.1969801993001162 0 -0.13411435042981179 0.19106266128805069 0 -0.13770187294137159 0.2043383794177894 0 -0.12967955466007261 0.2074258594294596 0 -0.144337775963609 0.20069921068637719 0 -0.13411435042981179 0.19106266128805069 0 -0.13770187294137159 0.2043383794177894 0 -0.13770187294137159 0.2043383794177894 0 -0.13855706597983281 0.21350408889879899 0 -0.14247480998137141 0.20718589651263181 0 -0.1364941099723872 0.21575153757660309 0 -0.120958802369795 0.22183359367242919 0 -0.11894773722242739 0.20818951851535461 0 -0.12967955466007261 0.2074258594294596 0 -0.1364941099723872 0.21575153757660309 0 -0.11894773722242739 0.20818951851535461 0 -0.13770187294137159 0.2043383794177894 0 -0.12967955466007261 0.2074258594294596 0 -0.13855706597983281 0.21350408889879899 0 -0.1364941099723872 0.21575153757660309 0 -0.11894773722242739 0.20818951851535461 0 -0.12967955466007261 0.2074258594294596 0 -0.1364941099723872 0.21575153757660309 0 -0.13855706597983281 0.21350408889879899 0 -0.1364941099723872 0.21575153757660309 0 -0.13855706597983281 0.21350408889879899 0 -0.15922409650484359 0.2255475560397853 0 -0.1364941099723872 0.21575153757660309 0 -0.13855706597983281 0.21350408889879899 0 -0.15922409650484359 0.2255475560397853 0 -0.13855706597983281 0.21350408889879899 0 -0.14930252504067221 0.21020190704756139 0 -0.13855706597983281 0.21350408889879899 0 -0.14247480998137141 0.20718589651263181 0 -0.14930252504067221 0.21020190704756139 0 -0.144337775963609 0.20069921068637719 0 -0.14247480998137141 0.20718589651263181 0 -0.14930252504067221 0.21020190704756139 0 -0.144337775963609 0.20069921068637719 0 -0.13770187294137159 0.2043383794177894 0 -0.14247480998137141 0.20718589651263181 0 -0.15900733689739069 0.21062159977010589 0 -0.15361129879784891 0.20139719057542019 0 -0.14930252504067221 0.21020190704756139 0 -0.15361129879784891 0.20139719057542019 0 -0.144337775963609 0.20069921068637719 0 -0.14930252504067221 0.21020190704756139 0 -0.15922409650484359 0.2255475560397853 0 -0.15900733689739069 0.21062159977010589 0 -0.14930252504067221 0.21020190704756139 0 -0.15922409650484359 0.2255475560397853 0 -0.13635804662702189 0.23039018670563211 0 -0.14207867318260539 0.23889574066385899 0 -0.15922409650484359 0.2255475560397853 0 -0.1364941099723872 0.21575153757660309 0 -0.13635804662702189 0.23039018670563211 0 -0.15922409650484359 0.2255475560397853 0 -0.1364941099723872 0.21575153757660309 0 -0.1364941099723872 0.21575153757660309 0 -0.13635804662702189 0.23039018670563211 0 -0.11673432752768111 0.2372784614512472 0 -0.1364941099723872 0.21575153757660309 0 -0.11673432752768111 0.2372784614512472 0 -0.13635804662702189 0.23039018670563211 0 -0.12961957513534 0.23973743310435161 0 -0.11673432752768111 0.2372784614512472 0 -0.13635804662702189 0.23039018670563211 0 -0.12961957513534 0.23973743310435161 0 -0.14207867318260539 0.23889574066385899 0 -0.12961957513534 0.23973743310435161 0 -0.13357218109292621 0.2499317644564327 0 -0.1213089330464012 0.24626659804535689 0 -0.12961957513534 0.23973743310435161 0 -0.13357218109292621 0.2499317644564327 0 -0.14207867318260539 0.23889574066385899 0 -0.14746997276257359 0.25293699741112718 0 -0.13357218109292621 0.2499317644564327 0 -0.14207867318260539 0.23889574066385899 0 -0.15922409650484359 0.2255475560397853 0 -0.14207867318260539 0.23889574066385899 0 -0.155242522585569 0.24016045739440639 0 -0.14746997276257359 0.25293699741112718 0 -0.14207867318260539 0.23889574066385899 0 -0.155242522585569 0.24016045739440639 0 -0.16225317791305921 0.25358582624422438 0 -0.14746997276257359 0.25293699741112718 0 -0.155242522585569 0.24016045739440639 0 -0.166988808872575 0.14091924592242799 0 -0.1736883691443292 0.1501381655411517 0 -0.1666646902223726 0.16034837340756511 0 -0.166988808872575 0.14091924592242799 0 -0.1666646902223726 0.16034837340756511 0 -0.15580754279098399 0.143121943265237 0 -0.1666646902223726 0.16034837340756511 0 -0.1549726550285947 0.15674585516748279 0 -0.15580754279098399 0.143121943265237 0 -0.1666646902223726 0.16034837340756511 0 -0.15580754279098399 0.143121943265237 0 -0.1628447509754036 0.1248738178506951 0 -0.166988808872575 0.14091924592242799 0 -0.17824709647023271 0.1379937977022469 0 -0.1628447509754036 0.1248738178506951 0 -0.166988808872575 0.14091924592242799 0 -0.15580754279098399 0.143121943265237 0 -0.18039056500006781 0.12121373119240569 0 -0.1628447509754036 0.1248738178506951 0 -0.17824709647023271 0.1379937977022469 0 -0.19563802519160789 0.13807458821396759 0 -0.17824709647023271 0.1379937977022469 0 -0.18706065072040501 0.14468661846275019 0 -0.18039056500006781 0.12121373119240569 0 -0.19563802519160789 0.13807458821396759 0 -0.17824709647023271 0.1379937977022469 0 -0.17824709647023271 0.1379937977022469 0 -0.18706065072040501 0.14468661846275019 0 -0.1811623126986891 0.14793864394101769 0 -0.166988808872575 0.14091924592242799 0 -0.17824709647023271 0.1379937977022469 0 -0.1736883691443292 0.1501381655411517 0 -0.17824709647023271 0.1379937977022469 0 -0.1811623126986891 0.14793864394101769 0 -0.1736883691443292 0.1501381655411517 0 -0.1811623126986891 0.14793864394101769 0 -0.1736883691443292 0.1501381655411517 0 -0.17666515903818969 0.15970684649729899 0 -0.1811623126986891 0.14793864394101769 0 -0.1852646507768699 0.1545619776798173 0 -0.17666515903818969 0.15970684649729899 0 -0.18706065072040501 0.14468661846275019 0 -0.1811623126986891 0.14793864394101769 0 -0.1852646507768699 0.1545619776798173 0 -0.17752183765376101 0.1775748035498933 0 -0.1666646902223726 0.16034837340756511 0 -0.1927705130470404 0.15866088515044 0 -0.1852646507768699 0.1545619776798173 0 -0.18413510522225521 0.16259499244525211 0 -0.17666515903818969 0.15970684649729899 0 -0.17752183765376101 0.1775748035498933 0 -0.1666646902223726 0.16034837340756511 0 -0.1852646507768699 0.1545619776798173 0 -0.18413510522225521 0.16259499244525211 0 -0.17666515903818969 0.15970684649729899 0 -0.18413510522225521 0.16259499244525211 0 -0.17666515903818969 0.15970684649729899 0 -0.17752183765376101 0.1775748035498933 0 -0.19038698318195549 0.16711234260031069 0 -0.18413510522225521 0.16259499244525211 0 -0.17752183765376101 0.1775748035498933 0 -0.1736883691443292 0.1501381655411517 0 -0.17666515903818969 0.15970684649729899 0 -0.1666646902223726 0.16034837340756511 0 -0.17169787432773731 0.19155682751427069 0 -0.17752183765376101 0.1775748035498933 0 -0.16134243263699979 0.18146195783717889 0 -0.17752183765376101 0.1775748035498933 0 -0.160166055014445 0.16782332876165751 0 -0.17752183765376101 0.1775748035498933 0 -0.16134243263699979 0.18146195783717889 0 -0.160166055014445 0.16782332876165751 0 -0.16134243263699979 0.18146195783717889 0 -0.160166055014445 0.16782332876165751 0 -0.1543363168372556 0.17604552304072019 0 -0.16134243263699979 0.18146195783717889 0 -0.15378055215212841 0.1853342336718547 0 -0.1543363168372556 0.17604552304072019 0 -0.15791164184663151 0.19274793286901881 0 -0.16134243263699979 0.18146195783717889 0 -0.15378055215212841 0.1853342336718547 0 -0.17752183765376101 0.1775748035498933 0 -0.1666646902223726 0.16034837340756511 0 -0.160166055014445 0.16782332876165751 0 -0.1666646902223726 0.16034837340756511 0 -0.160166055014445 0.16782332876165751 0 -0.1549726550285947 0.15674585516748279 0 -0.160166055014445 0.16782332876165751 0 -0.1549726550285947 0.15674585516748279 0 -0.14281027237512919 0.15807185397342149 0 -0.160166055014445 0.16782332876165751 0 -0.14281027237512919 0.15807185397342149 0 -0.160166055014445 0.16782332876165751 0 -0.1483000089644074 0.1706867490983929 0 -0.14281027237512919 0.15807185397342149 0 -0.160166055014445 0.16782332876165751 0 -0.1483000089644074 0.1706867490983929 0 -0.1543363168372556 0.17604552304072019 0 -0.1483000089644074 0.1706867490983929 0 -0.14281027237512919 0.15807185397342149 0 -0.13856119746919621 0.1732320213376258 0 -0.14754997702249989 0.19123102061556399 0 -0.15378055215212841 0.1853342336718547 0 -0.1463292802833521 0.18023770330257241 0 -0.15378055215212841 0.1853342336718547 0 -0.1543363168372556 0.17604552304072019 0 -0.1463292802833521 0.18023770330257241 0 -0.1483000089644074 0.1706867490983929 0 -0.1543363168372556 0.17604552304072019 0 -0.1463292802833521 0.18023770330257241 0 -0.1483000089644074 0.1706867490983929 0 -0.1463292802833521 0.18023770330257241 0 -0.13856119746919621 0.1732320213376258 0 -0.13411435042981179 0.19106266128805069 0 -0.13856119746919621 0.1732320213376258 0 -0.12609153575556739 0.16924223779836581 0 -0.13411435042981179 0.19106266128805069 0 -0.12609153575556739 0.16924223779836581 0 -0.1152399272795421 0.1851742901109647 0 -0.13411435042981179 0.19106266128805069 0 -0.1463292802833521 0.18023770330257241 0 -0.13856119746919621 0.1732320213376258 0 -0.14281027237512919 0.15807185397342149 0 -0.12609153575556739 0.16924223779836581 0 -0.135520965557581 0.14756887546063741 0 -0.12609153575556739 0.16924223779836581 0 -0.135520965557581 0.14756887546063741 0 -0.14281027237512919 0.15807185397342149 0 -0.13856119746919621 0.1732320213376258 0 -0.12609153575556739 0.16924223779836581 0 -0.135520965557581 0.14756887546063741 0 -0.13028426483969929 0.13221647237215789 0 -0.1192914655824909 0.15059360814623801 0 -0.12609153575556739 0.16924223779836581 0 -0.135520965557581 0.14756887546063741 0 -0.1192914655824909 0.15059360814623801 0 -0.1549726550285947 0.15674585516748279 0 -0.14281027237512919 0.15807185397342149 0 -0.14652630769324659 0.14708303210739521 0 -0.14281027237512919 0.15807185397342149 0 -0.135520965557581 0.14756887546063741 0 -0.14652630769324659 0.14708303210739521 0 -0.1549726550285947 0.15674585516748279 0 -0.14652630769324659 0.14708303210739521 0 -0.15580754279098399 0.143121943265237 0 -0.1628447509754036 0.1248738178506951 0 -0.15580754279098399 0.143121943265237 0 -0.14495039535959489 0.12589551312290931 0 -0.135520965557581 0.14756887546063741 0 -0.14652630769324659 0.14708303210739521 0 -0.14495039535959489 0.12589551312290931 0 -0.15580754279098399 0.143121943265237 0 -0.14495039535959489 0.12589551312290931 0 -0.14652630769324659 0.14708303210739521 0 -0.15580754279098399 0.143121943265237 0 -0.14495039535959489 0.12589551312290931 0 -0.135520965557581 0.14756887546063741 0 -0.14495039535959489 0.12589551312290931 0 -0.135520965557581 0.14756887546063741 0 -0.14495039535959489 0.12589551312290931 0 -0.13028426483969929 0.13221647237215789 0 -0.13028426483969929 0.13221647237215789 0 -0.1131006250587715 0.12959615498317961 0 -0.1192914655824909 0.15059360814623801 0 -0.1131006250587715 0.12959615498317961 0 -0.10078539792307099 0.15464240809582361 0 -0.092802426943272898 0.12960292979422991 0 -0.1131006250587715 0.12959615498317961 0 -0.10078539792307099 0.15464240809582361 0 -0.1192914655824909 0.15059360814623801 0 -0.10078539792307099 0.15464240809582361 0 -0.1192914655824909 0.15059360814623801 0 -0.10897534263953949 0.16967833346669081 0 -0.12609153575556739 0.16924223779836581 0 -0.1192914655824909 0.15059360814623801 0 -0.10897534263953949 0.16967833346669081 0 -0.12609153575556739 0.16924223779836581 0 -0.1152399272795421 0.1851742901109647 0 -0.10897534263953949 0.16967833346669081 0 -0.1152399272795421 0.1851742901109647 0 -0.098409264142157865 0.1851788001203086 0 -0.10897534263953949 0.16967833346669081 0 -0.098409264142157865 0.1851788001203086 0 -0.10897534263953949 0.16967833346669081 0 -0.082277471490505807 0.17420718144711089 0 -0.10078539792307099 0.15464240809582361 0 -0.10897534263953949 0.16967833346669081 0 -0.082277471490505807 0.17420718144711089 0 -0.10078539792307099 0.15464240809582361 0 -0.082277471490505807 0.17420718144711089 0 -0.082277471490505807 0.17420718144711089 0 -0.065615427061545384 0.16058384892905991 0 -0.074642854581774637 0.14147916649728479 0 -0.10078539792307099 0.15464240809582361 0 -0.082277471490505807 0.17420718144711089 0 -0.074642854581774637 0.14147916649728479 0 -0.098409264142157865 0.1851788001203086 0 -0.082277471490505807 0.17420718144711089 0 -0.084152214828733252 0.19620669612267311 0 -0.082277471490505807 0.17420718144711089 0 -0.063769545057940663 0.19377195479839809 0 -0.082277471490505807 0.17420718144711089 0 -0.063769545057940663 0.19377195479839809 0 -0.051824687549248197 0.17345858692208871 0 -0.082277471490505807 0.17420718144711089 0 -0.065615427061545384 0.16058384892905991 0 -0.051824687549248197 0.17345858692208871 0 -0.074642854581774637 0.14147916649728479 0 -0.055186524828957063 0.1281687789626855 0 -0.07438317581125764 0.1124407737129243 0 -0.074642854581774637 0.14147916649728479 0 -0.092802426943272898 0.12960292979422991 0 -0.07438317581125764 0.1124407737129243 0 -0.10078539792307099 0.15464240809582361 0 -0.074642854581774637 0.14147916649728479 0 -0.092802426943272898 0.12960292979422991 0 -0.10058650277722481 0.24229521027045481 0 -0.11673432752768111 0.2372784614512472 0 -0.1053270170515283 0.2324499666522013 0 -0.096974545082976191 0.25880538532589209 0 -0.10058650277722481 0.24229521027045481 0 -0.088715331182393942 0.2449718195011524 0 -0.096974545082976191 0.25880538532589209 0 -0.10058650277722481 0.24229521027045481 0 -0.11673432752768111 0.2372784614512472 0 -0.096974545082976191 0.25880538532589209 0 -0.112097455783086 0.24444379951602521 0 -0.11673432752768111 0.2372784614512472 0 -0.096974545082976191 0.25880538532589209 0 -0.11673432752768111 0.2372784614512472 0 -0.10058650277722481 0.24229521027045481 0 -0.091983872440322634 0.23323291704093771 0 -0.088715331182393942 0.2449718195011524 0 -0.10058650277722481 0.24229521027045481 0 -0.1053270170515283 0.2324499666522013 0 -0.091983872440322634 0.23323291704093771 0 -0.11521273165378559 0.25497892835963998 0 -0.112097455783086 0.24444379951602521 0 -0.1213089330464012 0.24626659804535689 0 -0.112097455783086 0.24444379951602521 0 -0.1213089330464012 0.24626659804535689 0 -0.11673432752768111 0.2372784614512472 0 -0.12961957513534 0.23973743310435161 0 -0.1213089330464012 0.24626659804535689 0 -0.11673432752768111 0.2372784614512472 0 -0.11673432752768111 0.2372784614512472 0 -0.111977792011399 0.2261119040305537 0 -0.1053270170515283 0.2324499666522013 0 -0.1364941099723872 0.21575153757660309 0 -0.11673432752768111 0.2372784614512472 0 -0.120958802369795 0.22183359367242919 0 -0.11673432752768111 0.2372784614512472 0 -0.120958802369795 0.22183359367242919 0 -0.111977792011399 0.2261119040305537 0 -0.120958802369795 0.22183359367242919 0 -0.111977792011399 0.2261119040305537 0 -0.11263418842693861 0.21654350143059611 0 -0.111977792011399 0.2261119040305537 0 -0.1027476190553803 0.22153268259517769 0 -0.11263418842693861 0.21654350143059611 0 -0.1027476190553803 0.22153268259517769 0 -0.088008266818085573 0.21525264443096179 0 -0.091983872440322634 0.23323291704093771 0 -0.111977792011399 0.2261119040305537 0 -0.1027476190553803 0.22153268259517769 0 -0.1053270170515283 0.2324499666522013 0 -0.1027476190553803 0.22153268259517769 0 -0.1053270170515283 0.2324499666522013 0 -0.091983872440322634 0.23323291704093771 0 -0.1027476190553803 0.22153268259517769 0 -0.1014013644724687 0.20062749945410349 0 -0.088008266818085573 0.21525264443096179 0 -0.1027476190553803 0.22153268259517769 0 -0.11263418842693861 0.21654350143059611 0 -0.1014013644724687 0.20062749945410349 0 -0.11263418842693861 0.21654350143059611 0 -0.11894773722242739 0.20818951851535461 0 -0.1014013644724687 0.20062749945410349 0 -0.11894773722242739 0.20818951851535461 0 -0.1014013644724687 0.20062749945410349 0 -0.120958802369795 0.22183359367242919 0 -0.11263418842693861 0.21654350143059611 0 -0.11894773722242739 0.20818951851535461 0 -0.12967955466007261 0.2074258594294596 0 -0.11894773722242739 0.20818951851535461 0 -0.1235431789710726 0.1969801993001162 0 -0.11894773722242739 0.20818951851535461 0 -0.1235431789710726 0.1969801993001162 0 -0.1014013644724687 0.20062749945410349 0 -0.13411435042981179 0.19106266128805069 0 -0.1152399272795421 0.1851742901109647 0 -0.1235431789710726 0.1969801993001162 0 -0.1152399272795421 0.1851742901109647 0 -0.1235431789710726 0.1969801993001162 0 -0.1014013644724687 0.20062749945410349 0 -0.1152399272795421 0.1851742901109647 0 -0.098409264142157865 0.1851788001203086 0 -0.1014013644724687 0.20062749945410349 0 -0.098409264142157865 0.1851788001203086 0 -0.1014013644724687 0.20062749945410349 0 -0.084152214828733252 0.19620669612267311 0 -0.084152214828733252 0.19620669612267311 0 -0.063769545057940663 0.19377195479839809 0 -0.072142849724606259 0.2099260872470029 0 -0.082277471490505807 0.17420718144711089 0 -0.084152214828733252 0.19620669612267311 0 -0.063769545057940663 0.19377195479839809 0 -0.072142849724606259 0.2099260872470029 0 -0.088008266818085573 0.21525264443096179 0 -0.068407602306599244 0.22780678473085289 0 -0.084152214828733252 0.19620669612267311 0 -0.072142849724606259 0.2099260872470029 0 -0.088008266818085573 0.21525264443096179 0 -0.1014013644724687 0.20062749945410349 0 -0.084152214828733252 0.19620669612267311 0 -0.088008266818085573 0.21525264443096179 0 -0.091983872440322634 0.23323291704093771 0 -0.068407602306599244 0.22780678473085289 0 -0.080478212985736569 0.23984126859451149 0 -0.088008266818085573 0.21525264443096179 0 -0.091983872440322634 0.23323291704093771 0 -0.068407602306599244 0.22780678473085289 0 -0.073553522625709841 0.25068431627396631 0 -0.068407602306599244 0.22780678473085289 0 -0.080478212985736569 0.23984126859451149 0 -0.073553522625709841 0.25068431627396631 0 -0.068407602306599244 0.22780678473085289 0 -0.050132500168443887 0.2425632472220397 0 -0.073553522625709841 0.25068431627396631 0 -0.080478212985736569 0.23984126859451149 0 -0.088715331182393942 0.2449718195011524 0 -0.091983872440322634 0.23323291704093771 0 -0.080478212985736569 0.23984126859451149 0 -0.088715331182393942 0.2449718195011524 0 -0.050132500168443887 0.2425632472220397 0 -0.026711477711177899 0.23444217817011309 0 -0.029881977245259539 0.25372898958001938 0 -0.050132500168443887 0.2425632472220397 0 -0.026711477711177899 0.23444217817011309 0 -0.050132500168443887 0.2425632472220397 0 -0.042100384295285467 0.22888272761933071 0 -0.026711477711177899 0.23444217817011309 0 -0.073553522625709841 0.25068431627396631 0 -0.050132500168443887 0.2425632472220397 0 -0.068407602306599244 0.22780678473085289 0 -0.050132500168443887 0.2425632472220397 0 -0.042100384295285467 0.22888272761933071 0 -0.068407602306599244 0.22780678473085289 0 -0.042100384295285467 0.22888272761933071 0 -0.045261618625375449 0.21333672814968549 0 -0.045261618625375449 0.21333672814968549 0 -0.02675369219281019 0.23290150150097291 0 -0.045261618625375449 0.21333672814968549 0 -0.02772339752401377 0.22169904798743939 0 -0.02675369219281019 0.23290150150097291 0 -0.042100384295285467 0.22888272761933071 0 -0.045261618625375449 0.21333672814968549 0 -0.02675369219281019 0.23290150150097291 0 -0.042100384295285467 0.22888272761933071 0 -0.02675369219281019 0.23290150150097291 0 -0.026711477711177899 0.23444217817011309 0 -0.045261618625375449 0.21333672814968549 0 -0.025983012380334781 0.2115930184476672 0 -0.02772339752401377 0.22169904798743939 0 -0.045261618625375449 0.21333672814968549 0 -0.029252980350323681 0.1977376245802884 0 -0.025983012380334781 0.2115930184476672 0 -0.063769545057940663 0.19377195479839809 0 -0.045261618625375449 0.21333672814968549 0 -0.063769545057940663 0.19377195479839809 0 -0.072142849724606259 0.2099260872470029 0 -0.045261618625375449 0.21333672814968549 0 -0.072142849724606259 0.2099260872470029 0 -0.068407602306599244 0.22780678473085289 0 -0.045261618625375449 0.21333672814968549 0 -0.063769545057940663 0.19377195479839809 0 -0.045261618625375449 0.21333672814968549 0 -0.041349789320347038 0.18749549167170951 0 -0.029252980350323681 0.1977376245802884 0 -0.041349789320347038 0.18749549167170951 0 -0.02440704960050057 0.1813667693045137 0 -0.045261618625375449 0.21333672814968549 0 -0.029252980350323681 0.1977376245802884 0 -0.041349789320347038 0.18749549167170951 0 -0.029252980350323681 0.1977376245802884 0 -0.01949536222664228 0.1923427933584827 0 -0.02440704960050057 0.1813667693045137 0 -0.029252980350323681 0.1977376245802884 0 -0.019383630886315679 0.20246845033521829 0 -0.01949536222664228 0.1923427933584827 0 -0.019383630886315679 0.20246845033521829 0 -0.01949536222664228 0.1923427933584827 0 -0.011799668219416901 0.19617813045667529 0 -0.01949536222664228 0.1923427933584827 0 -0.011799668219416901 0.19617813045667529 0 -0.0099503170468955675 0.185467411183286 0 -0.0047591026019954026 0.19332022418589959 0 -0.011799668219416901 0.19617813045667529 0 -0.0099503170468955675 0.185467411183286 0 -0.0047591026019954026 0.19332022418589959 0 -0.003081975793268537 0.18782002811878001 0 -0.0099503170468955675 0.185467411183286 0 -0.0047591026019954026 0.19332022418589959 0 -2.3422743153838069e-05 0.1988005567515452 0 0.0015327128313205251 0.1915709431207247 0 -0.0047591026019954026 0.19332022418589959 0 -0.003081975793268537 0.18782002811878001 0 0.0015327128313205251 0.1915709431207247 0 -2.3422743153838069e-05 0.1988005567515452 0 -0.0064134676939889088 0.1997865992100484 0 -0.0042090490499692894 0.20625736901624969 0 -0.0047591026019954026 0.19332022418589959 0 -2.3422743153838069e-05 0.1988005567515452 0 -0.0064134676939889088 0.1997865992100484 0 -0.0047591026019954026 0.19332022418589959 0 -0.0064134676939889088 0.1997865992100484 0 -0.011799668219416901 0.19617813045667529 0 -0.019383630886315679 0.20246845033521829 0 -0.011799668219416901 0.19617813045667529 0 -0.01127609585540912 0.20437671563987239 0 -0.0064134676939889088 0.1997865992100484 0 -0.011799668219416901 0.19617813045667529 0 -0.01127609585540912 0.20437671563987239 0 -0.019383630886315679 0.20246845033521829 0 -0.01127609585540912 0.20437671563987239 0 -0.015975625416527989 0.21106072298800291 0 -0.0098363755348389904 0.2097806401996784 0 -0.01127609585540912 0.20437671563987239 0 -0.015975625416527989 0.21106072298800291 0 -0.0098363755348389904 0.2097806401996784 0 -0.01127609585540912 0.20437671563987239 0 -0.0042090490499692894 0.20625736901624969 0 -0.0042090490499692894 0.20625736901624969 0 0.00083142932333707279 0.21381627434491049 0 0.0029581381265264858 0.20519393183106241 0 -0.0064134676939889088 0.1997865992100484 0 -0.01127609585540912 0.20437671563987239 0 -0.0042090490499692894 0.20625736901624969 0 -0.0098363755348389904 0.2097806401996784 0 -0.0042090490499692894 0.20625736901624969 0 -0.0060196598873338584 0.21321125444391051 0 -2.3422743153838069e-05 0.1988005567515452 0 -0.0042090490499692894 0.20625736901624969 0 0.0029581381265264858 0.20519393183106241 0 -0.0055559642639475869 0.21913689448513271 0 0.0001093474821353509 0.22215689039817851 0 0.00083142932333707279 0.21381627434491049 0 -0.0060196598873338584 0.21321125444391051 0 -0.0055559642639475869 0.21913689448513271 0 0.00083142932333707279 0.21381627434491049 0 -0.0042090490499692894 0.20625736901624969 0 -0.0060196598873338584 0.21321125444391051 0 0.00083142932333707279 0.21381627434491049 0 -0.0060196598873338584 0.21321125444391051 0 -0.01091493828254137 0.21625783395607551 0 -0.0055559642639475869 0.21913689448513271 0 -0.01091493828254137 0.21625783395607551 0 -0.015975625416527989 0.21106072298800291 0 -0.017588491814277241 0.22188462813269769 0 -0.0098363755348389904 0.2097806401996784 0 -0.0060196598873338584 0.21321125444391051 0 -0.01091493828254137 0.21625783395607551 0 -0.0098363755348389904 0.2097806401996784 0 -0.01091493828254137 0.21625783395607551 0 -0.015975625416527989 0.21106072298800291 0 -0.015975625416527989 0.21106072298800291 0 -0.025983012380334781 0.2115930184476672 0 -0.017588491814277241 0.22188462813269769 0 -0.019383630886315679 0.20246845033521829 0 -0.015975625416527989 0.21106072298800291 0 -0.025983012380334781 0.2115930184476672 0 -0.029252980350323681 0.1977376245802884 0 -0.019383630886315679 0.20246845033521829 0 -0.025983012380334781 0.2115930184476672 0 -0.025983012380334781 0.2115930184476672 0 -0.02772339752401377 0.22169904798743939 0 -0.017588491814277241 0.22188462813269769 0 -0.02772339752401377 0.22169904798743939 0 -0.02675369219281019 0.23290150150097291 0 -0.022352419066048221 0.22652947853539249 0 -0.02675369219281019 0.23290150150097291 0 -0.017344094733091689 0.22963273652046001 0 -0.01246950101347712 0.23792538229425519 0 -0.02675369219281019 0.23290150150097291 0 -0.017344094733091689 0.22963273652046001 0 -0.022352419066048221 0.22652947853539249 0 -0.017344094733091689 0.22963273652046001 0 -0.017588491814277241 0.22188462813269769 0 -0.01350500053265637 0.2263729039251991 0 -0.017344094733091689 0.22963273652046001 0 -0.022352419066048221 0.22652947853539249 0 -0.017588491814277241 0.22188462813269769 0 -0.02772339752401377 0.22169904798743939 0 -0.022352419066048221 0.22652947853539249 0 -0.017588491814277241 0.22188462813269769 0 -0.01091493828254137 0.21625783395607551 0 -0.017588491814277241 0.22188462813269769 0 -0.01009356448405245 0.2229710377255022 0 -0.017588491814277241 0.22188462813269769 0 -0.01350500053265637 0.2263729039251991 0 -0.01009356448405245 0.2229710377255022 0 -0.01091493828254137 0.21625783395607551 0 -0.01009356448405245 0.2229710377255022 0 -0.0055559642639475869 0.21913689448513271 0 -0.01009356448405245 0.2229710377255022 0 -0.0055559642639475869 0.21913689448513271 0 -0.0046023563546483629 0.22639127835839259 0 -0.0055559642639475869 0.21913689448513271 0 -0.0046023563546483629 0.22639127835839259 0 0.0001093474821353509 0.22215689039817851 0 -0.0046023563546483629 0.22639127835839259 0 0.0010433620948100131 0.23240638127880581 0 0.0001093474821353509 0.22215689039817851 0 -0.0046023563546483629 0.22639127835839259 0 -0.0089938510992040935 0.23100321332213661 0 0.0010433620948100131 0.23240638127880581 0 -0.017344094733091689 0.22963273652046001 0 -0.0089938510992040935 0.23100321332213661 0 -0.01246950101347712 0.23792538229425519 0 -0.01009356448405245 0.2229710377255022 0 -0.0046023563546483629 0.22639127835839259 0 -0.0089938510992040935 0.23100321332213661 0 -0.017344094733091689 0.22963273652046001 0 -0.01350500053265637 0.2263729039251991 0 -0.0089938510992040935 0.23100321332213661 0 -0.01350500053265637 0.2263729039251991 0 -0.01009356448405245 0.2229710377255022 0 -0.0089938510992040935 0.23100321332213661 0 -0.0089938510992040935 0.23100321332213661 0 -0.001965278602122185 0.24182690426762959 0 0.0010433620948100131 0.23240638127880581 0 -0.0089938510992040935 0.23100321332213661 0 -0.01246950101347712 0.23792538229425519 0 -0.001965278602122185 0.24182690426762959 0 -0.0082457657602449386 0.25246627485226031 0 -0.01246950101347712 0.23792538229425519 0 -0.001965278602122185 0.24182690426762959 0 -0.0082457657602449386 0.25246627485226031 0 -0.02675369219281019 0.23290150150097291 0 -0.01246950101347712 0.23792538229425519 0 -0.029881977245259539 0.25372898958001938 0 -0.0082457657602449386 0.25246627485226031 0 -0.026711477711177899 0.23444217817011309 0 -0.0082457657602449386 0.25246627485226031 0 -0.02675369219281019 0.23290150150097291 0 -0.026711477711177899 0.23444217817011309 0 -0.0082457657602449386 0.25246627485226031 0 -0.02675369219281019 0.23290150150097291 0 -0.046893106203257602 0.1507880314475378 0 -0.033582854738693747 0.16530128627528251 0 -0.03096555907766051 0.14775731769023701 0 -0.035508455794597132 0.13046501110523001 0 -0.046893106203257602 0.1507880314475378 0 -0.03096555907766051 0.14775731769023701 0 -0.035508455794597132 0.13046501110523001 0 -0.046893106203257602 0.1507880314475378 0 -0.035508455794597132 0.13046501110523001 0 -0.055186524828957063 0.1281687789626855 0 -0.046893106203257602 0.1507880314475378 0 -0.035508455794597132 0.13046501110523001 0 -0.055186524828957063 0.1281687789626855 0 -0.04045215309894238 0.1165912735558266 0 -0.074642854581774637 0.14147916649728479 0 -0.055186524828957063 0.1281687789626855 0 -0.046893106203257602 0.1507880314475378 0 -0.065615427061545384 0.16058384892905991 0 -0.074642854581774637 0.14147916649728479 0 -0.046893106203257602 0.1507880314475378 0 -0.065615427061545384 0.16058384892905991 0 -0.046893106203257602 0.1507880314475378 0 -0.051824687549248197 0.17345858692208871 0 -0.063769545057940663 0.19377195479839809 0 -0.051824687549248197 0.17345858692208871 0 -0.041349789320347038 0.18749549167170951 0 -0.041349789320347038 0.18749549167170951 0 -0.033582854738693747 0.16530128627528251 0 -0.02440704960050057 0.1813667693045137 0 -0.051824687549248197 0.17345858692208871 0 -0.041349789320347038 0.18749549167170951 0 -0.033582854738693747 0.16530128627528251 0 -0.046893106203257602 0.1507880314475378 0 -0.051824687549248197 0.17345858692208871 0 -0.033582854738693747 0.16530128627528251 0 -0.033582854738693747 0.16530128627528251 0 -0.022139091883514501 0.16815071126606429 0 -0.02440704960050057 0.1813667693045137 0 -0.033582854738693747 0.16530128627528251 0 -0.022139091883514501 0.16815071126606429 0 -0.016648491277264341 0.15771365056650341 0 -0.033582854738693747 0.16530128627528251 0 -0.016648491277264341 0.15771365056650341 0 -0.03096555907766051 0.14775731769023701 0 -0.022139091883514501 0.16815071126606429 0 -0.02440704960050057 0.1813667693045137 0 -0.01283771780100665 0.17547196173435681 0 -0.01949536222664228 0.1923427933584827 0 -0.02440704960050057 0.1813667693045137 0 -0.0099503170468955675 0.185467411183286 0 -0.02440704960050057 0.1813667693045137 0 -0.0099503170468955675 0.185467411183286 0 -0.01283771780100665 0.17547196173435681 0 -0.0099503170468955675 0.185467411183286 0 -0.01283771780100665 0.17547196173435681 0 -0.00450206117857799 0.17688747855202069 0 -0.01283771780100665 0.17547196173435681 0 -0.00450206117857799 0.17688747855202069 0 -0.0026654791677323511 0.16604552865166611 0 -0.00450206117857799 0.17688747855202069 0 -0.0026654791677323511 0.16604552865166611 0 0.0024081860720475369 0.17557227428335351 0 -0.00450206117857799 0.17688747855202069 0 0.00053502205069707774 0.18188021690744111 0 0.0024081860720475369 0.17557227428335351 0 -0.0099503170468955675 0.185467411183286 0 -0.00450206117857799 0.17688747855202069 0 0.00053502205069707774 0.18188021690744111 0 -0.003081975793268537 0.18782002811878001 0 -0.0099503170468955675 0.185467411183286 0 0.00053502205069707774 0.18188021690744111 0 -0.022139091883514501 0.16815071126606429 0 -0.016648491277264341 0.15771365056650341 0 -0.0026654791677323511 0.16604552865166611 0 -0.022139091883514501 0.16815071126606429 0 -0.01283771780100665 0.17547196173435681 0 -0.0026654791677323511 0.16604552865166611 0 -0.016648491277264341 0.15771365056650341 0 -0.0026654791677323511 0.16604552865166611 0 0.00151890392611572 0.15456094484017679 0 -0.016648491277264341 0.15771365056650341 0 -0.0026654791677323511 0.16604552865166611 0 -0.0082797250895681185 0.13474448294352481 0 0.00151890392611572 0.15456094484017679 0 -0.016648491277264341 0.15771365056650341 0 -0.0082797250895681185 0.13474448294352481 0 0.00151890392611572 0.15456094484017679 0 -0.016648491277264341 0.15771365056650341 0 -0.03096555907766051 0.14775731769023701 0 -0.022194887374489752 0.13451860905663129 0 -0.016648491277264341 0.15771365056650341 0 -0.022194887374489752 0.13451860905663129 0 -0.0082797250895681185 0.13474448294352481 0 -0.035508455794597132 0.13046501110523001 0 -0.03096555907766051 0.14775731769023701 0 -0.022194887374489752 0.13451860905663129 0 -0.035508455794597132 0.13046501110523001 0 -0.022194887374489752 0.13451860905663129 0 -0.02222625157844095 0.1227088344756834 0 -0.022194887374489752 0.13451860905663129 0 -0.012678773622269129 0.1213748672570316 0 -0.02222625157844095 0.1227088344756834 0 -0.022194887374489752 0.13451860905663129 0 -0.0082797250895681185 0.13474448294352481 0 -0.012678773622269129 0.1213748672570316 0 -0.0082797250895681185 0.13474448294352481 0 -0.012678773622269129 0.1213748672570316 0 0.0010393500416724941 0.12595831854165979 0 -0.012678773622269129 0.1213748672570316 0 -0.0069683050282923539 0.11495619240176071 0 0.0010393500416724941 0.12595831854165979 0 -0.0069683050282923539 0.11495619240176071 0 0.00039794405216867472 0.112072386291362 0 0.0010393500416724941 0.12595831854165979 0 -0.012678773622269129 0.1213748672570316 0 -0.012248850971573841 0.1125208075020822 0 -0.01744198128355802 0.11503771634109559 0 -0.012678773622269129 0.1213748672570316 0 -0.012248850971573841 0.1125208075020822 0 -0.0069683050282923539 0.11495619240176071 0 -0.012248850971573841 0.1125208075020822 0 -0.0069683050282923539 0.11495619240176071 0 -0.0083997351711877014 0.10895079227570641 0 -0.0069683050282923539 0.11495619240176071 0 -0.0083997351711877014 0.10895079227570641 0 0.00039794405216867472 0.112072386291362 0 -0.011506603279544361 0.087618711973773578 0 0.0058206420146291954 0.1114089238878985 0 0.00039794405216867472 0.112072386291362 0 -0.015837719346710199 0.095350294128549784 0 -0.011506603279544361 0.087618711973773578 0 0.00039794405216867472 0.112072386291362 0 -0.011506603279544361 0.087618711973773578 0 0.0058206420146291954 0.1114089238878985 0 -0.015837719346710199 0.095350294128549784 0 0.00039794405216867472 0.112072386291362 0 -0.0083997351711877014 0.10895079227570641 0 -0.015837719346710199 0.095350294128549784 0 0.00039794405216867472 0.112072386291362 0 -0.011506603279544361 0.087618711973773578 0 0.0017142141577850001 0.096485027642689541 0 0.0058206420146291954 0.1114089238878985 0 -0.0083997351711877014 0.10895079227570641 0 -0.013221823848225379 0.1065091018144344 0 -0.015837719346710199 0.095350294128549784 0 -0.012248850971573841 0.1125208075020822 0 -0.0083997351711877014 0.10895079227570641 0 -0.013221823848225379 0.1065091018144344 0 -0.012248850971573841 0.1125208075020822 0 -0.013221823848225379 0.1065091018144344 0 -0.017997844109414411 0.1087655018954708 0 -0.017997844109414411 0.1087655018954708 0 -0.015837719346710199 0.095350294128549784 0 -0.024123805385937312 0.11014199076292169 0 -0.013221823848225379 0.1065091018144344 0 -0.017997844109414411 0.1087655018954708 0 -0.015837719346710199 0.095350294128549784 0 -0.024123805385937312 0.11014199076292169 0 -0.032300333499350402 0.090057470672271281 0 -0.015837719346710199 0.095350294128549784 0 -0.024123805385937312 0.11014199076292169 0 -0.032300333499350402 0.090057470672271281 0 -0.015837719346710199 0.095350294128549784 0 -0.024123805385937312 0.11014199076292169 0 -0.035508455794597132 0.13046501110523001 0 -0.024123805385937312 0.11014199076292169 0 -0.023307159817290739 0.1121479686184283 0 -0.035508455794597132 0.13046501110523001 0 -0.02222625157844095 0.1227088344756834 0 -0.023307159817290739 0.1121479686184283 0 -0.035508455794597132 0.13046501110523001 0 -0.024123805385937312 0.11014199076292169 0 -0.024123805385937312 0.11014199076292169 0 -0.023307159817290739 0.1121479686184283 0 -0.012678773622269129 0.1213748672570316 0 -0.02222625157844095 0.1227088344756834 0 -0.01744198128355802 0.11503771634109559 0 -0.02222625157844095 0.1227088344756834 0 -0.01744198128355802 0.11503771634109559 0 -0.023307159817290739 0.1121479686184283 0 -0.012248850971573841 0.1125208075020822 0 -0.017997844109414411 0.1087655018954708 0 -0.01744198128355802 0.11503771634109559 0 -0.017997844109414411 0.1087655018954708 0 -0.024123805385937312 0.11014199076292169 0 -0.023307159817290739 0.1121479686184283 0 -0.017997844109414411 0.1087655018954708 0 -0.01744198128355802 0.11503771634109559 0 -0.023307159817290739 0.1121479686184283 0 -0.0046988296279310846 0.075465987257500103 0 -0.004471055932428975 0.061346262570306953 0 0.0079626054049135586 0.052863747179962457 0 -0.0093767874180366029 0.073051079923104223 0 -0.014915188529848109 0.07157527628023079 0 -0.011506603279544361 0.087618711973773578 0 -0.0096267601800840239 0.066065855624376196 0 -0.01690032334888349 0.065021557104339434 0 -0.015766095144715799 0.059221925757037469 0 -0.0096267601800840239 0.066065855624376196 0 -0.014915188529848109 0.07157527628023079 0 -0.01690032334888349 0.065021557104339434 0 -0.0096267601800840239 0.066065855624376196 0 -0.0093767874180366029 0.073051079923104223 0 -0.014915188529848109 0.07157527628023079 0 -0.0096267601800840239 0.066065855624376196 0 -0.0046988296279310846 0.075465987257500103 0 -0.004471055932428975 0.061346262570306953 0 -0.0046988296279310846 0.075465987257500103 0 -0.0093767874180366029 0.073051079923104223 0 -0.0096267601800840239 0.066065855624376196 0 -0.0046988296279310846 0.075465987257500103 0 -0.0093767874180366029 0.073051079923104223 0 -0.0046988296279310846 0.075465987257500103 0 -0.011506603279544361 0.087618711973773578 0 -0.0046988296279310846 0.075465987257500103 0 -0.0093767874180366029 0.073051079923104223 0 -0.011506603279544361 0.087618711973773578 0 -0.0046988296279310846 0.075465987257500103 0 -0.011506603279544361 0.087618711973773578 0 0.00056903788424511365 0.086682396089073327 0 -0.011506603279544361 0.087618711973773578 0 0.00056903788424511365 0.086682396089073327 0 0.0017142141577850001 0.096485027642689541 0 -0.015837719346710199 0.095350294128549784 0 -0.011506603279544361 0.087618711973773578 0 -0.011506603279544361 0.087618711973773578 0 -0.028157290479737571 0.082661622355085798 0 -0.027165468422692102 0.066119176775560506 0 -0.015837719346710199 0.095350294128549784 0 -0.011506603279544361 0.087618711973773578 0 -0.028157290479737571 0.082661622355085798 0 -0.015837719346710199 0.095350294128549784 0 -0.028157290479737571 0.082661622355085798 0 -0.032300333499350402 0.090057470672271281 0 -0.015837719346710199 0.095350294128549784 0 -0.028157290479737571 0.082661622355085798 0 -0.014915188529848109 0.07157527628023079 0 -0.011506603279544361 0.087618711973773578 0 -0.027165468422692102 0.066119176775560506 0 -0.011506603279544361 0.087618711973773578 0 -0.027165468422692102 0.066119176775560506 0 -0.027165468422692102 0.066119176775560506 0 -0.01690032334888349 0.065021557104339434 0 -0.021155304748881689 0.062203044053262727 0 -0.014915188529848109 0.07157527628023079 0 -0.027165468422692102 0.066119176775560506 0 -0.01690032334888349 0.065021557104339434 0 -0.027165468422692102 0.066119176775560506 0 -0.040476861612764189 0.069972950581621118 0 -0.047888547298180387 0.051767161035057033 0 -0.028157290479737571 0.082661622355085798 0 -0.027165468422692102 0.066119176775560506 0 -0.040476861612764189 0.069972950581621118 0 -0.040476861612764189 0.069972950581621118 0 -0.049934811086014087 0.07186746235717667 0 -0.047859912164240369 0.063897566148078455 0 -0.028157290479737571 0.082661622355085798 0 -0.040476861612764189 0.069972950581621118 0 -0.040476861612764189 0.069972950581621118 0 -0.032300333499350402 0.090057470672271281 0 -0.028157290479737571 0.082661622355085798 0 -0.040476861612764189 0.069972950581621118 0 -0.032300333499350402 0.090057470672271281 0 -0.032300333499350402 0.090057470672271281 0 -0.052294403454901703 0.081174947256086191 0 -0.05578440732887191 0.096170589739797752 0 -0.040476861612764189 0.069972950581621118 0 -0.032300333499350402 0.090057470672271281 0 -0.052294403454901703 0.081174947256086191 0 -0.052294403454901703 0.081174947256086191 0 -0.05578440732887191 0.096170589739797752 0 -0.071620526940906107 0.087533684005701329 0 -0.052294403454901703 0.081174947256086191 0 -0.071620526940906107 0.087533684005701329 0 -0.062515526400001881 0.068377579792855414 0 -0.040476861612764189 0.069972950581621118 0 -0.052294403454901703 0.081174947256086191 0 -0.049934811086014087 0.07186746235717667 0 -0.052294403454901703 0.081174947256086191 0 -0.049934811086014087 0.07186746235717667 0 -0.062515526400001881 0.068377579792855414 0 -0.049934811086014087 0.07186746235717667 0 -0.052204780428632629 0.062945341387988421 0 -0.062515526400001881 0.068377579792855414 0 -0.052204780428632629 0.062945341387988421 0 -0.062515526400001881 0.068377579792855414 0 -0.055379183454653792 0.058514889464143828 0 -0.049934811086014087 0.07186746235717667 0 -0.052204780428632629 0.062945341387988421 0 -0.047859912164240369 0.063897566148078455 0 -0.024123805385937312 0.11014199076292169 0 -0.04045215309894238 0.1165912735558266 0 -0.041170092212669533 0.1046411265361262 0 -0.035508455794597132 0.13046501110523001 0 -0.024123805385937312 0.11014199076292169 0 -0.04045215309894238 0.1165912735558266 0 -0.04045215309894238 0.1165912735558266 0 -0.041170092212669533 0.1046411265361262 0 -0.052159737415513489 0.1112025467171566 0 -0.032300333499350402 0.090057470672271281 0 -0.041170092212669533 0.1046411265361262 0 -0.05578440732887191 0.096170589739797752 0 -0.024123805385937312 0.11014199076292169 0 -0.032300333499350402 0.090057470672271281 0 -0.041170092212669533 0.1046411265361262 0 -0.05578440732887191 0.096170589739797752 0 -0.052159737415513489 0.1112025467171566 0 -0.07438317581125764 0.1124407737129243 0 -0.041170092212669533 0.1046411265361262 0 -0.05578440732887191 0.096170589739797752 0 -0.052159737415513489 0.1112025467171566 0 -0.055186524828957063 0.1281687789626855 0 -0.04045215309894238 0.1165912735558266 0 -0.052159737415513489 0.1112025467171566 0 -0.055186524828957063 0.1281687789626855 0 -0.052159737415513489 0.1112025467171566 0 -0.07438317581125764 0.1124407737129243 0 -0.092802426943272898 0.12960292979422991 0 -0.07438317581125764 0.1124407737129243 0 -0.10110008134148971 0.1098561456819369 0 -0.07438317581125764 0.1124407737129243 0 -0.086834659998143784 0.098004038152668241 0 -0.10110008134148971 0.1098561456819369 0 -0.07438317581125764 0.1124407737129243 0 -0.086834659998143784 0.098004038152668241 0 -0.071620526940906107 0.087533684005701329 0 -0.05578440732887191 0.096170589739797752 0 -0.07438317581125764 0.1124407737129243 0 -0.071620526940906107 0.087533684005701329 0 -0.071620526940906107 0.087533684005701329 0 -0.062515526400001881 0.068377579792855414 0 -0.077633089280774809 0.070659037798975324 0 -0.062515526400001881 0.068377579792855414 0 -0.077633089280774809 0.070659037798975324 0 -0.069862538744371955 0.057777113150521288 0 -0.077633089280774809 0.070659037798975324 0 -0.081860045586377939 0.060182951188062161 0 -0.069862538744371955 0.057777113150521288 0 -0.077633089280774809 0.070659037798975324 0 -0.09054666164713164 0.067286880848174316 0 -0.081860045586377939 0.060182951188062161 0 -0.077633089280774809 0.070659037798975324 0 -0.09054666164713164 0.067286880848174316 0 -0.091096470542610469 0.082323341280698709 0 -0.071620526940906107 0.087533684005701329 0 -0.077633089280774809 0.070659037798975324 0 -0.091096470542610469 0.082323341280698709 0 -0.086834659998143784 0.098004038152668241 0 -0.071620526940906107 0.087533684005701329 0 -0.091096470542610469 0.082323341280698709 0 -0.086834659998143784 0.098004038152668241 0 -0.091096470542610469 0.082323341280698709 0 -0.1074822184466613 0.088136729408796272 0 -0.091096470542610469 0.082323341280698709 0 -0.1074822184466613 0.088136729408796272 0 -0.10104646070399111 0.074349611526457776 0 -0.1074822184466613 0.088136729408796272 0 -0.10104646070399111 0.074349611526457776 0 -0.1134486320906168 0.071653759806922179 0 -0.09054666164713164 0.067286880848174316 0 -0.10104646070399111 0.074349611526457776 0 -0.1026583207929353 0.062347346287697412 0 -0.09054666164713164 0.067286880848174316 0 -0.091096470542610469 0.082323341280698709 0 -0.10104646070399111 0.074349611526457776 0 -0.10104646070399111 0.074349611526457776 0 -0.1134486320906168 0.071653759806922179 0 -0.1026583207929353 0.062347346287697412 0 -0.1134486320906168 0.071653759806922179 0 -0.1169815729820268 0.057446916627697332 0 -0.1026583207929353 0.062347346287697412 0 -0.1134486320906168 0.071653759806922179 0 -0.12498233095038511 0.069533312171706482 0 -0.1248370695698198 0.083226530136874921 0 -0.1134486320906168 0.071653759806922179 0 -0.12498233095038511 0.069533312171706482 0 -0.1169815729820268 0.057446916627697332 0 -0.1074822184466613 0.088136729408796272 0 -0.1134486320906168 0.071653759806922179 0 -0.1248370695698198 0.083226530136874921 0 -0.12991930243541749 0.1020465165188278 0 -0.1074822184466613 0.088136729408796272 0 -0.1248370695698198 0.083226530136874921 0 -0.12991930243541749 0.1020465165188278 0 -0.1074822184466613 0.088136729408796272 0 -0.10110008134148971 0.1098561456819369 0 -0.12991930243541749 0.1020465165188278 0 -0.1131006250587715 0.12959615498317961 0 -0.10110008134148971 0.1098561456819369 0 -0.12991930243541749 0.1020465165188278 0 -0.13028426483969929 0.13221647237215789 0 -0.1131006250587715 0.12959615498317961 0 -0.1131006250587715 0.12959615498317961 0 -0.092802426943272898 0.12960292979422991 0 -0.10110008134148971 0.1098561456819369 0 -0.086834659998143784 0.098004038152668241 0 -0.1074822184466613 0.088136729408796272 0 -0.10110008134148971 0.1098561456819369 0 -0.1061587232064081 0.029080734372794698 0 -0.094449021505079139 0.018227913303066591 0 -0.1094215753963574 0.0115277712725063 0 -0.1061587232064081 0.029080734372794698 0 -0.094924595462104619 0.030399760044886301 0 -0.094449021505079139 0.018227913303066591 0 -0.094449021505079139 0.018227913303066591 0 -0.097507665945787692 0.0040820149966005574 0 -0.1094215753963574 0.0115277712725063 0 -0.097507665945787692 0.0040820149966005574 0 -0.1058521268010089 0.00073384547527136773 0 -0.1094215753963574 0.0115277712725063 0 -0.1152652699767374 -0.0044733142422073097 0 -0.1273771369441013 0.0023450629401116992 0 -0.1094215753963574 0.0115277712725063 0 -0.1152652699767374 -0.0044733142422073097 0 -0.1058521268010089 0.00073384547527136773 0 -0.1094215753963574 0.0115277712725063 0 -0.1273771369441013 0.0023450629401116992 0 -0.12537023626190849 0.01701499410391356 0 -0.1094215753963574 0.0115277712725063 0 -0.12537023626190849 0.01701499410391356 0 -0.1094215753963574 0.0115277712725063 0 -0.1154752524598698 0.02214949429500624 0 -0.12537023626190849 0.01701499410391356 0 -0.1154752524598698 0.02214949429500624 0 -0.120950474974805 0.030974477430810402 0 -0.1061587232064081 0.029080734372794698 0 -0.1094215753963574 0.0115277712725063 0 -0.1154752524598698 0.02214949429500624 0 -0.1061587232064081 0.029080734372794698 0 -0.1154752524598698 0.02214949429500624 0 -0.120950474974805 0.030974477430810402 0 -0.1304591025064194 0.044551821316570157 0 -0.120950474974805 0.030974477430810402 0 -0.112428546201817 0.041955624634692393 0 -0.1061587232064081 0.029080734372794698 0 -0.120950474974805 0.030974477430810402 0 -0.112428546201817 0.041955624634692393 0 -0.1304591025064194 0.044551821316570157 0 -0.112428546201817 0.041955624634692393 0 -0.1169815729820268 0.057446916627697332 0 -0.1311901693420546 0.060374133793646992 0 -0.12498233095038511 0.069533312171706482 0 -0.1169815729820268 0.057446916627697332 0 -0.112428546201817 0.041955624634692393 0 -0.1169815729820268 0.057446916627697332 0 -0.10210071185166431 0.050014029354961582 0 -0.1169815729820268 0.057446916627697332 0 -0.1026583207929353 0.062347346287697412 0 -0.10210071185166431 0.050014029354961582 0 -0.10210071185166431 0.050014029354961582 0 -0.091201579857211959 0.041080799774458047 0 -0.091131717688311603 0.055225201160547438 0 -0.1026583207929353 0.062347346287697412 0 -0.10210071185166431 0.050014029354961582 0 -0.091131717688311603 0.055225201160547438 0 -0.09054666164713164 0.067286880848174316 0 -0.1026583207929353 0.062347346287697412 0 -0.091131717688311603 0.055225201160547438 0 -0.1061587232064081 0.029080734372794698 0 -0.112428546201817 0.041955624634692393 0 -0.1016080011228369 0.039407166226836883 0 -0.112428546201817 0.041955624634692393 0 -0.10210071185166431 0.050014029354961582 0 -0.1016080011228369 0.039407166226836883 0 -0.10210071185166431 0.050014029354961582 0 -0.1016080011228369 0.039407166226836883 0 -0.091201579857211959 0.041080799774458047 0 -0.1061587232064081 0.029080734372794698 0 -0.094924595462104619 0.030399760044886301 0 -0.1016080011228369 0.039407166226836883 0 -0.094924595462104619 0.030399760044886301 0 -0.1016080011228369 0.039407166226836883 0 -0.091201579857211959 0.041080799774458047 0 -0.094924595462104619 0.030399760044886301 0 -0.091201579857211959 0.041080799774458047 0 -0.083613433652756419 0.02825823648094046 0 -0.091201579857211959 0.041080799774458047 0 -0.080163505572120847 0.038728335950810322 0 -0.0801262205712997 0.049966522982092462 0 -0.091201579857211959 0.041080799774458047 0 -0.080163505572120847 0.038728335950810322 0 -0.083613433652756419 0.02825823648094046 0 -0.080163505572120847 0.038728335950810322 0 -0.075199828102842814 0.032505994045140242 0 -0.083613433652756419 0.02825823648094046 0 -0.09054666164713164 0.067286880848174316 0 -0.091131717688311603 0.055225201160547438 0 -0.081860045586377939 0.060182951188062161 0 -0.091201579857211959 0.041080799774458047 0 -0.091131717688311603 0.055225201160547438 0 -0.0801262205712997 0.049966522982092462 0 -0.091131717688311603 0.055225201160547438 0 -0.0801262205712997 0.049966522982092462 0 -0.081860045586377939 0.060182951188062161 0 -0.0801262205712997 0.049966522982092462 0 -0.069862538744371955 0.057777113150521288 0 -0.06901267431079619 0.039797487593251017 0 -0.069862538744371955 0.057777113150521288 0 -0.06901267431079619 0.039797487593251017 0 -0.058907879691800273 0.050969475640674493 0 -0.062515526400001881 0.068377579792855414 0 -0.069862538744371955 0.057777113150521288 0 -0.058907879691800273 0.050969475640674493 0 -0.0801262205712997 0.049966522982092462 0 -0.081860045586377939 0.060182951188062161 0 -0.069862538744371955 0.057777113150521288 0 -0.06901267431079619 0.039797487593251017 0 -0.068009698875697827 0.023239916155559141 0 -0.055300232983598208 0.033561371488493641 0 -0.075199828102842814 0.032505994045140242 0 -0.06901267431079619 0.039797487593251017 0 -0.068009698875697827 0.023239916155559141 0 -0.080163505572120847 0.038728335950810322 0 -0.075199828102842814 0.032505994045140242 0 -0.06901267431079619 0.039797487593251017 0 -0.080163505572120847 0.038728335950810322 0 -0.0801262205712997 0.049966522982092462 0 -0.06901267431079619 0.039797487593251017 0 -0.068009698875697827 0.023239916155559141 0 -0.066123158358303874 0.0069763394170788487 0 -0.055300232983598208 0.033561371488493641 0 -0.068009698875697827 0.023239916155559141 0 -0.083613433652756419 0.02825823648094046 0 -0.080050012301679602 0.015705407900093959 0 -0.068009698875697827 0.023239916155559141 0 -0.080050012301679602 0.015705407900093959 0 -0.07274845615251338 0.0135364418571977 0 -0.075199828102842814 0.032505994045140242 0 -0.068009698875697827 0.023239916155559141 0 -0.083613433652756419 0.02825823648094046 0 -0.094449021505079139 0.018227913303066591 0 -0.083613433652756419 0.02825823648094046 0 -0.080050012301679602 0.015705407900093959 0 -0.094924595462104619 0.030399760044886301 0 -0.094449021505079139 0.018227913303066591 0 -0.083613433652756419 0.02825823648094046 0 -0.089124004628701792 -0.0040277377021705899 0 -0.097507665945787692 0.0040820149966005574 0 -0.086098134196158846 0.0059583430860626887 0 -0.094449021505079139 0.018227913303066591 0 -0.080050012301679602 0.015705407900093959 0 -0.086098134196158846 0.0059583430860626887 0 -0.094449021505079139 0.018227913303066591 0 -0.097507665945787692 0.0040820149966005574 0 -0.086098134196158846 0.0059583430860626887 0 -0.080050012301679602 0.015705407900093959 0 -0.086098134196158846 0.0059583430860626887 0 -0.076810955074372203 0.0082241039560588727 0 -0.079764572027605563 -0.001208843295517239 0 -0.086098134196158846 0.0059583430860626887 0 -0.076810955074372203 0.0082241039560588727 0 -0.079764572027605563 -0.001208843295517239 0 -0.089124004628701792 -0.0040277377021705899 0 -0.086098134196158846 0.0059583430860626887 0 -0.079764572027605563 -0.001208843295517239 0 -0.076810955074372203 0.0082241039560588727 0 -0.066123158358303874 0.0069763394170788487 0 -0.068009698875697827 0.023239916155559141 0 -0.07274845615251338 0.0135364418571977 0 -0.066123158358303874 0.0069763394170788487 0 -0.076810955074372203 0.0082241039560588727 0 -0.07274845615251338 0.0135364418571977 0 -0.066123158358303874 0.0069763394170788487 0 -0.080050012301679602 0.015705407900093959 0 -0.076810955074372203 0.0082241039560588727 0 -0.07274845615251338 0.0135364418571977 0 -0.047617207273071643 -0.0035118018543059538 0 -0.059664616745900671 -0.0040500510012267867 0 -0.050798470683601923 0.01183886002179501 0 -0.059664616745900671 -0.0040500510012267867 0 -0.066123158358303874 0.0069763394170788487 0 -0.050798470683601923 0.01183886002179501 0 -0.059664616745900671 -0.0040500510012267867 0 -0.050798470683601923 0.01183886002179501 0 -0.047617207273071643 -0.0035118018543059538 0 -0.050798470683601923 0.01183886002179501 0 -0.050798470683601923 0.01183886002179501 0 -0.055300232983598208 0.033561371488493641 0 -0.04692109718252771 0.035386244484329407 0 -0.066123158358303874 0.0069763394170788487 0 -0.055300232983598208 0.033561371488493641 0 -0.066123158358303874 0.0069763394170788487 0 -0.050798470683601923 0.01183886002179501 0 -0.055300232983598208 0.033561371488493641 0 -0.050798470683601923 0.01183886002179501 0 -0.055300232983598208 0.033561371488493641 0 -0.050798470683601923 0.01183886002179501 0 -0.034391162446891957 0.018187238464497092 0 -0.037793901381418679 0.035144188298954319 0 -0.034391162446891957 0.018187238464497092 0 -0.037793901381418679 0.035144188298954319 0 -0.022455882408961961 0.026825405924253771 0 -0.050798470683601923 0.01183886002179501 0 -0.037793901381418679 0.035144188298954319 0 -0.050798470683601923 0.01183886002179501 0 -0.04692109718252771 0.035386244484329407 0 -0.037793901381418679 0.035144188298954319 0 -0.050798470683601923 0.01183886002179501 0 -0.034391162446891957 0.018187238464497092 0 -0.03671052455766443 0.0037031618858211421 0 -0.034391162446891957 0.018187238464497092 0 -0.03671052455766443 0.0037031618858211421 0 -0.022890364083827771 0.01081673007749915 0 -0.047617207273071643 -0.0035118018543059538 0 -0.050798470683601923 0.01183886002179501 0 -0.03671052455766443 0.0037031618858211421 0 -0.062515526400001881 0.068377579792855414 0 -0.058907879691800273 0.050969475640674493 0 -0.062515526400001881 0.068377579792855414 0 -0.055379183454653792 0.058514889464143828 0 -0.058907879691800273 0.050969475640674493 0 -0.052204780428632629 0.062945341387988421 0 -0.047859912164240369 0.063897566148078455 0 -0.047888547298180387 0.051767161035057033 0 -0.052204780428632629 0.062945341387988421 0 -0.055379183454653792 0.058514889464143828 0 -0.047888547298180387 0.051767161035057033 0 -0.055379183454653792 0.058514889464143828 0 -0.058907879691800273 0.050969475640674493 0 -0.047888547298180387 0.051767161035057033 0 -0.06901267431079619 0.039797487593251017 0 -0.058907879691800273 0.050969475640674493 0 -0.055300232983598208 0.033561371488493641 0 -0.047888547298180387 0.051767161035057033 0 -0.055300232983598208 0.033561371488493641 0 -0.04692109718252771 0.035386244484329407 0 -0.058907879691800273 0.050969475640674493 0 -0.047888547298180387 0.051767161035057033 0 -0.055300232983598208 0.033561371488493641 0 -0.047888547298180387 0.051767161035057033 0 -0.055300232983598208 0.033561371488493641 0 -0.058907879691800273 0.050969475640674493 0 -0.055300232983598208 0.033561371488493641 0 -0.037793901381418679 0.035144188298954319 0 -0.024789332079235359 0.058449516576113518 0 -0.047888547298180387 0.051767161035057033 0 -0.04692109718252771 0.035386244484329407 0 -0.042824333565839388 0.044619641577347061 0 -0.037793901381418679 0.035144188298954319 0 -0.042824333565839388 0.044619641577347061 0 -0.024789332079235359 0.058449516576113518 0 -0.04692109718252771 0.035386244484329407 0 -0.037793901381418679 0.035144188298954319 0 -0.042824333565839388 0.044619641577347061 0 -0.027165468422692102 0.066119176775560506 0 -0.047888547298180387 0.051767161035057033 0 -0.042824333565839388 0.044619641577347061 0 -0.040476861612764189 0.069972950581621118 0 -0.047859912164240369 0.063897566148078455 0 -0.047888547298180387 0.051767161035057033 0 -0.040476861612764189 0.069972950581621118 0 -0.047888547298180387 0.051767161035057033 0 -0.027165468422692102 0.066119176775560506 0 -0.042824333565839388 0.044619641577347061 0 -0.027165468422692102 0.066119176775560506 0 -0.042824333565839388 0.044619641577347061 0 -0.024789332079235359 0.058449516576113518 0 -0.015766095144715799 0.059221925757037469 0 -0.024789332079235359 0.058449516576113518 0 -0.0190365636870411 0.05257699221554326 0 -0.015766095144715799 0.059221925757037469 0 -0.021155304748881689 0.062203044053262727 0 -0.024789332079235359 0.058449516576113518 0 -0.01690032334888349 0.065021557104339434 0 -0.015766095144715799 0.059221925757037469 0 -0.021155304748881689 0.062203044053262727 0 -0.027165468422692102 0.066119176775560506 0 -0.021155304748881689 0.062203044053262727 0 -0.024789332079235359 0.058449516576113518 0 -0.024789332079235359 0.058449516576113518 0 -0.0190365636870411 0.05257699221554326 0 -0.02501616098884394 0.043295095323351421 0 -0.0190365636870411 0.05257699221554326 0 -0.02501616098884394 0.043295095323351421 0 -0.010574666535369299 0.049341431205670631 0 -0.037793901381418679 0.035144188298954319 0 -0.024789332079235359 0.058449516576113518 0 -0.02501616098884394 0.043295095323351421 0 -0.037793901381418679 0.035144188298954319 0 -0.02501616098884394 0.043295095323351421 0 -0.022455882408961961 0.026825405924253771 0 -0.02501616098884394 0.043295095323351421 0 -0.01174883101074616 0.035626247072063598 0 -0.022455882408961961 0.026825405924253771 0 -0.02501616098884394 0.043295095323351421 0 -0.01174883101074616 0.035626247072063598 0 -0.010574666535369299 0.049341431205670631 0 -0.01174883101074616 0.035626247072063598 0 -0.010574666535369299 0.049341431205670631 0 0.0050554059078342702 0.036817447586302399 0 -0.010574666535369299 0.049341431205670631 0 -0.004471055932428975 0.061346262570306953 0 0.0079626054049135586 0.052863747179962457 0 -0.015766095144715799 0.059221925757037469 0 -0.0190365636870411 0.05257699221554326 0 -0.010574666535369299 0.049341431205670631 0 -0.015766095144715799 0.059221925757037469 0 -0.010574666535369299 0.049341431205670631 0 -0.004471055932428975 0.061346262570306953 0 -0.0096267601800840239 0.066065855624376196 0 -0.015766095144715799 0.059221925757037469 0 -0.004471055932428975 0.061346262570306953 0 -0.025670282478897081 -0.0054027298625421993 0 -0.03671052455766443 0.0037031618858211421 0 -0.022890364083827771 0.01081673007749915 0 -0.025670282478897081 -0.0054027298625421993 0 -0.022890364083827771 0.01081673007749915 0 -0.010105069976996849 0.0023765649732562961 0 -0.022890364083827771 0.01081673007749915 0 -0.022455882408961961 0.026825405924253771 0 -0.0028948745420432241 0.01788293630915707 0 -0.034391162446891957 0.018187238464497092 0 -0.022890364083827771 0.01081673007749915 0 -0.022455882408961961 0.026825405924253771 0 -0.01174883101074616 0.035626247072063598 0 -0.022455882408961961 0.026825405924253771 0 -0.0028948745420432241 0.01788293630915707 0 -0.01174883101074616 0.035626247072063598 0 -0.0028948745420432241 0.01788293630915707 0 0.0050554059078342702 0.036817447586302399 0 -0.022890364083827771 0.01081673007749915 0 -0.0028948745420432241 0.01788293630915707 0 -0.010105069976996849 0.0023765649732562961 0 -0.0028948745420432241 0.01788293630915707 0 -0.010105069976996849 0.0023765649732562961 0 0.0047038114401232534 -0.001040937293712483 0 -0.0028948745420432241 0.01788293630915707 0 0.020415517075116841 0.0076517724901667356 0 0.0047038114401232534 -0.001040937293712483 0 -0.0028948745420432241 0.01788293630915707 0 0.020342672512877309 0.02491627604112644 0 0.020415517075116841 0.0076517724901667356 0 -0.0028948745420432241 0.01788293630915707 0 0.020342672512877309 0.02491627604112644 0 0.0050554059078342702 0.036817447586302399 0 0.020342672512877309 0.02491627604112644 0 0.020415517075116841 0.0076517724901667356 0 0.04034715667016759 0.018897687307637179 0 0.020342672512877309 0.02491627604112644 0 0.02507841675544124 0.048354097280414877 0 0.04034715667016759 0.018897687307637179 0 0.0079626054049135586 0.052863747179962457 0 0.02507841675544124 0.048354097280414877 0 0.010722424996073881 0.068121568230846891 0 -0.010574666535369299 0.049341431205670631 0 0.0079626054049135586 0.052863747179962457 0 0.0050554059078342702 0.036817447586302399 0 0.0079626054049135586 0.052863747179962457 0 0.0050554059078342702 0.036817447586302399 0 0.02507841675544124 0.048354097280414877 0 0.020342672512877309 0.02491627604112644 0 0.0050554059078342702 0.036817447586302399 0 0.02507841675544124 0.048354097280414877 0 0.02507841675544124 0.048354097280414877 0 0.050251726499931808 0.044842678424317363 0 0.039807943620716157 0.068946520475498749 0 0.050251726499931808 0.044842678424317363 0 0.039807943620716157 0.068946520475498749 0 0.02507841675544124 0.048354097280414877 0 0.050251726499931808 0.044842678424317363 0 0.04034715667016759 0.018897687307637179 0 0.050251726499931808 0.044842678424317363 0 0.060695509379147472 0.02073883637313596 0 0.066628286533047365 0.040173783681243101 0 0.050251726499931808 0.044842678424317363 0 0.060695509379147472 0.02073883637313596 0 0.050251726499931808 0.044842678424317363 0 0.066628286533047365 0.040173783681243101 0 0.063756980967503582 0.059761195325569103 0 0.050251726499931808 0.044842678424317363 0 0.063756980967503582 0.059761195325569103 0 0.039807943620716157 0.068946520475498749 0 0.020415517075116841 0.0076517724901667356 0 0.04034715667016759 0.018897687307637179 0 0.039787151186370009 -0.0039594854922263374 0 0.04034715667016759 0.018897687307637179 0 0.053306813386582982 0.0056008818424343951 0 0.039787151186370009 -0.0039594854922263374 0 0.050251726499931808 0.044842678424317363 0 0.04034715667016759 0.018897687307637179 0 0.060695509379147472 0.02073883637313596 0 0.04034715667016759 0.018897687307637179 0 0.060695509379147472 0.02073883637313596 0 0.053306813386582982 0.0056008818424343951 0 0.060695509379147472 0.02073883637313596 0 0.053306813386582982 0.0056008818424343951 0 0.065940651683257009 0.0024831850618150888 0 0.060695509379147472 0.02073883637313596 0 0.065940651683257009 0.0024831850618150888 0 0.07992851590561921 0.0082161523869754144 0 0.065940651683257009 0.0024831850618150888 0 0.07992851590561921 0.0082161523869754144 0 0.074177093133044117 -0.010507922444979889 0 0.07992851590561921 0.0082161523869754144 0 0.1009244284881298 0.0078078577834924806 0 0.09649789417263642 -0.0037639840011086311 0 0.07992851590561921 0.0082161523869754144 0 0.1009244284881298 0.0078078577834924806 0 0.09893654195113713 0.02570505514797651 0 0.07992851590561921 0.0082161523869754144 0 0.08516149451907469 0.032589503251719387 0 0.07992851590561921 0.0082161523869754144 0 0.08516149451907469 0.032589503251719387 0 0.09893654195113713 0.02570505514797651 0 0.060695509379147472 0.02073883637313596 0 0.07992851590561921 0.0082161523869754144 0 0.08516149451907469 0.032589503251719387 0 0.060695509379147472 0.02073883637313596 0 0.066628286533047365 0.040173783681243101 0 0.08516149451907469 0.032589503251719387 0 0.066628286533047365 0.040173783681243101 0 0.076734924211177571 0.049535316522237388 0 0.08516149451907469 0.032589503251719387 0 0.066628286533047365 0.040173783681243101 0 0.063756980967503582 0.059761195325569103 0 0.076734924211177571 0.049535316522237388 0 0.063756980967503582 0.059761195325569103 0 0.076734924211177571 0.049535316522237388 0 0.078896317813284711 0.063130005487330554 0 0.076734924211177571 0.049535316522237388 0 0.090394473132530156 0.056962854116463339 0 0.078896317813284711 0.063130005487330554 0 0.090394473132530156 0.056962854116463339 0 0.08516149451907469 0.032589503251719387 0 0.076734924211177571 0.049535316522237388 0 0.090394473132530156 0.056962854116463339 0 0.08516149451907469 0.032589503251719387 0 0.090394473132530156 0.056962854116463339 0 0.08516149451907469 0.032589503251719387 0 0.096764564946639139 0.043178279343160431 0 0.08516149451907469 0.032589503251719387 0 0.096764564946639139 0.043178279343160431 0 0.09893654195113713 0.02570505514797651 0 0.096764564946639139 0.043178279343160431 0 0.10666951487556919 0.040720151324231749 0 0.09893654195113713 0.02570505514797651 0 0.096764564946639139 0.043178279343160431 0 0.10666951487556919 0.040720151324231749 0 0.10388747543703999 0.053358399551525167 0 0.10666951487556919 0.040720151324231749 0 0.1142736493139349 0.03087626799389703 0 0.09893654195113713 0.02570505514797651 0 0.10388747543703999 0.053358399551525167 0 0.11892469151436 0.060175562481194378 0 0.096340815718618328 0.066677421107029802 0 0.090394473132530156 0.056962854116463339 0 0.10388747543703999 0.053358399551525167 0 0.096340815718618328 0.066677421107029802 0 0.090394473132530156 0.056962854116463339 0 0.096764564946639139 0.043178279343160431 0 0.10388747543703999 0.053358399551525167 0 0.10666951487556919 0.040720151324231749 0 0.10388747543703999 0.053358399551525167 0 0.1137328545953389 0.049471119462924477 0 0.1137328545953389 0.049471119462924477 0 0.11892469151436 0.060175562481194378 0 0.12367169586596689 0.04413069599522032 0 0.10388747543703999 0.053358399551525167 0 0.1137328545953389 0.049471119462924477 0 0.11892469151436 0.060175562481194378 0 0.10666951487556919 0.040720151324231749 0 0.12367169586596689 0.04413069599522032 0 0.1142736493139349 0.03087626799389703 0 0.12367169586596689 0.04413069599522032 0 0.1142736493139349 0.03087626799389703 0 0.13034027439662041 0.028127834929059549 0 0.10666951487556919 0.040720151324231749 0 0.1137328545953389 0.049471119462924477 0 0.12367169586596689 0.04413069599522032 0 0.1142736493139349 0.03087626799389703 0 0.111750219480381 0.015697602572997061 0 0.13034027439662041 0.028127834929059549 0 0.11917198148314 0.002581966002757949 0 0.13034027439662041 0.028127834929059549 0 0.111750219480381 0.015697602572997061 0 0.11917198148314 0.002581966002757949 0 0.13034027439662041 0.028127834929059549 0 0.11917198148314 0.002581966002757949 0 0.1309849453148588 0.01811654968683717 0 0.1228376310831711 -0.00076623140119310329 0 0.11917198148314 0.002581966002757949 0 0.1228376310831711 -0.00076623140119310329 0 0.11917198148314 0.002581966002757949 0 0.1133629416093747 0.002418872237081233 0 0.1105415625726717 -0.0014271332550589229 0 0.11917198148314 0.002581966002757949 0 0.1133629416093747 0.002418872237081233 0 0.11092652002007269 0.0067640166461111727 0 0.1133629416093747 0.002418872237081233 0 0.1078625722471533 0.0022823866337398822 0 0.1105415625726717 -0.0014271332550589229 0 0.1133629416093747 0.002418872237081233 0 0.11092652002007269 0.0067640166461111727 0 0.1078625722471533 0.0022823866337398822 0 0.111750219480381 0.015697602572997061 0 0.11917198148314 0.002581966002757949 0 0.11092652002007269 0.0067640166461111727 0 0.111750219480381 0.015697602572997061 0 0.11092652002007269 0.0067640166461111727 0 0.1009244284881298 0.0078078577834924806 0 0.1078625722471533 0.0022823866337398822 0 0.1009244284881298 0.0078078577834924806 0 0.1039166904039584 -0.0028966343462391718 0 0.11092652002007269 0.0067640166461111727 0 0.1078625722471533 0.0022823866337398822 0 0.1009244284881298 0.0078078577834924806 0 0.1009244284881298 0.0078078577834924806 0 0.1039166904039584 -0.0028966343462391718 0 0.09649789417263642 -0.0037639840011086311 0 0.111750219480381 0.015697602572997061 0 0.1009244284881298 0.0078078577834924806 0 0.09893654195113713 0.02570505514797651 0 0.1142736493139349 0.03087626799389703 0 0.111750219480381 0.015697602572997061 0 0.09893654195113713 0.02570505514797651 0 0.10086043035944101 0.1057095558459509 0 0.088353675930770217 0.1090445403681379 0 0.098136173783193614 0.12855261503670501 0 0.10086043035944101 0.1057095558459509 0 0.11707998843366239 0.12090166170324231 0 0.098136173783193614 0.12855261503670501 0 0.10086043035944101 0.1057095558459509 0 0.11707998843366239 0.12090166170324231 0 0.12018819637303869 0.10164151191590461 0 0.11707998843366239 0.12090166170324231 0 0.12018819637303869 0.10164151191590461 0 0.1368974078767736 0.107501873099266 0 0.10086043035944101 0.1057095558459509 0 0.12018819637303869 0.10164151191590461 0 0.11039993896964689 0.089589601033300492 0 0.12018819637303869 0.10164151191590461 0 0.1225478872688979 0.090713611373926736 0 0.11039993896964689 0.089589601033300492 0 0.1225478872688979 0.090713611373926736 0 0.1210037722340596 0.082520495593825793 0 0.11039993896964689 0.089589601033300492 0 0.1210037722340596 0.082520495593825793 0 0.11039993896964689 0.089589601033300492 0 0.1079674466630436 0.07575227550831827 0 0.1243405792371938 0.066503547411893488 0 0.1152310018430296 0.068591719667449438 0 0.13121537104960351 0.072689189806444385 0 0.1152310018430296 0.068591719667449438 0 0.1079674466630436 0.07575227550831827 0 0.13121537104960351 0.072689189806444385 0 0.11892469151436 0.060175562481194378 0 0.1152310018430296 0.068591719667449438 0 0.096340815718618328 0.066677421107029802 0 0.1210037722340596 0.082520495593825793 0 0.1079674466630436 0.07575227550831827 0 0.13121537104960351 0.072689189806444385 0 0.1079674466630436 0.07575227550831827 0 0.13121537104960351 0.072689189806444385 0 0.11892469151436 0.060175562481194378 0 0.1243405792371938 0.066503547411893488 0 0.1152310018430296 0.068591719667449438 0 0.090394473132530156 0.056962854116463339 0 0.096340815718618328 0.066677421107029802 0 0.095627451745985609 0.081336204981207194 0 0.11892469151436 0.060175562481194378 0 0.096340815718618328 0.066677421107029802 0 0.1152310018430296 0.068591719667449438 0 0.1079674466630436 0.07575227550831827 0 0.096340815718618328 0.066677421107029802 0 0.1079674466630436 0.07575227550831827 0 0.096340815718618328 0.066677421107029802 0 0.095627451745985609 0.081336204981207194 0 0.10086043035944101 0.1057095558459509 0 0.095627451745985609 0.081336204981207194 0 0.10086043035944101 0.1057095558459509 0 0.095627451745985609 0.081336204981207194 0 0.085469831166676849 0.087436677031336632 0 0.10086043035944101 0.1057095558459509 0 0.11039993896964689 0.089589601033300492 0 0.095627451745985609 0.081336204981207194 0 0.11039993896964689 0.089589601033300492 0 0.1079674466630436 0.07575227550831827 0 0.095627451745985609 0.081336204981207194 0 0.095627451745985609 0.081336204981207194 0 0.085469831166676849 0.087436677031336632 0 0.085588317529406169 0.073238424790440806 0 0.085469831166676849 0.087436677031336632 0 0.085588317529406169 0.073238424790440806 0 0.076873554133312927 0.079435143693455501 0 0.085469831166676849 0.087436677031336632 0 0.070098818600398835 0.095008337279511162 0 0.081838863589211913 0.097859807548057495 0 0.085588317529406169 0.073238424790440806 0 0.078896317813284711 0.063130005487330554 0 0.076873554133312927 0.079435143693455501 0 0.090394473132530156 0.056962854116463339 0 0.095627451745985609 0.081336204981207194 0 0.090394473132530156 0.056962854116463339 0 0.095627451745985609 0.081336204981207194 0 0.085588317529406169 0.073238424790440806 0 0.090394473132530156 0.056962854116463339 0 0.085588317529406169 0.073238424790440806 0 0.078896317813284711 0.063130005487330554 0 0.063756980967503582 0.059761195325569103 0 0.076873554133312927 0.079435143693455501 0 0.058428932400687923 0.080576723114904505 0 0.063756980967503582 0.059761195325569103 0 0.078896317813284711 0.063130005487330554 0 0.076873554133312927 0.079435143693455501 0 0.076873554133312927 0.079435143693455501 0 0.070098818600398835 0.095008337279511162 0 0.058428932400687923 0.080576723114904505 0 0.085469831166676849 0.087436677031336632 0 0.076873554133312927 0.079435143693455501 0 0.070098818600398835 0.095008337279511162 0 0.076873554133312927 0.079435143693455501 0 0.070098818600398835 0.095008337279511162 0 0.070098818600398835 0.095008337279511162 0 0.063324083067484813 0.1105815308655668 0 0.056772327777908818 0.093355456469435216 0 0.070098818600398835 0.095008337279511162 0 0.073686861685182473 0.1058294153104071 0 0.063324083067484813 0.1105815308655668 0 0.070098818600398835 0.095008337279511162 0 0.063324083067484813 0.1105815308655668 0 0.070098818600398835 0.095008337279511162 0 0.073686861685182473 0.1058294153104071 0 0.081838863589211913 0.097859807548057495 0 0.10086043035944101 0.1057095558459509 0 0.088353675930770217 0.1090445403681379 0 0.081838863589211913 0.097859807548057495 0 0.10086043035944101 0.1057095558459509 0 0.085469831166676849 0.087436677031336632 0 0.081838863589211913 0.097859807548057495 0 0.073686861685182473 0.1058294153104071 0 0.081838863589211913 0.097859807548057495 0 0.081058066011519173 0.11973636453468819 0 0.081838863589211913 0.097859807548057495 0 0.081058066011519173 0.11973636453468819 0 0.088353675930770217 0.1090445403681379 0 0.081838863589211913 0.097859807548057495 0 0.081058066011519173 0.11973636453468819 0 0.081058066011519173 0.11973636453468819 0 0.098136173783193614 0.12855261503670501 0 0.088353675930770217 0.1090445403681379 0 0.081058066011519173 0.11973636453468819 0 0.098136173783193614 0.12855261503670501 0 0.081058066011519173 0.11973636453468819 0 0.063324083067484813 0.1105815308655668 0 0.068402942841081005 0.12865021266463919 0 0.081058066011519173 0.11973636453468819 0 0.063324083067484813 0.1105815308655668 0 0.073686861685182473 0.1058294153104071 0 0.081058066011519173 0.11973636453468819 0 0.063324083067484813 0.1105815308655668 0 0.063324083067484813 0.1105815308655668 0 0.047212646671147621 0.11637508280246631 0 0.046344121904492837 0.10181594669612309 0 0.063324083067484813 0.1105815308655668 0 0.047212646671147621 0.11637508280246631 0 0.054704645729867107 0.1303951701743557 0 0.063324083067484813 0.1105815308655668 0 0.054704645729867107 0.1303951701743557 0 0.068402942841081005 0.12865021266463919 0 0.063324083067484813 0.1105815308655668 0 0.054704645729867107 0.1303951701743557 0 0.063324083067484813 0.1105815308655668 0 0.046344121904492837 0.10181594669612309 0 0.056772327777908818 0.093355456469435216 0 0.063324083067484813 0.1105815308655668 0 0.046344121904492837 0.10181594669612309 0 0.046344121904492837 0.10181594669612309 0 0.056772327777908818 0.093355456469435216 0 0.045320775007697253 0.087378911453508054 0 0.046344121904492837 0.10181594669612309 0 0.0293641607415005 0.093050362526680058 0 0.027539824430943272 0.097260859315675907 0 0.046344121904492837 0.10181594669612309 0 0.0293641607415005 0.093050362526680058 0 0.046344121904492837 0.10181594669612309 0 0.045320775007697253 0.087378911453508054 0 0.0293641607415005 0.093050362526680058 0 0.046344121904492837 0.10181594669612309 0 0.034802580128522533 0.108370238657299 0 0.027539824430943272 0.097260859315675907 0 0.047212646671147621 0.11637508280246631 0 0.046344121904492837 0.10181594669612309 0 0.034802580128522533 0.108370238657299 0 0.034802580128522533 0.108370238657299 0 0.02295827912300942 0.1143792008990337 0 0.036209801575650402 0.12755429465012871 0 0.047212646671147621 0.11637508280246631 0 0.054704645729867107 0.1303951701743557 0 0.036209801575650402 0.12755429465012871 0 0.047212646671147621 0.11637508280246631 0 0.034802580128522533 0.108370238657299 0 0.036209801575650402 0.12755429465012871 0 0.063756980967503582 0.059761195325569103 0 0.058428932400687923 0.080576723114904505 0 0.039807943620716157 0.068946520475498749 0 0.058428932400687923 0.080576723114904505 0 0.045320775007697253 0.087378911453508054 0 0.039807943620716157 0.068946520475498749 0 0.070098818600398835 0.095008337279511162 0 0.058428932400687923 0.080576723114904505 0 0.056772327777908818 0.093355456469435216 0 0.058428932400687923 0.080576723114904505 0 0.056772327777908818 0.093355456469435216 0 0.045320775007697253 0.087378911453508054 0 0.039807943620716157 0.068946520475498749 0 0.02523443473854358 0.074793540318702806 0 0.0293641607415005 0.093050362526680058 0 0.045320775007697253 0.087378911453508054 0 0.039807943620716157 0.068946520475498749 0 0.0293641607415005 0.093050362526680058 0 0.039807943620716157 0.068946520475498749 0 0.0293641607415005 0.093050362526680058 0 0.02507841675544124 0.048354097280414877 0 0.039807943620716157 0.068946520475498749 0 0.02523443473854358 0.074793540318702806 0 0.02523443473854358 0.074793540318702806 0 0.01233266555678463 0.084258174892090337 0 0.010722424996073881 0.068121568230846891 0 0.02507841675544124 0.048354097280414877 0 0.02523443473854358 0.074793540318702806 0 0.010722424996073881 0.068121568230846891 0 0.0293641607415005 0.093050362526680058 0 0.01233266555678463 0.084258174892090337 0 0.0293641607415005 0.093050362526680058 0 0.01233266555678463 0.084258174892090337 0 0.019584721545335231 0.095933386042030777 0 0.02523443473854358 0.074793540318702806 0 0.0293641607415005 0.093050362526680058 0 0.01233266555678463 0.084258174892090337 0 -0.0046988296279310846 0.075465987257500103 0 0.01233266555678463 0.084258174892090337 0 -0.0046988296279310846 0.075465987257500103 0 0.00056903788424511365 0.086682396089073327 0 0.01233266555678463 0.084258174892090337 0 0.01233266555678463 0.084258174892090337 0 0.019584721545335231 0.095933386042030777 0 0.0096773837387348072 0.094713106344260181 0 0.00056903788424511365 0.086682396089073327 0 0.0096773837387348072 0.094713106344260181 0 0.0017142141577850001 0.096485027642689541 0 0.00056903788424511365 0.086682396089073327 0 0.01233266555678463 0.084258174892090337 0 0.0096773837387348072 0.094713106344260181 0 -0.0046988296279310846 0.075465987257500103 0 0.0079626054049135586 0.052863747179962457 0 -0.0046988296279310846 0.075465987257500103 0 0.01233266555678463 0.084258174892090337 0 0.010722424996073881 0.068121568230846891 0 -0.0046988296279310846 0.075465987257500103 0 0.0079626054049135586 0.052863747179962457 0 0.010722424996073881 0.068121568230846891 0 0.02295827912300942 0.1143792008990337 0 0.016633607451047409 0.12879447845417449 0 0.036209801575650402 0.12755429465012871 0 0.02295827912300942 0.1143792008990337 0 0.02320798257890765 0.1047443639128517 0 0.017264926825327171 0.1093249123190818 0 0.02295827912300942 0.1143792008990337 0 0.017264926825327171 0.1093249123190818 0 0.01360187540002143 0.11722717171449371 0 0.02295827912300942 0.1143792008990337 0 0.01360187540002143 0.11722717171449371 0 0.016633607451047409 0.12879447845417449 0 0.034802580128522533 0.108370238657299 0 0.027539824430943272 0.097260859315675907 0 0.02320798257890765 0.1047443639128517 0 0.034802580128522533 0.108370238657299 0 0.02295827912300942 0.1143792008990337 0 0.02320798257890765 0.1047443639128517 0 0.0293641607415005 0.093050362526680058 0 0.027539824430943272 0.097260859315675907 0 0.019584721545335231 0.095933386042030777 0 0.027539824430943272 0.097260859315675907 0 0.019584721545335231 0.095933386042030777 0 0.02320798257890765 0.1047443639128517 0 0.0293641607415005 0.093050362526680058 0 0.027539824430943272 0.097260859315675907 0 0.019584721545335231 0.095933386042030777 0 0.02320798257890765 0.1047443639128517 0 0.01504081682007688 0.10253598369847031 0 0.02320798257890765 0.1047443639128517 0 0.017264926825327171 0.1093249123190818 0 0.01504081682007688 0.10253598369847031 0 0.0088228464681819972 0.10238366970120689 0 0.01151568020462046 0.1077378413705596 0 0.0058206420146291954 0.1114089238878985 0 0.017264926825327171 0.1093249123190818 0 0.01504081682007688 0.10253598369847031 0 0.01151568020462046 0.1077378413705596 0 0.01504081682007688 0.10253598369847031 0 0.0088228464681819972 0.10238366970120689 0 0.01151568020462046 0.1077378413705596 0 0.019584721545335231 0.095933386042030777 0 0.01504081682007688 0.10253598369847031 0 0.0096773837387348072 0.094713106344260181 0 0.01504081682007688 0.10253598369847031 0 0.0088228464681819972 0.10238366970120689 0 0.0096773837387348072 0.094713106344260181 0 0.0088228464681819972 0.10238366970120689 0 0.0096773837387348072 0.094713106344260181 0 0.0017142141577850001 0.096485027642689541 0 0.0088228464681819972 0.10238366970120689 0 0.0017142141577850001 0.096485027642689541 0 0.0058206420146291954 0.1114089238878985 0 0.0058206420146291954 0.1114089238878985 0 0.00039794405216867472 0.112072386291362 0 0.01360187540002143 0.11722717171449371 0 0.00039794405216867472 0.112072386291362 0 0.016633607451047409 0.12879447845417449 0 0.00039794405216867472 0.112072386291362 0 0.01360187540002143 0.11722717171449371 0 0.016633607451047409 0.12879447845417449 0 0.00039794405216867472 0.112072386291362 0 0.0010393500416724941 0.12595831854165979 0 0.016633607451047409 0.12879447845417449 0 0.01151568020462046 0.1077378413705596 0 0.0058206420146291954 0.1114089238878985 0 0.01360187540002143 0.11722717171449371 0 0.017264926825327171 0.1093249123190818 0 0.01151568020462046 0.1077378413705596 0 0.01360187540002143 0.11722717171449371 0 -0.0082797250895681185 0.13474448294352481 0 0.0010393500416724941 0.12595831854165979 0 0.01291562537333717 0.14373886088149129 0 0.0010393500416724941 0.12595831854165979 0 0.016633607451047409 0.12879447845417449 0 0.01291562537333717 0.14373886088149129 0 0.016633607451047409 0.12879447845417449 0 0.030096440749716711 0.14309687622970299 0 0.036209801575650402 0.12755429465012871 0 0.016633607451047409 0.12879447845417449 0 0.030096440749716711 0.14309687622970299 0 0.01291562537333717 0.14373886088149129 0 0.030096440749716711 0.14309687622970299 0 0.01291562537333717 0.14373886088149129 0 0.026789162612504271 0.15663130254031199 0 0.01291562537333717 0.14373886088149129 0 0.015650655317666261 0.15865613344587939 0 0.026789162612504271 0.15663130254031199 0 0.01291562537333717 0.14373886088149129 0 0.00151890392611572 0.15456094484017679 0 0.015650655317666261 0.15865613344587939 0 -0.0082797250895681185 0.13474448294352481 0 0.01291562537333717 0.14373886088149129 0 0.00151890392611572 0.15456094484017679 0 0.00151890392611572 0.15456094484017679 0 0.01131753294179963 0.17437740673682869 0 0.00151890392611572 0.15456094484017679 0 0.012386788017382491 0.1641388541230504 0 0.01131753294179963 0.17437740673682869 0 -0.0026654791677323511 0.16604552865166611 0 0.00151890392611572 0.15456094484017679 0 0.01131753294179963 0.17437740673682869 0 -0.0026654791677323511 0.16604552865166611 0 0.01131753294179963 0.17437740673682869 0 0.012386788017382491 0.1641388541230504 0 0.01131753294179963 0.17437740673682869 0 0.021060059883948341 0.16896093146931659 0 0.00151890392611572 0.15456094484017679 0 0.012386788017382491 0.1641388541230504 0 0.015650655317666261 0.15865613344587939 0 0.0072367552089822543 0.1840346549744645 0 0.003085550936940849 0.18695469644268639 0 0.007927604969267173 0.18944813828794729 0 0.0072367552089822543 0.1840346549744645 0 0.003085550936940849 0.18695469644268639 0 0.00053502205069707774 0.18188021690744111 0 -0.003081975793268537 0.18782002811878001 0 0.003085550936940849 0.18695469644268639 0 0.00053502205069707774 0.18188021690744111 0 0.0072367552089822543 0.1840346549744645 0 0.00053502205069707774 0.18188021690744111 0 0.0082701590199136289 0.17900500476799119 0 -0.0026654791677323511 0.16604552865166611 0 0.0024081860720475369 0.17557227428335351 0 0.01131753294179963 0.17437740673682869 0 0.0024081860720475369 0.17557227428335351 0 0.01131753294179963 0.17437740673682869 0 0.0082701590199136289 0.17900500476799119 0 0.00053502205069707774 0.18188021690744111 0 0.0024081860720475369 0.17557227428335351 0 0.0082701590199136289 0.17900500476799119 0 0.01131753294179963 0.17437740673682869 0 0.013543000689093809 0.1790660034635034 0 0.021389494149062459 0.18037885708243739 0 0.01131753294179963 0.17437740673682869 0 0.013543000689093809 0.1790660034635034 0 0.01131753294179963 0.17437740673682869 0 0.013543000689093809 0.1790660034635034 0 0.0082701590199136289 0.17900500476799119 0 0.013543000689093809 0.1790660034635034 0 0.0115175493401282 0.18523262863701309 0 0.016985704636488509 0.19275209946522329 0 0.0072367552089822543 0.1840346549744645 0 0.0082701590199136289 0.17900500476799119 0 0.0115175493401282 0.18523262863701309 0 0.013543000689093809 0.1790660034635034 0 0.0082701590199136289 0.17900500476799119 0 0.0115175493401282 0.18523262863701309 0 0.0072367552089822543 0.1840346549744645 0 0.0115175493401282 0.18523262863701309 0 0.007927604969267173 0.18944813828794729 0 0.021389494149062459 0.18037885708243739 0 0.039453436217199322 0.18340126598870379 0 0.013543000689093809 0.1790660034635034 0 0.021389494149062459 0.18037885708243739 0 0.02230428843080948 0.19662630733770359 0 0.013543000689093809 0.1790660034635034 0 0.021389494149062459 0.18037885708243739 0 0.01131753294179963 0.17437740673682869 0 0.021389494149062459 0.18037885708243739 0 0.01131753294179963 0.17437740673682869 0 0.021389494149062459 0.18037885708243739 0 0.021060059883948341 0.16896093146931659 0 0.021389494149062459 0.18037885708243739 0 0.021060059883948341 0.16896093146931659 0 0.034487576316221548 0.17006964541133651 0 0.021389494149062459 0.18037885708243739 0 0.036772518206031037 0.18954494233072339 0 0.012386788017382491 0.1641388541230504 0 0.015650655317666261 0.15865613344587939 0 0.021060059883948341 0.16896093146931659 0 0.015650655317666261 0.15865613344587939 0 0.021060059883948341 0.16896093146931659 0 0.026789162612504271 0.15663130254031199 0 0.021060059883948341 0.16896093146931659 0 0.026789162612504271 0.15663130254031199 0 0.034487576316221548 0.17006964541133651 0 0.026789162612504271 0.15663130254031199 0 0.034487576316221548 0.17006964541133651 0 0.046085208392249437 0.15020880948314461 0 0.034487576316221548 0.17006964541133651 0 0.049790080527993393 0.16878629006039211 0 0.046085208392249437 0.15020880948314461 0 0.021389494149062459 0.18037885708243739 0 0.039453436217199322 0.18340126598870379 0 0.036772518206031037 0.18954494233072339 0 0.021389494149062459 0.18037885708243739 0 0.034487576316221548 0.17006964541133651 0 0.039453436217199322 0.18340126598870379 0 0.034487576316221548 0.17006964541133651 0 0.039453436217199322 0.18340126598870379 0 0.049790080527993393 0.16878629006039211 0 0.039453436217199322 0.18340126598870379 0 0.057517378285335978 0.18642367489497111 0 0.049790080527993393 0.16878629006039211 0 0.057517378285335978 0.18642367489497111 0 0.06670876632053821 0.16536039993208129 0 0.039453436217199322 0.18340126598870379 0 0.057517378285335978 0.18642367489497111 0 0.039453436217199322 0.18340126598870379 0 0.057517378285335978 0.18642367489497111 0 0.046621016020550923 0.1898787739154234 0 0.057517378285335978 0.18642367489497111 0 0.049790080527993393 0.16878629006039211 0 0.06670876632053821 0.16536039993208129 0 0.056759789081437029 0.15816783404816359 0 0.049790080527993393 0.16878629006039211 0 0.06670876632053821 0.16536039993208129 0 0.056759789081437029 0.15816783404816359 0 0.049790080527993393 0.16878629006039211 0 0.046085208392249437 0.15020880948314461 0 0.056759789081437029 0.15816783404816359 0 0.046085208392249437 0.15020880948314461 0 0.06445510108496709 0.14831583671703669 0 0.054704645729867107 0.1303951701743557 0 0.046085208392249437 0.15020880948314461 0 0.06445510108496709 0.14831583671703669 0 0.054704645729867107 0.1303951701743557 0 0.046085208392249437 0.15020880948314461 0 0.054704645729867107 0.1303951701743557 0 0.036209801575650402 0.12755429465012871 0 0.046085208392249437 0.15020880948314461 0 0.030096440749716711 0.14309687622970299 0 0.036209801575650402 0.12755429465012871 0 0.046085208392249437 0.15020880948314461 0 0.030096440749716711 0.14309687622970299 0 0.026789162612504271 0.15663130254031199 0 0.046085208392249437 0.15020880948314461 0 0.02117589590128718 0.2395927914801684 0 0.012156823249103331 0.25259817100369902 0 0.030652172791378579 0.25229956247347313 0 0.02117589590128718 0.2395927914801684 0 0.034188277432347557 0.23988537883147459 0 0.030652172791378579 0.25229956247347313 0 0.02117589590128718 0.2395927914801684 0 0.030323397599499081 0.22959965211839081 0 0.034188277432347557 0.23988537883147459 0 -0.0082457657602449386 0.25246627485226031 0 -0.001965278602122185 0.24182690426762959 0 0.012156823249103331 0.25259817100369902 0 0.02117589590128718 0.2395927914801684 0 0.008579196815527634 0.23953031834541311 0 0.012156823249103331 0.25259817100369902 0 -0.001965278602122185 0.24182690426762959 0 0.008579196815527634 0.23953031834541311 0 0.012156823249103331 0.25259817100369902 0 -0.001965278602122185 0.24182690426762959 0 0.008579196815527634 0.23953031834541311 0 0.0010433620948100131 0.23240638127880581 0 0.02117589590128718 0.2395927914801684 0 0.008579196815527634 0.23953031834541311 0 0.01115565641706814 0.2303537873583584 0 0.008579196815527634 0.23953031834541311 0 0.01115565641706814 0.2303537873583584 0 0.0010433620948100131 0.23240638127880581 0 0.01115565641706814 0.2303537873583584 0 0.0010433620948100131 0.23240638127880581 0 0.0091084557899102862 0.2202403998025296 0 0.0010433620948100131 0.23240638127880581 0 0.0001093474821353509 0.22215689039817851 0 0.0091084557899102862 0.2202403998025296 0 0.01115565641706814 0.2303537873583584 0 0.0091084557899102862 0.2202403998025296 0 0.016496999093422449 0.223541986747673 0 0.0091084557899102862 0.2202403998025296 0 0.016496999093422449 0.223541986747673 0 0.01612020317490017 0.2152275371535412 0 0.016496999093422449 0.223541986747673 0 0.02147394042148347 0.23028557103733549 0 0.024626739663750161 0.22160263838659999 0 0.016496999093422449 0.223541986747673 0 0.024626739663750161 0.22160263838659999 0 0.01612020317490017 0.2152275371535412 0 0.01115565641706814 0.2303537873583584 0 0.016496999093422449 0.223541986747673 0 0.02147394042148347 0.23028557103733549 0 0.02117589590128718 0.2395927914801684 0 0.01115565641706814 0.2303537873583584 0 0.02147394042148347 0.23028557103733549 0 0.02147394042148347 0.23028557103733549 0 0.030323397599499081 0.22959965211839081 0 0.024626739663750161 0.22160263838659999 0 0.02117589590128718 0.2395927914801684 0 0.02147394042148347 0.23028557103733549 0 0.030323397599499081 0.22959965211839081 0 0.024626739663750161 0.22160263838659999 0 0.027508903383077599 0.21474836631904051 0 0.034268755792753257 0.2207932912834846 0 0.030323397599499081 0.22959965211839081 0 0.024626739663750161 0.22160263838659999 0 0.034268755792753257 0.2207932912834846 0 0.027508903383077599 0.21474836631904051 0 0.023943201944243639 0.1999111919537408 0 0.034268755792753257 0.2207932912834846 0 0.023943201944243639 0.1999111919537408 0 0.034268755792753257 0.2207932912834846 0 0.027508903383077599 0.21474836631904051 0 0.023922045305692211 0.20684028787671799 0 0.022699459496289199 0.2141990688659105 0 0.024626739663750161 0.22160263838659999 0 0.027508903383077599 0.21474836631904051 0 0.022699459496289199 0.2141990688659105 0 0.027508903383077599 0.21474836631904051 0 0.023922045305692211 0.20684028787671799 0 0.023943201944243639 0.1999111919537408 0 0.01896544066016782 0.20973745132843891 0 0.01612020317490017 0.2152275371535412 0 0.013247665380499421 0.20734461508933349 0 0.023922045305692211 0.20684028787671799 0 0.01896544066016782 0.20973745132843891 0 0.022699459496289199 0.2141990688659105 0 0.023922045305692211 0.20684028787671799 0 0.021734838082019509 0.20302577286306159 0 0.023943201944243639 0.1999111919537408 0 0.023922045305692211 0.20684028787671799 0 0.018650848458870179 0.20436341187488569 0 0.021734838082019509 0.20302577286306159 0 0.023922045305692211 0.20684028787671799 0 0.018650848458870179 0.20436341187488569 0 0.01896544066016782 0.20973745132843891 0 0.018650848458870179 0.20436341187488569 0 0.01896544066016782 0.20973745132843891 0 0.013247665380499421 0.20734461508933349 0 0.024626739663750161 0.22160263838659999 0 0.022699459496289199 0.2141990688659105 0 0.01612020317490017 0.2152275371535412 0 0.01896544066016782 0.20973745132843891 0 0.022699459496289199 0.2141990688659105 0 0.01612020317490017 0.2152275371535412 0 0.01612020317490017 0.2152275371535412 0 0.0085100262700745465 0.21094865931476009 0 0.013247665380499421 0.20734461508933349 0 0.0091084557899102862 0.2202403998025296 0 0.01612020317490017 0.2152275371535412 0 0.0085100262700745465 0.21094865931476009 0 0.0001093474821353509 0.22215689039817851 0 0.0091084557899102862 0.2202403998025296 0 0.00083142932333707279 0.21381627434491049 0 0.0091084557899102862 0.2202403998025296 0 0.0085100262700745465 0.21094865931476009 0 0.00083142932333707279 0.21381627434491049 0 0.0085100262700745465 0.21094865931476009 0 0.00083142932333707279 0.21381627434491049 0 0.0029581381265264858 0.20519393183106241 0 0.0085100262700745465 0.21094865931476009 0 0.0029581381265264858 0.20519393183106241 0 0.0087942658252738396 0.20386919766718339 0 0.0029581381265264858 0.20519393183106241 0 0.0087942658252738396 0.20386919766718339 0 0.0056326315351633537 0.2004899601979887 0 0.0085100262700745465 0.21094865931476009 0 0.0087942658252738396 0.20386919766718339 0 0.013247665380499421 0.20734461508933349 0 0.0087942658252738396 0.20386919766718339 0 0.013247665380499421 0.20734461508933349 0 0.013927284278231049 0.2027684573698135 0 0.018650848458870179 0.20436341187488569 0 0.013247665380499421 0.20734461508933349 0 0.013927284278231049 0.2027684573698135 0 0.013927284278231049 0.2027684573698135 0 0.010260103200158849 0.1991700010832006 0 0.016231602148303749 0.1987520895161983 0 0.010260103200158849 0.1991700010832006 0 0.01183675088797494 0.19419665586736051 0 0.016231602148303749 0.1987520895161983 0 0.010260103200158849 0.1991700010832006 0 0.0061740732670114221 0.19541611365695169 0 0.01183675088797494 0.19419665586736051 0 0.0087942658252738396 0.20386919766718339 0 0.010260103200158849 0.1991700010832006 0 0.0056326315351633537 0.2004899601979887 0 0.0087942658252738396 0.20386919766718339 0 0.013927284278231049 0.2027684573698135 0 0.010260103200158849 0.1991700010832006 0 0.010260103200158849 0.1991700010832006 0 0.0056326315351633537 0.2004899601979887 0 0.0061740732670114221 0.19541611365695169 0 -2.3422743153838069e-05 0.1988005567515452 0 0.0056326315351633537 0.2004899601979887 0 0.0061740732670114221 0.19541611365695169 0 -2.3422743153838069e-05 0.1988005567515452 0 0.0029581381265264858 0.20519393183106241 0 0.0056326315351633537 0.2004899601979887 0 -0.003081975793268537 0.18782002811878001 0 0.003085550936940849 0.18695469644268639 0 0.0015327128313205251 0.1915709431207247 0 -2.3422743153838069e-05 0.1988005567515452 0 0.0061740732670114221 0.19541611365695169 0 0.0015327128313205251 0.1915709431207247 0 0.0061740732670114221 0.19541611365695169 0 0.0015327128313205251 0.1915709431207247 0 0.007927604969267173 0.18944813828794729 0 0.003085550936940849 0.18695469644268639 0 0.0015327128313205251 0.1915709431207247 0 0.007927604969267173 0.18944813828794729 0 0.007927604969267173 0.18944813828794729 0 0.01183675088797494 0.19419665586736051 0 0.012456110925155389 0.1902446129755902 0 0.0115175493401282 0.18523262863701309 0 0.007927604969267173 0.18944813828794729 0 0.012456110925155389 0.1902446129755902 0 0.0061740732670114221 0.19541611365695169 0 0.007927604969267173 0.18944813828794729 0 0.01183675088797494 0.19419665586736051 0 0.01183675088797494 0.19419665586736051 0 0.012456110925155389 0.1902446129755902 0 0.016985704636488509 0.19275209946522329 0 0.01183675088797494 0.19419665586736051 0 0.016985704636488509 0.19275209946522329 0 0.016231602148303749 0.1987520895161983 0 0.0115175493401282 0.18523262863701309 0 0.012456110925155389 0.1902446129755902 0 0.016985704636488509 0.19275209946522329 0 0.021389494149062459 0.18037885708243739 0 0.02230428843080948 0.19662630733770359 0 0.036772518206031037 0.18954494233072339 0 0.013543000689093809 0.1790660034635034 0 0.02230428843080948 0.19662630733770359 0 0.013543000689093809 0.1790660034635034 0 0.016985704636488509 0.19275209946522329 0 0.02230428843080948 0.19662630733770359 0 0.016985704636488509 0.19275209946522329 0 0.019428477636303031 0.19812266709439569 0 0.016231602148303749 0.1987520895161983 0 0.019428477636303031 0.19812266709439569 0 0.016231602148303749 0.1987520895161983 0 0.020423256619271999 0.20098819974690199 0 0.018650848458870179 0.20436341187488569 0 0.016231602148303749 0.1987520895161983 0 0.020423256619271999 0.20098819974690199 0 0.018650848458870179 0.20436341187488569 0 0.013927284278231049 0.2027684573698135 0 0.016231602148303749 0.1987520895161983 0 0.019428477636303031 0.19812266709439569 0 0.020423256619271999 0.20098819974690199 0 0.023943201944243639 0.1999111919537408 0 0.018650848458870179 0.20436341187488569 0 0.020423256619271999 0.20098819974690199 0 0.021734838082019509 0.20302577286306159 0 0.020423256619271999 0.20098819974690199 0 0.021734838082019509 0.20302577286306159 0 0.023943201944243639 0.1999111919537408 0 0.016985704636488509 0.19275209946522329 0 0.02230428843080948 0.19662630733770359 0 0.023943201944243639 0.1999111919537408 0 0.016985704636488509 0.19275209946522329 0 0.019428477636303031 0.19812266709439569 0 0.023943201944243639 0.1999111919537408 0 0.02230428843080948 0.19662630733770359 0 0.023943201944243639 0.1999111919537408 0 0.02230428843080948 0.19662630733770359 0 0.023943201944243639 0.1999111919537408 0 0.035957366435008513 0.20647473970990701 0 0.02230428843080948 0.19662630733770359 0 0.050897121833006063 0.20159486356051531 0 0.035957366435008513 0.20647473970990701 0 0.02230428843080948 0.19662630733770359 0 0.036772518206031037 0.18954494233072339 0 0.050897121833006063 0.20159486356051531 0 0.02230428843080948 0.19662630733770359 0 0.050897121833006063 0.20159486356051531 0 0.036772518206031037 0.18954494233072339 0 0.050897121833006063 0.20159486356051531 0 0.052155542262999663 0.1987110275790093 0 0.036772518206031037 0.18954494233072339 0 0.052155542262999663 0.1987110275790093 0 0.036772518206031037 0.18954494233072339 0 0.046621016020550923 0.1898787739154234 0 0.052155542262999663 0.1987110275790093 0 0.039453436217199322 0.18340126598870379 0 0.036772518206031037 0.18954494233072339 0 0.046621016020550923 0.1898787739154234 0 0.057517378285335978 0.18642367489497111 0 0.046621016020550923 0.1898787739154234 0 0.052155542262999663 0.1987110275790093 0 0.057517378285335978 0.18642367489497111 0 0.052155542262999663 0.1987110275790093 0 0.057517378285335978 0.18642367489497111 0 0.057090951257530269 0.197109929087698 0 0.052155542262999663 0.1987110275790093 0 0.057517378285335978 0.18642367489497111 0 0.060667890749981898 0.1933513013873914 0 0.057090951257530269 0.197109929087698 0 0.060667890749981898 0.1933513013873914 0 0.057090951257530269 0.197109929087698 0 0.058031923789004708 0.2022125116707813 0 0.060667890749981898 0.1933513013873914 0 0.058031923789004708 0.2022125116707813 0 0.060667890749981898 0.1933513013873914 0 0.058031923789004708 0.2022125116707813 0 0.059673977213942478 0.20319094098477611 0 0.058031923789004708 0.2022125116707813 0 0.059673977213942478 0.20319094098477611 0 0.057090951257530269 0.197109929087698 0 0.058031923789004708 0.2022125116707813 0 0.052155542262999663 0.1987110275790093 0 0.058031923789004708 0.2022125116707813 0 0.052155542262999663 0.1987110275790093 0 0.058031923789004708 0.2022125116707813 0 0.050897121833006063 0.20159486356051531 0 0.052155542262999663 0.1987110275790093 0 0.058031923789004708 0.2022125116707813 0 0.050897121833006063 0.20159486356051531 0 0.050897121833006063 0.20159486356051531 0 0.052155542262999663 0.1987110275790093 0 0.050897121833006063 0.20159486356051531 0 0.042542699632676838 0.22074012119599501 0 0.053005439111290922 0.21910981667301421 0 0.058031923789004708 0.2022125116707813 0 0.050897121833006063 0.20159486356051531 0 0.053005439111290922 0.21910981667301421 0 0.058031923789004708 0.2022125116707813 0 0.053005439111290922 0.21910981667301421 0 0.058031923789004708 0.2022125116707813 0 0.061718375040706958 0.21244198365854619 0 0.053005439111290922 0.21910981667301421 0 0.058031923789004708 0.2022125116707813 0 0.059673977213942478 0.20319094098477611 0 0.061718375040706958 0.21244198365854619 0 0.061718375040706958 0.21244198365854619 0 0.053005439111290922 0.21910981667301421 0 0.062081063031912492 0.22413796841031719 0 0.050897121833006063 0.20159486356051531 0 0.042542699632676838 0.22074012119599501 0 0.023943201944243639 0.1999111919537408 0 0.035957366435008513 0.20647473970990701 0 0.034268755792753257 0.2207932912834846 0 0.050897121833006063 0.20159486356051531 0 0.038363073609551428 0.21412918370060571 0 0.042542699632676838 0.22074012119599501 0 0.050897121833006063 0.20159486356051531 0 0.035957366435008513 0.20647473970990701 0 0.038363073609551428 0.21412918370060571 0 0.038363073609551428 0.21412918370060571 0 0.034268755792753257 0.2207932912834846 0 0.042542699632676838 0.22074012119599501 0 0.035957366435008513 0.20647473970990701 0 0.038363073609551428 0.21412918370060571 0 0.034268755792753257 0.2207932912834846 0 0.042542699632676838 0.22074012119599501 0 0.034188277432347557 0.23988537883147459 0 0.042542699632676838 0.22074012119599501 0 0.04817080422001134 0.23536218897101929 0 0.044937254539659167 0.2379713478153713 0 0.030323397599499081 0.22959965211839081 0 0.042542699632676838 0.22074012119599501 0 0.034188277432347557 0.23988537883147459 0 0.042542699632676838 0.22074012119599501 0 0.044937254539659167 0.2379713478153713 0 0.034188277432347557 0.23988537883147459 0 0.030323397599499081 0.22959965211839081 0 0.034268755792753257 0.2207932912834846 0 0.042542699632676838 0.22074012119599501 0 0.053005439111290922 0.21910981667301421 0 0.04817080422001134 0.23536218897101929 0 0.053005439111290922 0.21910981667301421 0 0.062081063031912492 0.22413796841031719 0 0.04817080422001134 0.23536218897101929 0 0.062081063031912492 0.22413796841031719 0 0.04817080422001134 0.23536218897101929 0 0.059531729096570118 0.24099028160929839 0 0.042542699632676838 0.22074012119599501 0 0.053005439111290922 0.21910981667301421 0 0.04817080422001134 0.23536218897101929 0 0.062081063031912492 0.22413796841031719 0 0.04817080422001134 0.23536218897101929 0 0.04817080422001134 0.23536218897101929 0 0.052294646587479003 0.2493466198794505 0 0.04073495957405681 0.26035892983227987 0 0.04817080422001134 0.23536218897101929 0 0.059531729096570118 0.24099028160929839 0 0.052294646587479003 0.2493466198794505 0 0.059531729096570118 0.24099028160929839 0 0.067445722382230539 0.24771064348785149 0 0.06034442261467237 0.25120339486286308 0 0.059531729096570118 0.24099028160929839 0 0.052294646587479003 0.2493466198794505 0 0.06034442261467237 0.25120339486286308 0 0.04817080422001134 0.23536218897101929 0 0.04073495957405681 0.26035892983227987 0 0.04817080422001134 0.23536218897101929 0 0.044937254539659167 0.2379713478153713 0 0.04073495957405681 0.26035892983227987 0 0.04817080422001134 0.23536218897101929 0 0.044937254539659167 0.2379713478153713 0 0.044937254539659167 0.2379713478153713 0 0.034188277432347557 0.23988537883147459 0 0.030652172791378579 0.25229956247347313 0 0.085975255819246227 0.24304742420893821 0 0.091760355399887042 0.24149966876957779 0 0.085886262968569133 0.25948379364412733 0 0.091760355399887042 0.24149966876957779 0 0.10166443252893551 0.23659000017624271 0 0.085886262968569133 0.25948379364412733 0 0.085975255819246227 0.24304742420893821 0 0.091760355399887042 0.24149966876957779 0 0.090327239942362525 0.2312920649275291 0 0.085975255819246227 0.24304742420893821 0 0.075396639696560977 0.24390878816167419 0 0.077103558767455421 0.230534611802553 0 0.085975255819246227 0.24304742420893821 0 0.077103558767455421 0.230534611802553 0 0.090327239942362525 0.2312920649275291 0 0.085975255819246227 0.24304742420893821 0 0.075396639696560977 0.24390878816167419 0 0.080478695998155714 0.25165019938018113 0 0.075396639696560977 0.24390878816167419 0 0.074707437689247702 0.25389633834412328 0 0.080478695998155714 0.25165019938018113 0 0.075396639696560977 0.24390878816167419 0 0.067445722382230539 0.24771064348785149 0 0.068934414955804643 0.23628801399858909 0 0.075396639696560977 0.24390878816167419 0 0.067445722382230539 0.24771064348785149 0 0.074707437689247702 0.25389633834412328 0 0.059531729096570118 0.24099028160929839 0 0.067445722382230539 0.24771064348785149 0 0.068934414955804643 0.23628801399858909 0 0.075396639696560977 0.24390878816167419 0 0.068934414955804643 0.23628801399858909 0 0.077103558767455421 0.230534611802553 0 0.062081063031912492 0.22413796841031719 0 0.059531729096570118 0.24099028160929839 0 0.068934414955804643 0.23628801399858909 0 0.062081063031912492 0.22413796841031719 0 0.077103558767455421 0.230534611802553 0 0.077696208689423979 0.21392961690810641 0 0.077103558767455421 0.230534611802553 0 0.077696208689423979 0.21392961690810641 0 0.062081063031912492 0.22413796841031719 0 0.068934414955804643 0.23628801399858909 0 0.077103558767455421 0.230534611802553 0 0.077103558767455421 0.230534611802553 0 0.086723057100410644 0.21930832929599969 0 0.077696208689423979 0.21392961690810641 0 0.077103558767455421 0.230534611802553 0 0.090327239942362525 0.2312920649275291 0 0.086723057100410644 0.21930832929599969 0 0.090327239942362525 0.2312920649275291 0 0.086723057100410644 0.21930832929599969 0 0.099258091607832458 0.22228701345730209 0 0.08282365066700062 0.20740072564839451 0 0.1001331263781514 0.21054846617837791 0 0.08282365066700062 0.20740072564839451 0 0.0830920941513177 0.21288940176841251 0 0.1001331263781514 0.21054846617837791 0 0.086723057100410644 0.21930832929599969 0 0.0830920941513177 0.21288940176841251 0 0.1001331263781514 0.21054846617837791 0 0.08282365066700062 0.20740072564839451 0 0.077960793866212394 0.2065164116634538 0 0.08282365066700062 0.20740072564839451 0 0.07778409662064556 0.21146715366449201 0 0.077960793866212394 0.2065164116634538 0 0.08282365066700062 0.20740072564839451 0 0.0830920941513177 0.21288940176841251 0 0.07778409662064556 0.21146715366449201 0 0.08282365066700062 0.20740072564839451 0 0.07778409662064556 0.21146715366449201 0 0.086723057100410644 0.21930832929599969 0 0.077696208689423979 0.21392961690810641 0 0.086723057100410644 0.21930832929599969 0 0.0830920941513177 0.21288940176841251 0 0.077696208689423979 0.21392961690810641 0 0.0830920941513177 0.21288940176841251 0 0.07778409662064556 0.21146715366449201 0 0.077696208689423979 0.21392961690810641 0 0.059673977213942478 0.20319094098477611 0 0.077960793866212394 0.2065164116634538 0 0.062081063031912492 0.22413796841031719 0 0.077696208689423979 0.21392961690810641 0 0.075991321843812007 0.21291374784961289 0 0.059673977213942478 0.20319094098477611 0 0.075991321843812007 0.21291374784961289 0 0.059673977213942478 0.20319094098477611 0 0.061718375040706958 0.21244198365854619 0 0.075991321843812007 0.21291374784961289 0 0.059673977213942478 0.20319094098477611 0 0.075991321843812007 0.21291374784961289 0 0.077960793866212394 0.2065164116634538 0 0.07778409662064556 0.21146715366449201 0 0.077696208689423979 0.21392961690810641 0 0.075991321843812007 0.21291374784961289 0 0.07778409662064556 0.21146715366449201 0 0.077696208689423979 0.21392961690810641 0 0.07778409662064556 0.21146715366449201 0 0.075991321843812007 0.21291374784961289 0 0.077696208689423979 0.21392961690810641 0 0.075991321843812007 0.21291374784961289 0 0.062081063031912492 0.22413796841031719 0 0.075991321843812007 0.21291374784961289 0 0.061718375040706958 0.21244198365854619 0 0.062081063031912492 0.22413796841031719 0 0.075991321843812007 0.21291374784961289 0 0.07778409662064556 0.21146715366449201 0 0.075991321843812007 0.21291374784961289 0 0.077960793866212394 0.2065164116634538 0 0.07778409662064556 0.21146715366449201 0 0.077960793866212394 0.2065164116634538 0 0.060667890749981898 0.1933513013873914 0 0.069391780603767286 0.1985353247034998 0 0.078552310067739675 0.1899431815963343 0 0.059673977213942478 0.20319094098477611 0 0.077960793866212394 0.2065164116634538 0 0.069391780603767286 0.1985353247034998 0 0.057517378285335978 0.18642367489497111 0 0.060667890749981898 0.1933513013873914 0 0.078552310067739675 0.1899431815963343 0 0.077960793866212394 0.2065164116634538 0 0.069391780603767286 0.1985353247034998 0 0.078552310067739675 0.1899431815963343 0 0.057517378285335978 0.18642367489497111 0 0.078552310067739675 0.1899431815963343 0 0.060667890749981898 0.1933513013873914 0 0.059673977213942478 0.20319094098477611 0 0.069391780603767286 0.1985353247034998 0 0.077960793866212394 0.2065164116634538 0 0.078552310067739675 0.1899431815963343 0 0.08282365066700062 0.20740072564839451 0 0.078552310067739675 0.1899431815963343 0 0.1000095862482286 0.19353335379614581 0 0.08282365066700062 0.20740072564839451 0 0.077960793866212394 0.2065164116634538 0 0.078552310067739675 0.1899431815963343 0 0.08282365066700062 0.20740072564839451 0 0.1000095862482286 0.19353335379614581 0 0.078552310067739675 0.1899431815963343 0 0.1000095862482286 0.19353335379614581 0 0.1000095862482286 0.19353335379614581 0 0.1119621855324581 0.18388877331391679 0 0.1119621855324581 0.18388877331391679 0 0.12809949413598259 0.1982332796183166 0 0.12623709760602039 0.18867627876683751 0 0.1000095862482286 0.19353335379614581 0 0.12809949413598259 0.1982332796183166 0 0.1000095862482286 0.19353335379614581 0 0.1174426020893027 0.21369620670835879 0 0.12809949413598259 0.1982332796183166 0 0.1000095862482286 0.19353335379614581 0 0.1119621855324581 0.18388877331391679 0 0.12809949413598259 0.1982332796183166 0 0.1174426020893027 0.21369620670835879 0 0.12809949413598259 0.1982332796183166 0 0.1174426020893027 0.21369620670835879 0 0.13079881134157489 0.21612504290720769 0 0.1174426020893027 0.21369620670835879 0 0.1001331263781514 0.21054846617837791 0 0.1000095862482286 0.19353335379614581 0 0.1174426020893027 0.21369620670835879 0 0.1001331263781514 0.21054846617837791 0 0.08282365066700062 0.20740072564839451 0 0.1000095862482286 0.19353335379614581 0 0.1001331263781514 0.21054846617837791 0 0.1174426020893027 0.21369620670835879 0 0.1001331263781514 0.21054846617837791 0 0.099258091607832458 0.22228701345730209 0 0.086723057100410644 0.21930832929599969 0 0.1001331263781514 0.21054846617837791 0 0.099258091607832458 0.22228701345730209 0 0.1174426020893027 0.21369620670835879 0 0.099258091607832458 0.22228701345730209 0 0.10166443252893551 0.23659000017624271 0 0.090327239942362525 0.2312920649275291 0 0.099258091607832458 0.22228701345730209 0 0.10166443252893551 0.23659000017624271 0 0.11193009187841341 0.23778907333103991 0 0.1233060832280653 0.2372070654073864 0 0.13079881134157489 0.21612504290720769 0 0.1174426020893027 0.21369620670835879 0 0.11193009187841341 0.23778907333103991 0 0.10166443252893551 0.23659000017624271 0 0.1174426020893027 0.21369620670835879 0 0.11193009187841341 0.23778907333103991 0 0.13079881134157489 0.21612504290720769 0 0.11193009187841341 0.23778907333103991 0 0.13079881134157489 0.21612504290720769 0 0.1174426020893027 0.21369620670835879 0 0.10166443252893551 0.23659000017624271 0 0.11193009187841341 0.23778907333103991 0 0.1233060832280653 0.2372070654073864 0 0.1152979079485152 0.2467056018988516 0 0.1233060832280653 0.2372070654073864 0 0.1152979079485152 0.2467056018988516 0 0.1250676346401875 0.24796443701554319 0 0.11193009187841341 0.23778907333103991 0 0.1152979079485152 0.2467056018988516 0 0.10650461767427161 0.25132517155921902 0 0.11193009187841341 0.23778907333103991 0 0.10166443252893551 0.23659000017624271 0 0.093061372415253377 0.25945310375487363 0 0.10166443252893551 0.23659000017624271 0 0.085886262968569133 0.25948379364412733 0 0.11193009187841341 0.23778907333103991 0 0.093061372415253377 0.25945310375487363 0 0.11193009187841341 0.23778907333103991 0 0.093061372415253377 0.25945310375487363 0 0.10650461767427161 0.25132517155921902 0 0.091760355399887042 0.24149966876957779 0 0.090327239942362525 0.2312920649275291 0 0.10166443252893551 0.23659000017624271 0 0.08022281403025916 0.14313863688857029 0 0.093167312330706492 0.16073073013935579 0 0.097579150219516186 0.1459852772673329 0 0.08022281403025916 0.14313863688857029 0 0.079387562048995053 0.16654090924245221 0 0.08022281403025916 0.14313863688857029 0 0.097579150219516186 0.1459852772673329 0 0.098136173783193614 0.12855261503670501 0 0.081058066011519173 0.11973636453468819 0 0.08022281403025916 0.14313863688857029 0 0.081058066011519173 0.11973636453468819 0 0.08022281403025916 0.14313863688857029 0 0.098136173783193614 0.12855261503670501 0 0.054704645729867107 0.1303951701743557 0 0.068402942841081005 0.12865021266463919 0 0.06445510108496709 0.14831583671703669 0 0.081058066011519173 0.11973636453468819 0 0.08022281403025916 0.14313863688857029 0 0.068402942841081005 0.12865021266463919 0 0.08022281403025916 0.14313863688857029 0 0.068402942841081005 0.12865021266463919 0 0.06445510108496709 0.14831583671703669 0 0.08022281403025916 0.14313863688857029 0 0.06445510108496709 0.14831583671703669 0 0.079387562048995053 0.16654090924245221 0 0.06445510108496709 0.14831583671703669 0 0.06670876632053821 0.16536039993208129 0 0.079387562048995053 0.16654090924245221 0 0.056759789081437029 0.15816783404816359 0 0.06445510108496709 0.14831583671703669 0 0.06670876632053821 0.16536039993208129 0 0.06670876632053821 0.16536039993208129 0 0.071220178094475839 0.177519435916074 0 0.079387562048995053 0.16654090924245221 0 0.078552310067739675 0.1899431815963343 0 0.071220178094475839 0.177519435916074 0 0.079387562048995053 0.16654090924245221 0 0.057517378285335978 0.18642367489497111 0 0.078552310067739675 0.1899431815963343 0 0.071220178094475839 0.177519435916074 0 0.057517378285335978 0.18642367489497111 0 0.06670876632053821 0.16536039993208129 0 0.071220178094475839 0.177519435916074 0 0.078552310067739675 0.1899431815963343 0 0.079387562048995053 0.16654090924245221 0 0.078552310067739675 0.1899431815963343 0 0.079387562048995053 0.16654090924245221 0 0.094656188726405799 0.1772984468475671 0 0.078552310067739675 0.1899431815963343 0 0.1000095862482286 0.19353335379614581 0 0.094656188726405799 0.1772984468475671 0 0.079387562048995053 0.16654090924245221 0 0.093167312330706492 0.16073073013935579 0 0.094656188726405799 0.1772984468475671 0 0.08022281403025916 0.14313863688857029 0 0.079387562048995053 0.16654090924245221 0 0.093167312330706492 0.16073073013935579 0 0.093167312330706492 0.16073073013935579 0 0.1051682117550992 0.16863341283049499 0 0.094656188726405799 0.1772984468475671 0 0.093167312330706492 0.16073073013935579 0 0.1051682117550992 0.16863341283049499 0 0.10738037989590581 0.15691718048007991 0 0.1051682117550992 0.16863341283049499 0 0.094656188726405799 0.1772984468475671 0 0.1119621855324581 0.18388877331391679 0 0.1000095862482286 0.19353335379614581 0 0.094656188726405799 0.1772984468475671 0 0.1119621855324581 0.18388877331391679 0 0.1051682117550992 0.16863341283049499 0 0.1119621855324581 0.18388877331391679 0 0.1176573055604207 0.16965843036111 0 0.1119621855324581 0.18388877331391679 0 0.1176573055604207 0.16965843036111 0 0.12502668500631101 0.18003223183350331 0 0.1119621855324581 0.18388877331391679 0 0.12502668500631101 0.18003223183350331 0 0.12623709760602039 0.18867627876683751 0 0.10738037989590581 0.15691718048007991 0 0.1176573055604207 0.16965843036111 0 0.1263510041100718 0.15412713222648239 0 0.1051682117550992 0.16863341283049499 0 0.10738037989590581 0.15691718048007991 0 0.1176573055604207 0.16965843036111 0 0.10738037989590581 0.15691718048007991 0 0.1089890710575158 0.14058722379195329 0 0.1263510041100718 0.15412713222648239 0 0.1089890710575158 0.14058722379195329 0 0.1243116374868449 0.136850619307404 0 0.1263510041100718 0.15412713222648239 0 0.10738037989590581 0.15691718048007991 0 0.097579150219516186 0.1459852772673329 0 0.1089890710575158 0.14058722379195329 0 0.093167312330706492 0.16073073013935579 0 0.10738037989590581 0.15691718048007991 0 0.097579150219516186 0.1459852772673329 0 0.097579150219516186 0.1459852772673329 0 0.1089890710575158 0.14058722379195329 0 0.098136173783193614 0.12855261503670501 0 0.11707998843366239 0.12090166170324231 0 0.1089890710575158 0.14058722379195329 0 0.098136173783193614 0.12855261503670501 0 0.11707998843366239 0.12090166170324231 0 0.1089890710575158 0.14058722379195329 0 0.1243116374868449 0.136850619307404 0 0.11707998843366239 0.12090166170324231 0 0.1243116374868449 0.136850619307404 0 0.14061487869327599 0.12738787364596069 0 0.1243116374868449 0.136850619307404 0 0.14061487869327599 0.12738787364596069 0 0.1450893294801871 0.15084825440961219 0 0.14061487869327599 0.12738787364596069 0 0.1450893294801871 0.15084825440961219 0 0.16208469833826319 0.13464304631642149 0 0.1450893294801871 0.15084825440961219 0 0.16208469833826319 0.13464304631642149 0 0.1243116374868449 0.136850619307404 0 0.1450893294801871 0.15084825440961219 0 0.1263510041100718 0.15412713222648239 0 0.1450893294801871 0.15084825440961219 0 0.1263510041100718 0.15412713222648239 0 0.13434892063135129 0.1709012650253654 0 0.1176573055604207 0.16965843036111 0 0.1263510041100718 0.15412713222648239 0 0.13434892063135129 0.1709012650253654 0 0.1176573055604207 0.16965843036111 0 0.13434892063135129 0.1709012650253654 0 0.12502668500631101 0.18003223183350331 0 0.12502668500631101 0.18003223183350331 0 0.13317066441191511 0.18549658195139779 0 0.12623709760602039 0.18867627876683751 0 0.13434892063135129 0.1709012650253654 0 0.12502668500631101 0.18003223183350331 0 0.13317066441191511 0.18549658195139779 0 0.13434892063135129 0.1709012650253654 0 0.13317066441191511 0.18549658195139779 0 0.14289571148574401 0.18421669799074539 0 0.13434892063135129 0.1709012650253654 0 0.14289571148574401 0.18421669799074539 0 0.15014598838012391 0.16812378435884931 0 0.14289571148574401 0.18421669799074539 0 0.15014598838012391 0.16812378435884931 0 0.16340295837154781 0.17869074671240681 0 0.1450893294801871 0.15084825440961219 0 0.15014598838012391 0.16812378435884931 0 0.17025484901730581 0.156442106610301 0 0.1450893294801871 0.15084825440961219 0 0.13434892063135129 0.1709012650253654 0 0.15014598838012391 0.16812378435884931 0 0.15014598838012391 0.16812378435884931 0 0.17025484901730581 0.156442106610301 0 0.16340295837154781 0.17869074671240681 0 0.17025484901730581 0.156442106610301 0 0.16340295837154781 0.17869074671240681 0 0.18344157371591241 0.18406997535271 0 0.17025484901730581 0.156442106610301 0 0.18344157371591241 0.18406997535271 0 0.1981233639171355 0.16578679509823521 0 0.17025484901730581 0.156442106610301 0 0.1886017155567373 0.14211231666073301 0 0.1981233639171355 0.16578679509823521 0 0.17025484901730581 0.156442106610301 0 0.16208469833826319 0.13464304631642149 0 0.1886017155567373 0.14211231666073301 0 0.1886017155567373 0.14211231666073301 0 0.1790800671963392 0.1184378382232308 0 0.16208469833826319 0.13464304631642149 0 0.1886017155567373 0.14211231666073301 0 0.1790800671963392 0.1184378382232308 0 0.19325819231563421 0.12959887947710741 0 0.1886017155567373 0.14211231666073301 0 0.1790800671963392 0.1184378382232308 0 0.16208469833826319 0.13464304631642149 0 0.1790800671963392 0.1184378382232308 0 0.1450893294801871 0.15084825440961219 0 0.17025484901730581 0.156442106610301 0 0.16208469833826319 0.13464304631642149 0 0.1514273965657848 0.24085309905483679 0 0.13478444466321229 0.23767678351231611 0 0.14386495534927929 0.22895205141331151 0 0.1514273965657848 0.24085309905483679 0 0.13478444466321229 0.23767678351231611 0 0.1384713120865835 0.25773302092121009 0 0.1250676346401875 0.24796443701554319 0 0.13478444466321229 0.23767678351231611 0 0.1384713120865835 0.25773302092121009 0 0.1233060832280653 0.2372070654073864 0 0.1250676346401875 0.24796443701554319 0 0.13478444466321229 0.23767678351231611 0 0.1233060832280653 0.2372070654073864 0 0.13478444466321229 0.23767678351231611 0 0.13079881134157489 0.21612504290720769 0 0.13478444466321229 0.23767678351231611 0 0.14386495534927929 0.22895205141331151 0 0.13079881134157489 0.21612504290720769 0 0.14386495534927929 0.22895205141331151 0 0.13079881134157489 0.21612504290720769 0 0.15844916882654519 0.22115328017888419 0 0.1514273965657848 0.24085309905483679 0 0.14386495534927929 0.22895205141331151 0 0.15844916882654519 0.22115328017888419 0 0.13079881134157489 0.21612504290720769 0 0.15844916882654519 0.22115328017888419 0 0.13079881134157489 0.21612504290720769 0 0.14405659807402271 0.2009031781863346 0 0.15844916882654519 0.22115328017888419 0 0.13079881134157489 0.21612504290720769 0 0.12809949413598259 0.1982332796183166 0 0.14405659807402271 0.2009031781863346 0 0.1174426020893027 0.21369620670835879 0 0.13079881134157489 0.21612504290720769 0 0.12809949413598259 0.1982332796183166 0 0.13079881134157489 0.21612504290720769 0 0.14405659807402271 0.2009031781863346 0 0.12809949413598259 0.1982332796183166 0 0.14405659807402271 0.2009031781863346 0 0.12809949413598259 0.1982332796183166 0 0.1377541084679488 0.19338203871321119 0 0.14405659807402271 0.2009031781863346 0 0.12809949413598259 0.1982332796183166 0 0.13022991801334199 0.19514207920620891 0 0.1377541084679488 0.19338203871321119 0 0.12809949413598259 0.1982332796183166 0 0.13022991801334199 0.19514207920620891 0 0.12809949413598259 0.1982332796183166 0 0.12623709760602039 0.18867627876683751 0 0.13022991801334199 0.19514207920620891 0 0.13317066441191511 0.18549658195139779 0 0.12623709760602039 0.18867627876683751 0 0.13022991801334199 0.19514207920620891 0 0.13317066441191511 0.18549658195139779 0 0.14289571148574401 0.18421669799074539 0 0.1377541084679488 0.19338203871321119 0 0.13317066441191511 0.18549658195139779 0 0.13022991801334199 0.19514207920620891 0 0.1377541084679488 0.19338203871321119 0 0.14289571148574401 0.18421669799074539 0 0.1377541084679488 0.19338203871321119 0 0.14405659807402271 0.2009031781863346 0 0.14405659807402271 0.2009031781863346 0 0.1684266189286579 0.20498070278197239 0 0.14289571148574401 0.18421669799074539 0 0.16340295837154781 0.17869074671240681 0 0.14405659807402271 0.2009031781863346 0 0.16340295837154781 0.17869074671240681 0 0.14405659807402271 0.2009031781863346 0 0.16340295837154781 0.17869074671240681 0 0.18344157371591241 0.18406997535271 0 0.1684266189286579 0.20498070278197239 0 0.16340295837154781 0.17869074671240681 0 0.14405659807402271 0.2009031781863346 0 0.1684266189286579 0.20498070278197239 0 0.18344157371591241 0.18406997535271 0 0.1684266189286579 0.20498070278197239 0 0.19279663978329381 0.20905822737760699 0 0.1684266189286579 0.20498070278197239 0 0.19279663978329381 0.20905822737760699 0 0.17869659642439559 0.21414630976549021 0 0.1684266189286579 0.20498070278197239 0 0.19279663978329381 0.20905822737760699 0 0.17869659642439559 0.21414630976549021 0 0.18609952631151591 0.22618151745055959 0 0.19279663978329381 0.20905822737760699 0 0.14405659807402271 0.2009031781863346 0 0.1684266189286579 0.20498070278197239 0 0.15844916882654519 0.22115328017888419 0 0.17869659642439559 0.21414630976549021 0 0.1684266189286579 0.20498070278197239 0 0.15844916882654519 0.22115328017888419 0 0.1514273965657848 0.24085309905483679 0 0.15844916882654519 0.22115328017888419 0 0.1691493644934341 0.23606856512045299 0 0.15844916882654519 0.22115328017888419 0 0.18609952631151591 0.22618151745055959 0 0.1691493644934341 0.23606856512045299 0 0.17869659642439559 0.21414630976549021 0 0.15844916882654519 0.22115328017888419 0 0.18609952631151591 0.22618151745055959 0 0.15844916882654519 0.22115328017888419 0 0.18609952631151591 0.22618151745055959 0 0.18609952631151591 0.22618151745055959 0 0.1971008006350988 0.24422433182354611 0 0.17660728565697029 0.25284173787090108 0 0.18609952631151591 0.22618151745055959 0 0.1691493644934341 0.23606856512045299 0 0.17660728565697029 0.25284173787090108 0 0.1514273965657848 0.24085309905483679 0 0.17660728565697029 0.25284173787090108 0 0.1514273965657848 0.24085309905483679 0 0.1691493644934341 0.23606856512045299 0 0.17660728565697029 0.25284173787090108 0 0.1971008006350988 0.24422433182354611 0 0.21374988379648621 0.2312097547222359 0 0.2257125065402284 0.25431107802280528 0 0.18609952631151591 0.22618151745055959 0 0.19919001424274069 0.21902366269476331 0 0.2102140220753515 0.22438156273492879 0 0.18609952631151591 0.22618151745055959 0 0.1971008006350988 0.24422433182354611 0 0.21374988379648621 0.2312097547222359 0 0.18609952631151591 0.22618151745055959 0 0.21374988379648621 0.2312097547222359 0 0.18609952631151591 0.22618151745055959 0 0.2102140220753515 0.22438156273492879 0 0.21374988379648621 0.2312097547222359 0 0.19919001424274069 0.21902366269476331 0 0.2102140220753515 0.22438156273492879 0 0.22326984787173351 0.22831062181695069 0 0.19919001424274069 0.21902366269476331 0 0.21716666063792969 0.21313575197324039 0 0.22326984787173351 0.22831062181695069 0 0.19919001424274069 0.21902366269476331 0 0.22326984787173351 0.22831062181695069 0 0.2102140220753515 0.22438156273492879 0 0.21374988379648621 0.2312097547222359 0 0.2102140220753515 0.22438156273492879 0 0.21374988379648621 0.2312097547222359 0 0.22326984787173351 0.22831062181695069 0 0.21716666063792969 0.21313575197324039 0 0.19279663978329381 0.20905822737760699 0 0.20764501227753371 0.18946127353573741 0 0.21716666063792969 0.21313575197324039 0 0.19279663978329381 0.20905822737760699 0 0.19919001424274069 0.21902366269476331 0 0.21716666063792969 0.21313575197324039 0 0.19279663978329381 0.20905822737760699 0 0.18609952631151591 0.22618151745055959 0 0.19919001424274069 0.21902366269476331 0 0.19279663978329381 0.20905822737760699 0 0.18344157371591241 0.18406997535271 0 0.19279663978329381 0.20905822737760699 0 0.20764501227753371 0.18946127353573741 0 0.21716666063792969 0.21313575197324039 0 0.20764501227753371 0.18946127353573741 0 0.21716666063792969 0.21313575197324039 0 0.20764501227753371 0.18946127353573741 0 0.22349524510262589 0.1882929917077163 0 0.21716666063792969 0.21313575197324039 0 0.22349524510262589 0.1882929917077163 0 0.23482300448504159 0.1984970970255906 0 0.22349524510262589 0.1882929917077163 0 0.23482300448504159 0.1984970970255906 0 0.23800281531175979 0.18073324988006281 0 0.23482300448504159 0.1984970970255906 0 0.24828008483854189 0.20295934428596721 0 0.25113643024109478 0.19094495075723769 0 0.23482300448504159 0.1984970970255906 0 0.23800281531175979 0.18073324988006281 0 0.25113643024109478 0.19094495075723769 0 0.23482300448504159 0.1984970970255906 0 0.24828008483854189 0.20295934428596721 0 0.24332195560292991 0.2175119837032847 0 0.21716666063792969 0.21313575197324039 0 0.23482300448504159 0.1984970970255906 0 0.24332195560292991 0.2175119837032847 0 0.21716666063792969 0.21313575197324039 0 0.24332195560292991 0.2175119837032847 0 0.22527908084694109 0.23330634744632109 0 0.22326984787173351 0.22831062181695069 0 0.2459873280094696 0.23707215699401071 0 0.21716666063792969 0.21313575197324039 0 0.24332195560292991 0.2175119837032847 0 0.22326984787173351 0.22831062181695069 0 0.21716666063792969 0.21313575197324039 0 0.22326984787173351 0.22831062181695069 0 0.21374988379648621 0.2312097547222359 0 0.22527908084694109 0.23330634744632109 0 0.22326984787173351 0.22831062181695069 0 0.21374988379648621 0.2312097547222359 0 0.22527908084694109 0.23330634744632109 0 0.22527908084694109 0.23330634744632109 0 0.22326984787173351 0.22831062181695069 0 0.22326984787173351 0.22831062181695069 0 0.2459873280094696 0.23707215699401071 0 0.24332195560292991 0.2175119837032847 0 0.22326984787173351 0.22831062181695069 0 0.2459873280094696 0.23707215699401071 0 0.22527908084694109 0.23330634744632109 0 0.2459873280094696 0.23707215699401071 0 0.22527908084694109 0.23330634744632109 0 0.2459873280094696 0.23707215699401071 0 0.23435940432808119 0.2558835225658645 0 0.22527908084694109 0.23330634744632109 0 0.23435940432808119 0.2558835225658645 0 0.21374988379648621 0.2312097547222359 0 0.2257125065402284 0.25431107802280528 0 0.21374988379648621 0.2312097547222359 0 0.22527908084694109 0.23330634744632109 0 0.2257125065402284 0.25431107802280528 0 0.22527908084694109 0.23330634744632109 0 0.2257125065402284 0.25431107802280528 0 0.23435940432808119 0.2558835225658645 0 0.207677409848747 0.15265436726913009 0 0.20799191400454739 0.1375227668896451 0 0.22134903716669199 0.14708536363501609 0 0.20799191400454739 0.1375227668896451 0 0.22703691245497479 0.13189098412415109 0 0.21251029914637609 0.1192952894197942 0 0.20799191400454739 0.1375227668896451 0 0.19325819231563421 0.12959887947710741 0 0.21251029914637609 0.1192952894197942 0 0.20799191400454739 0.1375227668896451 0 0.19325819231563421 0.12959887947710741 0 0.1886017155567373 0.14211231666073301 0 0.1886017155567373 0.14211231666073301 0 0.1981233639171355 0.16578679509823521 0 0.207677409848747 0.15265436726913009 0 0.20799191400454739 0.1375227668896451 0 0.1886017155567373 0.14211231666073301 0 0.207677409848747 0.15265436726913009 0 0.1886017155567373 0.14211231666073301 0 0.1981233639171355 0.16578679509823521 0 0.20764501227753371 0.18946127353573741 0 0.1981233639171355 0.16578679509823521 0 0.18344157371591241 0.18406997535271 0 0.20764501227753371 0.18946127353573741 0 0.1981233639171355 0.16578679509823521 0 0.20764501227753371 0.18946127353573741 0 0.1981233639171355 0.16578679509823521 0 0.22193333897365611 0.16940236618161161 0 0.20764501227753371 0.18946127353573741 0 0.22349524510262589 0.1882929917077163 0 0.22193333897365611 0.16940236618161161 0 0.207677409848747 0.15265436726913009 0 0.1981233639171355 0.16578679509823521 0 0.22193333897365611 0.16940236618161161 0 0.207677409848747 0.15265436726913009 0 0.22193333897365611 0.16940236618161161 0 0.22134903716669199 0.14708536363501609 0 0.22349524510262589 0.1882929917077163 0 0.22193333897365611 0.16940236618161161 0 0.23800281531175979 0.18073324988006281 0 0.23800281531175979 0.18073324988006281 0 0.24342118736862761 0.16410875332904781 0 0.25421457754785548 0.17528354573505059 0 0.23800281531175979 0.18073324988006281 0 0.25421457754785548 0.17528354573505059 0 0.25113643024109478 0.19094495075723769 0 0.22193333897365611 0.16940236618161161 0 0.23800281531175979 0.18073324988006281 0 0.24342118736862761 0.16410875332904781 0 0.22193333897365611 0.16940236618161161 0 0.24342118736862761 0.16410875332904781 0 0.2381959797174126 0.14809141417820801 0 0.2381959797174126 0.14809141417820801 0 0.2471064899150823 0.133463067737116 0 0.25227113898158787 0.14916335431643429 0 0.24342118736862761 0.16410875332904781 0 0.2381959797174126 0.14809141417820801 0 0.25227113898158787 0.14916335431643429 0 0.2381959797174126 0.14809141417820801 0 0.22134903716669199 0.14708536363501609 0 0.22703691245497479 0.13189098412415109 0 0.22193333897365611 0.16940236618161161 0 0.2381959797174126 0.14809141417820801 0 0.22134903716669199 0.14708536363501609 0 0.20799191400454739 0.1375227668896451 0 0.22134903716669199 0.14708536363501609 0 0.22703691245497479 0.13189098412415109 0 0.22703691245497479 0.13189098412415109 0 0.2471064899150823 0.133463067737116 0 0.2348532799323845 0.1126728752525727 0 0.2381959797174126 0.14809141417820801 0 0.22703691245497479 0.13189098412415109 0 0.2471064899150823 0.133463067737116 0 0.2471064899150823 0.133463067737116 0 0.2496952397761337 0.1160329650041991 0 0.2348532799323845 0.1126728752525727 0 0.2348532799323845 0.1126728752525727 0 0.23238347446995899 0.09878858498409393 0 0.25089272908716931 0.092982859712809007 0 0.2496952397761337 0.1160329650041991 0 0.2348532799323845 0.1126728752525727 0 0.25089272908716931 0.092982859712809007 0 0.23238347446995899 0.09878858498409393 0 0.21965336389696419 0.1029970115124081 0 0.22413452496331809 0.086501593458585962 0 0.2348532799323845 0.1126728752525727 0 0.23238347446995899 0.09878858498409393 0 0.21965336389696419 0.1029970115124081 0 0.2348532799323845 0.1126728752525727 0 0.21965336389696419 0.1029970115124081 0 0.21251029914637609 0.1192952894197942 0 0.22703691245497479 0.13189098412415109 0 0.2348532799323845 0.1126728752525727 0 0.21251029914637609 0.1192952894197942 0 0.21965336389696419 0.1029970115124081 0 0.21251029914637609 0.1192952894197942 0 0.20714728240524249 0.10617251279081751 0 0.21251029914637609 0.1192952894197942 0 0.20714728240524249 0.10617251279081751 0 0.2007454095485067 0.1153730887768626 0 0.21965336389696419 0.1029970115124081 0 0.21155544327336909 0.093494818701204518 0 0.22413452496331809 0.086501593458585962 0 0.21965336389696419 0.1029970115124081 0 0.20714728240524249 0.10617251279081751 0 0.21155544327336909 0.093494818701204518 0 0.20029711589946361 0.098207227624031723 0 0.20055037116402991 0.091606906531847498 0 0.21155544327336909 0.093494818701204518 0 0.20714728240524249 0.10617251279081751 0 0.20029711589946361 0.098207227624031723 0 0.21155544327336909 0.093494818701204518 0 0.19812206266677551 0.107667640710604 0 0.20029711589946361 0.098207227624031723 0 0.1885688884481975 0.1093901779912298 0 0.20714728240524249 0.10617251279081751 0 0.19812206266677551 0.107667640710604 0 0.20029711589946361 0.098207227624031723 0 0.20029711589946361 0.098207227624031723 0 0.1929726046438287 0.094705252597794665 0 0.20055037116402991 0.091606906531847498 0 0.1929726046438287 0.094705252597794665 0 0.1885688884481975 0.1093901779912298 0 0.1832996600419958 0.1003897382564244 0 0.20029711589946361 0.098207227624031723 0 0.1929726046438287 0.094705252597794665 0 0.1885688884481975 0.1093901779912298 0 0.20029711589946361 0.098207227624031723 0 0.1885688884481975 0.1093901779912298 0 0.1929726046438287 0.094705252597794665 0 0.1885688884481975 0.1093901779912298 0 0.19812206266677551 0.107667640710604 0 0.19247123508700151 0.1156451737142033 0 0.1885688884481975 0.1093901779912298 0 0.19247123508700151 0.1156451737142033 0 0.1885688884481975 0.1093901779912298 0 0.1858372065203453 0.1184994265274882 0 0.19325819231563421 0.12959887947710741 0 0.21251029914637609 0.1192952894197942 0 0.2007454095485067 0.1153730887768626 0 0.19325819231563421 0.12959887947710741 0 0.19247123508700151 0.1156451737142033 0 0.1858372065203453 0.1184994265274882 0 0.19325819231563421 0.12959887947710741 0 0.19247123508700151 0.1156451737142033 0 0.2007454095485067 0.1153730887768626 0 0.20714728240524249 0.10617251279081751 0 0.19812206266677551 0.107667640710604 0 0.2007454095485067 0.1153730887768626 0 0.19812206266677551 0.107667640710604 0 0.19247123508700151 0.1156451737142033 0 0.2007454095485067 0.1153730887768626 0 0.20238686903042469 0.063311819413239129 0 0.1973763208394673 0.08002032720436178 0 0.18079222374313991 0.066157073385880324 0 0.20238686903042469 0.063311819413239129 0 0.18079222374313991 0.066157073385880324 0 0.1973763208394673 0.08002032720436178 0 0.17868141559437861 0.075492121278057239 0 0.20238686903042469 0.063311819413239129 0 0.1973763208394673 0.08002032720436178 0 0.1929726046438287 0.094705252597794665 0 0.1973763208394673 0.08002032720436178 0 0.1929726046438287 0.094705252597794665 0 0.1973763208394673 0.08002032720436178 0 0.18493574174144031 0.087819629641268118 0 0.1929726046438287 0.094705252597794665 0 0.20055037116402991 0.091606906531847498 0 0.1973763208394673 0.08002032720436178 0 0.1973763208394673 0.08002032720436178 0 0.22413452496331809 0.086501593458585962 0 0.1973763208394673 0.08002032720436178 0 0.21155544327336909 0.093494818701204518 0 0.22413452496331809 0.086501593458585962 0 0.1973763208394673 0.08002032720436178 0 0.21581045027983861 0.072515516379325212 0 0.22413452496331809 0.086501593458585962 0 0.20055037116402991 0.091606906531847498 0 0.1973763208394673 0.08002032720436178 0 0.21155544327336909 0.093494818701204518 0 0.20238686903042469 0.063311819413239129 0 0.21581045027983861 0.072515516379325212 0 0.22639199231908241 0.060148967164815811 0 0.20238686903042469 0.063311819413239129 0 0.1973763208394673 0.08002032720436178 0 0.21581045027983861 0.072515516379325212 0 0.21581045027983861 0.072515516379325212 0 0.22413452496331809 0.086501593458585962 0 0.23571274181676019 0.070187616308315881 0 0.21581045027983861 0.072515516379325212 0 0.23571274181676019 0.070187616308315881 0 0.22639199231908241 0.060148967164815811 0 0.23571274181676019 0.070187616308315881 0 0.23935269316475091 0.05797056278501677 0 0.22639199231908241 0.060148967164815811 0 0.22413452496331809 0.086501593458585962 0 0.25089272908716931 0.092982859712809007 0 0.22413452496331809 0.086501593458585962 0 0.23571274181676019 0.070187616308315881 0 0.25089272908716931 0.092982859712809007 0 0.23238347446995899 0.09878858498409393 0 0.22413452496331809 0.086501593458585962 0 0.25089272908716931 0.092982859712809007 0 0.23571274181676019 0.070187616308315881 0 0.25089272908716931 0.092982859712809007 0 0.23571274181676019 0.070187616308315881 0 0.25282536794073712 0.073272794188635415 0 0.25089272908716931 0.092982859712809007 0 0.23935269316475091 0.05797056278501677 0 0.25425538404847059 0.057624927133231481 0 0.25282536794073712 0.073272794188635415 0 0.23571274181676019 0.070187616308315881 0 0.23935269316475091 0.05797056278501677 0 0.25282536794073712 0.073272794188635415 0 0.2368345322212535 0.044434942105003657 0 0.25425538404847059 0.057624927133231481 0 0.23935269316475091 0.05797056278501677 0 0.2368345322212535 0.044434942105003657 0 0.25425538404847059 0.057624927133231481 0 0.23935269316475091 0.05797056278501677 0 0.2368345322212535 0.044434942105003657 0 0.23127016951469481 0.052559852354376588 0 0.2368345322212535 0.044434942105003657 0 0.25291178968964928 0.037547667281027097 0 0.25425538404847059 0.057624927133231481 0 0.2368345322212535 0.044434942105003657 0 0.24190969492169709 0.024768393557462999 0 0.25291178968964928 0.037547667281027097 0 0.2368345322212535 0.044434942105003657 0 0.21941368039403211 0.031244957076781411 0 0.2368345322212535 0.044434942105003657 0 0.22121604545690071 0.040326540279582428 0 0.22250146035369231 0.047684937362670127 0 0.2368345322212535 0.044434942105003657 0 0.22121604545690071 0.040326540279582428 0 0.21941368039403211 0.031244957076781411 0 0.2368345322212535 0.044434942105003657 0 0.24190969492169709 0.024768393557462999 0 0.21941368039403211 0.031244957076781411 0 0.22121604545690071 0.040326540279582428 0 0.22250146035369231 0.047684937362670127 0 0.2151241054634794 0.043140718643033253 0 0.22250146035369231 0.047684937362670127 0 0.22639199231908241 0.060148967164815811 0 0.21464985550632831 0.05254647609126252 0 0.23935269316475091 0.05797056278501677 0 0.22639199231908241 0.060148967164815811 0 0.23127016951469481 0.052559852354376588 0 0.2368345322212535 0.044434942105003657 0 0.22250146035369231 0.047684937362670127 0 0.23127016951469481 0.052559852354376588 0 0.22250146035369231 0.047684937362670127 0 0.22639199231908241 0.060148967164815811 0 0.23127016951469481 0.052559852354376588 0 0.23517440673197429 0.0051848507458196356 0 0.24190969492169709 0.024768393557462999 0 0.22860778246280219 0.01441509204728152 0 0.23517440673197429 0.0051848507458196356 0 0.2485551203034157 0.0102848256948572 0 0.24190969492169709 0.024768393557462999 0 0.23517440673197429 0.0051848507458196356 0 0.2429424487767215 0.0026164120279975069 0 0.24005113852307369 -0.0027355710512556022 0 0.23517440673197429 0.0051848507458196356 0 0.2429424487767215 0.0026164120279975069 0 0.2485551203034157 0.0102848256948572 0 0.2429424487767215 0.0026164120279975069 0 0.2485551203034157 0.0102848256948572 0 0.2479891295484222 -0.0022684572774312019 0 0.2237082671027216 0.020648212041472009 0 0.22100796739575951 0.001216664300799794 0 0.21337432104441539 0.026672329963493752 0 0.24190969492169709 0.024768393557462999 0 0.21941368039403211 0.031244957076781411 0 0.24190969492169709 0.024768393557462999 0 0.21941368039403211 0.031244957076781411 0 0.2237082671027216 0.020648212041472009 0 0.24190969492169709 0.024768393557462999 0 0.2237082671027216 0.020648212041472009 0 0.22860778246280219 0.01441509204728152 0 0.21941368039403211 0.031244957076781411 0 0.2237082671027216 0.020648212041472009 0 0.21337432104441539 0.026672329963493752 0 0.2237082671027216 0.020648212041472009 0 0.22860778246280219 0.01441509204728152 0 0.22100796739575951 0.001216664300799794 0 0.23517440673197429 0.0051848507458196356 0 0.22860778246280219 0.01441509204728152 0 0.22100796739575951 0.001216664300799794 0 0.22100796739575951 0.001216664300799794 0 0.21337432104441539 0.026672329963493752 0 0.22100796739575951 0.001216664300799794 0 0.21213365429295861 0.01041237886839381 0 0.21337432104441539 0.026672329963493752 0 0.20938161325362409 0.0025060029461209908 0 0.21213365429295861 0.01041237886839381 0 0.19981118715584381 0.0070254328827108366 0 0.20938161325362409 0.0025060029461209908 0 0.19981118715584381 0.0070254328827108366 0 0.20239897911060981 -0.0049616950454924097 0 0.22100796739575951 0.001216664300799794 0 0.21476518088515931 0.0026345493870347861 0 0.21213365429295861 0.01041237886839381 0 0.20938161325362409 0.0025060029461209908 0 0.21476518088515931 0.0026345493870347861 0 0.21653748859829491 -0.0035968485671754561 0 0.20938161325362409 0.0025060029461209908 0 0.21476518088515931 0.0026345493870347861 0 0.21213365429295861 0.01041237886839381 0 0.22100796739575951 0.001216664300799794 0 0.21476518088515931 0.0026345493870347861 0 0.21653748859829491 -0.0035968485671754561 0 0.21213365429295861 0.01041237886839381 0 0.20775643638324501 0.022418817258943329 0 0.19981118715584381 0.0070254328827108366 0 0.20775643638324501 0.022418817258943329 0 0.19981118715584381 0.0070254328827108366 0 0.21213365429295861 0.01041237886839381 0 0.20775643638324501 0.022418817258943329 0 0.21337432104441539 0.026672329963493752 0 0.20775643638324501 0.022418817258943329 0 0.21337432104441539 0.026672329963493752 0 0.21211661331991941 0.030866365927793071 0 0.21941368039403211 0.031244957076781411 0 0.21337432104441539 0.026672329963493752 0 0.21211661331991941 0.030866365927793071 0 0.21941368039403211 0.031244957076781411 0 0.21337432104441539 0.026672329963493752 0 0.21337432104441539 0.026672329963493752 0 0.21211661331991941 0.030866365927793071 0 0.20775643638324501 0.022418817258943329 0 0.21211661331991941 0.030866365927793071 0 0.2008624239423544 0.027751844864101351 0 0.21211661331991941 0.030866365927793071 0 0.2008624239423544 0.027751844864101351 0 0.21130283169949521 0.033580056331867662 0 0.20775643638324501 0.022418817258943329 0 0.21211661331991941 0.030866365927793071 0 0.20775643638324501 0.022418817258943329 0 0.21337432104441539 0.026672329963493752 0 0.2008624239423544 0.027751844864101351 0 0.1914807756371078 0.039286791852227318 0 0.1874867753674215 0.0231110496262097 0 0.2008624239423544 0.027751844864101351 0 0.19503111124693581 0.017247988187571551 0 0.1874867753674215 0.0231110496262097 0 0.19503111124693581 0.017247988187571551 0 0.18734518720319909 0.015281891910368059 0 0.1874867753674215 0.0231110496262097 0 0.20775643638324501 0.022418817258943329 0 0.2008624239423544 0.027751844864101351 0 0.19503111124693581 0.017247988187571551 0 0.20775643638324501 0.022418817258943329 0 0.19503111124693581 0.017247988187571551 0 0.18660242445042999 0.0064023156866817926 0 0.20775643638324501 0.022418817258943329 0 0.18660242445042999 0.0064023156866817926 0 0.20775643638324501 0.022418817258943329 0 0.1894192936343001 0.0060385698470956234 0 0.19981118715584381 0.0070254328827108366 0 0.20775643638324501 0.022418817258943329 0 0.1894192936343001 0.0060385698470956234 0 0.18660242445042999 0.0064023156866817926 0 0.19503111124693581 0.017247988187571551 0 0.18832376542685261 0.012450231659139751 0 0.18660242445042999 0.0064023156866817926 0 0.19503111124693581 0.017247988187571551 0 0.18832376542685261 0.012450231659139751 0 0.18734518720319909 0.015281891910368059 0 0.1894192936343001 0.0060385698470956234 0 0.19981118715584381 0.0070254328827108366 0 0.1918659379284415 -0.0083679514935210662 0 0.20238686903042469 0.063311819413239129 0 0.22639199231908241 0.060148967164815811 0 0.21464985550632831 0.05254647609126252 0 0.20238686903042469 0.063311819413239129 0 0.22639199231908241 0.060148967164815811 0 0.20238686903042469 0.063311819413239129 0 0.20684485036496281 0.04844593787255428 0 0.21464985550632831 0.05254647609126252 0 0.20238686903042469 0.063311819413239129 0 0.20684485036496281 0.04844593787255428 0 0.20684485036496281 0.04844593787255428 0 0.21464985550632831 0.05254647609126252 0 0.2151241054634794 0.043140718643033253 0 0.22250146035369231 0.047684937362670127 0 0.21464985550632831 0.05254647609126252 0 0.2151241054634794 0.043140718643033253 0 0.20684485036496281 0.04844593787255428 0 0.2151241054634794 0.043140718643033253 0 0.21130283169949521 0.033580056331867662 0 0.20684485036496281 0.04844593787255428 0 0.21130283169949521 0.033580056331867662 0 0.1914807756371078 0.039286791852227318 0 0.2151241054634794 0.043140718643033253 0 0.21130283169949521 0.033580056331867662 0 0.21323078658658201 0.03302500146766809 0 0.22121604545690071 0.040326540279582428 0 0.2151241054634794 0.043140718643033253 0 0.21323078658658201 0.03302500146766809 0 0.22121604545690071 0.040326540279582428 0 0.21941368039403211 0.031244957076781411 0 0.21323078658658201 0.03302500146766809 0 0.21941368039403211 0.031244957076781411 0 0.21211661331991941 0.030866365927793071 0 0.21323078658658201 0.03302500146766809 0 0.21941368039403211 0.031244957076781411 0 0.21323078658658201 0.03302500146766809 0 0.21130283169949521 0.033580056331867662 0 0.21323078658658201 0.03302500146766809 0 0.21211661331991941 0.030866365927793071 0 0.21130283169949521 0.033580056331867662 0 0.21323078658658201 0.03302500146766809 0 0.21211661331991941 0.030866365927793071 0 0.21130283169949521 0.033580056331867662 0 0.21211661331991941 0.030866365927793071 0 0.21323078658658201 0.03302500146766809 0 0.20684485036496281 0.04844593787255428 0 0.21130283169949521 0.033580056331867662 0 0.20684485036496281 0.04844593787255428 0 0.1914807756371078 0.039286791852227318 0 0.1906326876700713 0.052439029979298252 0 0.21130283169949521 0.033580056331867662 0 0.1914807756371078 0.039286791852227318 0 0.2008624239423544 0.027751844864101351 0 0.21130283169949521 0.033580056331867662 0 0.1914807756371078 0.039286791852227318 0 0.20238686903042469 0.063311819413239129 0 0.20684485036496281 0.04844593787255428 0 0.1906326876700713 0.052439029979298252 0 0.20238686903042469 0.063311819413239129 0 0.1906326876700713 0.052439029979298252 0 0.18079222374313991 0.066157073385880324 0 0.1906326876700713 0.052439029979298252 0 0.1716587195747214 0.044993527372590117 0 0.18079222374313991 0.066157073385880324 0 0.1914807756371078 0.039286791852227318 0 0.17895959729017549 0.03270519686463521 0 0.1874867753674215 0.0231110496262097 0 0.1914807756371078 0.039286791852227318 0 0.1906326876700713 0.052439029979298252 0 0.1716587195747214 0.044993527372590117 0 0.1914807756371078 0.039286791852227318 0 0.1716587195747214 0.044993527372590117 0 0.1914807756371078 0.039286791852227318 0 0.17895959729017549 0.03270519686463521 0 0.1716587195747214 0.044993527372590117 0 0.17895959729017549 0.03270519686463521 0 0.1716587195747214 0.044993527372590117 0 0.1692336025848987 0.033942773786365128 0 0.1716587195747214 0.044993527372590117 0 0.1692336025848987 0.033942773786365128 0 0.1566962317421734 0.039838803654011962 0 0.1716587195747214 0.044993527372590117 0 0.1566962317421734 0.039838803654011962 0 0.15183666351233449 0.050700262892952028 0 0.1692336025848987 0.033942773786365128 0 0.1566962317421734 0.039838803654011962 0 0.158601754226253 0.030081739901262169 0 0.1716587195747214 0.044993527372590117 0 0.15183666351233449 0.050700262892952028 0 0.15919757845585511 0.069002327358520896 0 0.1716587195747214 0.044993527372590117 0 0.18079222374313991 0.066157073385880324 0 0.15919757845585511 0.069002327358520896 0 0.1716587195747214 0.044993527372590117 0 0.15183666351233449 0.050700262892952028 0 0.17227434920368959 0.00081991249798677823 0 0.17658810010716819 0.0040568459827444014 0 0.17786282304025339 -0.001583287003114023 0 0.17227434920368959 0.00081991249798677823 0 0.17658810010716819 0.0040568459827444014 0 0.17233771352019589 0.0083561011481188656 0 0.17658810010716819 0.0040568459827444014 0 0.18177514670000741 0.0039010391453388991 0 0.17943453638861959 0.0091511058078182841 0 0.17658810010716819 0.0040568459827444014 0 0.17943453638861959 0.0091511058078182841 0 0.17233771352019589 0.0083561011481188656 0 0.17658810010716819 0.0040568459827444014 0 0.18177514670000741 0.0039010391453388991 0 0.17786282304025339 -0.001583287003114023 0 0.18177514670000741 0.0039010391453388991 0 0.18580903226614379 -0.0011502469314075439 0 0.17786282304025339 -0.001583287003114023 0 0.1894192936343001 0.0060385698470956234 0 0.18660242445042999 0.0064023156866817926 0 0.18580903226614379 -0.0011502469314075439 0 0.18177514670000741 0.0039010391453388991 0 0.18660242445042999 0.0064023156866817926 0 0.18580903226614379 -0.0011502469314075439 0 0.18177514670000741 0.0039010391453388991 0 0.18660242445042999 0.0064023156866817926 0 0.18303211158647559 0.0075807978729441382 0 0.18177514670000741 0.0039010391453388991 0 0.18303211158647559 0.0075807978729441382 0 0.17943453638861959 0.0091511058078182841 0 0.18303211158647559 0.0075807978729441382 0 0.18431633880684531 0.01086873085193758 0 0.17943453638861959 0.0091511058078182841 0 0.18660242445042999 0.0064023156866817926 0 0.18303211158647559 0.0075807978729441382 0 0.18431633880684531 0.01086873085193758 0 0.18832376542685261 0.012450231659139751 0 0.18660242445042999 0.0064023156866817926 0 0.18431633880684531 0.01086873085193758 0 0.18431633880684531 0.01086873085193758 0 0.18734518720319909 0.015281891910368059 0 0.18195036267736389 0.015275800378046231 0 0.18832376542685261 0.012450231659139751 0 0.18431633880684531 0.01086873085193758 0 0.18734518720319909 0.015281891910368059 0 0.18431633880684531 0.01086873085193758 0 0.18195036267736389 0.015275800378046231 0 0.17943453638861959 0.0091511058078182841 0 0.18195036267736389 0.015275800378046231 0 0.1761571917665653 0.013806221612761949 0 0.17943453638861959 0.0091511058078182841 0 0.1761571917665653 0.013806221612761949 0 0.17943453638861959 0.0091511058078182841 0 0.17233771352019589 0.0083561011481188656 0 0.1761571917665653 0.013806221612761949 0 0.17233771352019589 0.0083561011481188656 0 0.1709247624247007 0.01466984692398882 0 0.1761571917665653 0.013806221612761949 0 0.17493811328672779 0.022191841685783802 0 0.1709247624247007 0.01466984692398882 0 0.18195036267736389 0.015275800378046231 0 0.1761571917665653 0.013806221612761949 0 0.17493811328672779 0.022191841685783802 0 0.18734518720319909 0.015281891910368059 0 0.18195036267736389 0.015275800378046231 0 0.1874867753674215 0.0231110496262097 0 0.18195036267736389 0.015275800378046231 0 0.17493811328672779 0.022191841685783802 0 0.1874867753674215 0.0231110496262097 0 0.17895959729017549 0.03270519686463521 0 0.17493811328672779 0.022191841685783802 0 0.1874867753674215 0.0231110496262097 0 0.17895959729017549 0.03270519686463521 0 0.1692336025848987 0.033942773786365128 0 0.17493811328672779 0.022191841685783802 0 0.1692336025848987 0.033942773786365128 0 0.1660519956958274 0.025200646889517071 0 0.158601754226253 0.030081739901262169 0 0.1692336025848987 0.033942773786365128 0 0.17493811328672779 0.022191841685783802 0 0.1660519956958274 0.025200646889517071 0 0.1660519956958274 0.025200646889517071 0 0.158601754226253 0.030081739901262169 0 0.15656323758401319 0.020842958383828041 0 0.15656323758401319 0.020842958383828041 0 0.1655425680131333 0.017645951334422452 0 0.15799820797772829 0.01069464001977203 0 0.1660519956958274 0.025200646889517071 0 0.15656323758401319 0.020842958383828041 0 0.1655425680131333 0.017645951334422452 0 0.17493811328672779 0.022191841685783802 0 0.1660519956958274 0.025200646889517071 0 0.1655425680131333 0.017645951334422452 0 0.17493811328672779 0.022191841685783802 0 0.1655425680131333 0.017645951334422452 0 0.1709247624247007 0.01466984692398882 0 0.17233771352019589 0.0083561011481188656 0 0.1709247624247007 0.01466984692398882 0 0.16528784937855559 0.0099045707114697821 0 0.1655425680131333 0.017645951334422452 0 0.1709247624247007 0.01466984692398882 0 0.16528784937855559 0.0099045707114697821 0 0.1655425680131333 0.017645951334422452 0 0.16528784937855559 0.0099045707114697821 0 0.15799820797772829 0.01069464001977203 0 0.16528784937855559 0.0099045707114697821 0 0.15830422717032419 0.0026668804518291322 0 0.16550177429739321 0.001625335581948511 0 0.16528784937855559 0.0099045707114697821 0 0.15799820797772829 0.01069464001977203 0 0.15830422717032419 0.0026668804518291322 0 0.17233771352019589 0.0083561011481188656 0 0.16528784937855559 0.0099045707114697821 0 0.16550177429739321 0.001625335581948511 0 0.17227434920368959 0.00081991249798677823 0 0.17233771352019589 0.0083561011481188656 0 0.16550177429739321 0.001625335581948511 0 0.14127976741107601 0.00215554095495248 0 0.15230472087545879 0.0045339035350271751 0 0.14873370341600839 0.01190124285016711 0 0.15799820797772829 0.01069464001977203 0 0.15830422717032419 0.0026668804518291322 0 0.15230472087545879 0.0045339035350271751 0 0.14127976741107601 0.00215554095495248 0 0.15230472087545879 0.0045339035350271751 0 0.1552076984021574 -0.0047487866015848753 0 0.15830422717032419 0.0026668804518291322 0 0.15230472087545879 0.0045339035350271751 0 0.1552076984021574 -0.0047487866015848753 0 0.15656323758401319 0.020842958383828041 0 0.15799820797772829 0.01069464001977203 0 0.14873370341600839 0.01190124285016711 0 0.15799820797772829 0.01069464001977203 0 0.15230472087545879 0.0045339035350271751 0 0.14873370341600839 0.01190124285016711 0 0.14873370341600839 0.01190124285016711 0 0.1458857290053831 0.021389540043380069 0 0.13967636330765321 0.013174792475989121 0 0.14127976741107601 0.00215554095495248 0 0.14873370341600839 0.01190124285016711 0 0.13967636330765321 0.013174792475989121 0 0.1458857290053831 0.021389540043380069 0 0.13916191736165201 0.019633136795163032 0 0.13967636330765321 0.013174792475989121 0 0.1458857290053831 0.021389540043380069 0 0.14010063181871271 0.02585166497444577 0 0.13916191736165201 0.019633136795163032 0 0.15656323758401319 0.020842958383828041 0 0.1458857290053831 0.021389540043380069 0 0.15175299049851881 0.02729842449465077 0 0.15656323758401319 0.020842958383828041 0 0.14873370341600839 0.01190124285016711 0 0.1458857290053831 0.021389540043380069 0 0.158601754226253 0.030081739901262169 0 0.15656323758401319 0.020842958383828041 0 0.15175299049851881 0.02729842449465077 0 0.158601754226253 0.030081739901262169 0 0.15175299049851881 0.02729842449465077 0 0.15159127196488009 0.032471007951428398 0 0.15175299049851881 0.02729842449465077 0 0.14523576613563741 0.02976945682372012 0 0.15159127196488009 0.032471007951428398 0 0.1458857290053831 0.021389540043380069 0 0.14523576613563741 0.02976945682372012 0 0.14010063181871271 0.02585166497444577 0 0.14523576613563741 0.02976945682372012 0 0.14010063181871271 0.02585166497444577 0 0.1391322595465444 0.03699933077486834 0 0.1458857290053831 0.021389540043380069 0 0.15175299049851881 0.02729842449465077 0 0.14523576613563741 0.02976945682372012 0 0.1309849453148588 0.01811654968683717 0 0.1391322595465444 0.03699933077486834 0 0.14010063181871271 0.02585166497444577 0 0.1309849453148588 0.01811654968683717 0 0.1391322595465444 0.03699933077486834 0 0.11917198148314 0.002581966002757949 0 0.13034027439662041 0.028127834929059549 0 0.1309849453148588 0.01811654968683717 0 0.13034027439662041 0.028127834929059549 0 0.1309849453148588 0.01811654968683717 0 0.1391322595465444 0.03699933077486834 0 0.1309849453148588 0.01811654968683717 0 0.13916191736165201 0.019633136795163032 0 0.13967636330765321 0.013174792475989121 0 0.14010063181871271 0.02585166497444577 0 0.1309849453148588 0.01811654968683717 0 0.13916191736165201 0.019633136795163032 0 0.14127976741107601 0.00215554095495248 0 0.13362755423293271 0.0080562160832345926 0 0.1228376310831711 -0.00076623140119310329 0 0.1309849453148588 0.01811654968683717 0 0.13362755423293271 0.0080562160832345926 0 0.1228376310831711 -0.00076623140119310329 0 0.1309849453148588 0.01811654968683717 0 0.1228376310831711 -0.00076623140119310329 0 0.1309849453148588 0.01811654968683717 0 0.13362755423293271 0.0080562160832345926 0 0.13967636330765321 0.013174792475989121 0 0.14127976741107601 0.00215554095495248 0 0.13362755423293271 0.0080562160832345926 0 0.13967636330765321 0.013174792475989121 0 0.15183666351233449 0.050700262892952028 0 0.15919757845585511 0.069002327358520896 0 0.15048711395973299 0.060532750562707877 0 0.15183666351233449 0.050700262892952028 0 0.15919757845585511 0.069002327358520896 0 0.14215194880052681 0.055145346777992182 0 0.15048711395973299 0.060532750562707877 0 0.13253998066004699 0.064315925604492674 0 0.1415085673101022 0.053673703855360522 0 0.14215194880052681 0.055145346777992182 0 0.15183666351233449 0.050700262892952028 0 0.1415085673101022 0.053673703855360522 0 0.15183666351233449 0.050700262892952028 0 0.1415085673101022 0.053673703855360522 0 0.15183666351233449 0.050700262892952028 0 0.14453550543306221 0.044729731242042367 0 0.1415085673101022 0.053673703855360522 0 0.14215194880052681 0.055145346777992182 0 0.14215194880052681 0.055145346777992182 0 0.15048711395973299 0.060532750562707877 0 0.15183666351233449 0.050700262892952028 0 0.1415085673101022 0.053673703855360522 0 0.14453550543306221 0.044729731242042367 0 0.1391322595465444 0.03699933077486834 0 0.15183666351233449 0.050700262892952028 0 0.14566961722181801 0.035366614883496988 0 0.1566962317421734 0.039838803654011962 0 0.15183666351233449 0.050700262892952028 0 0.14566961722181801 0.035366614883496988 0 0.1566962317421734 0.039838803654011962 0 0.15159127196488009 0.032471007951428398 0 0.14566961722181801 0.035366614883496988 0 0.1566962317421734 0.039838803654011962 0 0.158601754226253 0.030081739901262169 0 0.15159127196488009 0.032471007951428398 0 0.14566961722181801 0.035366614883496988 0 0.14453550543306221 0.044729731242042367 0 0.1391322595465444 0.03699933077486834 0 0.14523576613563741 0.02976945682372012 0 0.15159127196488009 0.032471007951428398 0 0.14566961722181801 0.035366614883496988 0 0.14523576613563741 0.02976945682372012 0 0.14566961722181801 0.035366614883496988 0 0.1391322595465444 0.03699933077486834 0 0.15183666351233449 0.050700262892952028 0 0.14566961722181801 0.035366614883496988 0 0.14453550543306221 0.044729731242042367 0 0.13034027439662041 0.028127834929059549 0 0.1415085673101022 0.053673703855360522 0 0.13034027439662041 0.028127834929059549 0 0.1415085673101022 0.053673703855360522 0 0.1391322595465444 0.03699933077486834 0 0.12367169586596689 0.04413069599522032 0 0.13034027439662041 0.028127834929059549 0 0.1415085673101022 0.053673703855360522 0 0.11892469151436 0.060175562481194378 0 0.12367169586596689 0.04413069599522032 0 0.1415085673101022 0.053673703855360522 0 0.11892469151436 0.060175562481194378 0 0.1415085673101022 0.053673703855360522 0 0.11892469151436 0.060175562481194378 0 0.1415085673101022 0.053673703855360522 0 0.13253998066004699 0.064315925604492674 0 0.1415085673101022 0.053673703855360522 0 0.14215194880052681 0.055145346777992182 0 0.13253998066004699 0.064315925604492674 0 0.13253998066004699 0.064315925604492674 0 0.13121537104960351 0.072689189806444385 0 0.15446329543616341 0.069626104104570485 0 0.1243405792371938 0.066503547411893488 0 0.13253998066004699 0.064315925604492674 0 0.13121537104960351 0.072689189806444385 0 0.11892469151436 0.060175562481194378 0 0.1243405792371938 0.066503547411893488 0 0.13253998066004699 0.064315925604492674 0 0.13121537104960351 0.072689189806444385 0 0.14336397744542301 0.076431171561807093 0 0.13288821721910599 0.083857800247139097 0 0.15048711395973299 0.060532750562707877 0 0.13253998066004699 0.064315925604492674 0 0.15446329543616341 0.069626104104570485 0 0.13121537104960351 0.072689189806444385 0 0.15446329543616341 0.069626104104570485 0 0.13121537104960351 0.072689189806444385 0 0.14336397744542301 0.076431171561807093 0 0.15446329543616341 0.069626104104570485 0 0.13253998066004699 0.064315925604492674 0 0.15446329543616341 0.069626104104570485 0 0.14336397744542301 0.076431171561807093 0 0.15145508435945571 0.07730097997971673 0 0.15446329543616341 0.069626104104570485 0 0.15145508435945571 0.07730097997971673 0 0.15998651034928929 0.070963915351755544 0 0.15635019231632599 0.084708360937410687 0 0.15145508435945571 0.07730097997971673 0 0.15446329543616341 0.069626104104570485 0 0.15998651034928929 0.070963915351755544 0 0.15048711395973299 0.060532750562707877 0 0.15446329543616341 0.069626104104570485 0 0.15919757845585511 0.069002327358520896 0 0.1449478564828334 0.088262465871273704 0 0.15304430801011831 0.09759233646353245 0 0.15635019231632599 0.084708360937410687 0 0.15145508435945571 0.07730097997971673 0 0.1449478564828334 0.088262465871273704 0 0.15635019231632599 0.084708360937410687 0 0.14336397744542301 0.076431171561807093 0 0.15145508435945571 0.07730097997971673 0 0.1449478564828334 0.088262465871273704 0 0.1449478564828334 0.088262465871273704 0 0.13288821721910599 0.083857800247139097 0 0.1333435253298102 0.095432768439741328 0 0.14336397744542301 0.076431171561807093 0 0.1449478564828334 0.088262465871273704 0 0.13288821721910599 0.083857800247139097 0 0.1225478872688979 0.090713611373926736 0 0.1210037722340596 0.082520495593825793 0 0.13288821721910599 0.083857800247139097 0 0.1210037722340596 0.082520495593825793 0 0.13121537104960351 0.072689189806444385 0 0.13288821721910599 0.083857800247139097 0 0.1225478872688979 0.090713611373926736 0 0.13288821721910599 0.083857800247139097 0 0.1333435253298102 0.095432768439741328 0 0.1449478564828334 0.088262465871273704 0 0.1368974078767736 0.107501873099266 0 0.1333435253298102 0.095432768439741328 0 0.12018819637303869 0.10164151191590461 0 0.1368974078767736 0.107501873099266 0 0.1333435253298102 0.095432768439741328 0 0.12018819637303869 0.10164151191590461 0 0.1225478872688979 0.090713611373926736 0 0.1333435253298102 0.095432768439741328 0 0.11707998843366239 0.12090166170324231 0 0.14061487869327599 0.12738787364596069 0 0.1368974078767736 0.107501873099266 0 0.14061487869327599 0.12738787364596069 0 0.1368974078767736 0.107501873099266 0 0.1574927946018469 0.1127881056222175 0 0.14061487869327599 0.12738787364596069 0 0.16208469833826319 0.13464304631642149 0 0.1574927946018469 0.1127881056222175 0 0.1368974078767736 0.107501873099266 0 0.15304430801011831 0.09759233646353245 0 0.1574927946018469 0.1127881056222175 0 0.1449478564828334 0.088262465871273704 0 0.1368974078767736 0.107501873099266 0 0.15304430801011831 0.09759233646353245 0 0.15304430801011831 0.09759233646353245 0 0.1695332887728116 0.094700876787494351 0 0.1574927946018469 0.1127881056222175 0 0.1695332887728116 0.094700876787494351 0 0.1574927946018469 0.1127881056222175 0 0.1790800671963392 0.1184378382232308 0 0.16208469833826319 0.13464304631642149 0 0.1574927946018469 0.1127881056222175 0 0.1790800671963392 0.1184378382232308 0 0.1885688884481975 0.1093901779912298 0 0.1790800671963392 0.1184378382232308 0 0.1832996600419958 0.1003897382564244 0 0.1885688884481975 0.1093901779912298 0 0.1790800671963392 0.1184378382232308 0 0.1858372065203453 0.1184994265274882 0 0.1885688884481975 0.1093901779912298 0 0.1858372065203453 0.1184994265274882 0 0.1885688884481975 0.1093901779912298 0 0.1790800671963392 0.1184378382232308 0 0.19325819231563421 0.12959887947710741 0 0.1790800671963392 0.1184378382232308 0 0.1858372065203453 0.1184994265274882 0 0.1695332887728116 0.094700876787494351 0 0.1790800671963392 0.1184378382232308 0 0.1695332887728116 0.094700876787494351 0 0.1790800671963392 0.1184378382232308 0 0.1832996600419958 0.1003897382564244 0 0.1695332887728116 0.094700876787494351 0 0.1832996600419958 0.1003897382564244 0 0.18493574174144031 0.087819629641268118 0 0.1929726046438287 0.094705252597794665 0 0.1832996600419958 0.1003897382564244 0 0.18493574174144031 0.087819629641268118 0 0.1973763208394673 0.08002032720436178 0 0.18493574174144031 0.087819629641268118 0 0.17868141559437861 0.075492121278057239 0 0.1695332887728116 0.094700876787494351 0 0.18493574174144031 0.087819629641268118 0 0.17868141559437861 0.075492121278057239 0 0.1973763208394673 0.08002032720436178 0 0.17868141559437861 0.075492121278057239 0 0.18079222374313991 0.066157073385880324 0 0.17868141559437861 0.075492121278057239 0 0.18079222374313991 0.066157073385880324 0 0.15998651034928929 0.070963915351755544 0 0.18079222374313991 0.066157073385880324 0 0.15919757845585511 0.069002327358520896 0 0.18079222374313991 0.066157073385880324 0 0.15919757845585511 0.069002327358520896 0 0.15998651034928929 0.070963915351755544 0 0.17868141559437861 0.075492121278057239 0 0.15998651034928929 0.070963915351755544 0 0.15446329543616341 0.069626104104570485 0 0.15919757845585511 0.069002327358520896 0 0.15998651034928929 0.070963915351755544 0 0.15446329543616341 0.069626104104570485 0 0.15919757845585511 0.069002327358520896 0 0.15446329543616341 0.069626104104570485 0 0.15998651034928929 0.070963915351755544 0 0.15919757845585511 0.069002327358520896 0 0.15998651034928929 0.070963915351755544 0 0.1695332887728116 0.094700876787494351 0 0.17868141559437861 0.075492121278057239 0 0.15998651034928929 0.070963915351755544 0 0.15304430801011831 0.09759233646353245 0 0.1695332887728116 0.094700876787494351 0 0.15635019231632599 0.084708360937410687 0 0.1695332887728116 0.094700876787494351 0 0.15998651034928929 0.070963915351755544 0 0.1695332887728116 0.094700876787494351 0 0.15998651034928929 0.070963915351755544 0 0.15635019231632599 0.084708360937410687 0 0.097740131103692757 0.47211576306312553 0 0.10228396963995549 0.48764264937867408 0 0.092199203719590395 0.48872928857719472 0 0.097740131103692757 0.47211576306312553 0 0.1146358595090817 0.48605788153156299 0 0.097740131103692757 0.47211576306312553 0 0.10228396963995549 0.48764264937867408 0 0.1146358595090817 0.48605788153156299 0 0.1038255785689283 0.5 0 0.10228396963995549 0.48764264937867408 0 0.092199203719590395 0.48872928857719472 0 0.1038255785689283 0.5 0 0.10228396963995549 0.48764264937867408 0 0.1146358595090817 0.48605788153156299 0 0.1146358595090817 0.48605788153156299 0 0.13153158791447089 0.50000000000000033 0 0.1038255785689283 0.5 0 0.1146358595090817 0.48605788153156299 0 0.13153158791447089 0.50000000000000033 0 0.097740131103692757 0.47211576306312553 0 0.1146358595090817 0.48605788153156299 0 0.1160915578241386 0.4641835533930308 0 0.1146358595090817 0.48605788153156299 0 0.1160915578241386 0.4641835533930308 0 0.13792901651589951 0.46760966493884959 0 0.1160915578241386 0.4641835533930308 0 0.1237280261196836 0.44463014715047522 0 0.10202961426548091 0.45002724093957291 0 0.1237280261196836 0.44463014715047522 0 0.1057649319772677 0.43759517983083812 0 0.10202961426548091 0.45002724093957291 0 0.1057649319772677 0.43759517983083812 0 0.10202961426548091 0.45002724093957291 0 0.08764391112498858 0.43163178618934439 0 0.097740131103692757 0.47211576306312553 0 0.1160915578241386 0.4641835533930308 0 0.10202961426548091 0.45002724093957291 0 0.080844402698305312 0.45817364459468618 0 0.076730675362011974 0.47423156549521001 0 0.097740131103692757 0.47211576306312553 0 0.080844402698305312 0.45817364459468618 0 0.097740131103692757 0.47211576306312553 0 0.10202961426548091 0.45002724093957291 0 0.080844402698305312 0.45817364459468618 0 0.097740131103692757 0.47211576306312553 0 0.080844402698305312 0.45817364459468618 0 0.076730675362011974 0.47423156549521001 0 0.080844402698305312 0.45817364459468618 0 0.08764391112498858 0.43163178618934439 0 0.10202961426548091 0.45002724093957291 0 0.080844402698305312 0.45817364459468618 0 0.08764391112498858 0.43163178618934439 0 0.080844402698305312 0.45817364459468618 0 0.07540768018483697 0.44030754071393319 0 0.08764391112498858 0.43163178618934439 0 0.080844402698305312 0.45817364459468618 0 0.07540768018483697 0.44030754071393319 0 0.061556592319121653 0.44225761358074578 0 0.080844402698305312 0.45817364459468618 0 0.061556592319121653 0.44225761358074578 0 0.080844402698305312 0.45817364459468618 0 0.067859653170709522 0.45426422462270638 0 0.061556592319121653 0.44225761358074578 0 0.080844402698305312 0.45817364459468618 0 0.064346854003363874 0.46736183993319841 0 0.076730675362011974 0.47423156549521001 0 0.064346854003363874 0.46736183993319841 0 0.067859653170709522 0.45426422462270638 0 0.056076759981020123 0.44443419347066321 0 0.080844402698305312 0.45817364459468618 0 0.064346854003363874 0.46736183993319841 0 0.067859653170709522 0.45426422462270638 0 0.076730675362011974 0.47423156549521001 0 0.072616948025712127 0.490289486395732 0 0.064346854003363874 0.46736183993319841 0 0.072616948025712127 0.490289486395732 0 0.058055043786226751 0.49051055052906067 0 0.064346854003363874 0.46736183993319841 0 0.072616948025712127 0.490289486395732 0 0.064346854003363874 0.46736183993319841 0 0.076730675362011974 0.47423156549521001 0 0.072616948025712127 0.490289486395732 0 0.076730675362011974 0.47423156549521001 0 0.082075002421626492 0.48449271935339733 0 0.072616948025712127 0.490289486395732 0 0.097740131103692757 0.47211576306312553 0 0.076730675362011974 0.47423156549521001 0 0.082075002421626492 0.48449271935339733 0 0.097740131103692757 0.47211576306312553 0 0.092199203719590395 0.48872928857719472 0 0.082075002421626492 0.48449271935339733 0 0.1038255785689283 0.5 0 0.092199203719590395 0.48872928857719472 0 0.076119569223385697 0.50000000000000089 0 0.092199203719590395 0.48872928857719472 0 0.082075002421626492 0.48449271935339733 0 0.076119569223385697 0.50000000000000089 0 0.072616948025712127 0.490289486395732 0 0.07012930311136284 0.49999999999999661 0 0.076119569223385697 0.50000000000000089 0 0.072616948025712127 0.490289486395732 0 0.07012930311136284 0.49999999999999661 0 0.076119569223385697 0.50000000000000089 0 0.072616948025712127 0.490289486395732 0 0.082075002421626492 0.48449271935339733 0 0.076119569223385697 0.50000000000000089 0 0.072616948025712127 0.490289486395732 0 0.072616948025712127 0.490289486395732 0 0.07012930311136284 0.49999999999999661 0 0.058055043786226751 0.49051055052906067 0 0.058055043786226751 0.49051055052906067 0 0.046280597366186747 0.47957307303049429 0 0.044860440428939378 0.4999999999999995 0 0.07012930311136284 0.49999999999999661 0 0.058055043786226751 0.49051055052906067 0 0.044860440428939378 0.4999999999999995 0 0.064346854003363874 0.46736183993319841 0 0.058055043786226751 0.49051055052906067 0 0.046280597366186747 0.47957307303049429 0 0.046280597366186747 0.47957307303049429 0 0.047700754303434179 0.45914614606098908 0 0.046280597366186747 0.47957307303049429 0 0.029897162037545319 0.4839753813588808 0 0.03521852719449324 0.46736449501777538 0 0.044860440428939378 0.4999999999999995 0 0.01907995414838232 0.5 0 0.029897162037545319 0.4839753813588808 0 0.046280597366186747 0.47957307303049429 0 0.044860440428939378 0.4999999999999995 0 0.046280597366186747 0.47957307303049429 0 0.044860440428939378 0.4999999999999995 0 0.029897162037545319 0.4839753813588808 0 0.01907995414838232 0.5 0 0.029897162037545319 0.4839753813588808 0 0.01223017135109394 0.48399563131022733 0 0.029897162037545319 0.4839753813588808 0 0.02313076419329519 0.4718947066398041 0 0.01223017135109394 0.48399563131022733 0 0.029897162037545319 0.4839753813588808 0 0.02313076419329519 0.4718947066398041 0 0.03521852719449324 0.46736449501777538 0 0.02313076419329519 0.4718947066398041 0 0.01223017135109394 0.48399563131022733 0 0.01319884020628341 0.47022233111689332 0 -0.003880604538310756 0.48346324919380129 0 0.01223017135109394 0.48399563131022733 0 0.0050866533922729329 0.47701524235381432 0 0.01223017135109394 0.48399563131022733 0 0.01319884020628341 0.47022233111689332 0 0.0050866533922729329 0.47701524235381432 0 0.01319884020628341 0.47022233111689332 0 0.0053167838454733218 0.46943384557929257 0 0.0050866533922729329 0.47701524235381432 0 -0.001026908195020756 0.47486914558720472 0 0.0053167838454733218 0.46943384557929257 0 0.0050866533922729329 0.47701524235381432 0 -0.003880604538310756 0.48346324919380129 0 -0.001026908195020756 0.47486914558720472 0 0.0050866533922729329 0.47701524235381432 0 -0.0067005321321746969 0.5 0 0.01907995414838232 0.5 0 0.01223017135109394 0.48399563131022733 0 -0.0067005321321746969 0.5 0 -0.003880604538310756 0.48346324919380129 0 0.01223017135109394 0.48399563131022733 0 0.0094816941431487278 0.45086042579757712 0 0.01399183751309625 0.44462120914047132 0 0.0048617880261327502 0.44584476697033082 0 0.0094816941431487278 0.45086042579757712 0 0.01399183751309625 0.44462120914047132 0 0.016302396861864351 0.45114502888407948 0 0.01049598620797234 0.43767394788706171 0 0.01399183751309625 0.44462120914047132 0 0.0048617880261327502 0.44584476697033082 0 0.01049598620797234 0.43767394788706171 0 0.01399183751309625 0.44462120914047132 0 0.020379531913139331 0.43685778481219928 0 0.01049598620797234 0.43767394788706171 0 0.0048617880261327502 0.44584476697033082 0 0.01049598620797234 0.43767394788706171 0 0.0048617880261327502 0.44584476697033082 0 0.0065189226172944724 0.43188650626448272 0 0.0094816941431487278 0.45086042579757712 0 0.0048617880261327502 0.44584476697033082 0 0.0015605482097463411 0.45063228640423969 0 0.0048617880261327502 0.44584476697033082 0 0.0015605482097463411 0.45063228640423969 0 0.0094816941431487278 0.45086042579757712 0 0.0048617880261327502 0.44584476697033082 0 0.0015605482097463411 0.45063228640423969 0 0.0080738590363113663 0.46132998490476868 0 0.01222090350615627 0.45893997922115709 0 0.0015605482097463411 0.45063228640423969 0 0.01222090350615627 0.45893997922115709 0 -0.0094095992007081283 0.46654139838691122 0 0.0053167838454733218 0.46943384557929257 0 0.0080738590363113663 0.46132998490476868 0 0.0094816941431487278 0.45086042579757712 0 0.0015605482097463411 0.45063228640423969 0 0.01222090350615627 0.45893997922115709 0 -0.0094095992007081283 0.46654139838691122 0 0.0015605482097463411 0.45063228640423969 0 0.0080738590363113663 0.46132998490476868 0 0.0080738590363113663 0.46132998490476868 0 0.01222090350615627 0.45893997922115709 0 0.025557317273330941 0.45611857142262657 0 0.01319884020628341 0.47022233111689332 0 0.0080738590363113663 0.46132998490476868 0 0.025557317273330941 0.45611857142262657 0 0.01319884020628341 0.47022233111689332 0 0.0053167838454733218 0.46943384557929257 0 0.0080738590363113663 0.46132998490476868 0 0.0094816941431487278 0.45086042579757712 0 0.01222090350615627 0.45893997922115709 0 0.016302396861864351 0.45114502888407948 0 0.01222090350615627 0.45893997922115709 0 0.025557317273330941 0.45611857142262657 0 0.016302396861864351 0.45114502888407948 0 0.0080738590363113663 0.46132998490476868 0 0.025557317273330941 0.45611857142262657 0 0.02313076419329519 0.4718947066398041 0 0.01319884020628341 0.47022233111689332 0 0.025557317273330941 0.45611857142262657 0 0.02313076419329519 0.4718947066398041 0 0.025557317273330941 0.45611857142262657 0 0.03521852719449324 0.46736449501777538 0 0.025557317273330941 0.45611857142262657 0 0.029497972404799989 0.4465970104894148 0 0.021231693005787571 0.44530579808828252 0 0.025557317273330941 0.45611857142262657 0 0.016302396861864351 0.45114502888407948 0 0.021231693005787571 0.44530579808828252 0 0.01399183751309625 0.44462120914047132 0 0.016302396861864351 0.45114502888407948 0 0.021231693005787571 0.44530579808828252 0 0.01399183751309625 0.44462120914047132 0 0.021231693005787571 0.44530579808828252 0 0.020379531913139331 0.43685778481219928 0 0.029497972404799989 0.4465970104894148 0 0.021231693005787571 0.44530579808828252 0 0.030311313049230751 0.43763339856834432 0 0.021231693005787571 0.44530579808828252 0 0.030311313049230751 0.43763339856834432 0 0.020379531913139331 0.43685778481219928 0 0.038697605999956301 0.44825738244890739 0 0.047700754303434179 0.45914614606098908 0 0.049120911240681603 0.43871921909148398 0 0.029497972404799989 0.4465970104894148 0 0.038697605999956301 0.44825738244890739 0 0.040333793699140981 0.43958103258297831 0 0.029497972404799989 0.4465970104894148 0 0.030311313049230751 0.43763339856834432 0 0.040333793699140981 0.43958103258297831 0 0.025557317273330941 0.45611857142262657 0 0.029497972404799989 0.4465970104894148 0 0.038697605999956301 0.44825738244890739 0 0.038697605999956301 0.44825738244890739 0 0.040333793699140981 0.43958103258297831 0 0.049120911240681603 0.43871921909148398 0 0.046280597366186747 0.47957307303049429 0 0.03521852719449324 0.46736449501777538 0 0.047700754303434179 0.45914614606098908 0 0.025557317273330941 0.45611857142262657 0 0.038697605999956301 0.44825738244890739 0 0.03521852719449324 0.46736449501777538 0 0.038697605999956301 0.44825738244890739 0 0.03521852719449324 0.46736449501777538 0 0.047700754303434179 0.45914614606098908 0 0.064346854003363874 0.46736183993319841 0 0.056076759981020123 0.44443419347066321 0 0.064346854003363874 0.46736183993319841 0 0.046280597366186747 0.47957307303049429 0 0.047700754303434179 0.45914614606098908 0 0.064346854003363874 0.46736183993319841 0 0.047700754303434179 0.45914614606098908 0 0.056076759981020123 0.44443419347066321 0 0.047700754303434179 0.45914614606098908 0 0.049120911240681603 0.43871921909148398 0 0.056076759981020123 0.44443419347066321 0 0.047700754303434179 0.45914614606098908 0 0.049120911240681603 0.43871921909148398 0 0.067859653170709522 0.45426422462270638 0 0.056076759981020123 0.44443419347066321 0 0.061556592319121653 0.44225761358074578 0 0.056076759981020123 0.44443419347066321 0 0.061556592319121653 0.44225761358074578 0 0.059201111644200437 0.43099696977894508 0 0.056076759981020123 0.44443419347066321 0 0.047806665958676359 0.42150654700812801 0 0.049120911240681603 0.43871921909148398 0 0.056076759981020123 0.44443419347066321 0 0.047806665958676359 0.42150654700812801 0 0.056076759981020123 0.44443419347066321 0 0.059201111644200437 0.43099696977894508 0 0.047806665958676359 0.42150654700812801 0 0.059201111644200437 0.43099696977894508 0 0.058979725365252707 0.4176193763442323 0 0.047806665958676359 0.42150654700812801 0 0.058979725365252707 0.4176193763442323 0 0.039536571936328653 0.39857890054559408 0 0.063240005814886313 0.40658319209587829 0 0.058979725365252707 0.4176193763442323 0 0.047806665958676359 0.42150654700812801 0 0.039536571936328653 0.39857890054559408 0 0.035113551011259521 0.41687403621696922 0 0.02872917033170445 0.40503675834663061 0 0.039536571936328653 0.39857890054559408 0 0.047806665958676359 0.42150654700812801 0 0.039536571936328653 0.39857890054559408 0 0.047806665958676359 0.42150654700812801 0 0.035113551011259521 0.41687403621696922 0 0.039536571936328653 0.39857890054559408 0 0.049120911240681603 0.43871921909148398 0 0.047806665958676359 0.42150654700812801 0 0.039708047704291503 0.4306454839277386 0 0.040333793699140981 0.43958103258297831 0 0.049120911240681603 0.43871921909148398 0 0.039708047704291503 0.4306454839277386 0 0.047806665958676359 0.42150654700812801 0 0.035113551011259521 0.41687403621696922 0 0.039708047704291503 0.4306454839277386 0 0.035113551011259521 0.41687403621696922 0 0.039708047704291503 0.4306454839277386 0 0.028741688689164512 0.42811504149697438 0 0.030311313049230751 0.43763339856834432 0 0.039708047704291503 0.4306454839277386 0 0.028741688689164512 0.42811504149697438 0 0.030311313049230751 0.43763339856834432 0 0.040333793699140981 0.43958103258297831 0 0.039708047704291503 0.4306454839277386 0 0.030311313049230751 0.43763339856834432 0 0.020379531913139331 0.43685778481219928 0 0.028741688689164512 0.42811504149697438 0 0.01049598620797234 0.43767394788706171 0 0.020379531913139331 0.43685778481219928 0 0.01750467301358458 0.42779731369206181 0 0.020379531913139331 0.43685778481219928 0 0.01750467301358458 0.42779731369206181 0 0.028741688689164512 0.42811504149697438 0 0.01750467301358458 0.42779731369206181 0 0.028741688689164512 0.42811504149697438 0 0.02615916144738779 0.41736148597675132 0 0.035113551011259521 0.41687403621696922 0 0.028741688689164512 0.42811504149697438 0 0.02615916144738779 0.41736148597675132 0 0.02615916144738779 0.41736148597675132 0 0.010437450069317761 0.40463061763750507 0 0.02872917033170445 0.40503675834663061 0 0.02615916144738779 0.41736148597675132 0 0.01517065216307991 0.41806138940930709 0 0.010437450069317761 0.40463061763750507 0 0.035113551011259521 0.41687403621696922 0 0.02615916144738779 0.41736148597675132 0 0.02872917033170445 0.40503675834663061 0 0.01750467301358458 0.42779731369206181 0 0.02615916144738779 0.41736148597675132 0 0.01517065216307991 0.41806138940930709 0 -0.003174347114314008 0.41591217031924949 0 0.0065813241220295041 0.42245614033091039 0 0.010437450069317761 0.40463061763750507 0 -0.0064316016559190746 0.3999483233353413 0 -0.003174347114314008 0.41591217031924949 0 0.010437450069317761 0.40463061763750507 0 0.01517065216307991 0.41806138940930709 0 0.0065813241220295041 0.42245614033091039 0 0.010437450069317761 0.40463061763750507 0 -0.003174347114314008 0.41591217031924949 0 0.010437450069317761 0.40463061763750507 0 -0.003174347114314008 0.41591217031924949 0 0.0065813241220295041 0.42245614033091039 0 -0.0026301228576318379 0.42717885202372191 0 -0.003174347114314008 0.41591217031924949 0 0.0065813241220295041 0.42245614033091039 0 -0.0026301228576318379 0.42717885202372191 0 0.0065813241220295041 0.42245614033091039 0 0.0065189226172944724 0.43188650626448272 0 -0.0026301228576318379 0.42717885202372191 0 0.0048617880261327502 0.44584476697033082 0 0.0065189226172944724 0.43188650626448272 0 0.01049598620797234 0.43767394788706171 0 0.01750467301358458 0.42779731369206181 0 0.0065189226172944724 0.43188650626448272 0 0.01750467301358458 0.42779731369206181 0 0.0065813241220295041 0.42245614033091039 0 0.0065189226172944724 0.43188650626448272 0 0.01750467301358458 0.42779731369206181 0 0.01517065216307991 0.41806138940930709 0 0.0065813241220295041 0.42245614033091039 0 -0.0042030409966118051 0.38380869400061962 0 0.01009735409817194 0.38238429504652488 0 0.02404924725294803 0.393349064955759 0 -0.0042030409966118051 0.38380869400061962 0 0.02404924725294803 0.393349064955759 0 0.01009735409817194 0.38238429504652488 0 0.0197357255374827 0.37571737083264412 0 0.011110712074150059 0.37343232972227269 0 -0.001064505034491721 0.37161458349227261 0 0.01009735409817194 0.38238429504652488 0 0.011110712074150059 0.37343232972227269 0 -0.001064505034491721 0.37161458349227261 0 -0.0042030409966118051 0.38380869400061962 0 0.01009735409817194 0.38238429504652488 0 -0.0042030409966118051 0.38380869400061962 0 0.01009735409817194 0.38238429504652488 0 -0.0042030409966118051 0.38380869400061962 0 0.010437450069317761 0.40463061763750507 0 0.02404924725294803 0.393349064955759 0 0.010437450069317761 0.40463061763750507 0 0.02872917033170445 0.40503675834663061 0 0.02404924725294803 0.393349064955759 0 0.010437450069317761 0.40463061763750507 0 0.02404924725294803 0.393349064955759 0 0.02872917033170445 0.40503675834663061 0 0.02404924725294803 0.393349064955759 0 0.039536571936328653 0.39857890054559408 0 0.02404924725294803 0.393349064955759 0 0.034519904376963118 0.38467091111880503 0 0.02404924725294803 0.393349064955759 0 0.0197357255374827 0.37571737083264412 0 0.034519904376963118 0.38467091111880503 0 0.01009735409817194 0.38238429504652488 0 0.02404924725294803 0.393349064955759 0 0.0197357255374827 0.37571737083264412 0 0.034519904376963118 0.38467091111880503 0 0.050307067216076778 0.37158640017128619 0 0.034519904376963118 0.38467091111880503 0 0.039536571936328653 0.39857890054559408 0 0.056773536515482913 0.38908479613358171 0 0.02404924725294803 0.393349064955759 0 0.039536571936328653 0.39857890054559408 0 0.034519904376963118 0.38467091111880503 0 0.039536571936328653 0.39857890054559408 0 0.02404924725294803 0.393349064955759 0 0.034519904376963118 0.38467091111880503 0 0.039536571936328653 0.39857890054559408 0 0.039536571936328653 0.39857890054559408 0 0.063240005814886313 0.40658319209587829 0 0.039536571936328653 0.39857890054559408 0 0.056773536515482913 0.38908479613358171 0 0.063240005814886313 0.40658319209587829 0 0.056773536515482913 0.38908479613358171 0 0.063240005814886313 0.40658319209587829 0 0.056773536515482913 0.38908479613358171 0 0.059721524030669819 0.37431687333309788 0 0.050307067216076778 0.37158640017128619 0 0.056773536515482913 0.38908479613358171 0 0.050307067216076778 0.37158640017128619 0 0.034519904376963118 0.38467091111880503 0 0.056773536515482913 0.38908479613358171 0 0.050307067216076778 0.37158640017128619 0 0.056773536515482913 0.38908479613358171 0 0.069041936002645535 0.37820082441249081 0 0.059721524030669819 0.37431687333309788 0 0.056773536515482913 0.38908479613358171 0 0.069041936002645535 0.37820082441249081 0 0.068225210254675303 0.39186969982647402 0 0.069041936002645535 0.37820082441249081 0 0.078928226936330073 0.3918395352538776 0 0.068225210254675303 0.39186969982647402 0 0.069041936002645535 0.37820082441249081 0 0.087739402474845588 0.37833299208434412 0 0.078928226936330073 0.3918395352538776 0 0.087739402474845588 0.37833299208434412 0 0.078928226936330073 0.3918395352538776 0 0.094443419551670932 0.40508992778400232 0 0.078928226936330073 0.3918395352538776 0 0.080832552055978585 0.40498983155533402 0 0.094443419551670932 0.40508992778400232 0 0.080832552055978585 0.40498983155533402 0 0.073695702888484968 0.40005040040525608 0 0.075088081656536507 0.41058410832735293 0 0.078928226936330073 0.3918395352538776 0 0.080832552055978585 0.40498983155533402 0 0.073695702888484968 0.40005040040525608 0 0.056773536515482913 0.38908479613358171 0 0.068225210254675303 0.39186969982647402 0 0.063240005814886313 0.40658319209587829 0 0.073695702888484968 0.40005040040525608 0 0.063240005814886313 0.40658319209587829 0 0.075088081656536507 0.41058410832735293 0 0.078928226936330073 0.3918395352538776 0 0.073695702888484968 0.40005040040525608 0 0.068225210254675303 0.39186969982647402 0 0.073695702888484968 0.40005040040525608 0 0.068225210254675303 0.39186969982647402 0 0.063240005814886313 0.40658319209587829 0 0.058979725365252707 0.4176193763442323 0 0.063240005814886313 0.40658319209587829 0 0.071585814596931419 0.42916711849095618 0 0.063240005814886313 0.40658319209587829 0 0.075088081656536507 0.41058410832735293 0 0.071585814596931419 0.42916711849095618 0 0.063240005814886313 0.40658319209587829 0 0.071585814596931419 0.42916711849095618 0 0.063240005814886313 0.40658319209587829 0 0.075088081656536507 0.41058410832735293 0 0.075088081656536507 0.41058410832735293 0 0.071585814596931419 0.42916711849095618 0 0.082007329246870417 0.41738518600618091 0 0.061556592319121653 0.44225761358074578 0 0.059201111644200437 0.43099696977894508 0 0.071585814596931419 0.42916711849095618 0 0.07540768018483697 0.44030754071393319 0 0.061556592319121653 0.44225761358074578 0 0.071585814596931419 0.42916711849095618 0 0.059201111644200437 0.43099696977894508 0 0.058979725365252707 0.4176193763442323 0 0.071585814596931419 0.42916711849095618 0 0.07540768018483697 0.44030754071393319 0 0.071585814596931419 0.42916711849095618 0 0.08764391112498858 0.43163178618934439 0 0.071585814596931419 0.42916711849095618 0 0.08764391112498858 0.43163178618934439 0 0.082007329246870417 0.41738518600618091 0 0.08764391112498858 0.43163178618934439 0 0.082007329246870417 0.41738518600618091 0 0.094443419551670932 0.40508992778400232 0 0.08764391112498858 0.43163178618934439 0 0.094443419551670932 0.40508992778400232 0 0.080832552055978585 0.40498983155533402 0 0.075088081656536507 0.41058410832735293 0 0.082007329246870417 0.41738518600618091 0 0.080832552055978585 0.40498983155533402 0 0.082007329246870417 0.41738518600618091 0 0.094443419551670932 0.40508992778400232 0 0.08764391112498858 0.43163178618934439 0 0.1096581763989177 0.42409154504396013 0 0.094443419551670932 0.40508992778400232 0 0.1096581763989177 0.42409154504396013 0 0.11163148259572971 0.40863234267508453 0 0.094443419551670932 0.40508992778400232 0 0.1057649319772677 0.43759517983083812 0 0.08764391112498858 0.43163178618934439 0 0.1096581763989177 0.42409154504396013 0 0.1237280261196836 0.44463014715047522 0 0.1096581763989177 0.42409154504396013 0 0.13502200614688589 0.42010390008240672 0 0.1237280261196836 0.44463014715047522 0 0.1057649319772677 0.43759517983083812 0 0.1096581763989177 0.42409154504396013 0 0.11163148259572971 0.40863234267508453 0 0.1236499924648251 0.3984302041169589 0 0.13502200614688589 0.42010390008240672 0 0.1096581763989177 0.42409154504396013 0 0.11163148259572971 0.40863234267508453 0 0.13502200614688589 0.42010390008240672 0 0.11163148259572971 0.40863234267508453 0 0.1236499924648251 0.3984302041169589 0 0.10863659533572551 0.39290197353284961 0 0.10863659533572551 0.39290197353284961 0 0.114060711710889 0.37342974127053702 0 0.12550685613774351 0.37951055496914998 0 0.1236499924648251 0.3984302041169589 0 0.10863659533572551 0.39290197353284961 0 0.12550685613774351 0.37951055496914998 0 0.1012429279783533 0.37854806937866009 0 0.10863659533572551 0.39290197353284961 0 0.114060711710889 0.37342974127053702 0 0.087739402474845588 0.37833299208434412 0 0.1012429279783533 0.37854806937866009 0 0.094443419551670932 0.40508992778400232 0 0.11163148259572971 0.40863234267508453 0 0.10863659533572551 0.39290197353284961 0 0.094443419551670932 0.40508992778400232 0 0.1012429279783533 0.37854806937866009 0 0.094443419551670932 0.40508992778400232 0 0.1012429279783533 0.37854806937866009 0 0.10863659533572551 0.39290197353284961 0 0.094443419551670932 0.40508992778400232 0 0.10055213054656729 0.36013865237867942 0 0.1100489009895301 0.33374314175173209 0 0.10055213054656729 0.36013865237867942 0 0.1100489009895301 0.33374314175173209 0 0.08625589277749264 0.346999797836966 0 0.1069344999541316 0.36147573913557879 0 0.10055213054656729 0.36013865237867942 0 0.1165634558871128 0.3492406052842485 0 0.10055213054656729 0.36013865237867942 0 0.1165634558871128 0.3492406052842485 0 0.1100489009895301 0.33374314175173209 0 0.087739402474845588 0.37833299208434412 0 0.1012429279783533 0.37854806937866009 0 0.1069344999541316 0.36147573913557879 0 0.1012429279783533 0.37854806937866009 0 0.1069344999541316 0.36147573913557879 0 0.114060711710889 0.37342974127053702 0 0.1069344999541316 0.36147573913557879 0 0.10055213054656729 0.36013865237867942 0 0.081229983254247365 0.36650003300062722 0 0.1069344999541316 0.36147573913557879 0 0.081229983254247365 0.36650003300062722 0 0.114060711710889 0.37342974127053702 0 0.1326390166540157 0.35645144527053041 0 0.12550685613774351 0.37951055496914998 0 0.1069344999541316 0.36147573913557879 0 0.114060711710889 0.37342974127053702 0 0.1326390166540157 0.35645144527053041 0 0.1069344999541316 0.36147573913557879 0 0.1165634558871128 0.3492406052842485 0 0.1326390166540157 0.35645144527053041 0 0.1069344999541316 0.36147573913557879 0 0.1326390166540157 0.35645144527053041 0 0.1165634558871128 0.3492406052842485 0 0.1100489009895301 0.33374314175173209 0 0.13264273129131951 0.33439404788472138 0 0.1100489009895301 0.33374314175173209 0 0.099713977183769634 0.31807175575135088 0 0.11954567143249289 0.30734763112478491 0 0.1100489009895301 0.33374314175173209 0 0.11954567143249289 0.30734763112478491 0 0.13264273129131951 0.33439404788472138 0 0.1100489009895301 0.33374314175173209 0 0.11954567143249289 0.30734763112478491 0 0.1100489009895301 0.33374314175173209 0 0.099713977183769634 0.31807175575135088 0 0.083894735805945045 0.32735700357097808 0 0.1100489009895301 0.33374314175173209 0 0.083894735805945045 0.32735700357097808 0 0.08625589277749264 0.346999797836966 0 0.083894735805945045 0.32735700357097808 0 0.068148884279383815 0.34110740296781622 0 0.08625589277749264 0.346999797836966 0 0.099713977183769634 0.31807175575135088 0 0.083894735805945045 0.32735700357097808 0 0.079241751540062577 0.3091409184095229 0 0.083894735805945045 0.32735700357097808 0 0.067542665246266162 0.32227296773822012 0 0.079241751540062577 0.3091409184095229 0 0.067542665246266162 0.32227296773822012 0 0.068148884279383815 0.34110740296781622 0 0.052098030758102709 0.32848813316288678 0 0.083894735805945045 0.32735700357097808 0 0.067542665246266162 0.32227296773822012 0 0.068148884279383815 0.34110740296781622 0 0.068148884279383815 0.34110740296781622 0 0.072981575438615956 0.35429511825148829 0 0.08625589277749264 0.346999797836966 0 0.068148884279383815 0.34110740296781622 0 0.072981575438615956 0.35429511825148829 0 0.059971533893319953 0.35265308331869138 0 0.072981575438615956 0.35429511825148829 0 0.066555082361941326 0.36578627017444021 0 0.059971533893319953 0.35265308331869138 0 0.10055213054656729 0.36013865237867942 0 0.08625589277749264 0.346999797836966 0 0.081229983254247365 0.36650003300062722 0 0.072981575438615956 0.35429511825148829 0 0.08625589277749264 0.346999797836966 0 0.081229983254247365 0.36650003300062722 0 0.087739402474845588 0.37833299208434412 0 0.1069344999541316 0.36147573913557879 0 0.081229983254247365 0.36650003300062722 0 0.069041936002645535 0.37820082441249081 0 0.087739402474845588 0.37833299208434412 0 0.081229983254247365 0.36650003300062722 0 0.069041936002645535 0.37820082441249081 0 0.081229983254247365 0.36650003300062722 0 0.066555082361941326 0.36578627017444021 0 0.072981575438615956 0.35429511825148829 0 0.081229983254247365 0.36650003300062722 0 0.066555082361941326 0.36578627017444021 0 0.069041936002645535 0.37820082441249081 0 0.066555082361941326 0.36578627017444021 0 0.059721524030669819 0.37431687333309788 0 0.055929998057201551 0.36692607577369102 0 0.050307067216076778 0.37158640017128619 0 0.041108453413194898 0.34669476624024848 0 0.066555082361941326 0.36578627017444021 0 0.059721524030669819 0.37431687333309788 0 0.055929998057201551 0.36692607577369102 0 0.059721524030669819 0.37431687333309788 0 0.055929998057201551 0.36692607577369102 0 0.050307067216076778 0.37158640017128619 0 0.066555082361941326 0.36578627017444021 0 0.055929998057201551 0.36692607577369102 0 0.059971533893319953 0.35265308331869138 0 0.055929998057201551 0.36692607577369102 0 0.050307067216076778 0.37158640017128619 0 0.055929998057201551 0.36692607577369102 0 0.059971533893319953 0.35265308331869138 0 0.041108453413194898 0.34669476624024848 0 0.059971533893319953 0.35265308331869138 0 0.041108453413194898 0.34669476624024848 0 0.053731959496234848 0.34189436452501393 0 0.068148884279383815 0.34110740296781622 0 0.059971533893319953 0.35265308331869138 0 0.053731959496234848 0.34189436452501393 0 0.050307067216076778 0.37158640017128619 0 0.041108453413194898 0.34669476624024848 0 0.036325720293778493 0.35734230210966361 0 0.050307067216076778 0.37158640017128619 0 0.041108453413194898 0.34669476624024848 0 0.041108453413194898 0.34669476624024848 0 0.036325720293778493 0.35734230210966361 0 0.028822601092593811 0.34272768621728472 0 0.034519904376963118 0.38467091111880503 0 0.036565816098641138 0.36791040757449411 0 0.02482466364838485 0.35779225034500489 0 0.034519904376963118 0.38467091111880503 0 0.050307067216076778 0.37158640017128619 0 0.036565816098641138 0.36791040757449411 0 0.050307067216076778 0.37158640017128619 0 0.036325720293778493 0.35734230210966361 0 0.036565816098641138 0.36791040757449411 0 0.036325720293778493 0.35734230210966361 0 0.036565816098641138 0.36791040757449411 0 0.02482466364838485 0.35779225034500489 0 0.034519904376963118 0.38467091111880503 0 0.02482466364838485 0.35779225034500489 0 0.0197357255374827 0.37571737083264412 0 0.034519904376963118 0.38467091111880503 0 0.02482466364838485 0.35779225034500489 0 0.0197357255374827 0.37571737083264412 0 0.015674273695437339 0.36401306951764911 0 0.02482466364838485 0.35779225034500489 0 0.015674273695437339 0.36401306951764911 0 0.02482466364838485 0.35779225034500489 0 0.015768167676543349 0.35713923686247862 0 0.02482466364838485 0.35779225034500489 0 0.01512942291980679 0.33091358957120492 0 0.02482466364838485 0.35779225034500489 0 0.01512942291980679 0.33091358957120492 0 0.028822601092593811 0.34272768621728472 0 0.036325720293778493 0.35734230210966361 0 0.02482466364838485 0.35779225034500489 0 0.028822601092593811 0.34272768621728472 0 0.02482466364838485 0.35779225034500489 0 0.012196298529549159 0.34905700984651278 0 0.01512942291980679 0.33091358957120492 0 0.02482466364838485 0.35779225034500489 0 0.015768167676543349 0.35713923686247862 0 0.012196298529549159 0.34905700984651278 0 0.01037743483280206 0.35769461774074762 0 0.012196298529549159 0.34905700984651278 0 0.0032447233134405931 0.35422125060834359 0 0.015768167676543349 0.35713923686247862 0 0.01037743483280206 0.35769461774074762 0 0.012196298529549159 0.34905700984651278 0 -0.002583240235104544 0.34489224502179239 0 0.012196298529549159 0.34905700984651278 0 0.0065182143906638264 0.33911035096943482 0 -0.002583240235104544 0.34489224502179239 0 0.012196298529549159 0.34905700984651278 0 0.0032447233134405931 0.35422125060834359 0 0.01037743483280206 0.35769461774074762 0 0.0032447233134405931 0.35422125060834359 0 0.0039428335920915006 0.36531030276633031 0 -0.0064988099748367559 0.35299106404641623 0 0.0032447233134405931 0.35422125060834359 0 0.0039428335920915006 0.36531030276633031 0 -0.001064505034491721 0.37161458349227261 0 0.015674273695437339 0.36401306951764911 0 0.0039428335920915006 0.36531030276633031 0 -0.001064505034491721 0.37161458349227261 0 0.015674273695437339 0.36401306951764911 0 0.011110712074150059 0.37343232972227269 0 -0.001064505034491721 0.37161458349227261 0 0.015674273695437339 0.36401306951764911 0 0.0197357255374827 0.37571737083264412 0 0.015674273695437339 0.36401306951764911 0 0.011110712074150059 0.37343232972227269 0 0.015674273695437339 0.36401306951764911 0 0.01037743483280206 0.35769461774074762 0 0.0039428335920915006 0.36531030276633031 0 0.015674273695437339 0.36401306951764911 0 0.015768167676543349 0.35713923686247862 0 0.01037743483280206 0.35769461774074762 0 -0.00058836015198596755 0.32088344941533808 0 0.01512942291980679 0.33091358957120492 0 0.0054341821912287152 0.30403492879740468 0 0.01512942291980679 0.33091358957120492 0 0.0054341821912287152 0.30403492879740468 0 0.01512942291980679 0.33091358957120492 0 0.018796167632194181 0.3134157872639986 0 0.0054341821912287152 0.30403492879740468 0 0.012196298529549159 0.34905700984651278 0 0.01512942291980679 0.33091358957120492 0 0.0065182143906638264 0.33911035096943482 0 -0.0025616559074486049 0.3329031852911295 0 -0.00058836015198596755 0.32088344941533808 0 0.01512942291980679 0.33091358957120492 0 -0.0025616559074486049 0.3329031852911295 0 0.01512942291980679 0.33091358957120492 0 0.0065182143906638264 0.33911035096943482 0 -0.0025616559074486049 0.3329031852911295 0 -0.002583240235104544 0.34489224502179239 0 0.0065182143906638264 0.33911035096943482 0 0.01512942291980679 0.33091358957120492 0 0.028822601092593811 0.34272768621728472 0 0.031909839610312053 0.3218031323092112 0 0.01512942291980679 0.33091358957120492 0 0.018796167632194181 0.3134157872639986 0 0.031909839610312053 0.3218031323092112 0 0.031909839610312053 0.3218031323092112 0 0.052098030758102709 0.32848813316288678 0 0.054329923847836643 0.30527138057989611 0 0.041108453413194898 0.34669476624024848 0 0.031909839610312053 0.3218031323092112 0 0.041108453413194898 0.34669476624024848 0 0.028822601092593811 0.34272768621728472 0 0.031909839610312053 0.3218031323092112 0 0.041108453413194898 0.34669476624024848 0 0.031909839610312053 0.3218031323092112 0 0.052098030758102709 0.32848813316288678 0 0.041108453413194898 0.34669476624024848 0 0.052098030758102709 0.32848813316288678 0 0.053731959496234848 0.34189436452501393 0 0.068148884279383815 0.34110740296781622 0 0.052098030758102709 0.32848813316288678 0 0.053731959496234848 0.34189436452501393 0 0.067542665246266162 0.32227296773822012 0 0.052098030758102709 0.32848813316288678 0 0.054329923847836643 0.30527138057989611 0 0.054329923847836643 0.30527138057989611 0 0.058643640903709077 0.2841886380467647 0 0.070108093408202884 0.28237758711201172 0 0.054329923847836643 0.30527138057989611 0 0.058643640903709077 0.2841886380467647 0 0.046708945964444748 0.28470371633566799 0 0.054329923847836643 0.30527138057989611 0 0.070108093408202884 0.28237758711201172 0 0.033299114928103571 0.2853556706935409 0 0.038381760441483573 0.30030485014671859 0 0.022711225807429191 0.29691149837817382 0 0.054329923847836643 0.30527138057989611 0 0.046708945964444748 0.28470371633566799 0 0.038381760441483573 0.30030485014671859 0 0.046708945964444748 0.28470371633566799 0 0.033299114928103571 0.2853556706935409 0 0.038381760441483573 0.30030485014671859 0 0.031909839610312053 0.3218031323092112 0 0.054329923847836643 0.30527138057989611 0 0.038381760441483573 0.30030485014671859 0 0.031909839610312053 0.3218031323092112 0 0.022711225807429191 0.29691149837817382 0 0.018796167632194181 0.3134157872639986 0 0.031909839610312053 0.3218031323092112 0 0.022711225807429191 0.29691149837817382 0 0.018796167632194181 0.3134157872639986 0 0.022711225807429191 0.29691149837817382 0 0.0054341821912287152 0.30403492879740468 0 0.031909839610312053 0.3218031323092112 0 0.038381760441483573 0.30030485014671859 0 0.022711225807429191 0.29691149837817382 0 0.022711225807429191 0.29691149837817382 0 0.0097135815956244098 0.28932323485025419 0 0.01496997692118909 0.27919024420183391 0 0.033299114928103571 0.2853556706935409 0 0.022711225807429191 0.29691149837817382 0 0.01496997692118909 0.27919024420183391 0 -0.0042610585373493576 0.2771562680236046 0 0.0097135815956244098 0.28932323485025419 0 0.01496997692118909 0.27919024420183391 0 -0.0042610585373493576 0.2771562680236046 0 0.0097135815956244098 0.28932323485025419 0 0.0054341821912287152 0.30403492879740468 0 0.022711225807429191 0.29691149837817382 0 0.0097135815956244098 0.28932323485025419 0 0.0054341821912287152 0.30403492879740468 0 -0.0042610585373493576 0.2771562680236046 0 0.0054341821912287152 0.30403492879740468 0 0.012156823249103331 0.25259817100369902 0 0.0071094060709509964 0.26564087220093879 0 0.023079021189564172 0.26593697868694532 0 -0.0082457657602449386 0.25246627485226031 0 0.012156823249103331 0.25259817100369902 0 0.0071094060709509964 0.26564087220093879 0 0.0071094060709509964 0.26564087220093879 0 0.01496997692118909 0.27919024420183391 0 0.023079021189564172 0.26593697868694532 0 -0.0042610585373493576 0.2771562680236046 0 0.0071094060709509964 0.26564087220093879 0 0.01496997692118909 0.27919024420183391 0 0.033299114928103571 0.2853556706935409 0 0.01496997692118909 0.27919024420183391 0 0.023079021189564172 0.26593697868694532 0 0.012156823249103331 0.25259817100369902 0 0.023079021189564172 0.26593697868694532 0 0.030652172791378579 0.25229956247347313 0 0.023079021189564172 0.26593697868694532 0 0.030652172791378579 0.25229956247347313 0 0.04073495957405681 0.26035892983227987 0 0.044937254539659167 0.2379713478153713 0 0.030652172791378579 0.25229956247347313 0 0.04073495957405681 0.26035892983227987 0 0.033299114928103571 0.2853556706935409 0 0.023079021189564172 0.26593697868694532 0 0.04073495957405681 0.26035892983227987 0 0.033299114928103571 0.2853556706935409 0 0.04073495957405681 0.26035892983227987 0 0.046708945964444748 0.28470371633566799 0 0.033299114928103571 0.2853556706935409 0 0.04073495957405681 0.26035892983227987 0 0.046708945964444748 0.28470371633566799 0 0.04073495957405681 0.26035892983227987 0 0.054656664038459993 0.27221644551962948 0 0.058643640903709077 0.2841886380467647 0 0.046708945964444748 0.28470371633566799 0 0.054656664038459993 0.27221644551962948 0 0.054656664038459993 0.27221644551962948 0 0.05595459183600883 0.25980758553240452 0 0.063151913248908592 0.26702092668087168 0 0.054656664038459993 0.27221644551962948 0 0.063151913248908592 0.26702092668087168 0 0.062868354845155253 0.27542318723842002 0 0.058643640903709077 0.2841886380467647 0 0.054656664038459993 0.27221644551962948 0 0.062868354845155253 0.27542318723842002 0 0.058643640903709077 0.2841886380467647 0 0.062868354845155253 0.27542318723842002 0 0.06481936793225318 0.27971168374165578 0 0.052294646587479003 0.2493466198794505 0 0.04073495957405681 0.26035892983227987 0 0.05595459183600883 0.25980758553240452 0 0.04073495957405681 0.26035892983227987 0 0.054656664038459993 0.27221644551962948 0 0.05595459183600883 0.25980758553240452 0 0.05595459183600883 0.25980758553240452 0 0.066495423171073403 0.25816184380531082 0 0.063151913248908592 0.26702092668087168 0 0.052294646587479003 0.2493466198794505 0 0.05595459183600883 0.25980758553240452 0 0.06034442261467237 0.25120339486286308 0 0.05595459183600883 0.25980758553240452 0 0.06034442261467237 0.25120339486286308 0 0.066495423171073403 0.25816184380531082 0 0.067445722382230539 0.24771064348785149 0 0.066495423171073403 0.25816184380531082 0 0.074707437689247702 0.25389633834412328 0 0.067445722382230539 0.24771064348785149 0 0.06034442261467237 0.25120339486286308 0 0.066495423171073403 0.25816184380531082 0 0.066495423171073403 0.25816184380531082 0 0.070468357435777063 0.2657419037057816 0 0.063151913248908592 0.26702092668087168 0 0.066495423171073403 0.25816184380531082 0 0.074357597956477339 0.26064435546358339 0 0.070468357435777063 0.2657419037057816 0 0.074357597956477339 0.26064435546358339 0 0.075194191089397802 0.26640127341757941 0 0.070468357435777063 0.2657419037057816 0 0.074357597956477339 0.26064435546358339 0 0.080427883817154544 0.25791465254204288 0 0.078852294536213494 0.26175012096666261 0 0.074357597956477339 0.26064435546358339 0 0.078852294536213494 0.26175012096666261 0 0.075194191089397802 0.26640127341757941 0 0.066495423171073403 0.25816184380531082 0 0.074357597956477339 0.26064435546358339 0 0.074707437689247702 0.25389633834412328 0 0.074357597956477339 0.26064435546358339 0 0.074707437689247702 0.25389633834412328 0 0.080427883817154544 0.25791465254204288 0 0.085975255819246227 0.24304742420893821 0 0.080478695998155714 0.25165019938018113 0 0.085886262968569133 0.25948379364412733 0 0.080478695998155714 0.25165019938018113 0 0.080427883817154544 0.25791465254204288 0 0.085886262968569133 0.25948379364412733 0 0.10166443252893551 0.23659000017624271 0 0.085886262968569133 0.25948379364412733 0 0.093061372415253377 0.25945310375487363 0 0.074707437689247702 0.25389633834412328 0 0.080478695998155714 0.25165019938018113 0 0.080427883817154544 0.25791465254204288 0 0.078852294536213494 0.26175012096666261 0 0.085886262968569133 0.25948379364412733 0 0.075194191089397802 0.26640127341757941 0 0.080427883817154544 0.25791465254204288 0 0.078852294536213494 0.26175012096666261 0 0.085886262968569133 0.25948379364412733 0 0.093061372415253377 0.25945310375487363 0 0.088669334409182038 0.27365465257629329 0 0.074192652952093263 0.28111713417870732 0 0.093061372415253377 0.25945310375487363 0 0.074192652952093263 0.28111713417870732 0 0.085886262968569133 0.25948379364412733 0 0.093061372415253377 0.25945310375487363 0 0.074192652952093263 0.28111713417870732 0 0.088669334409182038 0.27365465257629329 0 0.090629520296699906 0.27989165378522829 0 0.096617072050330918 0.27420358010706619 0 0.088669334409182038 0.27365465257629329 0 0.090629520296699906 0.27989165378522829 0 0.083300485689734874 0.28178689503457671 0 0.093061372415253377 0.25945310375487363 0 0.088669334409182038 0.27365465257629329 0 0.097208854645582696 0.26674380090640232 0 0.088669334409182038 0.27365465257629329 0 0.074192652952093263 0.28111713417870732 0 0.083300485689734874 0.28178689503457671 0 0.085886262968569133 0.25948379364412733 0 0.072732619288592745 0.27411268144752271 0 0.070108093408202884 0.28237758711201172 0 0.085886262968569133 0.25948379364412733 0 0.074192652952093263 0.28111713417870732 0 0.070108093408202884 0.28237758711201172 0 0.085886262968569133 0.25948379364412733 0 0.070108093408202884 0.28237758711201172 0 0.085886262968569133 0.25948379364412733 0 0.072732619288592745 0.27411268144752271 0 0.075194191089397802 0.26640127341757941 0 0.072732619288592745 0.27411268144752271 0 0.075194191089397802 0.26640127341757941 0 0.068678803079962825 0.27092621584326698 0 0.075194191089397802 0.26640127341757941 0 0.070468357435777063 0.2657419037057816 0 0.068678803079962825 0.27092621584326698 0 0.068678803079962825 0.27092621584326698 0 0.063151913248908592 0.26702092668087168 0 0.062868354845155253 0.27542318723842002 0 0.070468357435777063 0.2657419037057816 0 0.068678803079962825 0.27092621584326698 0 0.063151913248908592 0.26702092668087168 0 0.072732619288592745 0.27411268144752271 0 0.067657382571945521 0.27685732256942691 0 0.070108093408202884 0.28237758711201172 0 0.067657382571945521 0.27685732256942691 0 0.06481936793225318 0.27971168374165578 0 0.070108093408202884 0.28237758711201172 0 0.072732619288592745 0.27411268144752271 0 0.068678803079962825 0.27092621584326698 0 0.067657382571945521 0.27685732256942691 0 0.067657382571945521 0.27685732256942691 0 0.062868354845155253 0.27542318723842002 0 0.06481936793225318 0.27971168374165578 0 0.068678803079962825 0.27092621584326698 0 0.067657382571945521 0.27685732256942691 0 0.062868354845155253 0.27542318723842002 0 0.058643640903709077 0.2841886380467647 0 0.06481936793225318 0.27971168374165578 0 0.070108093408202884 0.28237758711201172 0 0.054329923847836643 0.30527138057989611 0 0.070108093408202884 0.28237758711201172 0 0.07616196246918229 0.29401120062856562 0 0.070108093408202884 0.28237758711201172 0 0.07616196246918229 0.29401120062856562 0 0.077305327314718786 0.28670206069564769 0 0.074192652952093263 0.28111713417870732 0 0.070108093408202884 0.28237758711201172 0 0.077305327314718786 0.28670206069564769 0 0.054329923847836643 0.30527138057989611 0 0.07616196246918229 0.29401120062856562 0 0.079241751540062577 0.3091409184095229 0 0.067542665246266162 0.32227296773822012 0 0.054329923847836643 0.30527138057989611 0 0.079241751540062577 0.3091409184095229 0 0.07616196246918229 0.29401120062856562 0 0.079241751540062577 0.3091409184095229 0 0.093760017070794913 0.30048783451418309 0 0.099713977183769634 0.31807175575135088 0 0.079241751540062577 0.3091409184095229 0 0.093760017070794913 0.30048783451418309 0 0.07616196246918229 0.29401120062856562 0 0.086675975183887061 0.28808357667035972 0 0.093760017070794913 0.30048783451418309 0 0.074192652952093263 0.28111713417870732 0 0.077305327314718786 0.28670206069564769 0 0.083300485689734874 0.28178689503457671 0 0.077305327314718786 0.28670206069564769 0 0.083300485689734874 0.28178689503457671 0 0.086675975183887061 0.28808357667035972 0 0.07616196246918229 0.29401120062856562 0 0.077305327314718786 0.28670206069564769 0 0.086675975183887061 0.28808357667035972 0 0.090629520296699906 0.27989165378522829 0 0.083300485689734874 0.28178689503457671 0 0.086675975183887061 0.28808357667035972 0 0.090629520296699906 0.27989165378522829 0 0.086675975183887061 0.28808357667035972 0 0.1012207646153751 0.28627192450051492 0 0.086675975183887061 0.28808357667035972 0 0.1012207646153751 0.28627192450051492 0 0.093760017070794913 0.30048783451418309 0 0.099713977183769634 0.31807175575135088 0 0.093760017070794913 0.30048783451418309 0 0.11954567143249289 0.30734763112478491 0 0.1012207646153751 0.28627192450051492 0 0.093760017070794913 0.30048783451418309 0 0.11954567143249289 0.30734763112478491 0 0.11954567143249289 0.30734763112478491 0 0.1141818460752707 0.27714397317686529 0 0.12904244187545569 0.2809521204978378 0 0.1012207646153751 0.28627192450051492 0 0.11954567143249289 0.30734763112478491 0 0.1141818460752707 0.27714397317686529 0 0.11954567143249289 0.30734763112478491 0 0.12904244187545569 0.2809521204978378 0 0.1141818460752707 0.27714397317686529 0 0.11615378911320511 0.26032519799560372 0 0.1048644735931679 0.26655228778042589 0 0.1141818460752707 0.27714397317686529 0 0.11615378911320511 0.26032519799560372 0 0.12904244187545569 0.2809521204978378 0 0.1152979079485152 0.2467056018988516 0 0.1250676346401875 0.24796443701554319 0 0.11615378911320511 0.26032519799560372 0 0.1152979079485152 0.2467056018988516 0 0.11615378911320511 0.26032519799560372 0 0.10650461767427161 0.25132517155921902 0 0.11615378911320511 0.26032519799560372 0 0.1028320207599793 0.25985538031335248 0 0.1048644735931679 0.26655228778042589 0 0.1028320207599793 0.25985538031335248 0 0.097208854645582696 0.26674380090640232 0 0.1048644735931679 0.26655228778042589 0 0.11615378911320511 0.26032519799560372 0 0.1028320207599793 0.25985538031335248 0 0.10650461767427161 0.25132517155921902 0 0.093061372415253377 0.25945310375487363 0 0.1028320207599793 0.25985538031335248 0 0.10650461767427161 0.25132517155921902 0 0.093061372415253377 0.25945310375487363 0 0.1028320207599793 0.25985538031335248 0 0.097208854645582696 0.26674380090640232 0 0.088669334409182038 0.27365465257629329 0 0.097208854645582696 0.26674380090640232 0 0.096617072050330918 0.27420358010706619 0 0.097208854645582696 0.26674380090640232 0 0.096617072050330918 0.27420358010706619 0 0.1048644735931679 0.26655228778042589 0 0.1141818460752707 0.27714397317686529 0 0.096617072050330918 0.27420358010706619 0 0.1048644735931679 0.26655228778042589 0 0.1012207646153751 0.28627192450051492 0 0.1141818460752707 0.27714397317686529 0 0.096617072050330918 0.27420358010706619 0 0.090629520296699906 0.27989165378522829 0 0.1012207646153751 0.28627192450051492 0 0.096617072050330918 0.27420358010706619 0 0.1384713120865835 0.25773302092121009 0 0.12904244187545569 0.2809521204978378 0 0.15915390062653459 0.27760612704708998 0 0.1514273965657848 0.24085309905483679 0 0.1384713120865835 0.25773302092121009 0 0.156278998070083 0.25778272565978 0 0.1384713120865835 0.25773302092121009 0 0.15915390062653459 0.27760612704708998 0 0.156278998070083 0.25778272565978 0 0.1250676346401875 0.24796443701554319 0 0.11615378911320511 0.26032519799560372 0 0.1384713120865835 0.25773302092121009 0 0.11615378911320511 0.26032519799560372 0 0.1384713120865835 0.25773302092121009 0 0.12904244187545569 0.2809521204978378 0 0.11954567143249289 0.30734763112478491 0 0.12904244187545569 0.2809521204978378 0 0.14488164426314301 0.29594920495010729 0 0.11954567143249289 0.30734763112478491 0 0.14488164426314301 0.29594920495010729 0 0.15139514334923471 0.31791608062108467 0 0.14488164426314301 0.29594920495010729 0 0.16637322996135739 0.30016678813796199 0 0.15139514334923471 0.31791608062108467 0 0.12904244187545569 0.2809521204978378 0 0.14488164426314301 0.29594920495010729 0 0.15915390062653459 0.27760612704708998 0 0.14488164426314301 0.29594920495010729 0 0.16637322996135739 0.30016678813796199 0 0.15915390062653459 0.27760612704708998 0 0.16637322996135739 0.30016678813796199 0 0.18265278236186541 0.28020603593405619 0 0.15915390062653459 0.27760612704708998 0 0.16637322996135739 0.30016678813796199 0 0.18588027836364171 0.30417070427619303 0 0.17427563080372541 0.32515257599924119 0 0.16637322996135739 0.30016678813796199 0 0.18588027836364171 0.30417070427619303 0 0.18265278236186541 0.28020603593405619 0 0.18265278236186541 0.28020603593405619 0 0.15915390062653459 0.27760612704708998 0 0.17660728565697029 0.25284173787090108 0 0.18265278236186541 0.28020603593405619 0 0.17660728565697029 0.25284173787090108 0 0.20178717474815569 0.26483037668696541 0 0.1514273965657848 0.24085309905483679 0 0.156278998070083 0.25778272565978 0 0.17660728565697029 0.25284173787090108 0 0.15915390062653459 0.27760612704708998 0 0.156278998070083 0.25778272565978 0 0.17660728565697029 0.25284173787090108 0 0.1971008006350988 0.24422433182354611 0 0.17660728565697029 0.25284173787090108 0 0.20178717474815569 0.26483037668696541 0 0.17660728565697029 0.25284173787090108 0 0.20178717474815569 0.26483037668696541 0 0.18265278236186541 0.28020603593405619 0 0.20178717474815569 0.26483037668696541 0 0.20721699074389299 0.28586320426344869 0 0.20178717474815569 0.26483037668696541 0 0.22696706383934109 0.27681901550302962 0 0.20721699074389299 0.28586320426344869 0 0.20178717474815569 0.26483037668696541 0 0.22696706383934109 0.27681901550302962 0 0.1971008006350988 0.24422433182354611 0 0.20178717474815569 0.26483037668696541 0 0.2257125065402284 0.25431107802280528 0 0.20178717474815569 0.26483037668696541 0 0.2257125065402284 0.25431107802280528 0 0.22696706383934109 0.27681901550302962 0 0.2257125065402284 0.25431107802280528 0 0.23435940432808119 0.2558835225658645 0 0.2376751292839718 0.27741240132337408 0 0.2257125065402284 0.25431107802280528 0 0.22696706383934109 0.27681901550302962 0 0.2376751292839718 0.27741240132337408 0 0.2257125065402284 0.25431107802280528 0 0.2376751292839718 0.27741240132337408 0 0.22696706383934109 0.27681901550302962 0 0.2376751292839718 0.27741240132337408 0 0.2318681827461313 0.28775992326468519 0 0.23435940432808119 0.2558835225658645 0 0.2434397278092077 0.27846069768541332 0 0.2376751292839718 0.27741240132337408 0 0.23435940432808119 0.2558835225658645 0 0.2434397278092077 0.27846069768541332 0 0.23435940432808119 0.2558835225658645 0 0.2434397278092077 0.27846069768541332 0 0.24763005152173001 0.25910176257370959 0 0.2459873280094696 0.23707215699401071 0 0.23435940432808119 0.2558835225658645 0 0.24763005152173001 0.25910176257370959 0 0.24963775202771521 0.30051372462394288 0 0.22557231514573739 0.29747977878921561 0 0.2305146992996441 0.31691702429977642 0 0.2376751292839718 0.27741240132337408 0 0.24963775202771521 0.30051372462394288 0 0.2318681827461313 0.28775992326468519 0 0.2434397278092077 0.27846069768541332 0 0.25252005129033422 0.30103787280496203 0 0.2434397278092077 0.27846069768541332 0 0.2376751292839718 0.27741240132337408 0 0.24963775202771521 0.30051372462394288 0 0.2434397278092077 0.27846069768541332 0 0.24963775202771521 0.30051372462394288 0 0.25252005129033422 0.30103787280496203 0 0.24963775202771521 0.30051372462394288 0 0.2318681827461313 0.28775992326468519 0 0.22557231514573739 0.29747977878921561 0 0.2376751292839718 0.27741240132337408 0 0.24963775202771521 0.30051372462394288 0 0.22696706383934109 0.27681901550302962 0 0.2318681827461313 0.28775992326468519 0 0.22192971392309441 0.28686454206331458 0 0.2318681827461313 0.28775992326468519 0 0.22192971392309441 0.28686454206331458 0 0.22557231514573739 0.29747977878921561 0 0.22557231514573739 0.29747977878921561 0 0.21067009246602381 0.31050760251916348 0 0.2305146992996441 0.31691702429977642 0 0.22557231514573739 0.29747977878921561 0 0.2305146992996441 0.31691702429977642 0 0.22557231514573739 0.29747977878921561 0 0.21067009246602381 0.31050760251916348 0 0.20721699074389299 0.28586320426344869 0 0.22192971392309441 0.28686454206331458 0 0.22557231514573739 0.29747977878921561 0 0.20721699074389299 0.28586320426344869 0 0.22696706383934109 0.27681901550302962 0 0.22192971392309441 0.28686454206331458 0 0.20721699074389299 0.28586320426344869 0 0.18588027836364171 0.30417070427619303 0 0.18265278236186541 0.28020603593405619 0 0.20721699074389299 0.28586320426344869 0 0.18588027836364171 0.30417070427619303 0 0.21067009246602381 0.31050760251916348 0 0.20721699074389299 0.28586320426344869 0 0.18588027836364171 0.30417070427619303 0 0.21067009246602381 0.31050760251916348 0 0.1975742485098208 0.32622361772240582 0 0.1975742485098208 0.32622361772240582 0 0.2097525667536678 0.34137856367538538 0 0.18404805005378369 0.34640285754043382 0 0.1975742485098208 0.32622361772240582 0 0.2097525667536678 0.34137856367538538 0 0.2167937380965417 0.3262762156054137 0 0.21067009246602381 0.31050760251916348 0 0.1975742485098208 0.32622361772240582 0 0.2167937380965417 0.3262762156054137 0 0.21067009246602381 0.31050760251916348 0 0.2167937380965417 0.3262762156054137 0 0.2305146992996441 0.31691702429977642 0 0.2305146992996441 0.31691702429977642 0 0.2354570834535519 0.33635426981033711 0 0.2167937380965417 0.3262762156054137 0 0.2305146992996441 0.31691702429977642 0 0.2354570834535519 0.33635426981033711 0 0.2097525667536678 0.34137856367538538 0 0.2167937380965417 0.3262762156054137 0 0.2354570834535519 0.33635426981033711 0 0.2097525667536678 0.34137856367538538 0 0.2354570834535519 0.33635426981033711 0 0.2097525667536678 0.34137856367538538 0 0.2354570834535519 0.33635426981033711 0 0.22572342153310379 0.35183723080414581 0 0.2354570834535519 0.33635426981033711 0 0.24833100513142109 0.32161764704062729 0 0.26518788721623437 0.33054298393043219 0 0.24963775202771521 0.30051372462394288 0 0.2305146992996441 0.31691702429977642 0 0.24833100513142109 0.32161764704062729 0 0.2305146992996441 0.31691702429977642 0 0.2354570834535519 0.33635426981033711 0 0.24833100513142109 0.32161764704062729 0 0.2354570834535519 0.33635426981033711 0 0.24217950803475169 0.36279199964721098 0 0.25397109136889212 0.34953950795812871 0 0.2354570834535519 0.33635426981033711 0 0.24217950803475169 0.36279199964721098 0 0.22572342153310379 0.35183723080414581 0 0.2354570834535519 0.33635426981033711 0 0.24217950803475169 0.36279199964721098 0 0.24217950803475169 0.36279199964721098 0 0.22572342153310379 0.35183723080414581 0 0.21637712922286109 0.36651385017664678 0 0.24217950803475169 0.36279199964721098 0 0.21637712922286109 0.36651385017664678 0 0.22693728272114971 0.38251641872149622 0 0.2097525667536678 0.34137856367538538 0 0.22572342153310379 0.35183723080414581 0 0.21637712922286109 0.36651385017664678 0 0.2097525667536678 0.34137856367538538 0 0.21637712922286109 0.36651385017664678 0 0.19198276408895759 0.36846918068195189 0 0.2097525667536678 0.34137856367538538 0 0.19198276408895759 0.36846918068195189 0 0.18404805005378369 0.34640285754043382 0 0.2097525667536678 0.34137856367538538 0 0.18404805005378369 0.34640285754043382 0 0.21637712922286109 0.36651385017664678 0 0.19198276408895759 0.36846918068195189 0 0.2008438189570996 0.38963870543367402 0 0.1583435333538997 0.35142715140548209 0 0.18404805005378369 0.34640285754043382 0 0.17157629822801171 0.38002160271682978 0 0.19198276408895759 0.36846918068195189 0 0.18404805005378369 0.34640285754043382 0 0.17157629822801171 0.38002160271682978 0 0.1583435333538997 0.35142715140548209 0 0.14756927440754089 0.37573381366887992 0 0.17157629822801171 0.38002160271682978 0 0.1583435333538997 0.35142715140548209 0 0.18404805005378369 0.34640285754043382 0 0.1583435333538997 0.35142715140548209 0 0.17427563080372541 0.32515257599924119 0 0.15139514334923471 0.31791608062108467 0 0.1975742485098208 0.32622361772240582 0 0.18404805005378369 0.34640285754043382 0 0.17427563080372541 0.32515257599924119 0 0.1583435333538997 0.35142715140548209 0 0.18404805005378369 0.34640285754043382 0 0.17427563080372541 0.32515257599924119 0 0.18588027836364171 0.30417070427619303 0 0.1975742485098208 0.32622361772240582 0 0.17427563080372541 0.32515257599924119 0 0.16637322996135739 0.30016678813796199 0 0.17427563080372541 0.32515257599924119 0 0.15139514334923471 0.31791608062108467 0 0.1583435333538997 0.35142715140548209 0 0.15139514334923471 0.31791608062108467 0 0.13264273129131951 0.33439404788472138 0 0.11954567143249289 0.30734763112478491 0 0.15139514334923471 0.31791608062108467 0 0.13264273129131951 0.33439404788472138 0 0.1165634558871128 0.3492406052842485 0 0.13264273129131951 0.33439404788472138 0 0.1326390166540157 0.35645144527053041 0 0.1326390166540157 0.35645144527053041 0 0.14756927440754089 0.37573381366887992 0 0.12550685613774351 0.37951055496914998 0 0.1583435333538997 0.35142715140548209 0 0.1326390166540157 0.35645144527053041 0 0.14756927440754089 0.37573381366887992 0 0.1583435333538997 0.35142715140548209 0 0.1326390166540157 0.35645144527053041 0 0.1583435333538997 0.35142715140548209 0 0.13264273129131951 0.33439404788472138 0 0.1326390166540157 0.35645144527053041 0 0.1528019220027558 0.40532518960412911 0 0.14756927440754089 0.37573381366887992 0 0.13567422075440499 0.38715007620423969 0 0.14756927440754089 0.37573381366887992 0 0.12550685613774351 0.37951055496914998 0 0.13567422075440499 0.38715007620423969 0 0.1236499924648251 0.3984302041169589 0 0.12550685613774351 0.37951055496914998 0 0.13567422075440499 0.38715007620423969 0 0.1236499924648251 0.3984302041169589 0 0.1528019220027558 0.40532518960412911 0 0.13567422075440499 0.38715007620423969 0 0.1528019220027558 0.40532518960412911 0 0.13502200614688589 0.42010390008240672 0 0.17098438647877001 0.42850314348833868 0 0.13502200614688589 0.42010390008240672 0 0.17098438647877001 0.42850314348833868 0 0.1532788809183856 0.44756588495706878 0 0.1236499924648251 0.3984302041169589 0 0.1528019220027558 0.40532518960412911 0 0.13502200614688589 0.42010390008240672 0 0.1237280261196836 0.44463014715047522 0 0.13502200614688589 0.42010390008240672 0 0.1532788809183856 0.44756588495706878 0 0.1528019220027558 0.40532518960412911 0 0.17098438647877001 0.42850314348833868 0 0.1528019220027558 0.40532518960412911 0 0.17098438647877001 0.42850314348833868 0 0.17902253221663289 0.40492788695933207 0 0.17098438647877001 0.42850314348833868 0 0.19890623541652749 0.42115079355368912 0 0.18916685095478419 0.4516810973725483 0 0.17098438647877001 0.42850314348833868 0 0.17902253221663289 0.40492788695933207 0 0.19890623541652749 0.42115079355368912 0 0.17902253221663289 0.40492788695933207 0 0.17157629822801171 0.38002160271682978 0 0.2008438189570996 0.38963870543367402 0 0.1528019220027558 0.40532518960412911 0 0.17902253221663289 0.40492788695933207 0 0.17157629822801171 0.38002160271682978 0 0.1528019220027558 0.40532518960412911 0 0.14756927440754089 0.37573381366887992 0 0.17157629822801171 0.38002160271682978 0 0.17902253221663289 0.40492788695933207 0 0.2008438189570996 0.38963870543367402 0 0.19890623541652749 0.42115079355368912 0 0.19198276408895759 0.36846918068195189 0 0.17157629822801171 0.38002160271682978 0 0.2008438189570996 0.38963870543367402 0 0.2008438189570996 0.38963870543367402 0 0.22638402477508329 0.40440780886586492 0 0.19890623541652749 0.42115079355368912 0 0.2008438189570996 0.38963870543367402 0 0.22693728272114971 0.38251641872149622 0 0.22638402477508329 0.40440780886586492 0 0.21637712922286109 0.36651385017664678 0 0.2008438189570996 0.38963870543367402 0 0.22693728272114971 0.38251641872149622 0 0.22693728272114971 0.38251641872149622 0 0.22638402477508329 0.40440780886586492 0 0.24890193261595259 0.38922972948408457 0 0.22638402477508329 0.40440780886586492 0 0.24890193261595259 0.38922972948408457 0 0.25562435719715348 0.41566745932095828 0 0.24217950803475169 0.36279199964721098 0 0.24890193261595259 0.38922972948408457 0 0.24217950803475169 0.36279199964721098 0 0.22693728272114971 0.38251641872149622 0 0.24890193261595259 0.38922972948408457 0 0.22638402477508329 0.40440780886586492 0 0.23929670148200641 0.42651558303428039 0 0.25562435719715348 0.41566745932095828 0 0.22638402477508329 0.40440780886586492 0 0.23929670148200641 0.42651558303428039 0 0.21947817947708001 0.42577831055793047 0 0.23929670148200641 0.42651558303428039 0 0.21947817947708001 0.42577831055793047 0 0.23265016418236131 0.44461914726881641 0 0.21947817947708001 0.42577831055793047 0 0.19890623541652749 0.42115079355368912 0 0.21144352365240529 0.44700262568134053 0 0.22638402477508329 0.40440780886586492 0 0.21947817947708001 0.42577831055793047 0 0.19890623541652749 0.42115079355368912 0 0.19890623541652749 0.42115079355368912 0 0.18916685095478419 0.4516810973725483 0 0.21144352365240529 0.44700262568134053 0 0.18916685095478419 0.4516810973725483 0 0.20734931543079829 0.47485905125675792 0 0.18916685095478419 0.4516810973725483 0 0.21144352365240529 0.44700262568134053 0 0.20734931543079829 0.47485905125675792 0 0.21144352365240529 0.44700262568134053 0 0.22111039645288069 0.46392735407830132 0 0.20734931543079829 0.47485905125675792 0 0.21144352365240529 0.44700262568134053 0 0.23265016418236131 0.44461914726881641 0 0.22111039645288069 0.46392735407830132 0 0.21947817947708001 0.42577831055793047 0 0.21144352365240529 0.44700262568134053 0 0.23265016418236131 0.44461914726881641 0 0.23265016418236131 0.44461914726881641 0 0.22111039645288069 0.46392735407830132 0 0.24508980140621781 0.46623513653650361 0 0.22111039645288069 0.46392735407830132 0 0.24508980140621781 0.46623513653650361 0 0.23265016418236131 0.44461914726881641 0 0.24508980140621781 0.46623513653650361 0 0.26234678177835441 0.44210518915783192 0 0.23929670148200641 0.42651558303428039 0 0.23265016418236131 0.44461914726881641 0 0.26234678177835441 0.44210518915783192 0 0.2479606543192433 0.5 0 0.23772208332050199 0.48786840683281429 0 0.2255317799068125 0.49803700514096738 0 0.2479606543192433 0.5 0 0.23772208332050199 0.48786840683281429 0 0.25513941322049821 0.48355515434954122 0 0.24508980140621781 0.46623513653650361 0 0.23688712964706901 0.4763018139788181 0 0.25513941322049821 0.48355515434954122 0 0.23772208332050199 0.48786840683281429 0 0.23688712964706901 0.4763018139788181 0 0.25513941322049821 0.48355515434954122 0 0.22111039645288069 0.46392735407830132 0 0.23688712964706901 0.4763018139788181 0 0.22537395383524639 0.47992301809693011 0 0.22537395383524639 0.47992301809693011 0 0.2255317799068125 0.49803700514096738 0 0.20734931543079829 0.47485905125675792 0 0.23772208332050199 0.48786840683281429 0 0.23688712964706901 0.4763018139788181 0 0.22537395383524639 0.47992301809693011 0 0.22111039645288069 0.46392735407830132 0 0.24508980140621781 0.46623513653650361 0 0.23688712964706901 0.4763018139788181 0 0.23772208332050199 0.48786840683281429 0 0.22537395383524639 0.47992301809693011 0 0.2255317799068125 0.49803700514096738 0 0.2479606543192433 0.5 0 0.21885338771805021 0.5 0 0.2255317799068125 0.49803700514096738 0 0.21885338771805021 0.5 0 0.2255317799068125 0.49803700514096738 0 0.20734931543079829 0.47485905125675792 0 0.21885338771805021 0.5 0 0.20734931543079829 0.47485905125675792 0 0.1897461211168571 0.5 0 0.2255317799068125 0.49803700514096738 0 0.20734931543079829 0.47485905125675792 0 0.22111039645288069 0.46392735407830132 0 0.22537395383524639 0.47992301809693011 0 0.20734931543079829 0.47485905125675792 0 0.18916685095478419 0.4516810973725483 0 0.20734931543079829 0.47485905125675792 0 0.18375498264642379 0.4799820804674747 0 0.20734931543079829 0.47485905125675792 0 0.1897461211168571 0.5 0 0.18375498264642379 0.4799820804674747 0 0.1897461211168571 0.5 0 0.1606388545156639 0.5 0 0.18375498264642379 0.4799820804674747 0 0.1606388545156639 0.5 0 0.16284299929429041 0.47286735670979418 0 0.18375498264642379 0.4799820804674747 0 0.17098438647877001 0.42850314348833868 0 0.18916685095478419 0.4516810973725483 0 0.1532788809183856 0.44756588495706878 0 0.18916685095478419 0.4516810973725483 0 0.16284299929429041 0.47286735670979418 0 0.18375498264642379 0.4799820804674747 0 0.18916685095478419 0.4516810973725483 0 0.16284299929429041 0.47286735670979418 0 0.1532788809183856 0.44756588495706878 0 0.17098438647877001 0.42850314348833868 0 0.18916685095478419 0.4516810973725483 0 0.16284299929429041 0.47286735670979418 0 0.1532788809183856 0.44756588495706878 0 0.13792901651589951 0.46760966493884959 0 0.1160915578241386 0.4641835533930308 0 0.1237280261196836 0.44463014715047522 0 0.13792901651589951 0.46760966493884959 0 0.1237280261196836 0.44463014715047522 0 0.1532788809183856 0.44756588495706878 0 0.13792901651589951 0.46760966493884959 0 0.1146358595090817 0.48605788153156299 0 0.13792901651589951 0.46760966493884959 0 0.14375381424303349 0.48699105670781317 0 0.1146358595090817 0.48605788153156299 0 0.13153158791447089 0.50000000000000033 0 0.14375381424303349 0.48699105670781317 0 0.1606388545156639 0.5 0 0.13153158791447089 0.50000000000000033 0 0.14375381424303349 0.48699105670781317 0 0.1606388545156639 0.5 0 0.16284299929429041 0.47286735670979418 0 0.14375381424303349 0.48699105670781317 0 0.16284299929429041 0.47286735670979418 0 0.13792901651589951 0.46760966493884959 0 0.14375381424303349 0.48699105670781317 0 0.35818797179075601 0.47458138126870081 0 0.34642182508771258 0.48585203466637861 0 0.33573625410597768 0.47071191077640329 0 0.35818797179075601 0.47458138126870081 0 0.34642182508771258 0.48585203466637861 0 0.35839011049240282 0.5 0 0.34642182508771258 0.48585203466637861 0 0.35839011049240282 0.5 0 0.33128271396841408 0.5 0 0.35818797179075601 0.47458138126870081 0 0.35839011049240282 0.5 0 0.37951078222479251 0.47868038482078018 0 0.35839011049240282 0.5 0 0.37951078222479251 0.47868038482078018 0 0.38549750701639152 0.5 0 0.35818797179075601 0.47458138126870081 0 0.37565915938479377 0.45849116020829678 0 0.37951078222479251 0.47868038482078018 0 0.35818797179075601 0.47458138126870081 0 0.35384759317055892 0.4558722467826386 0 0.37565915938479377 0.45849116020829678 0 0.3672128213662551 0.44140310366938379 0 0.35384759317055892 0.4558722467826386 0 0.37565915938479377 0.45849116020829678 0 0.35041805056504127 0.44039830756831011 0 0.35384759317055892 0.4558722467826386 0 0.33587130181052999 0.44964761720473639 0 0.3672128213662551 0.44140310366938379 0 0.35041805056504127 0.44039830756831011 0 0.35384759317055892 0.4558722467826386 0 0.35818797179075601 0.47458138126870081 0 0.35384759317055892 0.4558722467826386 0 0.33573625410597768 0.47071191077640329 0 0.33587130181052999 0.44964761720473639 0 0.32245641590876828 0.45710047073305682 0 0.33573625410597768 0.47071191077640329 0 0.35384759317055892 0.4558722467826386 0 0.33587130181052999 0.44964761720473639 0 0.33573625410597768 0.47071191077640329 0 0.35041805056504127 0.44039830756831011 0 0.33587130181052999 0.44964761720473639 0 0.34011375395909899 0.42827966665244982 0 0.33587130181052999 0.44964761720473639 0 0.32313042491148092 0.43915640659962429 0 0.34011375395909899 0.42827966665244982 0 0.33587130181052999 0.44964761720473639 0 0.32313042491148092 0.43915640659962429 0 0.32245641590876828 0.45710047073305682 0 0.32313042491148092 0.43915640659962429 0 0.32245641590876828 0.45710047073305682 0 0.3069723578181176 0.44921026163567479 0 0.32313042491148092 0.43915640659962429 0 0.3069723578181176 0.44921026163567479 0 0.30967478190587899 0.43248339293908478 0 0.32245641590876828 0.45710047073305682 0 0.31479002533830769 0.47294309924184441 0 0.33573625410597768 0.47071191077640329 0 0.32245641590876828 0.45710047073305682 0 0.31479002533830769 0.47294309924184441 0 0.3069723578181176 0.44921026163567479 0 0.31479002533830769 0.47294309924184441 0 0.33573625410597768 0.47071191077640329 0 0.33128271396841408 0.5 0 0.34642182508771258 0.48585203466637861 0 0.33573625410597768 0.47071191077640329 0 0.33128271396841408 0.5 0 0.31479002533830769 0.47294309924184441 0 0.33128271396841408 0.5 0 0.30417531744442527 0.5 0 0.31479002533830769 0.47294309924184441 0 0.30417531744442527 0.5 0 0.29074220063683293 0.48758109823480927 0 0.31479002533830769 0.47294309924184441 0 0.29192961584893129 0.47074300911827521 0 0.29074220063683293 0.48758109823480927 0 0.31479002533830769 0.47294309924184441 0 0.29192961584893129 0.47074300911827521 0 0.29192961584893129 0.47074300911827521 0 0.29074220063683293 0.48758109823480927 0 0.27306856363999571 0.4842714594973539 0 0.30417531744442527 0.5 0 0.29074220063683293 0.48758109823480927 0 0.27706792092043642 0.500000000000002 0 0.27706792092043642 0.500000000000002 0 0.27306856363999571 0.4842714594973539 0 0.25513941322049821 0.48355515434954122 0 0.29074220063683293 0.48758109823480927 0 0.27706792092043642 0.500000000000002 0 0.27306856363999571 0.4842714594973539 0 0.27706792092043642 0.500000000000002 0 0.27306856363999571 0.4842714594973539 0 0.29192961584893129 0.47074300911827521 0 0.26906920635955489 0.46854291899470579 0 0.27306856363999571 0.4842714594973539 0 0.25513941322049821 0.48355515434954122 0 0.26906920635955489 0.46854291899470579 0 0.29192961584893129 0.47074300911827521 0 0.27306856363999571 0.4842714594973539 0 0.26906920635955489 0.46854291899470579 0 0.27306856363999571 0.4842714594973539 0 0.26906920635955489 0.46854291899470579 0 0.24508980140621781 0.46623513653650361 0 0.25513941322049821 0.48355515434954122 0 0.26906920635955489 0.46854291899470579 0 0.2479606543192433 0.5 0 0.27706792092043642 0.500000000000002 0 0.25513941322049821 0.48355515434954122 0 0.24508980140621781 0.46623513653650361 0 0.26906920635955489 0.46854291899470579 0 0.24508980140621781 0.46623513653650361 0 0.26234678177835441 0.44210518915783192 0 0.26906920635955489 0.46854291899470579 0 0.29192961584893129 0.47074300911827521 0 0.26906920635955489 0.46854291899470579 0 0.2825318911539082 0.44937975844880462 0 0.26234678177835441 0.44210518915783192 0 0.26906920635955489 0.46854291899470579 0 0.26234678177835441 0.44210518915783192 0 0.26906920635955489 0.46854291899470579 0 0.2825318911539082 0.44937975844880462 0 0.26234678177835441 0.44210518915783192 0 0.2825318911539082 0.44937975844880462 0 0.2735489225425754 0.42398780939214897 0 0.2825318911539082 0.44937975844880462 0 0.3069723578181176 0.44921026163567479 0 0.29424437368670248 0.43173942196487358 0 0.29192961584893129 0.47074300911827521 0 0.2825318911539082 0.44937975844880462 0 0.3069723578181176 0.44921026163567479 0 0.31479002533830769 0.47294309924184441 0 0.29192961584893129 0.47074300911827521 0 0.3069723578181176 0.44921026163567479 0 0.3069723578181176 0.44921026163567479 0 0.30967478190587899 0.43248339293908478 0 0.29424437368670248 0.43173942196487358 0 0.30967478190587899 0.43248339293908478 0 0.3045281829251868 0.41996349248923659 0 0.31949857018790712 0.42234738200601463 0 0.30967478190587899 0.43248339293908478 0 0.3045281829251868 0.41996349248923659 0 0.29424437368670248 0.43173942196487358 0 0.31221380766262308 0.41141105291454111 0 0.3045281829251868 0.41996349248923659 0 0.30175255758949709 0.40539483602959481 0 0.31221380766262308 0.41141105291454111 0 0.3045281829251868 0.41996349248923659 0 0.31949857018790712 0.42234738200601463 0 0.3045281829251868 0.41996349248923659 0 0.29116822628179151 0.41527777958226658 0 0.30175255758949709 0.40539483602959481 0 0.29116822628179151 0.41527777958226658 0 0.2735489225425754 0.42398780939214897 0 0.28009549588900451 0.40671294327225221 0 0.29116822628179151 0.41527777958226658 0 0.29046685710439091 0.40365495696152731 0 0.30175255758949709 0.40539483602959481 0 0.29116822628179151 0.41527777958226658 0 0.28009549588900451 0.40671294327225221 0 0.29046685710439091 0.40365495696152731 0 0.29116822628179151 0.41527777958226658 0 0.29424437368670248 0.43173942196487358 0 0.2735489225425754 0.42398780939214897 0 0.3045281829251868 0.41996349248923659 0 0.29116822628179151 0.41527777958226658 0 0.29424437368670248 0.43173942196487358 0 0.2825318911539082 0.44937975844880462 0 0.29424437368670248 0.43173942196487358 0 0.2735489225425754 0.42398780939214897 0 0.2735489225425754 0.42398780939214897 0 0.28009549588900451 0.40671294327225221 0 0.26594594197715632 0.40587542564026857 0 0.2735489225425754 0.42398780939214897 0 0.25562435719715348 0.41566745932095828 0 0.26594594197715632 0.40587542564026857 0 0.26234678177835441 0.44210518915783192 0 0.25562435719715348 0.41566745932095828 0 0.23929670148200641 0.42651558303428039 0 0.26234678177835441 0.44210518915783192 0 0.25562435719715348 0.41566745932095828 0 0.26234678177835441 0.44210518915783192 0 0.2735489225425754 0.42398780939214897 0 0.25562435719715348 0.41566745932095828 0 0.24890193261595259 0.38922972948408457 0 0.27155900164109531 0.39377918673189899 0 0.26817635423288699 0.37969346344739391 0 0.24890193261595259 0.38922972948408457 0 0.26817635423288699 0.37969346344739391 0 0.26082178769032438 0.36496323128775521 0 0.24890193261595259 0.38922972948408457 0 0.25562435719715348 0.41566745932095828 0 0.24890193261595259 0.38922972948408457 0 0.27155900164109531 0.39377918673189899 0 0.26594594197715632 0.40587542564026857 0 0.24890193261595259 0.38922972948408457 0 0.25562435719715348 0.41566745932095828 0 0.26594594197715632 0.40587542564026857 0 0.28009549588900451 0.40671294327225221 0 0.27155900164109531 0.39377918673189899 0 0.26594594197715632 0.40587542564026857 0 0.28009549588900451 0.40671294327225221 0 0.27155900164109531 0.39377918673189899 0 0.2841626669368148 0.39603484022980262 0 0.27155900164109531 0.39377918673189899 0 0.27917556467927279 0.38707504911542251 0 0.2841626669368148 0.39603484022980262 0 0.27917556467927279 0.38707504911542251 0 0.27737653217987568 0.3763299637903077 0 0.28641533258273322 0.38531457319514678 0 0.27155900164109531 0.39377918673189899 0 0.27917556467927279 0.38707504911542251 0 0.26817635423288699 0.37969346344739391 0 0.26817635423288699 0.37969346344739391 0 0.27737653217987568 0.3763299637903077 0 0.26995518240551242 0.36922466410125959 0 0.27917556467927279 0.38707504911542251 0 0.26817635423288699 0.37969346344739391 0 0.27737653217987568 0.3763299637903077 0 0.27917556467927279 0.38707504911542251 0 0.28749669470930389 0.39059918652862902 0 0.28641533258273322 0.38531457319514678 0 0.28749669470930389 0.39059918652862902 0 0.28641533258273322 0.38531457319514678 0 0.29321390271680048 0.38636149671614523 0 0.28641533258273322 0.38531457319514678 0 0.29321390271680048 0.38636149671614523 0 0.29155132770994241 0.38145409056705559 0 0.28749669470930389 0.39059918652862902 0 0.29321390271680048 0.38636149671614523 0 0.2951553388248469 0.39485438569372039 0 0.29321390271680048 0.38636149671614523 0 0.2951553388248469 0.39485438569372039 0 0.30172663999730548 0.38411556817588999 0 0.2951337916801352 0.37545299726164849 0 0.29155132770994241 0.38145409056705559 0 0.29028041611347422 0.37131190521640561 0 0.29650911823343812 0.38027524721939082 0 0.2951337916801352 0.37545299726164849 0 0.29155132770994241 0.38145409056705559 0 0.29321390271680048 0.38636149671614523 0 0.29650911823343812 0.38027524721939082 0 0.29155132770994241 0.38145409056705559 0 0.28009549588900451 0.40671294327225221 0 0.2841626669368148 0.39603484022980262 0 0.29046685710439091 0.40365495696152731 0 0.27917556467927279 0.38707504911542251 0 0.28749669470930389 0.39059918652862902 0 0.2841626669368148 0.39603484022980262 0 0.28749669470930389 0.39059918652862902 0 0.2841626669368148 0.39603484022980262 0 0.2951553388248469 0.39485438569372039 0 0.2841626669368148 0.39603484022980262 0 0.2951553388248469 0.39485438569372039 0 0.29046685710439091 0.40365495696152731 0 0.2951553388248469 0.39485438569372039 0 0.29046685710439091 0.40365495696152731 0 0.30175255758949709 0.40539483602959481 0 0.2951553388248469 0.39485438569372039 0 0.30416997859767031 0.39496190780794832 0 0.30172663999730548 0.38411556817588999 0 0.2951553388248469 0.39485438569372039 0 0.30175255758949709 0.40539483602959481 0 0.30416997859767031 0.39496190780794832 0 0.30416997859767031 0.39496190780794832 0 0.31194754139156228 0.39992908639018659 0 0.31058504665001713 0.38993607806902841 0 0.31221380766262308 0.41141105291454111 0 0.30175255758949709 0.40539483602959481 0 0.31194754139156228 0.39992908639018659 0 0.30175255758949709 0.40539483602959481 0 0.30416997859767031 0.39496190780794832 0 0.31194754139156228 0.39992908639018659 0 0.29650911823343812 0.38027524721939082 0 0.30172663999730548 0.38411556817588999 0 0.30091992906300691 0.3739920833762147 0 0.30172663999730548 0.38411556817588999 0 0.31077839752677883 0.37658419253607489 0 0.30091992906300691 0.3739920833762147 0 0.29650911823343812 0.38027524721939082 0 0.2951337916801352 0.37545299726164849 0 0.30091992906300691 0.3739920833762147 0 0.29321390271680048 0.38636149671614523 0 0.29650911823343812 0.38027524721939082 0 0.30172663999730548 0.38411556817588999 0 0.30416997859767031 0.39496190780794832 0 0.30172663999730548 0.38411556817588999 0 0.31058504665001713 0.38993607806902841 0 0.30172663999730548 0.38411556817588999 0 0.31058504665001713 0.38993607806902841 0 0.31077839752677883 0.37658419253607489 0 0.31077839752677883 0.37658419253607489 0 0.31867525833463911 0.38494833593070971 0 0.32306703930603953 0.37623237809600169 0 0.31058504665001713 0.38993607806902841 0 0.31867525833463911 0.38494833593070971 0 0.31878199461777879 0.39362573130725731 0 0.31058504665001713 0.38993607806902841 0 0.31077839752677883 0.37658419253607489 0 0.31867525833463911 0.38494833593070971 0 0.31867525833463911 0.38494833593070971 0 0.32306703930603953 0.37623237809600169 0 0.32934203852673438 0.38871677178939867 0 0.31867525833463911 0.38494833593070971 0 0.32934203852673438 0.38871677178939867 0 0.31878199461777879 0.39362573130725731 0 0.32306703930603953 0.37623237809600169 0 0.33555471090824662 0.37714848622012531 0 0.32934203852673438 0.38871677178939867 0 0.33555471090824662 0.37714848622012531 0 0.32934203852673438 0.38871677178939867 0 0.34865402358820241 0.38746960960344728 0 0.32934203852673438 0.38871677178939867 0 0.33838050486014071 0.40132571833470809 0 0.34865402358820241 0.38746960960344728 0 0.32934203852673438 0.38871677178939867 0 0.33838050486014071 0.40132571833470809 0 0.32336008818594092 0.40459838435696299 0 0.32934203852673438 0.38871677178939867 0 0.32336008818594092 0.40459838435696299 0 0.31878199461777879 0.39362573130725731 0 0.31194754139156228 0.39992908639018659 0 0.31058504665001713 0.38993607806902841 0 0.31878199461777879 0.39362573130725731 0 0.31221380766262308 0.41141105291454111 0 0.31194754139156228 0.39992908639018659 0 0.32336008818594092 0.40459838435696299 0 0.31194754139156228 0.39992908639018659 0 0.32336008818594092 0.40459838435696299 0 0.31878199461777879 0.39362573130725731 0 0.31221380766262308 0.41141105291454111 0 0.32336008818594092 0.40459838435696299 0 0.31949857018790712 0.42234738200601463 0 0.32336008818594092 0.40459838435696299 0 0.31949857018790712 0.42234738200601463 0 0.33335541567677851 0.41413927737501682 0 0.32313042491148092 0.43915640659962429 0 0.31949857018790712 0.42234738200601463 0 0.34011375395909899 0.42827966665244982 0 0.32313042491148092 0.43915640659962429 0 0.30967478190587899 0.43248339293908478 0 0.31949857018790712 0.42234738200601463 0 0.31949857018790712 0.42234738200601463 0 0.34011375395909899 0.42827966665244982 0 0.33335541567677851 0.41413927737501682 0 0.34011375395909899 0.42827966665244982 0 0.33335541567677851 0.41413927737501682 0 0.35251535500997389 0.4097633894025835 0 0.33838050486014071 0.40132571833470809 0 0.33335541567677851 0.41413927737501682 0 0.35251535500997389 0.4097633894025835 0 0.33838050486014071 0.40132571833470809 0 0.32336008818594092 0.40459838435696299 0 0.33335541567677851 0.41413927737501682 0 0.34011375395909899 0.42827966665244982 0 0.35251535500997389 0.4097633894025835 0 0.3591301267131588 0.42602683944016839 0 0.3672128213662551 0.44140310366938379 0 0.35041805056504127 0.44039830756831011 0 0.3591301267131588 0.42602683944016839 0 0.35041805056504127 0.44039830756831011 0 0.34011375395909899 0.42827966665244982 0 0.3591301267131588 0.42602683944016839 0 0.3672128213662551 0.44140310366938379 0 0.3591301267131588 0.42602683944016839 0 0.37786999239799629 0.42201923841731348 0 0.3591301267131588 0.42602683944016839 0 0.36674031876838431 0.41287021939491358 0 0.37786999239799629 0.42201923841731348 0 0.35251535500997389 0.4097633894025835 0 0.36674031876838431 0.41287021939491358 0 0.36672310374365391 0.3972274770167053 0 0.36674031876838431 0.41287021939491358 0 0.37714557779446961 0.40580011292323048 0 0.37786999239799629 0.42201923841731348 0 0.35251535500997389 0.4097633894025835 0 0.3591301267131588 0.42602683944016839 0 0.36674031876838431 0.41287021939491358 0 0.36674031876838431 0.41287021939491358 0 0.36672310374365391 0.3972274770167053 0 0.37714557779446961 0.40580011292323048 0 0.36672310374365391 0.3972274770167053 0 0.34865402358820241 0.38746960960344728 0 0.36927583114563117 0.37168826674887129 0 0.36672310374365391 0.3972274770167053 0 0.36927583114563117 0.37168826674887129 0 0.38594138320053972 0.39504117240748449 0 0.34865402358820241 0.38746960960344728 0 0.34769055634412588 0.36745966958429022 0 0.36927583114563117 0.37168826674887129 0 0.33555471090824662 0.37714848622012531 0 0.34865402358820241 0.38746960960344728 0 0.34769055634412588 0.36745966958429022 0 0.35251535500997389 0.4097633894025835 0 0.36672310374365391 0.3972274770167053 0 0.34865402358820241 0.38746960960344728 0 0.33838050486014071 0.40132571833470809 0 0.35251535500997389 0.4097633894025835 0 0.34865402358820241 0.38746960960344728 0 0.35261027909072251 0.34833536109025781 0 0.34769055634412588 0.36745966958429022 0 0.33944519881702218 0.35670643516570921 0 0.35261027909072251 0.34833536109025781 0 0.34769055634412588 0.36745966958429022 0 0.36927583114563117 0.37168826674887129 0 0.35261027909072251 0.34833536109025781 0 0.36927583114563117 0.37168826674887129 0 0.35261027909072251 0.34833536109025781 0 0.36927583114563117 0.37168826674887129 0 0.38014707859742553 0.358601566133181 0 0.35261027909072251 0.34833536109025781 0 0.37418757138316661 0.34003979241565702 0 0.38014707859742553 0.358601566133181 0 0.37418757138316661 0.34003979241565702 0 0.36114413796306788 0.32433110896381118 0 0.38634354889032002 0.32367976249598251 0 0.35261027909072251 0.34833536109025781 0 0.37418757138316661 0.34003979241565702 0 0.36114413796306788 0.32433110896381118 0 0.36114413796306788 0.32433110896381118 0 0.38634354889032002 0.32367976249598251 0 0.36114413796306788 0.32433110896381118 0 0.36246687595182442 0.30494518477727961 0 0.38634354889032002 0.32367976249598251 0 0.36114413796306788 0.32433110896381118 0 0.33594472703581602 0.32498245543164278 0 0.36114413796306788 0.32433110896381118 0 0.33594472703581602 0.32498245543164278 0 0.34448717235649018 0.30756264321984922 0 0.35261027909072251 0.34833536109025781 0 0.36114413796306788 0.32433110896381118 0 0.33594472703581602 0.32498245543164278 0 0.35261027909072251 0.34833536109025781 0 0.33594472703581602 0.32498245543164278 0 0.35261027909072251 0.34833536109025781 0 0.33361265820108371 0.33601463685995558 0 0.33594472703581602 0.32498245543164278 0 0.35261027909072251 0.34833536109025781 0 0.33361265820108371 0.33601463685995558 0 0.33117650937159632 0.34590223044488833 0 0.33361265820108371 0.33601463685995558 0 0.33594472703581602 0.32498245543164278 0 0.32592845192929348 0.32524135296818618 0 0.33361265820108371 0.33601463685995558 0 0.32240332357799001 0.33561178436480271 0 0.33117650937159632 0.34590223044488833 0 0.33594472703581602 0.32498245543164278 0 0.32420479997372442 0.30853167071016102 0 0.33594472703581602 0.32498245543164278 0 0.32592845192929348 0.32524135296818618 0 0.32420479997372442 0.30853167071016102 0 0.33594472703581602 0.32498245543164278 0 0.32420479997372442 0.30853167071016102 0 0.34448717235649018 0.30756264321984922 0 0.33594472703581602 0.32498245543164278 0 0.32592845192929348 0.32524135296818618 0 0.32592845192929348 0.32524135296818618 0 0.31778971146991503 0.31788997842391498 0 0.32420479997372442 0.30853167071016102 0 0.32592845192929348 0.32524135296818618 0 0.31591730865868939 0.32743152395768732 0 0.31778971146991503 0.31788997842391498 0 0.31591730865868939 0.32743152395768732 0 0.31778971146991503 0.31788997842391498 0 0.30920411140212778 0.3196886032463338 0 0.32240332357799001 0.33561178436480271 0 0.31863003654071292 0.34601962911411782 0 0.33117650937159632 0.34590223044488833 0 0.33361265820108371 0.33601463685995558 0 0.32592845192929348 0.32524135296818618 0 0.32240332357799001 0.33561178436480271 0 0.32592845192929348 0.32524135296818618 0 0.31591730865868939 0.32743152395768732 0 0.32240332357799001 0.33561178436480271 0 0.31591730865868939 0.32743152395768732 0 0.32240332357799001 0.33561178436480271 0 0.31164832743931292 0.33689503642828789 0 0.32240332357799001 0.33561178436480271 0 0.31863003654071292 0.34601962911411782 0 0.31164832743931292 0.33689503642828789 0 0.31863003654071292 0.34601962911411782 0 0.30992842843050988 0.3457112388019602 0 0.31164832743931292 0.33689503642828789 0 0.31863003654071292 0.34601962911411782 0 0.30992842843050988 0.3457112388019602 0 0.31160887743439081 0.35478490180041172 0 0.32445766980723489 0.35579424438156659 0 0.31686549990355672 0.36548826773678422 0 0.31160887743439081 0.35478490180041172 0 0.31863003654071292 0.34601962911411782 0 0.32445766980723489 0.35579424438156659 0 0.31160887743439081 0.35478490180041172 0 0.31863003654071292 0.34601962911411782 0 0.32445766980723489 0.35579424438156659 0 0.33117650937159632 0.34590223044488833 0 0.35261027909072251 0.34833536109025781 0 0.33117650937159632 0.34590223044488833 0 0.33944519881702218 0.35670643516570921 0 0.32445766980723489 0.35579424438156659 0 0.33117650937159632 0.34590223044488833 0 0.33944519881702218 0.35670643516570921 0 0.33555471090824662 0.37714848622012531 0 0.34769055634412588 0.36745966958429022 0 0.3290198967761308 0.36586400202748842 0 0.34769055634412588 0.36745966958429022 0 0.33944519881702218 0.35670643516570921 0 0.3290198967761308 0.36586400202748842 0 0.32445766980723489 0.35579424438156659 0 0.33944519881702218 0.35670643516570921 0 0.3290198967761308 0.36586400202748842 0 0.32306703930603953 0.37623237809600169 0 0.33555471090824662 0.37714848622012531 0 0.3290198967761308 0.36586400202748842 0 0.32306703930603953 0.37623237809600169 0 0.3290198967761308 0.36586400202748842 0 0.31686549990355672 0.36548826773678422 0 0.32445766980723489 0.35579424438156659 0 0.3290198967761308 0.36586400202748842 0 0.31686549990355672 0.36548826773678422 0 0.31077839752677883 0.37658419253607489 0 0.32306703930603953 0.37623237809600169 0 0.31686549990355672 0.36548826773678422 0 0.31077839752677883 0.37658419253607489 0 0.30653952356419251 0.36486132392814918 0 0.30091992906300691 0.3739920833762147 0 0.31077839752677883 0.37658419253607489 0 0.31686549990355672 0.36548826773678422 0 0.30653952356419251 0.36486132392814918 0 0.31686549990355672 0.36548826773678422 0 0.30653952356419251 0.36486132392814918 0 0.31160887743439081 0.35478490180041172 0 0.30653952356419251 0.36486132392814918 0 0.29956039950038399 0.36055845947794762 0 0.29968882481084308 0.36620473963642819 0 0.30653952356419251 0.36486132392814918 0 0.29956039950038399 0.36055845947794762 0 0.30450437459886343 0.35739179545954242 0 0.29956039950038399 0.36055845947794762 0 0.29968882481084308 0.36620473963642819 0 0.2946843591870788 0.36349444767638139 0 0.29968882481084308 0.36620473963642819 0 0.30091992906300691 0.3739920833762147 0 0.29515321138997108 0.36891281366618561 0 0.30653952356419251 0.36486132392814918 0 0.29968882481084308 0.36620473963642819 0 0.30091992906300691 0.3739920833762147 0 0.2951337916801352 0.37545299726164849 0 0.30091992906300691 0.3739920833762147 0 0.29515321138997108 0.36891281366618561 0 0.30992842843050988 0.3457112388019602 0 0.31160887743439081 0.35478490180041172 0 0.30300584901730271 0.34938636887413438 0 0.30992842843050988 0.3457112388019602 0 0.30300584901730271 0.34938636887413438 0 0.30284961949963451 0.34180688944884569 0 0.31160887743439081 0.35478490180041172 0 0.30450437459886343 0.35739179545954242 0 0.30300584901730271 0.34938636887413438 0 0.30653952356419251 0.36486132392814918 0 0.31160887743439081 0.35478490180041172 0 0.30450437459886343 0.35739179545954242 0 0.30450437459886343 0.35739179545954242 0 0.29772286606791931 0.35422336501427332 0 0.30300584901730271 0.34938636887413438 0 0.29956039950038399 0.36055845947794762 0 0.30450437459886343 0.35739179545954242 0 0.29772286606791931 0.35422336501427332 0 0.29772286606791931 0.35422336501427332 0 0.30300584901730271 0.34938636887413438 0 0.29508057650716829 0.34607515835053693 0 0.30300584901730271 0.34938636887413438 0 0.29508057650716829 0.34607515835053693 0 0.30284961949963451 0.34180688944884569 0 0.29508057650716829 0.34607515835053693 0 0.29128433478161492 0.3514692197730912 0 0.28696318970460172 0.34507386829548542 0 0.29772286606791931 0.35422336501427332 0 0.29508057650716829 0.34607515835053693 0 0.29128433478161492 0.3514692197730912 0 0.29128433478161492 0.3514692197730912 0 0.29260686737414288 0.35803349489433017 0 0.28831593146678952 0.35482697607295582 0 0.29772286606791931 0.35422336501427332 0 0.29128433478161492 0.3514692197730912 0 0.29260686737414288 0.35803349489433017 0 0.29956039950038399 0.36055845947794762 0 0.29772286606791931 0.35422336501427332 0 0.29260686737414288 0.35803349489433017 0 0.29260686737414288 0.35803349489433017 0 0.28714468874269172 0.35854684035017659 0 0.29097547274489571 0.36086700820637557 0 0.29260686737414288 0.35803349489433017 0 0.28714468874269172 0.35854684035017659 0 0.28831593146678952 0.35482697607295582 0 0.28714468874269172 0.35854684035017659 0 0.28946597567566928 0.3633932499046143 0 0.27836960746308909 0.35599853724874359 0 0.28714468874269172 0.35854684035017659 0 0.28392422607346179 0.35383006020545288 0 0.27836960746308909 0.35599853724874359 0 0.28714468874269172 0.35854684035017659 0 0.28392422607346179 0.35383006020545288 0 0.28831593146678952 0.35482697607295582 0 0.28392422607346179 0.35383006020545288 0 0.28273558166129192 0.34922596943765521 0 0.28101653893848899 0.35208327708388421 0 0.28392422607346179 0.35383006020545288 0 0.28831593146678952 0.35482697607295582 0 0.2863539578433606 0.35136140079780598 0 0.29128433478161492 0.3514692197730912 0 0.28831593146678952 0.35482697607295582 0 0.2863539578433606 0.35136140079780598 0 0.29128433478161492 0.3514692197730912 0 0.2863539578433606 0.35136140079780598 0 0.28696318970460172 0.34507386829548542 0 0.2863539578433606 0.35136140079780598 0 0.28273558166129192 0.34922596943765521 0 0.28696318970460172 0.34507386829548542 0 0.28392422607346179 0.35383006020545288 0 0.2863539578433606 0.35136140079780598 0 0.28273558166129192 0.34922596943765521 0 0.28696318970460172 0.34507386829548542 0 0.28013569367420871 0.34584772387197749 0 0.28119375649751349 0.3415044430455576 0 0.28273558166129192 0.34922596943765521 0 0.28696318970460172 0.34507386829548542 0 0.28013569367420871 0.34584772387197749 0 0.29155132770994241 0.38145409056705559 0 0.29028041611347422 0.37131190521640561 0 0.27836960746308909 0.35599853724874359 0 0.28641533258273322 0.38531457319514678 0 0.29155132770994241 0.38145409056705559 0 0.2754302243437341 0.35800137086985789 0 0.29155132770994241 0.38145409056705559 0 0.2754302243437341 0.35800137086985789 0 0.27836960746308909 0.35599853724874359 0 0.29155132770994241 0.38145409056705559 0 0.27836960746308909 0.35599853724874359 0 0.29028041611347422 0.37131190521640561 0 0.29515321138997108 0.36891281366618561 0 0.28946597567566928 0.3633932499046143 0 0.2951337916801352 0.37545299726164849 0 0.29028041611347422 0.37131190521640561 0 0.29515321138997108 0.36891281366618561 0 0.29968882481084308 0.36620473963642819 0 0.29515321138997108 0.36891281366618561 0 0.2946843591870788 0.36349444767638139 0 0.29515321138997108 0.36891281366618561 0 0.2946843591870788 0.36349444767638139 0 0.28946597567566928 0.3633932499046143 0 0.29956039950038399 0.36055845947794762 0 0.29260686737414288 0.35803349489433017 0 0.2946843591870788 0.36349444767638139 0 0.28714468874269172 0.35854684035017659 0 0.29097547274489571 0.36086700820637557 0 0.28946597567566928 0.3633932499046143 0 0.2946843591870788 0.36349444767638139 0 0.29097547274489571 0.36086700820637557 0 0.28946597567566928 0.3633932499046143 0 0.29260686737414288 0.35803349489433017 0 0.2946843591870788 0.36349444767638139 0 0.29097547274489571 0.36086700820637557 0 0.29028041611347422 0.37131190521640561 0 0.28946597567566928 0.3633932499046143 0 0.27836960746308909 0.35599853724874359 0 0.28641533258273322 0.38531457319514678 0 0.2754302243437341 0.35800137086985789 0 0.27737653217987568 0.3763299637903077 0 0.28641533258273322 0.38531457319514678 0 0.2754302243437341 0.35800137086985789 0 0.27737653217987568 0.3763299637903077 0 0.27292546410526491 0.36629585246079138 0 0.2754302243437341 0.35800137086985789 0 0.27737653217987568 0.3763299637903077 0 0.26995518240551242 0.36922466410125959 0 0.27292546410526491 0.36629585246079138 0 0.26817635423288699 0.37969346344739391 0 0.26995518240551242 0.36922466410125959 0 0.26082178769032438 0.36496323128775521 0 0.26995518240551242 0.36922466410125959 0 0.26893991749193752 0.36162741108174062 0 0.26082178769032438 0.36496323128775521 0 0.26893991749193752 0.36162741108174062 0 0.27292546410526491 0.36629585246079138 0 0.2754302243437341 0.35800137086985789 0 0.26995518240551242 0.36922466410125959 0 0.26893991749193752 0.36162741108174062 0 0.27292546410526491 0.36629585246079138 0 0.2754302243437341 0.35800137086985789 0 0.26518788721623437 0.33054298393043219 0 0.2754302243437341 0.35800137086985789 0 0.27836960746308909 0.35599853724874359 0 0.26518788721623437 0.33054298393043219 0 0.2754302243437341 0.35800137086985789 0 0.26469999689944002 0.35285812485780471 0 0.26518788721623437 0.33054298393043219 0 0.27836960746308909 0.35599853724874359 0 0.28101653893848899 0.35208327708388421 0 0.2797945401242129 0.34946851842389731 0 0.28392422607346179 0.35383006020545288 0 0.27836960746308909 0.35599853724874359 0 0.28101653893848899 0.35208327708388421 0 0.27836960746308909 0.35599853724874359 0 0.2797945401242129 0.34946851842389731 0 0.27671527888398562 0.3441870844772259 0 0.28013569367420871 0.34584772387197749 0 0.2797945401242129 0.34946851842389731 0 0.27671527888398562 0.3441870844772259 0 0.28013569367420871 0.34584772387197749 0 0.27671527888398562 0.3441870844772259 0 0.28119375649751349 0.3415044430455576 0 0.28273558166129192 0.34922596943765521 0 0.28013569367420871 0.34584772387197749 0 0.2797945401242129 0.34946851842389731 0 0.28273558166129192 0.34922596943765521 0 0.28101653893848899 0.35208327708388421 0 0.2797945401242129 0.34946851842389731 0 0.26893991749193752 0.36162741108174062 0 0.2754302243437341 0.35800137086985789 0 0.26469999689944002 0.35285812485780471 0 0.26469999689944002 0.35285812485780471 0 0.25397109136889212 0.34953950795812871 0 0.26518788721623437 0.33054298393043219 0 0.26469999689944002 0.35285812485780471 0 0.25397109136889212 0.34953950795812871 0 0.26082178769032438 0.36496323128775521 0 0.24217950803475169 0.36279199964721098 0 0.25397109136889212 0.34953950795812871 0 0.26082178769032438 0.36496323128775521 0 0.24217950803475169 0.36279199964721098 0 0.24890193261595259 0.38922972948408457 0 0.26082178769032438 0.36496323128775521 0 0.26893991749193752 0.36162741108174062 0 0.26469999689944002 0.35285812485780471 0 0.26082178769032438 0.36496323128775521 0 0.26160037477145948 0.32361504792451118 0 0.26961523156275707 0.31863310602586059 0 0.25252005129033422 0.30103787280496203 0 0.24833100513142109 0.32161764704062729 0 0.26160037477145948 0.32361504792451118 0 0.26518788721623437 0.33054298393043219 0 0.24963775202771521 0.30051372462394288 0 0.24833100513142109 0.32161764704062729 0 0.26160037477145948 0.32361504792451118 0 0.26160037477145948 0.32361504792451118 0 0.26518788721623437 0.33054298393043219 0 0.26731122343739822 0.32545953491366858 0 0.26160037477145948 0.32361504792451118 0 0.26518788721623437 0.33054298393043219 0 0.2354570834535519 0.33635426981033711 0 0.26518788721623437 0.33054298393043219 0 0.2354570834535519 0.33635426981033711 0 0.25397109136889212 0.34953950795812871 0 0.26518788721623437 0.33054298393043219 0 0.27836960746308909 0.35599853724874359 0 0.27671527888398562 0.3441870844772259 0 0.26518788721623437 0.33054298393043219 0 0.26518788721623437 0.33054298393043219 0 0.2728414001991406 0.32904700177387047 0 0.26518788721623437 0.33054298393043219 0 0.2728414001991406 0.32904700177387047 0 0.26731122343739822 0.32545953491366858 0 0.27836960746308909 0.35599853724874359 0 0.26518788721623437 0.33054298393043219 0 0.26518788721623437 0.33054298393043219 0 0.2728414001991406 0.32904700177387047 0 0.27786043041236869 0.33471626715991409 0 0.27671527888398562 0.3441870844772259 0 0.26518788721623437 0.33054298393043219 0 0.27786043041236869 0.33471626715991409 0 0.27671527888398562 0.3441870844772259 0 0.28119375649751349 0.3415044430455576 0 0.27786043041236869 0.33471626715991409 0 0.2728414001991406 0.32904700177387047 0 0.27786043041236869 0.33471626715991409 0 0.27936204924768121 0.32498307102898349 0 0.27786043041236869 0.33471626715991409 0 0.27936204924768121 0.32498307102898349 0 0.28525590824973168 0.33019860290154568 0 0.2728414001991406 0.32904700177387047 0 0.27936204924768121 0.32498307102898349 0 0.26961523156275707 0.31863310602586059 0 0.2728414001991406 0.32904700177387047 0 0.26731122343739822 0.32545953491366858 0 0.26961523156275707 0.31863310602586059 0 0.26160037477145948 0.32361504792451118 0 0.26731122343739822 0.32545953491366858 0 0.26961523156275707 0.31863310602586059 0 0.27936204924768121 0.32498307102898349 0 0.26961523156275707 0.31863310602586059 0 0.28133089707177739 0.31565660162935461 0 0.26961523156275707 0.31863310602586059 0 0.28133089707177739 0.31565660162935461 0 0.27162220014601168 0.30819847959926649 0 0.28133089707177739 0.31565660162935461 0 0.28926842799031183 0.32164684668335553 0 0.29289622389348391 0.31173450207074938 0 0.27936204924768121 0.32498307102898349 0 0.28926842799031183 0.32164684668335553 0 0.28525590824973168 0.33019860290154568 0 0.27936204924768121 0.32498307102898349 0 0.28133089707177739 0.31565660162935461 0 0.28926842799031183 0.32164684668335553 0 0.28926842799031183 0.32164684668335553 0 0.29270679870612148 0.33133919612790758 0 0.29864702146159328 0.32643954785611667 0 0.28926842799031183 0.32164684668335553 0 0.28525590824973168 0.33019860290154568 0 0.29270679870612148 0.33133919612790758 0 0.28926842799031183 0.32164684668335553 0 0.30057412006284873 0.3182848580649148 0 0.29864702146159328 0.32643954785611667 0 0.28926842799031183 0.32164684668335553 0 0.30057412006284873 0.3182848580649148 0 0.29289622389348391 0.31173450207074938 0 0.28696318970460172 0.34507386829548542 0 0.28119375649751349 0.3415044430455576 0 0.28563489893157912 0.33697664508827291 0 0.28696318970460172 0.34507386829548542 0 0.28563489893157912 0.33697664508827291 0 0.29440715639490739 0.33866623850310912 0 0.28119375649751349 0.3415044430455576 0 0.27786043041236869 0.33471626715991409 0 0.28563489893157912 0.33697664508827291 0 0.28563489893157912 0.33697664508827291 0 0.28525590824973168 0.33019860290154568 0 0.29270679870612148 0.33133919612790758 0 0.27786043041236869 0.33471626715991409 0 0.28563489893157912 0.33697664508827291 0 0.28525590824973168 0.33019860290154568 0 0.29270679870612148 0.33133919612790758 0 0.29440715639490739 0.33866623850310912 0 0.30302737920860612 0.33410729573504611 0 0.28563489893157912 0.33697664508827291 0 0.29270679870612148 0.33133919612790758 0 0.29440715639490739 0.33866623850310912 0 0.29508057650716829 0.34607515835053693 0 0.28696318970460172 0.34507386829548542 0 0.29440715639490739 0.33866623850310912 0 0.29508057650716829 0.34607515835053693 0 0.29440715639490739 0.33866623850310912 0 0.30284961949963451 0.34180688944884569 0 0.29440715639490739 0.33866623850310912 0 0.30284961949963451 0.34180688944884569 0 0.30302737920860612 0.33410729573504611 0 0.29270679870612148 0.33133919612790758 0 0.30302737920860612 0.33410729573504611 0 0.29864702146159328 0.32643954785611667 0 0.30302737920860612 0.33410729573504611 0 0.29864702146159328 0.32643954785611667 0 0.30648676239126638 0.32698903389663531 0 0.30302737920860612 0.33410729573504611 0 0.31164832743931292 0.33689503642828789 0 0.30648676239126638 0.32698903389663531 0 0.31591730865868939 0.32743152395768732 0 0.31164832743931292 0.33689503642828789 0 0.30648676239126638 0.32698903389663531 0 0.30284961949963451 0.34180688944884569 0 0.30302737920860612 0.33410729573504611 0 0.31164832743931292 0.33689503642828789 0 0.30992842843050988 0.3457112388019602 0 0.30284961949963451 0.34180688944884569 0 0.31164832743931292 0.33689503642828789 0 0.30057412006284873 0.3182848580649148 0 0.3075048900192453 0.30846754722968978 0 0.29289622389348391 0.31173450207074938 0 0.30057412006284873 0.3182848580649148 0 0.29864702146159328 0.32643954785611667 0 0.30648676239126638 0.32698903389663531 0 0.30057412006284873 0.3182848580649148 0 0.30648676239126638 0.32698903389663531 0 0.30920411140212778 0.3196886032463338 0 0.31591730865868939 0.32743152395768732 0 0.30648676239126638 0.32698903389663531 0 0.30920411140212778 0.3196886032463338 0 0.30057412006284873 0.3182848580649148 0 0.30920411140212778 0.3196886032463338 0 0.3075048900192453 0.30846754722968978 0 0.31778971146991503 0.31788997842391498 0 0.30920411140212778 0.3196886032463338 0 0.3075048900192453 0.30846754722968978 0 0.3075048900192453 0.30846754722968978 0 0.29694347339530303 0.29848366127231912 0 0.31246487291163488 0.29208088598867771 0 0.3075048900192453 0.30846754722968978 0 0.29694347339530303 0.29848366127231912 0 0.29289622389348391 0.31173450207074938 0 0.31246487291163488 0.29208088598867771 0 0.29888580149873889 0.28140566667868477 0 0.31966717048778492 0.28020807462702291 0 0.29694347339530303 0.29848366127231912 0 0.31246487291163488 0.29208088598867771 0 0.29888580149873889 0.28140566667868477 0 0.29694347339530303 0.29848366127231912 0 0.29888580149873889 0.28140566667868477 0 0.28532215262680061 0.29218967158653381 0 0.29888580149873889 0.28140566667868477 0 0.28532215262680061 0.29218967158653381 0 0.27597263544757811 0.27926985653850322 0 0.29694347339530303 0.29848366127231912 0 0.29289622389348391 0.31173450207074938 0 0.28421062956037713 0.3046253325656294 0 0.29694347339530303 0.29848366127231912 0 0.28532215262680061 0.29218967158653381 0 0.28421062956037713 0.3046253325656294 0 0.28133089707177739 0.31565660162935461 0 0.29289622389348391 0.31173450207074938 0 0.28421062956037713 0.3046253325656294 0 0.28133089707177739 0.31565660162935461 0 0.28421062956037713 0.3046253325656294 0 0.27162220014601168 0.30819847959926649 0 0.28421062956037713 0.3046253325656294 0 0.27162220014601168 0.30819847959926649 0 0.27073357959762612 0.29469717476731772 0 0.28532215262680061 0.29218967158653381 0 0.28421062956037713 0.3046253325656294 0 0.27073357959762612 0.29469717476731772 0 0.27073357959762612 0.29469717476731772 0 0.25964825064670849 0.2811944406245902 0 0.27597263544757811 0.27926985653850322 0 0.28532215262680061 0.29218967158653381 0 0.27073357959762612 0.29469717476731772 0 0.27597263544757811 0.27926985653850322 0 0.2434397278092077 0.27846069768541332 0 0.25252005129033422 0.30103787280496203 0 0.25964825064670849 0.2811944406245902 0 0.27073357959762612 0.29469717476731772 0 0.25252005129033422 0.30103787280496203 0 0.25964825064670849 0.2811944406245902 0 0.24963775202771521 0.30051372462394288 0 0.26160037477145948 0.32361504792451118 0 0.26160037477145948 0.32361504792451118 0 0.25252005129033422 0.30103787280496203 0 0.24963775202771521 0.30051372462394288 0 0.26160037477145948 0.32361504792451118 0 0.25252005129033422 0.30103787280496203 0 0.27162220014601168 0.30819847959926649 0 0.27073357959762612 0.29469717476731772 0 0.25252005129033422 0.30103787280496203 0 0.26961523156275707 0.31863310602586059 0 0.27162220014601168 0.30819847959926649 0 0.25252005129033422 0.30103787280496203 0 0.26005695654466249 0.26476207857526007 0 0.25877170878786238 0.25302463852503437 0 0.26784118605052742 0.25766384122118591 0 0.26005695654466249 0.26476207857526007 0 0.26877199542094288 0.271185286046489 0 0.26784118605052742 0.25766384122118591 0 0.24763005152173001 0.25910176257370959 0 0.26005695654466249 0.26476207857526007 0 0.25877170878786238 0.25302463852503437 0 0.26005695654466249 0.26476207857526007 0 0.25964825064670849 0.2811944406245902 0 0.26877199542094288 0.271185286046489 0 0.2434397278092077 0.27846069768541332 0 0.26005695654466249 0.26476207857526007 0 0.25964825064670849 0.2811944406245902 0 0.2434397278092077 0.27846069768541332 0 0.24763005152173001 0.25910176257370959 0 0.26005695654466249 0.26476207857526007 0 0.25964825064670849 0.2811944406245902 0 0.26877199542094288 0.271185286046489 0 0.27597263544757811 0.27926985653850322 0 0.26877199542094288 0.271185286046489 0 0.27597263544757811 0.27926985653850322 0 0.27647749418933931 0.26389562134405542 0 0.27597263544757811 0.27926985653850322 0 0.27647749418933931 0.26389562134405542 0 0.28921799240021828 0.26815650339571012 0 0.27647749418933931 0.26389562134405542 0 0.27542464597538868 0.25681776053554017 0 0.28272693040926428 0.25881526167589219 0 0.27647749418933931 0.26389562134405542 0 0.26784118605052742 0.25766384122118591 0 0.27542464597538868 0.25681776053554017 0 0.26877199542094288 0.271185286046489 0 0.27647749418933931 0.26389562134405542 0 0.26784118605052742 0.25766384122118591 0 0.26784118605052742 0.25766384122118591 0 0.27542464597538868 0.25681776053554017 0 0.27283394916361492 0.24742619336605559 0 0.25877170878786238 0.25302463852503437 0 0.26784118605052742 0.25766384122118591 0 0.27283394916361492 0.24742619336605559 0 0.27542464597538868 0.25681776053554017 0 0.28272693040926428 0.25881526167589219 0 0.27283394916361492 0.24742619336605559 0 0.28272693040926428 0.25881526167589219 0 0.29968057031776052 0.25778022973809978 0 0.27283394916361492 0.24742619336605559 0 0.28272693040926428 0.25881526167589219 0 0.28921799240021828 0.26815650339571012 0 0.29968057031776052 0.25778022973809978 0 0.29968057031776052 0.25778022973809978 0 0.27283394916361492 0.24742619336605559 0 0.29968057031776052 0.25778022973809978 0 0.27283394916361492 0.24742619336605559 0 0.3016365876598241 0.24719201463661561 0 0.27647749418933931 0.26389562134405542 0 0.28272693040926428 0.25881526167589219 0 0.28921799240021828 0.26815650339571012 0 0.28921799240021828 0.26815650339571012 0 0.29917140266547992 0.2696271248040239 0 0.29968057031776052 0.25778022973809978 0 0.29888580149873889 0.28140566667868477 0 0.27597263544757811 0.27926985653850322 0 0.28921799240021828 0.26815650339571012 0 0.29888580149873889 0.28140566667868477 0 0.28921799240021828 0.26815650339571012 0 0.29917140266547992 0.2696271248040239 0 0.30890124644520212 0.27116609940360098 0 0.29968057031776052 0.25778022973809978 0 0.32652719147190618 0.26813426611014402 0 0.29888580149873889 0.28140566667868477 0 0.30890124644520212 0.27116609940360098 0 0.31966717048778492 0.28020807462702291 0 0.29888580149873889 0.28140566667868477 0 0.29917140266547992 0.2696271248040239 0 0.30890124644520212 0.27116609940360098 0 0.29917140266547992 0.2696271248040239 0 0.30890124644520212 0.27116609940360098 0 0.29968057031776052 0.25778022973809978 0 0.29968057031776052 0.25778022973809978 0 0.31432639173362298 0.2563396134856944 0 0.3016365876598241 0.24719201463661561 0 0.29968057031776052 0.25778022973809978 0 0.32652719147190618 0.26813426611014402 0 0.29968057031776052 0.25778022973809978 0 0.31432639173362298 0.2563396134856944 0 0.32652719147190618 0.26813426611014402 0 0.31432639173362298 0.2563396134856944 0 0.32946121748500129 0.25225194345791829 0 0.3016365876598241 0.24719201463661561 0 0.31432639173362298 0.2563396134856944 0 0.32946121748500129 0.25225194345791829 0 0.32652719147190618 0.26813426611014402 0 0.32946121748500129 0.25225194345791829 0 0.35728584731017871 0.25731187227922109 0 0.32946121748500129 0.25225194345791829 0 0.33854302537622011 0.27351786473126699 0 0.35728584731017871 0.25731187227922109 0 0.32946121748500129 0.25225194345791829 0 0.33854302537622011 0.27351786473126699 0 0.32652719147190618 0.26813426611014402 0 0.33854302537622011 0.27351786473126699 0 0.32652719147190618 0.26813426611014402 0 0.31966717048778492 0.28020807462702291 0 0.30890124644520212 0.27116609940360098 0 0.32652719147190618 0.26813426611014402 0 0.31966717048778492 0.28020807462702291 0 0.31246487291163488 0.29208088598867771 0 0.31966717048778492 0.28020807462702291 0 0.33172871425663403 0.29269405324557379 0 0.31778971146991503 0.31788997842391498 0 0.3075048900192453 0.30846754722968978 0 0.32420479997372442 0.30853167071016102 0 0.31246487291163488 0.29208088598867771 0 0.32420479997372442 0.30853167071016102 0 0.31246487291163488 0.29208088598867771 0 0.32420479997372442 0.30853167071016102 0 0.33172871425663403 0.29269405324557379 0 0.3075048900192453 0.30846754722968978 0 0.31246487291163488 0.29208088598867771 0 0.32420479997372442 0.30853167071016102 0 0.32420479997372442 0.30853167071016102 0 0.33172871425663403 0.29269405324557379 0 0.34448717235649018 0.30756264321984922 0 0.33854302537622011 0.27351786473126699 0 0.31966717048778492 0.28020807462702291 0 0.33172871425663403 0.29269405324557379 0 0.33172871425663403 0.29269405324557379 0 0.3503635169770366 0.28966006865463678 0 0.34448717235649018 0.30756264321984922 0 0.33854302537622011 0.27351786473126699 0 0.33172871425663403 0.29269405324557379 0 0.3503635169770366 0.28966006865463678 0 0.3503635169770366 0.28966006865463678 0 0.34448717235649018 0.30756264321984922 0 0.36246687595182442 0.30494518477727961 0 0.36114413796306788 0.32433110896381118 0 0.34448717235649018 0.30756264321984922 0 0.36246687595182442 0.30494518477727961 0 0.36246687595182442 0.30494518477727961 0 0.37008896088821891 0.27907488192658342 0 0.38127772340545701 0.29855436992749679 0 0.3503635169770366 0.28966006865463678 0 0.36246687595182442 0.30494518477727961 0 0.37008896088821891 0.27907488192658342 0 0.37008896088821891 0.27907488192658342 0 0.35728584731017871 0.25731187227922109 0 0.35441181453934328 0.27463334472066592 0 0.37008896088821891 0.27907488192658342 0 0.35728584731017871 0.25731187227922109 0 0.38511047713535562 0.2623718011005241 0 0.35728584731017871 0.25731187227922109 0 0.38511047713535562 0.2623718011005241 0 0.37293454716760283 0.2396311516560117 0 0.35728584731017871 0.25731187227922109 0 0.38511047713535562 0.2623718011005241 0 0.33854302537622011 0.27351786473126699 0 0.3503635169770366 0.28966006865463678 0 0.35441181453934328 0.27463334472066592 0 0.33854302537622011 0.27351786473126699 0 0.35728584731017871 0.25731187227922109 0 0.35441181453934328 0.27463334472066592 0 0.3503635169770366 0.28966006865463678 0 0.37008896088821891 0.27907488192658342 0 0.35441181453934328 0.27463334472066592 0 0.4059739891301799 0.26616584566893298 0 0.38511047713535562 0.2623718011005241 0 0.39575362435311728 0.2822497143692822 0 0.4059739891301799 0.26616584566893298 0 0.39575362435311728 0.2822497143692822 0 0.41466985898722469 0.28617745239982811 0 0.4059739891301799 0.26616584566893298 0 0.38511047713535562 0.2623718011005241 0 0.39933451681408499 0.24222051247515669 0 0.4059739891301799 0.26616584566893298 0 0.38511047713535562 0.2623718011005241 0 0.38511047713535562 0.2623718011005241 0 0.37293454716760283 0.2396311516560117 0 0.37008896088821891 0.27907488192658342 0 0.38511047713535562 0.2623718011005241 0 0.39575362435311728 0.2822497143692822 0 0.38511047713535562 0.2623718011005241 0 0.39575362435311728 0.2822497143692822 0 0.37008896088821891 0.27907488192658342 0 0.38127772340545701 0.29855436992749679 0 0.39575362435311728 0.2822497143692822 0 0.38127772340545701 0.29855436992749679 0 0.39341545683502421 0.31015448597301559 0 0.38634354889032002 0.32367976249598251 0 0.38127772340545701 0.29855436992749679 0 0.38634354889032002 0.32367976249598251 0 0.36246687595182442 0.30494518477727961 0 0.38127772340545701 0.29855436992749679 0 0.38634354889032002 0.32367976249598251 0 0.38127772340545701 0.29855436992749679 0 0.39341545683502421 0.31015448597301559 0 0.40639677157087911 0.30212762763804019 0 0.39341545683502421 0.31015448597301559 0 0.40639677157087911 0.30212762763804019 0 0.4081981699382346 0.3139513768470385 0 0.39575362435311728 0.2822497143692822 0 0.40639677157087911 0.30212762763804019 0 0.38127772340545701 0.29855436992749679 0 0.39575362435311728 0.2822497143692822 0 0.40639677157087911 0.30212762763804019 0 0.39575362435311728 0.2822497143692822 0 0.41466985898722469 0.28617745239982811 0 0.40639677157087911 0.30212762763804019 0 0.41466985898722469 0.28617745239982811 0 0.40639677157087911 0.30212762763804019 0 0.42063747895650733 0.30228076741981708 0 0.40639677157087911 0.30212762763804019 0 0.417039918788641 0.32200554090679828 0 0.40639677157087911 0.30212762763804019 0 0.42063747895650733 0.30228076741981708 0 0.41590325438833858 0.31571238371771643 0 0.42063747895650733 0.30228076741981708 0 0.43554340190627211 0.31006971119553528 0 0.43241978878766019 0.29428086906555412 0 0.42063747895650733 0.30228076741981708 0 0.43554340190627211 0.31006971119553528 0 0.41590325438833858 0.31571238371771643 0 0.43241978878766019 0.29428086906555412 0 0.42683750112500368 0.26995989023734401 0 0.43795337608323548 0.28151673092589807 0 0.41466985898722469 0.28617745239982811 0 0.43241978878766019 0.29428086906555412 0 0.42683750112500368 0.26995989023734401 0 0.43241978878766019 0.29428086906555412 0 0.42683750112500368 0.26995989023734401 0 0.41466985898722469 0.28617745239982811 0 0.42063747895650733 0.30228076741981708 0 0.43241978878766019 0.29428086906555412 0 0.4059739891301799 0.26616584566893298 0 0.42683750112500368 0.26995989023734401 0 0.4059739891301799 0.26616584566893298 0 0.41466985898722469 0.28617745239982811 0 0.42683750112500368 0.26995989023734401 0 0.4059739891301799 0.26616584566893298 0 0.42683750112500368 0.26995989023734401 0 0.42092918023873821 0.24421844589255121 0 0.4059739891301799 0.26616584566893298 0 0.39933451681408499 0.24222051247515669 0 0.42092918023873821 0.24421844589255121 0 0.42683750112500368 0.26995989023734401 0 0.44089414042045799 0.25771217685885472 0 0.42092918023873821 0.24421844589255121 0 0.42683750112500368 0.26995989023734401 0 0.42092918023873821 0.24421844589255121 0 0.44089414042045799 0.25771217685885472 0 0.45301423403414209 0.26007999789895508 0 0.4569230610569987 0.24819013429900669 0 0.44089414042045799 0.25771217685885472 0 0.45301423403414209 0.26007999789895508 0 0.44973892600361531 0.27412453072026172 0 0.42683750112500368 0.26995989023734401 0 0.44089414042045799 0.25771217685885472 0 0.44973892600361531 0.27412453072026172 0 0.42683750112500368 0.26995989023734401 0 0.44973892600361531 0.27412453072026172 0 0.43795337608323548 0.28151673092589807 0 0.42683750112500368 0.26995989023734401 0 0.44973892600361531 0.27412453072026172 0 0.44973892600361531 0.27412453072026172 0 0.46478170596961249 0.26323965275109401 0 0.47264035088222628 0.27828917120318131 0 0.44973892600361531 0.27412453072026172 0 0.47264035088222628 0.27828917120318131 0 0.44973892600361531 0.27412453072026172 0 0.47264035088222628 0.27828917120318131 0 0.46226850420995219 0.28814127863090738 0 0.45301423403414209 0.26007999789895508 0 0.44973892600361531 0.27412453072026172 0 0.46478170596961249 0.26323965275109401 0 0.46478170596961249 0.26323965275109401 0 0.47264035088222628 0.27828917120318131 0 0.46478170596961249 0.26323965275109401 0 0.4569230610569987 0.24819013429900669 0 0.45301423403414209 0.26007999789895508 0 0.46478170596961249 0.26323965275109401 0 0.4569230610569987 0.24819013429900669 0 0.46478170596961249 0.26323965275109401 0 0.46750550623703407 0.25349570762290419 0 0.47341939214644252 0.26170481890296848 0 0.46478170596961249 0.26323965275109401 0 0.46750550623703407 0.25349570762290419 0 0.4569230610569987 0.24819013429900669 0 0.47341939214644252 0.26170481890296848 0 0.48489893488970792 0.25686202981026901 0 0.47278153852907701 0.24486280325581439 0 0.46750550623703407 0.25349570762290419 0 0.47341939214644252 0.26170481890296848 0 0.47278153852907701 0.24486280325581439 0 0.47341939214644252 0.26170481890296848 0 0.47278153852907701 0.24486280325581439 0 0.47341939214644252 0.26170481890296848 0 0.48000757765913032 0.26759533659828072 0 0.48489893488970792 0.25686202981026901 0 0.47341939214644252 0.26170481890296848 0 0.47405724576380859 0.27854683455012252 0 0.48000757765913032 0.26759533659828072 0 0.47341939214644252 0.26170481890296848 0 0.47264035088222628 0.27828917120318131 0 0.47405724576380859 0.27854683455012252 0 0.46478170596961249 0.26323965275109401 0 0.47341939214644252 0.26170481890296848 0 0.47264035088222628 0.27828917120318131 0 0.47405724576380859 0.27854683455012252 0 0.47415752390174082 0.28119459874267072 0 0.50000000000001354 0.28326454295050368 0 0.47341939214644252 0.26170481890296848 0 0.47405724576380859 0.27854683455012252 0 0.47264035088222628 0.27828917120318131 0 0.47405724576380859 0.27854683455012252 0 0.47405724576380859 0.27854683455012252 0 0.47415752390174082 0.28119459874267072 0 0.47264035088222628 0.27828917120318131 0 0.47405724576380859 0.27854683455012252 0 0.47415752390174082 0.28119459874267072 0 0.47264035088222628 0.27828917120318131 0 0.47415752390174082 0.28119459874267072 0 0.47405724576380859 0.27854683455012252 0 0.48000757765913032 0.26759533659828072 0 0.48909471086131839 0.26954423778064313 0 0.47405724576380859 0.27854683455012252 0 0.50000000000001354 0.28326454295050368 0 0.47405724576380859 0.27854683455012252 0 0.48909471086131839 0.26954423778064313 0 0.50000000000001354 0.28326454295050368 0 0.48909471086131839 0.26954423778064313 0 0.5 0.25553121794514477 0 0.50000000000001354 0.28326454295050368 0 0.5 0.25553121794514477 0 0.48489893488970792 0.25686202981026901 0 0.48903365503734891 0.24299047468837701 0 0.48909471086131839 0.26954423778064313 0 0.5 0.25553121794514477 0 0.48489893488970792 0.25686202981026901 0 0.48000757765913032 0.26759533659828072 0 0.48909471086131839 0.26954423778064313 0 0.48489893488970792 0.25686202981026901 0 0.48223131843763373 0.29665613456690521 0 0.49274985611107969 0.31679941989990179 0 0.48223131843763373 0.29665613456690521 0 0.49274985611107969 0.31679941989990179 0 0.48532411314893581 0.31403081790115361 0 0.49298554246438231 0.30475618362627349 0 0.48223131843763373 0.29665613456690521 0 0.49274985611107969 0.31679941989990179 0 0.49298554246438231 0.30475618362627349 0 0.4969609953088156 0.2924242547978898 0 0.5 0.31314492524039728 0 0.49298554246438231 0.30475618362627349 0 0.4969609953088156 0.2924242547978898 0 0.48223131843763373 0.29665613456690521 0 0.49298554246438231 0.30475618362627349 0 0.49274985611107969 0.31679941989990179 0 0.5 0.31314492524039728 0 0.4969609953088156 0.2924242547978898 0 0.50000000000001354 0.28326454295050368 0 0.5 0.31314492524039728 0 0.47415752390174082 0.28119459874267072 0 0.4969609953088156 0.2924242547978898 0 0.50000000000001354 0.28326454295050368 0 0.47415752390174082 0.28119459874267072 0 0.4969609953088156 0.2924242547978898 0 0.48223131843763373 0.29665613456690521 0 0.4969609953088156 0.2924242547978898 0 0.48223131843763373 0.29665613456690521 0 0.47415752390174082 0.28119459874267072 0 0.47482369694213911 0.29878436615117387 0 0.47415752390174082 0.28119459874267072 0 0.47482369694213911 0.29878436615117387 0 0.46226850420995219 0.28814127863090738 0 0.47415752390174082 0.28119459874267072 0 0.48223131843763373 0.29665613456690521 0 0.47482369694213911 0.29878436615117387 0 0.47415752390174082 0.28119459874267072 0 0.48223131843763373 0.29665613456690521 0 0.47264035088222628 0.27828917120318131 0 0.47415752390174082 0.28119459874267072 0 0.46226850420995219 0.28814127863090738 0 0.48223131843763373 0.29665613456690521 0 0.48022688714188239 0.30485617861310249 0 0.48532411314893581 0.31403081790115361 0 0.47482369694213911 0.29878436615117387 0 0.4785284200388214 0.30995339583317788 0 0.47567910166728178 0.32137064515506791 0 0.47482369694213911 0.29878436615117387 0 0.46683928615616721 0.31034493157342358 0 0.47567910166728178 0.32137064515506791 0 0.47482369694213911 0.29878436615117387 0 0.47567910166728178 0.32137064515506791 0 0.47482369694213911 0.29878436615117387 0 0.48022688714188239 0.30485617861310249 0 0.4785284200388214 0.30995339583317788 0 0.48223131843763373 0.29665613456690521 0 0.47482369694213911 0.29878436615117387 0 0.48022688714188239 0.30485617861310249 0 0.48223131843763373 0.29665613456690521 0 0.47482369694213911 0.29878436615117387 0 0.48022688714188239 0.30485617861310249 0 0.4785284200388214 0.30995339583317788 0 0.48532411314893581 0.31403081790115361 0 0.47482369694213911 0.29878436615117387 0 0.46683928615616721 0.31034493157342358 0 0.45518354942420552 0.3044270386733543 0 0.47482369694213911 0.29878436615117387 0 0.45518354942420552 0.3044270386733543 0 0.46683928615616721 0.31034493157342358 0 0.45518354942420552 0.3044270386733543 0 0.46090063033065398 0.31457074158430443 0 0.47482369694213911 0.29878436615117387 0 0.45518354942420552 0.3044270386733543 0 0.46226850420995219 0.28814127863090738 0 0.45518354942420552 0.3044270386733543 0 0.46226850420995219 0.28814127863090738 0 0.44650245416143669 0.29205179777212908 0 0.44973892600361531 0.27412453072026172 0 0.46226850420995219 0.28814127863090738 0 0.44650245416143669 0.29205179777212908 0 0.44973892600361531 0.27412453072026172 0 0.44650245416143669 0.29205179777212908 0 0.43795337608323548 0.28151673092589807 0 0.43241978878766019 0.29428086906555412 0 0.44650245416143669 0.29205179777212908 0 0.43795337608323548 0.28151673092589807 0 0.43554340190627211 0.31006971119553528 0 0.45518354942420552 0.3044270386733543 0 0.44650245416143669 0.29205179777212908 0 0.43554340190627211 0.31006971119553528 0 0.43241978878766019 0.29428086906555412 0 0.44650245416143669 0.29205179777212908 0 0.43554340190627211 0.31006971119553528 0 0.45518354942420552 0.3044270386733543 0 0.44590058407496119 0.32214035093537202 0 0.43554340190627211 0.31006971119553528 0 0.45518354942420552 0.3044270386733543 0 0.44438162939182968 0.33527616080122319 0 0.43941431748234389 0.34697694962204328 0 0.43138153093963261 0.33684778794266318 0 0.44438162939182968 0.33527616080122319 0 0.43138153093963261 0.33684778794266318 0 0.43736796180383269 0.33070162376080392 0 0.44590058407496119 0.32214035093537202 0 0.44438162939182968 0.33527616080122319 0 0.43736796180383269 0.33070162376080392 0 0.44590058407496119 0.32214035093537202 0 0.44438162939182968 0.33527616080122319 0 0.45938090137280319 0.33331169935871768 0 0.44438162939182968 0.33527616080122319 0 0.45466128638888681 0.34537342559846479 0 0.43941431748234389 0.34697694962204328 0 0.44438162939182968 0.33527616080122319 0 0.45938090137280319 0.33331169935871768 0 0.45466128638888681 0.34537342559846479 0 0.45938090137280319 0.33331169935871768 0 0.47648750655815691 0.34271593104932652 0 0.45466128638888681 0.34537342559846479 0 0.45518354942420552 0.3044270386733543 0 0.44590058407496119 0.32214035093537202 0 0.46090063033065398 0.31457074158430443 0 0.44590058407496119 0.32214035093537202 0 0.47567910166728178 0.32137064515506791 0 0.44590058407496119 0.32214035093537202 0 0.45938090137280319 0.33331169935871768 0 0.47567910166728178 0.32137064515506791 0 0.44590058407496119 0.32214035093537202 0 0.46090063033065398 0.31457074158430443 0 0.47567910166728178 0.32137064515506791 0 0.46683928615616721 0.31034493157342358 0 0.46090063033065398 0.31457074158430443 0 0.47567910166728178 0.32137064515506791 0 0.4785284200388214 0.30995339583317788 0 0.48037384835626529 0.31664076505113292 0 0.47567910166728178 0.32137064515506791 0 0.48037384835626529 0.31664076505113292 0 0.48196375857002199 0.32120820131513239 0 0.47567910166728178 0.32137064515506791 0 0.48037384835626529 0.31664076505113292 0 0.48196375857002199 0.32120820131513239 0 0.48532411314893581 0.31403081790115361 0 0.4785284200388214 0.30995339583317788 0 0.48037384835626529 0.31664076505113292 0 0.48532411314893581 0.31403081790115361 0 0.48196375857002199 0.32120820131513239 0 0.48271443300740718 0.32966898805558448 0 0.48700966075600671 0.32276244140519528 0 0.48196375857002199 0.32120820131513239 0 0.47567910166728178 0.32137064515506791 0 0.48271443300740718 0.32966898805558448 0 0.48196375857002199 0.32120820131513239 0 0.47567910166728178 0.32137064515506791 0 0.47567910166728178 0.32137064515506791 0 0.47648750655815691 0.34271593104932652 0 0.47567910166728178 0.32137064515506791 0 0.47648750655815691 0.34271593104932652 0 0.48271443300740718 0.32966898805558448 0 0.45938090137280319 0.33331169935871768 0 0.47567910166728178 0.32137064515506791 0 0.47648750655815691 0.34271593104932652 0 0.47648750655815691 0.34271593104932652 0 0.48271443300740718 0.32966898805558448 0 0.49227852706914571 0.3310448133387906 0 0.47648750655815691 0.34271593104932652 0 0.5 0.34302530753029081 0 0.49227852706914571 0.3310448133387906 0 0.5 0.34302530753029081 0 0.49227852706914571 0.3310448133387906 0 0.5 0.31314492524039728 0 0.49227852706914571 0.3310448133387906 0 0.49274985611107969 0.31679941989990179 0 0.5 0.31314492524039728 0 0.48196375857002199 0.32120820131513239 0 0.48532411314893581 0.31403081790115361 0 0.48700966075600671 0.32276244140519528 0 0.49274985611107969 0.31679941989990179 0 0.48532411314893581 0.31403081790115361 0 0.48700966075600671 0.32276244140519528 0 0.48271443300740718 0.32966898805558448 0 0.49227852706914571 0.3310448133387906 0 0.48700966075600671 0.32276244140519528 0 0.49227852706914571 0.3310448133387906 0 0.49274985611107969 0.31679941989990179 0 0.48700966075600671 0.32276244140519528 0 0.5 0.37290568982018429 0 0.48906820236105919 0.3579654986752378 0 0.48477613844387402 0.38021688004838439 0 0.47648750655815691 0.34271593104932652 0 0.5 0.34302530753029081 0 0.48906820236105919 0.3579654986752378 0 0.5 0.34302530753029081 0 0.5 0.37290568982018429 0 0.48906820236105919 0.3579654986752378 0 0.47648750655815691 0.34271593104932652 0 0.4736556537454587 0.3678330253399309 0 0.4628011452372443 0.35721885356897543 0 0.47648750655815691 0.34271593104932652 0 0.48906820236105919 0.3579654986752378 0 0.4736556537454587 0.3678330253399309 0 0.48906820236105919 0.3579654986752378 0 0.4736556537454587 0.3678330253399309 0 0.48477613844387402 0.38021688004838439 0 0.4736556537454587 0.3678330253399309 0 0.45151374504626951 0.36758660991241321 0 0.46980882541715813 0.38208294099771128 0 0.4736556537454587 0.3678330253399309 0 0.4628011452372443 0.35721885356897543 0 0.45151374504626951 0.36758660991241321 0 0.47648750655815691 0.34271593104932652 0 0.4628011452372443 0.35721885356897543 0 0.45466128638888681 0.34537342559846479 0 0.4628011452372443 0.35721885356897543 0 0.45466128638888681 0.34537342559846479 0 0.45151374504626951 0.36758660991241321 0 0.43941431748234389 0.34697694962204328 0 0.45151374504626951 0.36758660991241321 0 0.43248649325656402 0.35912170041613489 0 0.45466128638888681 0.34537342559846479 0 0.43941431748234389 0.34697694962204328 0 0.45151374504626951 0.36758660991241321 0 0.45151374504626951 0.36758660991241321 0 0.4343808670510142 0.37207818795490849 0 0.43248649325656402 0.35912170041613489 0 0.4343808670510142 0.37207818795490849 0 0.41565945607251759 0.36236511110304392 0 0.42235721568131929 0.38220686924127689 0 0.4343808670510142 0.37207818795490849 0 0.41565945607251759 0.36236511110304392 0 0.43248649325656402 0.35912170041613489 0 0.41565945607251759 0.36236511110304392 0 0.40683499004542412 0.37566900985645529 0 0.42235721568131929 0.38220686924127689 0 0.41565945607251759 0.36236511110304392 0 0.42423344021441339 0.3469403641650044 0 0.40881868850316022 0.34319093436892228 0 0.41565945607251759 0.36236511110304392 0 0.40881868850316022 0.34319093436892228 0 0.40255325820206211 0.35440744329028528 0 0.41565945607251759 0.36236511110304392 0 0.42423344021441339 0.3469403641650044 0 0.43248649325656402 0.35912170041613489 0 0.43941431748234389 0.34697694962204328 0 0.42423344021441339 0.3469403641650044 0 0.43248649325656402 0.35912170041613489 0 0.43941431748234389 0.34697694962204328 0 0.42423344021441339 0.3469403641650044 0 0.43138153093963261 0.33684778794266318 0 0.43138153093963261 0.33684778794266318 0 0.43736796180383269 0.33070162376080392 0 0.42780810280890752 0.32854219536395729 0 0.43138153093963261 0.33684778794266318 0 0.42780810280890752 0.32854219536395729 0 0.41974391964010321 0.33544292333485398 0 0.42780810280890752 0.32854219536395729 0 0.41816216709540432 0.32913892271221878 0 0.41974391964010321 0.33544292333485398 0 0.42423344021441339 0.3469403641650044 0 0.43138153093963261 0.33684778794266318 0 0.41974391964010321 0.33544292333485398 0 0.44590058407496119 0.32214035093537202 0 0.417039918788641 0.32200554090679828 0 0.43554340190627211 0.31006971119553528 0 0.42610184512817068 0.31856760869421968 0 0.41590325438833858 0.31571238371771643 0 0.44590058407496119 0.32214035093537202 0 0.42610184512817068 0.31856760869421968 0 0.417039918788641 0.32200554090679828 0 0.44590058407496119 0.32214035093537202 0 0.42780810280890752 0.32854219536395729 0 0.417039918788641 0.32200554090679828 0 0.44590058407496119 0.32214035093537202 0 0.43736796180383269 0.33070162376080392 0 0.42780810280890752 0.32854219536395729 0 0.43554340190627211 0.31006971119553528 0 0.41590325438833858 0.31571238371771643 0 0.43554340190627211 0.31006971119553528 0 0.44590058407496119 0.32214035093537202 0 0.42610184512817068 0.31856760869421968 0 0.40639677157087911 0.30212762763804019 0 0.417039918788641 0.32200554090679828 0 0.4081981699382346 0.3139513768470385 0 0.40639677157087911 0.30212762763804019 0 0.41590325438833858 0.31571238371771643 0 0.417039918788641 0.32200554090679828 0 0.42610184512817068 0.31856760869421968 0 0.41590325438833858 0.31571238371771643 0 0.417039918788641 0.32200554090679828 0 0.417039918788641 0.32200554090679828 0 0.41816216709540432 0.32913892271221878 0 0.41176425843116088 0.33156610519561941 0 0.42780810280890752 0.32854219536395729 0 0.417039918788641 0.32200554090679828 0 0.41816216709540432 0.32913892271221878 0 0.42423344021441339 0.3469403641650044 0 0.41974391964010321 0.33544292333485398 0 0.40881868850316022 0.34319093436892228 0 0.41816216709540432 0.32913892271221878 0 0.41974391964010321 0.33544292333485398 0 0.41176425843116088 0.33156610519561941 0 0.417039918788641 0.32200554090679828 0 0.41176425843116088 0.33156610519561941 0 0.40171431040203109 0.33103781916521291 0 0.41176425843116088 0.33156610519561941 0 0.40881868850316022 0.34319093436892228 0 0.40171431040203109 0.33103781916521291 0 0.41974391964010321 0.33544292333485398 0 0.41176425843116088 0.33156610519561941 0 0.40881868850316022 0.34319093436892228 0 0.40171431040203109 0.33103781916521291 0 0.38634354889032002 0.32367976249598251 0 0.39069281237429682 0.34525116339505252 0 0.40881868850316022 0.34319093436892228 0 0.40171431040203109 0.33103781916521291 0 0.39069281237429682 0.34525116339505252 0 0.417039918788641 0.32200554090679828 0 0.40171431040203109 0.33103781916521291 0 0.38634354889032002 0.32367976249598251 0 0.417039918788641 0.32200554090679828 0 0.4081981699382346 0.3139513768470385 0 0.38634354889032002 0.32367976249598251 0 0.39341545683502421 0.31015448597301559 0 0.4081981699382346 0.3139513768470385 0 0.38634354889032002 0.32367976249598251 0 0.417039918788641 0.32200554090679828 0 0.38634354889032002 0.32367976249598251 0 0.38634354889032002 0.32367976249598251 0 0.39069281237429682 0.34525116339505252 0 0.37418757138316661 0.34003979241565702 0 0.38634354889032002 0.32367976249598251 0 0.39069281237429682 0.34525116339505252 0 0.37418757138316661 0.34003979241565702 0 0.38014707859742553 0.358601566133181 0 0.39069281237429682 0.34525116339505252 0 0.38014707859742553 0.358601566133181 0 0.39504207585827378 0.36682256429412252 0 0.39069281237429682 0.34525116339505252 0 0.36927583114563117 0.37168826674887129 0 0.38014707859742553 0.358601566133181 0 0.3861818138235471 0.37714139125663793 0 0.38014707859742553 0.358601566133181 0 0.39504207585827378 0.36682256429412252 0 0.3861818138235471 0.37714139125663793 0 0.41565945607251759 0.36236511110304392 0 0.39504207585827378 0.36682256429412252 0 0.40683499004542412 0.37566900985645529 0 0.41565945607251759 0.36236511110304392 0 0.39504207585827378 0.36682256429412252 0 0.40255325820206211 0.35440744329028528 0 0.39504207585827378 0.36682256429412252 0 0.40255325820206211 0.35440744329028528 0 0.39069281237429682 0.34525116339505252 0 0.40881868850316022 0.34319093436892228 0 0.40255325820206211 0.35440744329028528 0 0.39069281237429682 0.34525116339505252 0 0.39504207585827378 0.36682256429412252 0 0.39069281237429682 0.34525116339505252 0 0.3993913393422508 0.38839396519319253 0 0.39020643165102042 0.40750290438779102 0 0.40342788129008578 0.41136751416027151 0 0.3993913393422508 0.38839396519319253 0 0.40342788129008578 0.41136751416027151 0 0.41247484703898341 0.39668929567888889 0 0.3993913393422508 0.38839396519319253 0 0.38594138320053972 0.39504117240748449 0 0.39020643165102042 0.40750290438779102 0 0.39504207585827378 0.36682256429412252 0 0.3993913393422508 0.38839396519319253 0 0.40683499004542412 0.37566900985645529 0 0.39504207585827378 0.36682256429412252 0 0.3993913393422508 0.38839396519319253 0 0.39504207585827378 0.36682256429412252 0 0.3993913393422508 0.38839396519319253 0 0.3861818138235471 0.37714139125663793 0 0.3993913393422508 0.38839396519319253 0 0.41247484703898341 0.39668929567888889 0 0.40683499004542412 0.37566900985645529 0 0.36927583114563117 0.37168826674887129 0 0.38594138320053972 0.39504117240748449 0 0.3993913393422508 0.38839396519319253 0 0.3861818138235471 0.37714139125663793 0 0.38594138320053972 0.39504117240748449 0 0.36927583114563117 0.37168826674887129 0 0.3861818138235471 0.37714139125663793 0 0.38594138320053972 0.39504117240748449 0 0.36672310374365391 0.3972274770167053 0 0.38594138320053972 0.39504117240748449 0 0.37714557779446961 0.40580011292323048 0 0.38594138320053972 0.39504117240748449 0 0.37714557779446961 0.40580011292323048 0 0.39020643165102042 0.40750290438779102 0 0.37714557779446961 0.40580011292323048 0 0.39020643165102042 0.40750290438779102 0 0.37786999239799629 0.42201923841731348 0 0.39020643165102042 0.40750290438779102 0 0.37786999239799629 0.42201923841731348 0 0.39620875860206523 0.42610388639599522 0 0.3672128213662551 0.44140310366938379 0 0.37786999239799629 0.42201923841731348 0 0.38861509636247821 0.44175005125570632 0 0.37786999239799629 0.42201923841731348 0 0.39620875860206523 0.42610388639599522 0 0.38861509636247821 0.44175005125570632 0 0.39620875860206523 0.42610388639599522 0 0.40342788129008578 0.41136751416027151 0 0.4165515890159211 0.43106581875832262 0 0.39020643165102042 0.40750290438779102 0 0.39620875860206523 0.42610388639599522 0 0.40342788129008578 0.41136751416027151 0 0.40342788129008578 0.41136751416027151 0 0.4194649070479346 0.41075775866906961 0 0.4165515890159211 0.43106581875832262 0 0.40342788129008578 0.41136751416027151 0 0.4194649070479346 0.41075775866906961 0 0.41247484703898341 0.39668929567888889 0 0.39620875860206523 0.42610388639599522 0 0.4165515890159211 0.43106581875832262 0 0.40679533173472487 0.44514780784289609 0 0.4165515890159211 0.43106581875832262 0 0.44107028692003247 0.43153611533185032 0 0.4165515890159211 0.43106581875832262 0 0.43527838440837918 0.41507327228856877 0 0.44107028692003247 0.43153611533185032 0 0.4194649070479346 0.41075775866906961 0 0.4165515890159211 0.43106581875832262 0 0.43527838440837918 0.41507327228856877 0 0.4194649070479346 0.41075775866906961 0 0.43527838440837918 0.41507327228856877 0 0.42844040697821201 0.39890611008127758 0 0.43527838440837918 0.41507327228856877 0 0.42844040697821201 0.39890611008127758 0 0.44356544647064411 0.40084295107477419 0 0.42844040697821201 0.39890611008127758 0 0.43978627658039499 0.38550810048347522 0 0.44356544647064411 0.40084295107477419 0 0.4194649070479346 0.41075775866906961 0 0.42844040697821201 0.39890611008127758 0 0.41247484703898341 0.39668929567888889 0 0.42844040697821201 0.39890611008127758 0 0.41247484703898341 0.39668929567888889 0 0.42235721568131929 0.38220686924127689 0 0.41247484703898341 0.39668929567888889 0 0.40683499004542412 0.37566900985645529 0 0.42235721568131929 0.38220686924127689 0 0.4343808670510142 0.37207818795490849 0 0.42235721568131929 0.38220686924127689 0 0.43978627658039499 0.38550810048347522 0 0.42844040697821201 0.39890611008127758 0 0.42235721568131929 0.38220686924127689 0 0.43978627658039499 0.38550810048347522 0 0.45151374504626951 0.36758660991241321 0 0.4343808670510142 0.37207818795490849 0 0.43978627658039499 0.38550810048347522 0 0.45151374504626951 0.36758660991241321 0 0.43978627658039499 0.38550810048347522 0 0.45722528454721961 0.3906654768237981 0 0.43978627658039499 0.38550810048347522 0 0.44356544647064411 0.40084295107477419 0 0.45722528454721961 0.3906654768237981 0 0.44356544647064411 0.40084295107477419 0 0.45722528454721961 0.3906654768237981 0 0.45594545333092312 0.41337501331873322 0 0.45722528454721961 0.3906654768237981 0 0.47568108772685191 0.39367102650606373 0 0.46881626912638691 0.40427363304328218 0 0.45722528454721961 0.3906654768237981 0 0.46881626912638691 0.40427363304328218 0 0.45594545333092312 0.41337501331873322 0 0.45151374504626951 0.36758660991241321 0 0.45722528454721961 0.3906654768237981 0 0.46980882541715813 0.38208294099771128 0 0.45722528454721961 0.3906654768237981 0 0.46980882541715813 0.38208294099771128 0 0.47568108772685191 0.39367102650606373 0 0.4736556537454587 0.3678330253399309 0 0.46980882541715813 0.38208294099771128 0 0.48477613844387402 0.38021688004838439 0 0.47568108772685191 0.39367102650606373 0 0.48702766555901961 0.39491075051184021 0 0.48477613844387402 0.38021688004838439 0 0.46980882541715813 0.38208294099771128 0 0.47568108772685191 0.39367102650606373 0 0.48477613844387402 0.38021688004838439 0 0.47568108772685191 0.39367102650606373 0 0.46881626912638691 0.40427363304328218 0 0.48151606592710777 0.40452093291302588 0 0.47568108772685191 0.39367102650606373 0 0.48151606592710777 0.40452093291302588 0 0.48702766555901961 0.39491075051184021 0 0.48702766555901961 0.39491075051184021 0 0.49874079622209128 0.38660437256818281 0 0.49442423947517328 0.40954054052354433 0 0.5 0.40278607211007789 0 0.49874079622209128 0.38660437256818281 0 0.49442423947517328 0.40954054052354433 0 0.49874079622209128 0.38660437256818281 0 0.49442423947517328 0.40954054052354433 0 0.48151606592710777 0.40452093291302588 0 0.48702766555901961 0.39491075051184021 0 0.49442423947517328 0.40954054052354433 0 0.5 0.37290568982018429 0 0.5 0.40278607211007789 0 0.49874079622209128 0.38660437256818281 0 0.5 0.37290568982018429 0 0.49874079622209128 0.38660437256818281 0 0.48477613844387402 0.38021688004838439 0 0.48702766555901961 0.39491075051184021 0 0.49874079622209128 0.38660437256818281 0 0.48477613844387402 0.38021688004838439 0 0.49010768272825528 0.43247670847890568 0 0.49999999999999839 0.43266645439997159 0 0.49442423947517328 0.40954054052354433 0 0.49010768272825528 0.43247670847890568 0 0.49999999999999839 0.43266645439997159 0 0.5 0.40278607211007789 0 0.49999999999999839 0.43266645439997159 0 0.49442423947517328 0.40954054052354433 0 0.49010768272825528 0.43247670847890568 0 0.49442423947517328 0.40954054052354433 0 0.47768739680387268 0.41777805257305989 0 0.48151606592710777 0.40452093291302588 0 0.49442423947517328 0.40954054052354433 0 0.47768739680387268 0.41777805257305989 0 0.49010768272825528 0.43247670847890568 0 0.49442423947517328 0.40954054052354433 0 0.46881626912638691 0.40427363304328218 0 0.48151606592710777 0.40452093291302588 0 0.47768739680387268 0.41777805257305989 0 0.49010768272825528 0.43247670847890568 0 0.47768739680387268 0.41777805257305989 0 0.4655889848241439 0.43200641190537797 0 0.49010768272825528 0.43247670847890568 0 0.4655889848241439 0.43200641190537797 0 0.47536631759922843 0.44556886167195853 0 0.49010768272825528 0.43247670847890568 0 0.4655889848241439 0.43200641190537797 0 0.4655889848241439 0.43200641190537797 0 0.44107028692003247 0.43153611533185032 0 0.4655889848241439 0.43200641190537797 0 0.45594545333092312 0.41337501331873322 0 0.44107028692003247 0.43153611533185032 0 0.4655889848241439 0.43200641190537797 0 0.44107028692003247 0.43153611533185032 0 0.4606865760628292 0.44801704672434101 0 0.47768739680387268 0.41777805257305989 0 0.4655889848241439 0.43200641190537797 0 0.45594545333092312 0.41337501331873322 0 0.46881626912638691 0.40427363304328218 0 0.47768739680387268 0.41777805257305989 0 0.45594545333092312 0.41337501331873322 0 0.43527838440837918 0.41507327228856877 0 0.45594545333092312 0.41337501331873322 0 0.44107028692003247 0.43153611533185032 0 0.43527838440837918 0.41507327228856877 0 0.44356544647064411 0.40084295107477419 0 0.45594545333092312 0.41337501331873322 0 0.49999999999999839 0.43266645439997159 0 0.48505572566105232 0.45932045051458531 0 0.5 0.5 0 0.44107028692003247 0.43153611533185032 0 0.44376664188615123 0.45979150936037488 0 0.4606865760628292 0.44801704672434101 0 0.44376664188615123 0.45979150936037488 0 0.46112241578244989 0.46478661640483648 0 0.45121200239437631 0.4807671998253365 0 0.44376664188615123 0.45979150936037488 0 0.46112241578244989 0.46478661640483648 0 0.4606865760628292 0.44801704672434101 0 0.46112241578244989 0.46478661640483648 0 0.4606865760628292 0.44801704672434101 0 0.47539261871986088 0.45602369073658289 0 0.4655889848241439 0.43200641190537797 0 0.4606865760628292 0.44801704672434101 0 0.47536631759922843 0.44556886167195853 0 0.49010768272825528 0.43247670847890568 0 0.47536631759922843 0.44556886167195853 0 0.48505572566105232 0.45932045051458531 0 0.4606865760628292 0.44801704672434101 0 0.47536631759922843 0.44556886167195853 0 0.47539261871986088 0.45602369073658289 0 0.47539261871986088 0.45602369073658289 0 0.47110615765410929 0.47801184536829172 0 0.47539261871986088 0.45602369073658289 0 0.48505572566105232 0.45932045051458531 0 0.47110615765410929 0.47801184536829172 0 0.46112241578244989 0.46478661640483648 0 0.47539261871986088 0.45602369073658289 0 0.47110615765410929 0.47801184536829172 0 0.47536631759922843 0.44556886167195853 0 0.47539261871986088 0.45602369073658289 0 0.48505572566105232 0.45932045051458531 0 0.49010768272825528 0.43247670847890568 0 0.48505572566105232 0.45932045051458531 0 0.49010768272825528 0.43247670847890568 0 0.49999999999999839 0.43266645439997159 0 0.48505572566105232 0.45932045051458531 0 0.48505572566105232 0.45932045051458531 0 0.5 0.5 0 0.48000376859384941 0.48616419255026477 0 0.5 0.5 0 0.48000376859384941 0.48616419255026477 0 0.46681969658835759 0.50000000000000044 0 0.48505572566105232 0.45932045051458531 0 0.47110615765410929 0.47801184536829172 0 0.48000376859384941 0.48616419255026477 0 0.48505572566105232 0.45932045051458531 0 0.48000376859384941 0.48616419255026477 0 0.47110615765410929 0.47801184536829172 0 0.46681969658835759 0.50000000000000044 0 0.47110615765410929 0.47801184536829172 0 0.48000376859384941 0.48616419255026477 0 0.46681969658835759 0.50000000000000044 0 0.47110615765410929 0.47801184536829172 0 0.46681969658835759 0.50000000000000044 0 0.45121200239437631 0.4807671998253365 0 0.46112241578244989 0.46478661640483648 0 0.47110615765410929 0.47801184536829172 0 0.45121200239437631 0.4807671998253365 0 0.44376664188615123 0.45979150936037488 0 0.45121200239437631 0.4807671998253365 0 0.42408561830569141 0.47732830779616442 0 0.46681969658835759 0.50000000000000044 0 0.45121200239437631 0.4807671998253365 0 0.43971230006436901 0.5 0 0.45121200239437631 0.4807671998253365 0 0.43971230006436901 0.5 0 0.42408561830569141 0.47732830779616442 0 0.43971230006436901 0.5 0 0.41260490354038032 0.5 0 0.42408561830569141 0.47732830779616442 0 0.41260490354038032 0.5 0 0.42408561830569141 0.47732830779616442 0 0.40044085355502113 0.48368683573266119 0 0.42408561830569141 0.47732830779616442 0 0.40050545668784993 0.46242548604636152 0 0.40044085355502113 0.48368683573266119 0 0.44376664188615123 0.45979150936037488 0 0.42408561830569141 0.47732830779616442 0 0.42267709028742451 0.45339185591380432 0 0.44107028692003247 0.43153611533185032 0 0.44376664188615123 0.45979150936037488 0 0.42267709028742451 0.45339185591380432 0 0.4165515890159211 0.43106581875832262 0 0.44107028692003247 0.43153611533185032 0 0.42267709028742451 0.45339185591380432 0 0.4165515890159211 0.43106581875832262 0 0.42267709028742451 0.45339185591380432 0 0.40679533173472487 0.44514780784289609 0 0.42408561830569141 0.47732830779616442 0 0.42267709028742451 0.45339185591380432 0 0.40050545668784993 0.46242548604636152 0 0.42267709028742451 0.45339185591380432 0 0.40679533173472487 0.44514780784289609 0 0.40050545668784993 0.46242548604636152 0 0.40679533173472487 0.44514780784289609 0 0.40050545668784993 0.46242548604636152 0 0.38861509636247821 0.44175005125570632 0 0.39620875860206523 0.42610388639599522 0 0.40679533173472487 0.44514780784289609 0 0.38861509636247821 0.44175005125570632 0 0.3672128213662551 0.44140310366938379 0 0.38861509636247821 0.44175005125570632 0 0.37565915938479377 0.45849116020829678 0 0.40050545668784993 0.46242548604636152 0 0.37565915938479377 0.45849116020829678 0 0.37951078222479251 0.47868038482078018 0 0.40050545668784993 0.46242548604636152 0 0.38861509636247821 0.44175005125570632 0 0.37565915938479377 0.45849116020829678 0 0.37951078222479251 0.47868038482078018 0 0.38549750701639152 0.5 0 0.40044085355502113 0.48368683573266119 0 0.41260490354038032 0.5 0 0.38549750701639152 0.5 0 0.40044085355502113 0.48368683573266119 0 0.40050545668784993 0.46242548604636152 0 0.37951078222479251 0.47868038482078018 0 0.40044085355502113 0.48368683573266119 0 0.3285700774521132 0.069227507684709172 0 0.34376262838779448 0.090160381808613591 0 0.3285700774521132 0.069227507684709172 0 0.34376262838779448 0.090160381808613591 0 0.3570119940846016 0.07655140493877155 0 0.3285700774521132 0.069227507684709172 0 0.31851483003181857 0.089032350953859848 0 0.34376262838779448 0.090160381808613591 0 0.3285700774521132 0.069227507684709172 0 0.31851483003181857 0.089032350953859848 0 0.30262144479489489 0.063472250579192202 0 0.31851483003181857 0.089032350953859848 0 0.32257158209111758 0.11034462767622299 0 0.33741607394213652 0.1036774965936159 0 0.31851483003181857 0.089032350953859848 0 0.32257158209111758 0.11034462767622299 0 0.29867863108980142 0.1045573716884185 0 0.32257158209111758 0.11034462767622299 0 0.32933038512457441 0.1245201253257071 0 0.3207185438207466 0.1263919595033525 0 0.32257158209111758 0.11034462767622299 0 0.31156748461804079 0.12537242366950921 0 0.3207185438207466 0.1263919595033525 0 0.32933038512457441 0.1245201253257071 0 0.34646453309243358 0.11613188366402739 0 0.34441400131097022 0.1288917011053414 0 0.32257158209111758 0.11034462767622299 0 0.33741607394213652 0.1036774965936159 0 0.34646453309243358 0.11613188366402739 0 0.32257158209111758 0.11034462767622299 0 0.34646453309243358 0.11613188366402739 0 0.32257158209111758 0.11034462767622299 0 0.32933038512457441 0.1245201253257071 0 0.34646453309243358 0.11613188366402739 0 0.31851483003181857 0.089032350953859848 0 0.33741607394213652 0.1036774965936159 0 0.34376262838779448 0.090160381808613591 0 0.35895517932347593 0.111093255932518 0 0.36286728541875429 0.096218484345557367 0 0.34376262838779448 0.090160381808613591 0 0.33741607394213652 0.1036774965936159 0 0.35895517932347593 0.111093255932518 0 0.34376262838779448 0.090160381808613591 0 0.35895517932347593 0.111093255932518 0 0.34376262838779448 0.090160381808613591 0 0.34646453309243358 0.11613188366402739 0 0.35895517932347593 0.111093255932518 0 0.37035748409374952 0.12191913965183331 0 0.34646453309243358 0.11613188366402739 0 0.37035748409374952 0.12191913965183331 0 0.33741607394213652 0.1036774965936159 0 0.34646453309243358 0.11613188366402739 0 0.35895517932347593 0.111093255932518 0 0.34646453309243358 0.11613188366402739 0 0.37035748409374952 0.12191913965183331 0 0.34441400131097022 0.1288917011053414 0 0.35895517932347593 0.111093255932518 0 0.36901916600157941 0.1100142775002767 0 0.37035748409374952 0.12191913965183331 0 0.36901916600157941 0.1100142775002767 0 0.37035748409374952 0.12191913965183331 0 0.37815432920295677 0.1109533992790251 0 0.37035748409374952 0.12191913965183331 0 0.37511757494472903 0.123072110010257 0 0.37035748409374952 0.12191913965183331 0 0.37169283910029199 0.12815165521797289 0 0.37511757494472903 0.123072110010257 0 0.36286728541875429 0.096218484345557367 0 0.37455144446510141 0.10193275935197101 0 0.37400882161871279 0.083619613235024759 0 0.35895517932347593 0.111093255932518 0 0.36901916600157941 0.1100142775002767 0 0.36286728541875429 0.096218484345557367 0 0.36901916600157941 0.1100142775002767 0 0.36286728541875429 0.096218484345557367 0 0.37455144446510141 0.10193275935197101 0 0.36901916600157941 0.1100142775002767 0 0.37455144446510141 0.10193275935197101 0 0.37815432920295677 0.1109533992790251 0 0.36286728541875429 0.096218484345557367 0 0.37400882161871279 0.083619613235024759 0 0.3570119940846016 0.07655140493877155 0 0.36286728541875429 0.096218484345557367 0 0.34376262838779448 0.090160381808613591 0 0.3570119940846016 0.07655140493877155 0 0.3285700774521132 0.069227507684709172 0 0.3570119940846016 0.07655140493877155 0 0.3540274811898364 0.057481719132925622 0 0.37400882161871279 0.083619613235024759 0 0.3570119940846016 0.07655140493877155 0 0.37883567044039879 0.062600723425798879 0 0.3570119940846016 0.07655140493877155 0 0.3540274811898364 0.057481719132925622 0 0.37883567044039879 0.062600723425798879 0 0.36884998715724038 0.048654936693666287 0 0.3540274811898364 0.057481719132925622 0 0.37883567044039879 0.062600723425798879 0 0.36884998715724038 0.048654936693666287 0 0.36096242836060388 0.032492650360987897 0 0.3540274811898364 0.057481719132925622 0 0.36884998715724038 0.048654936693666287 0 0.36096242836060388 0.032492650360987897 0 0.38366251926208489 0.041581833616573027 0 0.36096242836060388 0.032492650360987897 0 0.3540274811898364 0.057481719132925622 0 0.33343548863743699 0.044422356914628619 0 0.36096242836060388 0.032492650360987897 0 0.34150772405548108 0.025325389551572871 0 0.33343548863743699 0.044422356914628619 0 0.36096242836060388 0.032492650360987897 0 0.33343548863743699 0.044422356914628619 0 0.36934971840039982 0.01412264887454192 0 0.38120377069012762 0.010554394007073271 0 0.36845156083710567 -0.0060515153414843056 0 0.36934971840039982 0.01412264887454192 0 0.35188933009005469 0.012921367503740049 0 0.36845156083710567 -0.0060515153414843056 0 0.36096242836060388 0.032492650360987897 0 0.38848936808377088 0.020562943807347231 0 0.36096242836060388 0.032492650360987897 0 0.36934971840039982 0.01412264887454192 0 0.35188933009005469 0.012921367503740049 0 0.36096242836060388 0.032492650360987897 0 0.36934971840039982 0.01412264887454192 0 0.38848936808377088 0.020562943807347231 0 0.36096242836060388 0.032492650360987897 0 0.35188933009005469 0.012921367503740049 0 0.34150772405548108 0.025325389551572871 0 0.35188933009005469 0.012921367503740049 0 0.36845156083710567 -0.0060515153414843056 0 0.34114057903213352 -0.00099436838624600288 0 0.32992396985460443 0.01263339996306794 0 0.31382959722716158 0.0040627785689932028 0 0.34114057903213352 -0.00099436838624600288 0 0.35188933009005469 0.012921367503740049 0 0.32992396985460443 0.01263339996306794 0 0.34114057903213352 -0.00099436838624600288 0 0.32992396985460443 0.01263339996306794 0 0.34150772405548108 0.025325389551572871 0 0.32077834005703848 0.02927741351548363 0 0.35188933009005469 0.012921367503740049 0 0.32992396985460443 0.01263339996306794 0 0.34150772405548108 0.025325389551572871 0 0.32992396985460443 0.01263339996306794 0 0.32077834005703848 0.02927741351548363 0 0.31391214704691389 0.015516024244919061 0 0.32992396985460443 0.01263339996306794 0 0.31391214704691389 0.015516024244919061 0 0.31382959722716158 0.0040627785689932028 0 0.31382959722716158 0.0040627785689932028 0 0.34183048761771712 -0.0039986291523161147 0 0.31382959722716158 0.0040627785689932028 0 0.34114057903213352 -0.00099436838624600288 0 0.31382959722716158 0.0040627785689932028 0 0.30752965714041391 0.0058765203804442539 0 0.32194573769061952 -0.0077676308935595512 0 0.3285700774521132 0.069227507684709172 0 0.3540274811898364 0.057481719132925622 0 0.33343548863743699 0.044422356914628619 0 0.34150772405548108 0.025325389551572871 0 0.32077834005703848 0.02927741351548363 0 0.33343548863743699 0.044422356914628619 0 0.32077834005703848 0.02927741351548363 0 0.33343548863743699 0.044422356914628619 0 0.31337752651643169 0.04829463356080467 0 0.3285700774521132 0.069227507684709172 0 0.31337752651643169 0.04829463356080467 0 0.3285700774521132 0.069227507684709172 0 0.33343548863743699 0.044422356914628619 0 0.31337752651643169 0.04829463356080467 0 0.3285700774521132 0.069227507684709172 0 0.31337752651643169 0.04829463356080467 0 0.30262144479489489 0.063472250579192202 0 0.31337752651643169 0.04829463356080467 0 0.29190445549758398 0.041801895735158197 0 0.30262144479489489 0.063472250579192202 0 0.31337752651643169 0.04829463356080467 0 0.29818497558074802 0.027361759436901809 0 0.31337752651643169 0.04829463356080467 0 0.29190445549758398 0.041801895735158197 0 0.29818497558074802 0.027361759436901809 0 0.32077834005703848 0.02927741351548363 0 0.31337752651643169 0.04829463356080467 0 0.29818497558074802 0.027361759436901809 0 0.29190445549758398 0.041801895735158197 0 0.29818497558074802 0.027361759436901809 0 0.28149235485467722 0.028426230672526639 0 0.29190445549758398 0.041801895735158197 0 0.28562393541442521 0.056242032033416753 0 0.26921605588191849 0.040519794607793452 0 0.29190445549758398 0.041801895735158197 0 0.29818497558074802 0.027361759436901809 0 0.29190445549758398 0.041801895735158197 0 0.28562393541442521 0.056242032033416753 0 0.29190445549758398 0.041801895735158197 0 0.28562393541442521 0.056242032033416753 0 0.30262144479489489 0.063472250579192202 0 0.2978295874258669 0.0070254842464454832 0 0.30752965714041391 0.0058765203804442539 0 0.2978295874258669 0.0070254842464454832 0 0.30752965714041391 0.0058765203804442539 0 0.29396858594285019 -0.001032612778502764 0 0.31382959722716158 0.0040627785689932028 0 0.30752965714041391 0.0058765203804442539 0 0.31391214704691389 0.015516024244919061 0 0.30752965714041391 0.0058765203804442539 0 0.30398999522707459 0.014014891057021139 0 0.30752965714041391 0.0058765203804442539 0 0.30398999522707459 0.014014891057021139 0 0.31391214704691389 0.015516024244919061 0 0.31382959722716158 0.0040627785689932028 0 0.30752965714041391 0.0058765203804442539 0 0.2978295874258669 0.0070254842464454832 0 0.30752965714041391 0.0058765203804442539 0 0.30398999522707459 0.014014891057021139 0 0.2978295874258669 0.0070254842464454832 0 0.30398999522707459 0.014014891057021139 0 0.31391214704691389 0.015516024244919061 0 0.30398999522707459 0.014014891057021139 0 0.29818497558074802 0.027361759436901809 0 0.32077834005703848 0.02927741351548363 0 0.31391214704691389 0.015516024244919061 0 0.29818497558074802 0.027361759436901809 0 0.30398999522707459 0.014014891057021139 0 0.29818497558074802 0.027361759436901809 0 0.30398999522707459 0.014014891057021139 0 0.29818497558074802 0.027361759436901809 0 0.28690172397702512 0.011815266518820099 0 0.29818497558074802 0.027361759436901809 0 0.28149235485467722 0.028426230672526639 0 0.28690172397702512 0.011815266518820099 0 0.29818497558074802 0.027361759436901809 0 0.28690172397702512 0.011815266518820099 0 0.28690172397702512 0.011815266518820099 0 0.28687677889875068 0.001725005618485562 0 0.27267603034966698 -0.0077854348569651906 0 0.2978295874258669 0.0070254842464454832 0 0.30398999522707459 0.014014891057021139 0 0.28690172397702512 0.011815266518820099 0 0.2978295874258669 0.0070254842464454832 0 0.28690172397702512 0.011815266518820099 0 0.29376575238797509 0.0077779804816672602 0 0.2978295874258669 0.0070254842464454832 0 0.28690172397702512 0.011815266518820099 0 0.2978295874258669 0.0070254842464454832 0 0.28687677889875068 0.001725005618485562 0 0.29376575238797509 0.0077779804816672602 0 0.28690172397702512 0.011815266518820099 0 0.28687677889875068 0.001725005618485562 0 0.29376575238797509 0.0077779804816672602 0 0.2978295874258669 0.0070254842464454832 0 0.29376575238797509 0.0077779804816672602 0 0.28690172397702512 0.011815266518820099 0 0.26939274767164711 0.0040745279013861191 0 0.27267603034966698 -0.0077854348569651906 0 0.28690172397702512 0.011815266518820099 0 0.26440570944936082 0.018291830038140541 0 0.28690172397702512 0.011815266518820099 0 0.26939274767164711 0.0040745279013861191 0 0.26440570944936082 0.018291830038140541 0 0.28690172397702512 0.011815266518820099 0 0.27267603034966698 -0.0077854348569651906 0 0.28149235485467722 0.028426230672526639 0 0.26440570944936082 0.018291830038140541 0 0.26921605588191849 0.040519794607793452 0 0.28149235485467722 0.028426230672526639 0 0.28690172397702512 0.011815266518820099 0 0.26440570944936082 0.018291830038140541 0 0.24190969492169709 0.024768393557462999 0 0.26440570944936082 0.018291830038140541 0 0.2485551203034157 0.0102848256948572 0 0.24190969492169709 0.024768393557462999 0 0.26440570944936082 0.018291830038140541 0 0.24190969492169709 0.024768393557462999 0 0.26440570944936082 0.018291830038140541 0 0.25291178968964928 0.037547667281027097 0 0.2485551203034157 0.0102848256948572 0 0.26440570944936082 0.018291830038140541 0 0.25894279220913391 0.003459445712386486 0 0.26939274767164711 0.0040745279013861191 0 0.26440570944936082 0.018291830038140541 0 0.25894279220913391 0.003459445712386486 0 0.2485551203034157 0.0102848256948572 0 0.25894279220913391 0.003459445712386486 0 0.2479891295484222 -0.0022684572774312019 0 0.26939274767164711 0.0040745279013861191 0 0.25894279220913391 0.003459445712386486 0 0.26317147738524183 -0.0038637327990410169 0 0.28562393541442521 0.056242032033416753 0 0.27026274557325353 0.056119745337220257 0 0.26921605588191849 0.040519794607793452 0 0.28562393541442521 0.056242032033416753 0 0.27026274557325353 0.056119745337220257 0 0.27167623587568768 0.070814912161459326 0 0.29190445549758398 0.041801895735158197 0 0.28149235485467722 0.028426230672526639 0 0.26921605588191849 0.040519794607793452 0 0.26921605588191849 0.040519794607793452 0 0.25291178968964928 0.037547667281027097 0 0.25425538404847059 0.057624927133231481 0 0.26440570944936082 0.018291830038140541 0 0.26921605588191849 0.040519794607793452 0 0.25291178968964928 0.037547667281027097 0 0.27026274557325353 0.056119745337220257 0 0.26921605588191849 0.040519794607793452 0 0.25425538404847059 0.057624927133231481 0 0.27026274557325353 0.056119745337220257 0 0.25425538404847059 0.057624927133231481 0 0.27167623587568768 0.070814912161459326 0 0.25425538404847059 0.057624927133231481 0 0.27167623587568768 0.070814912161459326 0 0.25282536794073712 0.073272794188635415 0 0.26618138576237349 0.084067315497028519 0 0.27167623587568768 0.070814912161459326 0 0.25425538404847059 0.057624927133231481 0 0.25282536794073712 0.073272794188635415 0 0.27167623587568768 0.070814912161459326 0 0.25089272908716931 0.092982859712809007 0 0.26618138576237349 0.084067315497028519 0 0.27478568008848531 0.098770115700614086 0 0.25282536794073712 0.073272794188635415 0 0.25089272908716931 0.092982859712809007 0 0.26618138576237349 0.084067315497028519 0 0.26618138576237349 0.084067315497028519 0 0.28181267844286689 0.084890460016538952 0 0.27478568008848531 0.098770115700614086 0 0.26618138576237349 0.084067315497028519 0 0.27167623587568768 0.070814912161459326 0 0.28181267844286689 0.084890460016538952 0 0.27167623587568768 0.070814912161459326 0 0.2870451550563029 0.071072764848292863 0 0.28181267844286689 0.084890460016538952 0 0.2870451550563029 0.071072764848292863 0 0.29673814540623761 0.08207029957157172 0 0.30262144479489489 0.063472250579192202 0 0.28562393541442521 0.056242032033416753 0 0.2870451550563029 0.071072764848292863 0 0.30262144479489489 0.063472250579192202 0 0.28562393541442521 0.056242032033416753 0 0.27167623587568768 0.070814912161459326 0 0.2870451550563029 0.071072764848292863 0 0.2870451550563029 0.071072764848292863 0 0.28181267844286689 0.084890460016538952 0 0.29673814540623761 0.08207029957157172 0 0.28181267844286689 0.084890460016538952 0 0.29673814540623761 0.08207029957157172 0 0.29867863108980142 0.1045573716884185 0 0.31851483003181857 0.089032350953859848 0 0.29673814540623761 0.08207029957157172 0 0.30262144479489489 0.063472250579192202 0 0.31851483003181857 0.089032350953859848 0 0.29673814540623761 0.08207029957157172 0 0.29867863108980142 0.1045573716884185 0 0.2991284260398443 0.1226428311133997 0 0.29867863108980142 0.1045573716884185 0 0.31156748461804079 0.12537242366950921 0 0.32257158209111758 0.11034462767622299 0 0.29867863108980142 0.1045573716884185 0 0.31156748461804079 0.12537242366950921 0 0.32257158209111758 0.11034462767622299 0 0.29867863108980142 0.1045573716884185 0 0.29867863108980142 0.1045573716884185 0 0.27478568008848531 0.098770115700614086 0 0.29867863108980142 0.1045573716884185 0 0.27783009132198788 0.1122622341296569 0 0.27478568008848531 0.098770115700614086 0 0.28181267844286689 0.084890460016538952 0 0.29867863108980142 0.1045573716884185 0 0.27478568008848531 0.098770115700614086 0 0.2991284260398443 0.1226428311133997 0 0.29867863108980142 0.1045573716884185 0 0.28707615928971691 0.1208096883177448 0 0.29867863108980142 0.1045573716884185 0 0.28707615928971691 0.1208096883177448 0 0.27783009132198788 0.1122622341296569 0 0.2991284260398443 0.1226428311133997 0 0.28707615928971691 0.1208096883177448 0 0.29671346303214241 0.12961196471325551 0 0.26302281242735981 0.111198171579071 0 0.27515289576754948 0.1294134834453334 0 0.28707615928971691 0.1208096883177448 0 0.27783009132198788 0.1122622341296569 0 0.27515289576754948 0.1294134834453334 0 0.27783009132198788 0.1122622341296569 0 0.26302281242735981 0.111198171579071 0 0.27515289576754948 0.1294134834453334 0 0.26302281242735981 0.111198171579071 0 0.26007351669183237 0.1253037732749688 0 0.27515289576754948 0.1294134834453334 0 0.27783009132198788 0.1122622341296569 0 0.27478568008848531 0.098770115700614086 0 0.26302281242735981 0.111198171579071 0 0.25089272908716931 0.092982859712809007 0 0.26302281242735981 0.111198171579071 0 0.2496952397761337 0.1160329650041991 0 0.25089272908716931 0.092982859712809007 0 0.26302281242735981 0.111198171579071 0 0.25089272908716931 0.092982859712809007 0 0.27478568008848531 0.098770115700614086 0 0.26302281242735981 0.111198171579071 0 0.25089272908716931 0.092982859712809007 0 0.27478568008848531 0.098770115700614086 0 0.2471064899150823 0.133463067737116 0 0.2496952397761337 0.1160329650041991 0 0.26007351669183237 0.1253037732749688 0 0.2496952397761337 0.1160329650041991 0 0.26302281242735981 0.111198171579071 0 0.26007351669183237 0.1253037732749688 0 0.2471064899150823 0.133463067737116 0 0.26212056590251792 0.13860634342131159 0 0.25227113898158787 0.14916335431643429 0 0.2471064899150823 0.133463067737116 0 0.26212056590251792 0.13860634342131159 0 0.26007351669183237 0.1253037732749688 0 0.27515289576754948 0.1294134834453334 0 0.28728297910773942 0.14762879531159581 0 0.27515289576754948 0.1294134834453334 0 0.27408945104382287 0.14431330872834849 0 0.28728297910773942 0.14762879531159581 0 0.26212056590251792 0.13860634342131159 0 0.26007351669183237 0.1253037732749688 0 0.27515289576754948 0.1294134834453334 0 0.26212056590251792 0.13860634342131159 0 0.27515289576754948 0.1294134834453334 0 0.27408945104382287 0.14431330872834849 0 0.27408945104382287 0.14431330872834849 0 0.27716137478162928 0.15889869399298601 0 0.28728297910773942 0.14762879531159581 0 0.26212056590251792 0.13860634342131159 0 0.27408945104382287 0.14431330872834849 0 0.26493391480523859 0.14953421755469451 0 0.27408945104382287 0.14431330872834849 0 0.26493391480523859 0.14953421755469451 0 0.27716137478162928 0.15889869399298601 0 0.26493391480523859 0.14953421755469451 0 0.25227113898158787 0.14916335431643429 0 0.25784869618064837 0.16117632967822779 0 0.26212056590251792 0.13860634342131159 0 0.26493391480523859 0.14953421755469451 0 0.25227113898158787 0.14916335431643429 0 0.24342118736862761 0.16410875332904781 0 0.25227113898158787 0.14916335431643429 0 0.25784869618064837 0.16117632967822779 0 0.24342118736862761 0.16410875332904781 0 0.25784869618064837 0.16117632967822779 0 0.25421457754785548 0.17528354573505059 0 0.25784869618064837 0.16117632967822779 0 0.25421457754785548 0.17528354573505059 0 0.26798999978846311 0.16999528723303189 0 0.25421457754785548 0.17528354573505059 0 0.26688833639653942 0.18474270353269559 0 0.25113643024109478 0.19094495075723769 0 0.25421457754785548 0.17528354573505059 0 0.26688833639653942 0.18474270353269559 0 0.26798999978846311 0.16999528723303189 0 0.26688833639653942 0.18474270353269559 0 0.27899922157627788 0.1740987885831469 0 0.26798999978846311 0.16999528723303189 0 0.26688833639653942 0.18474270353269559 0 0.27899922157627788 0.1740987885831469 0 0.28165513110548479 0.1855437801635878 0 0.25784869618064837 0.16117632967822779 0 0.26798999978846311 0.16999528723303189 0 0.27716137478162928 0.15889869399298601 0 0.26493391480523859 0.14953421755469451 0 0.25784869618064837 0.16117632967822779 0 0.27716137478162928 0.15889869399298601 0 0.27899922157627788 0.1740987885831469 0 0.26798999978846311 0.16999528723303189 0 0.27716137478162928 0.15889869399298601 0 0.27716137478162928 0.15889869399298601 0 0.28838527260411961 0.16768800255462621 0 0.29642958482603432 0.1586868689393966 0 0.27899922157627788 0.1740987885831469 0 0.27716137478162928 0.15889869399298601 0 0.28838527260411961 0.16768800255462621 0 0.28838527260411961 0.16768800255462621 0 0.29642958482603432 0.1586868689393966 0 0.2990812202460017 0.16972771789266669 0 0.28165513110548479 0.1855437801635878 0 0.29057456817046978 0.17841330338653549 0 0.29442149412013968 0.19018242885082931 0 0.27899922157627788 0.1740987885831469 0 0.28165513110548479 0.1855437801635878 0 0.29057456817046978 0.17841330338653549 0 0.27899922157627788 0.1740987885831469 0 0.28838527260411961 0.16768800255462621 0 0.29057456817046978 0.17841330338653549 0 0.28838527260411961 0.16768800255462621 0 0.29057456817046978 0.17841330338653549 0 0.2990812202460017 0.16972771789266669 0 0.29057456817046978 0.17841330338653549 0 0.30085032626191438 0.18018504882584371 0 0.2990812202460017 0.16972771789266669 0 0.29057456817046978 0.17841330338653549 0 0.30085032626191438 0.18018504882584371 0 0.29442149412013968 0.19018242885082931 0 0.30085032626191438 0.18018504882584371 0 0.29442149412013968 0.19018242885082931 0 0.3080553032197017 0.1887293017033026 0 0.30085032626191438 0.18018504882584371 0 0.31056514142368619 0.1744383831500049 0 0.2990812202460017 0.16972771789266669 0 0.30085032626191438 0.18018504882584371 0 0.31056514142368619 0.1744383831500049 0 0.3080553032197017 0.1887293017033026 0 0.29642958482603432 0.1586868689393966 0 0.30747502192119819 0.16230778928688711 0 0.30151933753066762 0.14970454816787401 0 0.29642958482603432 0.1586868689393966 0 0.2990812202460017 0.16972771789266669 0 0.30747502192119819 0.16230778928688711 0 0.31056514142368619 0.1744383831500049 0 0.2990812202460017 0.16972771789266669 0 0.30747502192119819 0.16230778928688711 0 0.30747502192119819 0.16230778928688711 0 0.30151933753066762 0.14970454816787401 0 0.3129765302581462 0.1494710021231663 0 0.30151933753066762 0.14970454816787401 0 0.29882590938581222 0.14264553562683399 0 0.30718649112507979 0.14443915855455869 0 0.30151933753066762 0.14970454816787401 0 0.30718649112507979 0.14443915855455869 0 0.3129765302581462 0.1494710021231663 0 0.29882590938581222 0.14264553562683399 0 0.30718649112507979 0.14443915855455869 0 0.31229822968882548 0.13781435906697939 0 0.30718649112507979 0.14443915855455869 0 0.31229822968882548 0.13781435906697939 0 0.3129765302581462 0.1494710021231663 0 0.31229822968882548 0.13781435906697939 0 0.28502845800881449 0.13413009067030229 0 0.31229822968882548 0.13781435906697939 0 0.29671346303214241 0.12961196471325551 0 0.28502845800881449 0.13413009067030229 0 0.29882590938581222 0.14264553562683399 0 0.31229822968882548 0.13781435906697939 0 0.28502845800881449 0.13413009067030229 0 0.2991284260398443 0.1226428311133997 0 0.31156748461804079 0.12537242366950921 0 0.30438347209902411 0.12928289016934871 0 0.31229822968882548 0.13781435906697939 0 0.31156748461804079 0.12537242366950921 0 0.30438347209902411 0.12928289016934871 0 0.31229822968882548 0.13781435906697939 0 0.30438347209902411 0.12928289016934871 0 0.29671346303214241 0.12961196471325551 0 0.2991284260398443 0.1226428311133997 0 0.30438347209902411 0.12928289016934871 0 0.29671346303214241 0.12961196471325551 0 0.27515289576754948 0.1294134834453334 0 0.28502845800881449 0.13413009067030229 0 0.28728297910773942 0.14762879531159581 0 0.28707615928971691 0.1208096883177448 0 0.29671346303214241 0.12961196471325551 0 0.28502845800881449 0.13413009067030229 0 0.28707615928971691 0.1208096883177448 0 0.27515289576754948 0.1294134834453334 0 0.28502845800881449 0.13413009067030229 0 0.27716137478162928 0.15889869399298601 0 0.29642958482603432 0.1586868689393966 0 0.28728297910773942 0.14762879531159581 0 0.29642958482603432 0.1586868689393966 0 0.30151933753066762 0.14970454816787401 0 0.28728297910773942 0.14762879531159581 0 0.30151933753066762 0.14970454816787401 0 0.29882590938581222 0.14264553562683399 0 0.28728297910773942 0.14762879531159581 0 0.29882590938581222 0.14264553562683399 0 0.28502845800881449 0.13413009067030229 0 0.28728297910773942 0.14762879531159581 0 0.2459873280094696 0.23707215699401071 0 0.27381195783464701 0.24213208581531279 0 0.2459873280094696 0.23707215699401071 0 0.27381195783464701 0.24213208581531279 0 0.27283394916361492 0.24742619336605559 0 0.2459873280094696 0.23707215699401071 0 0.27283394916361492 0.24742619336605559 0 0.2459873280094696 0.23707215699401071 0 0.25877170878786238 0.25302463852503437 0 0.27283394916361492 0.24742619336605559 0 0.2459873280094696 0.23707215699401071 0 0.24763005152173001 0.25910176257370959 0 0.25877170878786238 0.25302463852503437 0 0.24332195560292991 0.2175119837032847 0 0.2459873280094696 0.23707215699401071 0 0.26947725056793032 0.22188821543332771 0 0.2459873280094696 0.23707215699401071 0 0.27381195783464701 0.24213208581531279 0 0.26947725056793032 0.22188821543332771 0 0.24332195560292991 0.2175119837032847 0 0.26947725056793032 0.22188821543332771 0 0.27381195783464701 0.24213208581531279 0 0.26947725056793032 0.22188821543332771 0 0.29563254553293061 0.22626444716337071 0 0.26947725056793032 0.22188821543332771 0 0.26383894902510108 0.20488334565775601 0 0.28252807440433819 0.20448568929014271 0 0.24828008483854189 0.20295934428596721 0 0.24332195560292991 0.2175119837032847 0 0.26383894902510108 0.20488334565775601 0 0.24332195560292991 0.2175119837032847 0 0.26947725056793032 0.22188821543332771 0 0.26383894902510108 0.20488334565775601 0 0.26688833639653942 0.18474270353269559 0 0.26383894902510108 0.20488334565775601 0 0.25113643024109478 0.19094495075723769 0 0.24828008483854189 0.20295934428596721 0 0.26383894902510108 0.20488334565775601 0 0.25113643024109478 0.19094495075723769 0 0.26688833639653942 0.18474270353269559 0 0.26383894902510108 0.20488334565775601 0 0.27369942293731819 0.19569303942008121 0 0.26383894902510108 0.20488334565775601 0 0.27369942293731819 0.19569303942008121 0 0.28252807440433819 0.20448568929014271 0 0.28165513110548479 0.1855437801635878 0 0.27369942293731819 0.19569303942008121 0 0.28252807440433819 0.20448568929014271 0 0.26688833639653942 0.18474270353269559 0 0.28165513110548479 0.1855437801635878 0 0.27369942293731819 0.19569303942008121 0 0.28165513110548479 0.1855437801635878 0 0.29442149412013968 0.19018242885082931 0 0.28252807440433819 0.20448568929014271 0 0.29442149412013968 0.19018242885082931 0 0.30168066081365352 0.2029210297493958 0 0.28252807440433819 0.20448568929014271 0 0.29442149412013968 0.19018242885082931 0 0.3080553032197017 0.1887293017033026 0 0.30168066081365352 0.2029210297493958 0 0.3080553032197017 0.1887293017033026 0 0.30168066081365352 0.2029210297493958 0 0.31674655555173881 0.19902842766084339 0 0.30168066081365352 0.2029210297493958 0 0.29563254553293061 0.22626444716337071 0 0.31377845179643721 0.21458276756770189 0 0.30168066081365352 0.2029210297493958 0 0.31377845179643721 0.21458276756770189 0 0.31674655555173881 0.19902842766084339 0 0.30168066081365352 0.2029210297493958 0 0.28252807440433819 0.20448568929014271 0 0.29563254553293061 0.22626444716337071 0 0.26947725056793032 0.22188821543332771 0 0.28252807440433819 0.20448568929014271 0 0.29563254553293061 0.22626444716337071 0 0.26947725056793032 0.22188821543332771 0 0.29563254553293061 0.22626444716337071 0 0.29563254553293061 0.22626444716337071 0 0.3217878404979308 0.23064067889341369 0 0.31377845179643721 0.21458276756770189 0 0.29563254553293061 0.22626444716337071 0 0.3217878404979308 0.23064067889341369 0 0.29563254553293061 0.22626444716337071 0 0.3016365876598241 0.24719201463661561 0 0.3217878404979308 0.23064067889341369 0 0.27381195783464701 0.24213208581531279 0 0.29563254553293061 0.22626444716337071 0 0.3016365876598241 0.24719201463661561 0 0.27381195783464701 0.24213208581531279 0 0.3016365876598241 0.24719201463661561 0 0.27381195783464701 0.24213208581531279 0 0.27283394916361492 0.24742619336605559 0 0.3016365876598241 0.24719201463661561 0 0.32946121748500129 0.25225194345791829 0 0.3217878404979308 0.23064067889341369 0 0.34556910970536658 0.23921390462248199 0 0.32946121748500129 0.25225194345791829 0 0.3016365876598241 0.24719201463661561 0 0.3217878404979308 0.23064067889341369 0 0.32946121748500129 0.25225194345791829 0 0.3016365876598241 0.24719201463661561 0 0.3217878404979308 0.23064067889341369 0 0.33460182177363001 0.21999966289075409 0 0.31377845179643721 0.21458276756770189 0 0.3217878404979308 0.23064067889341369 0 0.33460182177363001 0.21999966289075409 0 0.34556910970536658 0.23921390462248199 0 0.33460182177363001 0.21999966289075409 0 0.3278776259658665 0.2076214509036243 0 0.34419695055865512 0.20542025302645439 0 0.33460182177363001 0.21999966289075409 0 0.31377845179643721 0.21458276756770189 0 0.3278776259658665 0.2076214509036243 0 0.31377845179643721 0.21458276756770189 0 0.3278776259658665 0.2076214509036243 0 0.31674655555173881 0.19902842766084339 0 0.3278776259658665 0.2076214509036243 0 0.31674655555173881 0.19902842766084339 0 0.32893527636844411 0.194937601908272 0 0.3080553032197017 0.1887293017033026 0 0.31674655555173881 0.19902842766084339 0 0.32122387935841612 0.1836610840160959 0 0.31674655555173881 0.19902842766084339 0 0.32893527636844411 0.194937601908272 0 0.32122387935841612 0.1836610840160959 0 0.32893527636844411 0.194937601908272 0 0.34419695055865512 0.20542025302645439 0 0.33967484433078321 0.18584068278097349 0 0.32893527636844411 0.194937601908272 0 0.32122387935841612 0.1836610840160959 0 0.33967484433078321 0.18584068278097349 0 0.3278776259658665 0.2076214509036243 0 0.32893527636844411 0.194937601908272 0 0.34419695055865512 0.20542025302645439 0 0.35368837148756882 0.19334260062126429 0 0.34419695055865512 0.20542025302645439 0 0.33967484433078321 0.18584068278097349 0 0.35368837148756882 0.19334260062126429 0 0.36735815001373812 0.20351917688449569 0 0.34419695055865512 0.20542025302645439 0 0.36735815001373812 0.20351917688449569 0 0.36699199379966768 0.18628457072029089 0 0.38367398474104891 0.18179268717308689 0 0.35368837148756882 0.19334260062126429 0 0.36735815001373812 0.20351917688449569 0 0.36699199379966768 0.18628457072029089 0 0.36735815001373812 0.20351917688449569 0 0.35440095211752448 0.2225189223308488 0 0.37280151553833601 0.22024831863616021 0 0.36735815001373812 0.20351917688449569 0 0.37280151553833601 0.22024831863616021 0 0.38406378734192298 0.20777210545990279 0 0.36735815001373812 0.20351917688449569 0 0.34419695055865512 0.20542025302645439 0 0.35440095211752448 0.2225189223308488 0 0.33460182177363001 0.21999966289075409 0 0.34419695055865512 0.20542025302645439 0 0.35440095211752448 0.2225189223308488 0 0.35440095211752448 0.2225189223308488 0 0.37293454716760283 0.2396311516560117 0 0.34556910970536658 0.23921390462248199 0 0.33460182177363001 0.21999966289075409 0 0.35440095211752448 0.2225189223308488 0 0.34556910970536658 0.23921390462248199 0 0.35440095211752448 0.2225189223308488 0 0.37280151553833601 0.22024831863616021 0 0.37293454716760283 0.2396311516560117 0 0.32946121748500129 0.25225194345791829 0 0.35728584731017871 0.25731187227922109 0 0.34556910970536658 0.23921390462248199 0 0.35728584731017871 0.25731187227922109 0 0.37293454716760283 0.2396311516560117 0 0.34556910970536658 0.23921390462248199 0 0.33789665254535572 0.15537308983460499 0 0.33956800136883641 0.14149862746365649 0 0.32484504322689201 0.150618498474763 0 0.33789665254535572 0.15537308983460499 0 0.32484504322689201 0.150618498474763 0 0.32925575641373173 0.1625602653078303 0 0.33789665254535572 0.15537308983460499 0 0.33956800136883641 0.14149862746365649 0 0.35085012880757988 0.15547460686614431 0 0.31847051852819058 0.13586426255884801 0 0.34441400131097022 0.1288917011053414 0 0.32933038512457441 0.1245201253257071 0 0.31847051852819058 0.13586426255884801 0 0.34441400131097022 0.1288917011053414 0 0.33956800136883641 0.14149862746365649 0 0.31847051852819058 0.13586426255884801 0 0.34441400131097022 0.1288917011053414 0 0.31229822968882548 0.13781435906697939 0 0.33956800136883641 0.14149862746365649 0 0.31229822968882548 0.13781435906697939 0 0.33956800136883641 0.14149862746365649 0 0.31847051852819058 0.13586426255884801 0 0.32933038512457441 0.1245201253257071 0 0.3207185438207466 0.1263919595033525 0 0.31847051852819058 0.13586426255884801 0 0.31156748461804079 0.12537242366950921 0 0.3207185438207466 0.1263919595033525 0 0.31847051852819058 0.13586426255884801 0 0.31229822968882548 0.13781435906697939 0 0.31156748461804079 0.12537242366950921 0 0.31847051852819058 0.13586426255884801 0 0.31229822968882548 0.13781435906697939 0 0.33956800136883641 0.14149862746365649 0 0.32484504322689201 0.150618498474763 0 0.31229822968882548 0.13781435906697939 0 0.32484504322689201 0.150618498474763 0 0.3129765302581462 0.1494710021231663 0 0.32484504322689201 0.150618498474763 0 0.3129765302581462 0.1494710021231663 0 0.31772009751989111 0.15842714336302041 0 0.30747502192119819 0.16230778928688711 0 0.3129765302581462 0.1494710021231663 0 0.31772009751989111 0.15842714336302041 0 0.30747502192119819 0.16230778928688711 0 0.31772009751989111 0.15842714336302041 0 0.32080742045079952 0.16866520015094741 0 0.31056514142368619 0.1744383831500049 0 0.30747502192119819 0.16230778928688711 0 0.32080742045079952 0.16866520015094741 0 0.32080742045079952 0.16866520015094741 0 0.33131907253280629 0.1738795647946571 0 0.32925575641373173 0.1625602653078303 0 0.32484504322689201 0.150618498474763 0 0.31772009751989111 0.15842714336302041 0 0.32925575641373173 0.1625602653078303 0 0.31772009751989111 0.15842714336302041 0 0.32080742045079952 0.16866520015094741 0 0.32925575641373173 0.1625602653078303 0 0.31056514142368619 0.1744383831500049 0 0.3080553032197017 0.1887293017033026 0 0.32122387935841612 0.1836610840160959 0 0.31056514142368619 0.1744383831500049 0 0.32080742045079952 0.16866520015094741 0 0.32122387935841612 0.1836610840160959 0 0.32080742045079952 0.16866520015094741 0 0.32122387935841612 0.1836610840160959 0 0.33131907253280629 0.1738795647946571 0 0.33131907253280629 0.1738795647946571 0 0.33967484433078321 0.18584068278097349 0 0.34294625220664587 0.1683980952289891 0 0.32122387935841612 0.1836610840160959 0 0.33131907253280629 0.1738795647946571 0 0.33967484433078321 0.18584068278097349 0 0.33131907253280629 0.1738795647946571 0 0.32925575641373173 0.1625602653078303 0 0.34294625220664587 0.1683980952289891 0 0.33789665254535572 0.15537308983460499 0 0.32925575641373173 0.1625602653078303 0 0.34294625220664587 0.1683980952289891 0 0.34294625220664587 0.1683980952289891 0 0.35531914635495271 0.16562513299740311 0 0.35085012880757988 0.15547460686614431 0 0.33789665254535572 0.15537308983460499 0 0.34294625220664587 0.1683980952289891 0 0.35085012880757988 0.15547460686614431 0 0.34294625220664587 0.1683980952289891 0 0.35531914635495271 0.16562513299740311 0 0.35387202203434698 0.17803066266241011 0 0.35531914635495271 0.16562513299740311 0 0.35387202203434698 0.17803066266241011 0 0.36550295271590683 0.1690726970215666 0 0.35531914635495271 0.16562513299740311 0 0.36342437601028388 0.15714960320790561 0 0.35085012880757988 0.15547460686614431 0 0.33967484433078321 0.18584068278097349 0 0.34294625220664587 0.1683980952289891 0 0.35387202203434698 0.17803066266241011 0 0.35368837148756882 0.19334260062126429 0 0.33967484433078321 0.18584068278097349 0 0.35387202203434698 0.17803066266241011 0 0.35368837148756882 0.19334260062126429 0 0.35387202203434698 0.17803066266241011 0 0.36699199379966768 0.18628457072029089 0 0.37486327834919952 0.17324080595030389 0 0.36699199379966768 0.18628457072029089 0 0.36550295271590683 0.1690726970215666 0 0.35387202203434698 0.17803066266241011 0 0.36699199379966768 0.18628457072029089 0 0.36550295271590683 0.1690726970215666 0 0.36342437601028388 0.15714960320790561 0 0.36550295271590683 0.1690726970215666 0 0.38328418214017468 0.15581326888627101 0 0.37486327834919952 0.17324080595030389 0 0.36550295271590683 0.1690726970215666 0 0.38328418214017468 0.15581326888627101 0 0.35531914635495271 0.16562513299740311 0 0.36342437601028388 0.15714960320790561 0 0.36550295271590683 0.1690726970215666 0 0.36342437601028388 0.15714960320790561 0 0.36683777304884752 0.14518289586033359 0 0.38328418214017468 0.15581326888627101 0 0.36342437601028388 0.15714960320790561 0 0.36683777304884752 0.14518289586033359 0 0.35085012880757988 0.15547460686614431 0 0.33956800136883641 0.14149862746365649 0 0.36683777304884752 0.14518289586033359 0 0.33956800136883641 0.14149862746365649 0 0.36683777304884752 0.14518289586033359 0 0.35085012880757988 0.15547460686614431 0 0.37035748409374952 0.12191913965183331 0 0.34441400131097022 0.1288917011053414 0 0.33956800136883641 0.14149862746365649 0 0.34441400131097022 0.1288917011053414 0 0.35985245571789548 0.13256521397634091 0 0.37035748409374952 0.12191913965183331 0 0.34441400131097022 0.1288917011053414 0 0.35985245571789548 0.13256521397634091 0 0.33956800136883641 0.14149862746365649 0 0.36683777304884752 0.14518289586033359 0 0.35985245571789548 0.13256521397634091 0 0.36683777304884752 0.14518289586033359 0 0.37024230120578611 0.13336796185197819 0 0.3828943795393005 0.1298338505994551 0 0.36683777304884752 0.14518289586033359 0 0.35985245571789548 0.13256521397634091 0 0.37024230120578611 0.13336796185197819 0 0.35985245571789548 0.13256521397634091 0 0.37024230120578611 0.13336796185197819 0 0.37169283910029199 0.12815165521797289 0 0.37024230120578611 0.13336796185197819 0 0.37169283910029199 0.12815165521797289 0 0.3828943795393005 0.1298338505994551 0 0.37035748409374952 0.12191913965183331 0 0.35985245571789548 0.13256521397634091 0 0.37169283910029199 0.12815165521797289 0 0.37169283910029199 0.12815165521797289 0 0.3828943795393005 0.1298338505994551 0 0.37511757494472903 0.123072110010257 0 0.3828943795393005 0.1298338505994551 0 0.39816792615439378 0.12760480203569169 0 0.39443703245191569 0.14316330482662179 0 0.39816792615439378 0.12760480203569169 0 0.39443703245191569 0.14316330482662179 0 0.40813897635800228 0.13879757292358971 0 0.40355831469332321 0.14905262061052801 0 0.39443703245191569 0.14316330482662179 0 0.39831584160420508 0.1589856433255693 0 0.39443703245191569 0.14316330482662179 0 0.38328418214017468 0.15581326888627101 0 0.39831584160420508 0.1589856433255693 0 0.40355831469332321 0.14905262061052801 0 0.39831584160420508 0.1589856433255693 0 0.41313230378900101 0.1549252007201132 0 0.40355831469332321 0.14905262061052801 0 0.39443703245191569 0.14316330482662179 0 0.40813897635800228 0.13879757292358971 0 0.3828943795393005 0.1298338505994551 0 0.39443703245191569 0.14316330482662179 0 0.38328418214017468 0.15581326888627101 0 0.36683777304884752 0.14518289586033359 0 0.3828943795393005 0.1298338505994551 0 0.38328418214017468 0.15581326888627101 0 0.3828943795393005 0.1298338505994551 0 0.38328418214017468 0.15581326888627101 0 0.38328418214017468 0.15581326888627101 0 0.38367398474104891 0.18179268717308689 0 0.37486327834919952 0.17324080595030389 0 0.38328418214017468 0.15581326888627101 0 0.38367398474104891 0.18179268717308689 0 0.38328418214017468 0.15581326888627101 0 0.38367398474104891 0.18179268717308689 0 0.39626047774709761 0.17356948839180519 0 0.37486327834919952 0.17324080595030389 0 0.36699199379966768 0.18628457072029089 0 0.38367398474104891 0.18179268717308689 0 0.38367398474104891 0.18179268717308689 0 0.39626047774709761 0.17356948839180519 0 0.39402839101454218 0.18926537882500041 0 0.41201559310989622 0.1717711692121752 0 0.39402839101454218 0.18926537882500041 0 0.40911253846621609 0.1927355572029634 0 0.41201559310989622 0.1717711692121752 0 0.39402839101454218 0.18926537882500041 0 0.39626047774709761 0.17356948839180519 0 0.41201559310989622 0.1717711692121752 0 0.39402839101454218 0.18926537882500041 0 0.38328418214017468 0.15581326888627101 0 0.39626047774709761 0.17356948839180519 0 0.39831584160420508 0.1589856433255693 0 0.39626047774709761 0.17356948839180519 0 0.39831584160420508 0.1589856433255693 0 0.41201559310989622 0.1717711692121752 0 0.39831584160420508 0.1589856433255693 0 0.41201559310989622 0.1717711692121752 0 0.41313230378900101 0.1549252007201132 0 0.41201559310989622 0.1717711692121752 0 0.43000279520525009 0.1542769595993502 0 0.41201559310989622 0.1717711692121752 0 0.43000279520525009 0.1542769595993502 0 0.41313230378900101 0.1549252007201132 0 0.41201559310989622 0.1717711692121752 0 0.42496471626184562 0.18478050847474101 0 0.40911253846621609 0.1927355572029634 0 0.42496471626184562 0.18478050847474101 0 0.42886790669691233 0.1683305758749721 0 0.44390934378202151 0.1869955505783234 0 0.41201559310989622 0.1717711692121752 0 0.42496471626184562 0.18478050847474101 0 0.42886790669691233 0.1683305758749721 0 0.42886790669691233 0.1683305758749721 0 0.44390934378202151 0.1869955505783234 0 0.41201559310989622 0.1717711692121752 0 0.42886790669691233 0.1683305758749721 0 0.43000279520525009 0.1542769595993502 0 0.42886790669691233 0.1683305758749721 0 0.43000279520525009 0.1542769595993502 0 0.44221599041969212 0.16183818438693329 0 0.43000279520525009 0.1542769595993502 0 0.42332430940078591 0.1392784445062823 0 0.4479899973006039 0.1367827499865252 0 0.43000279520525009 0.1542769595993502 0 0.42332430940078591 0.1392784445062823 0 0.41313230378900101 0.1549252007201132 0 0.429848517254516 0.1255917524949702 0 0.42332430940078591 0.1392784445062823 0 0.41384889774502859 0.12525543762671809 0 0.429848517254516 0.1255917524949702 0 0.42332430940078591 0.1392784445062823 0 0.4479899973006039 0.1367827499865252 0 0.39816792615439378 0.12760480203569169 0 0.41384889774502859 0.12525543762671809 0 0.40813897635800228 0.13879757292358971 0 0.42332430940078591 0.1392784445062823 0 0.41384889774502859 0.12525543762671809 0 0.40813897635800228 0.13879757292358971 0 0.40355831469332321 0.14905262061052801 0 0.40813897635800228 0.13879757292358971 0 0.41313230378900101 0.1549252007201132 0 0.42332430940078591 0.1392784445062823 0 0.40813897635800228 0.13879757292358971 0 0.41313230378900101 0.1549252007201132 0 0.38511047713535562 0.2623718011005241 0 0.37293454716760283 0.2396311516560117 0 0.39933451681408499 0.24222051247515669 0 0.37293454716760283 0.2396311516560117 0 0.39933451681408499 0.24222051247515669 0 0.39045396999845727 0.2225958518425987 0 0.37280151553833601 0.22024831863616021 0 0.37293454716760283 0.2396311516560117 0 0.39045396999845727 0.2225958518425987 0 0.39933451681408499 0.24222051247515669 0 0.39045396999845727 0.2225958518425987 0 0.41502085935247712 0.2184770015477572 0 0.39045396999845727 0.2225958518425987 0 0.39965272480706299 0.2061417744041574 0 0.38406378734192298 0.20777210545990279 0 0.39045396999845727 0.2225958518425987 0 0.39965272480706299 0.2061417744041574 0 0.41502085935247712 0.2184770015477572 0 0.37280151553833601 0.22024831863616021 0 0.39045396999845727 0.2225958518425987 0 0.38406378734192298 0.20777210545990279 0 0.36735815001373812 0.20351917688449569 0 0.38367398474104891 0.18179268717308689 0 0.38406378734192298 0.20777210545990279 0 0.38367398474104891 0.18179268717308689 0 0.38406378734192298 0.20777210545990279 0 0.38367398474104891 0.18179268717308689 0 0.38406378734192298 0.20777210545990279 0 0.39402839101454218 0.18926537882500041 0 0.39965272480706299 0.2061417744041574 0 0.38406378734192298 0.20777210545990279 0 0.39402839101454218 0.18926537882500041 0 0.39965272480706299 0.2061417744041574 0 0.39402839101454218 0.18926537882500041 0 0.40911253846621609 0.1927355572029634 0 0.42496471626184562 0.18478050847474101 0 0.40911253846621609 0.1927355572029634 0 0.43133039545531981 0.20312972213906441 0 0.42496471626184562 0.18478050847474101 0 0.43133039545531981 0.20312972213906441 0 0.44390934378202151 0.1869955505783234 0 0.43133039545531981 0.20312972213906441 0 0.41502085935247712 0.2184770015477572 0 0.43839838412078092 0.2247149777195776 0 0.40911253846621609 0.1927355572029634 0 0.41502085935247712 0.2184770015477572 0 0.40911253846621609 0.1927355572029634 0 0.43133039545531981 0.20312972213906441 0 0.41502085935247712 0.2184770015477572 0 0.39965272480706299 0.2061417744041574 0 0.40911253846621609 0.1927355572029634 0 0.41502085935247712 0.2184770015477572 0 0.41502085935247712 0.2184770015477572 0 0.42092918023873821 0.24421844589255121 0 0.41502085935247712 0.2184770015477572 0 0.42092918023873821 0.24421844589255121 0 0.43839838412078092 0.2247149777195776 0 0.42092918023873821 0.24421844589255121 0 0.44272868649399699 0.2414724783298311 0 0.43839838412078092 0.2247149777195776 0 0.44089414042045799 0.25771217685885472 0 0.42092918023873821 0.24421844589255121 0 0.44272868649399699 0.2414724783298311 0 0.39933451681408499 0.24222051247515669 0 0.41502085935247712 0.2184770015477572 0 0.42092918023873821 0.24421844589255121 0 0.46750550623703407 0.25349570762290419 0 0.4569230610569987 0.24819013429900669 0 0.47278153852907701 0.24486280325581439 0 0.4569230610569987 0.24819013429900669 0 0.45723446189795819 0.23161380727854039 0 0.47278153852907701 0.24486280325581439 0 0.4569230610569987 0.24819013429900669 0 0.44272868649399699 0.2414724783298311 0 0.45723446189795819 0.23161380727854039 0 0.44089414042045799 0.25771217685885472 0 0.4569230610569987 0.24819013429900669 0 0.44272868649399699 0.2414724783298311 0 0.43839838412078092 0.2247149777195776 0 0.45723446189795819 0.23161380727854039 0 0.45895078086713059 0.20566052528167461 0 0.44272868649399699 0.2414724783298311 0 0.43839838412078092 0.2247149777195776 0 0.45723446189795819 0.23161380727854039 0 0.45723446189795819 0.23161380727854039 0 0.47399221795223978 0.22432549998502579 0 0.47278153852907701 0.24486280325581439 0 0.45723446189795819 0.23161380727854039 0 0.45895078086713059 0.20566052528167461 0 0.47399221795223978 0.22432549998502579 0 0.45895078086713059 0.20566052528167461 0 0.47399221795223978 0.22432549998502579 0 0.43133039545531981 0.20312972213906441 0 0.43839838412078092 0.2247149777195776 0 0.45895078086713059 0.20566052528167461 0 0.43133039545531981 0.20312972213906441 0 0.45895078086713059 0.20566052528167461 0 0.44390934378202151 0.1869955505783234 0 0.45895078086713059 0.20566052528167461 0 0.44390934378202151 0.1869955505783234 0 0.45895078086713059 0.20566052528167461 0 0.44390934378202151 0.1869955505783234 0 0.47471792995388828 0.18435875067661631 0 0.45895078086713059 0.20566052528167461 0 0.47967819324703809 0.2043502093285503 0 0.47471792995388828 0.18435875067661631 0 0.5 0.20006456793442701 0 0.47967819324703809 0.2043502093285503 0 0.47471792995388828 0.18435875067661631 0 0.5 0.20006456793442701 0 0.48813206750880261 0.21755351138133391 0 0.47967819324703809 0.2043502093285503 0 0.5 0.20006456793442701 0 0.48813206750880261 0.21755351138133391 0 0.5 0.22779789293978581 0 0.45895078086713059 0.20566052528167461 0 0.47967819324703809 0.2043502093285503 0 0.47399221795223978 0.22432549998502579 0 0.48813206750880261 0.21755351138133391 0 0.47967819324703809 0.2043502093285503 0 0.47399221795223978 0.22432549998502579 0 0.48813206750880261 0.21755351138133391 0 0.47399221795223978 0.22432549998502579 0 0.48903365503734891 0.24299047468837701 0 0.47399221795223978 0.22432549998502579 0 0.48903365503734891 0.24299047468837701 0 0.48813206750880261 0.21755351138133391 0 0.5 0.22779789293978581 0 0.48903365503734891 0.24299047468837701 0 0.5 0.25553121794514477 0 0.5 0.22779789293978581 0 0.48903365503734891 0.24299047468837701 0 0.48489893488970792 0.25686202981026901 0 0.48903365503734891 0.24299047468837701 0 0.47278153852907701 0.24486280325581439 0 0.47399221795223978 0.22432549998502579 0 0.48903365503734891 0.24299047468837701 0 0.47278153852907701 0.24486280325581439 0 0.4479899973006039 0.1367827499865252 0 0.46030990911367259 0.16280508589549539 0 0.47332178232586258 0.14483424446409521 0 0.4479899973006039 0.1367827499865252 0 0.47332178232586258 0.14483424446409521 0 0.46597719939595772 0.11928854037370019 0 0.4479899973006039 0.1367827499865252 0 0.46597719939595772 0.11928854037370019 0 0.429848517254516 0.1255917524949702 0 0.4479899973006039 0.1367827499865252 0 0.44441253831551758 0.1138689947079024 0 0.43000279520525009 0.1542769595993502 0 0.4479899973006039 0.1367827499865252 0 0.44221599041969212 0.16183818438693329 0 0.43000279520525009 0.1542769595993502 0 0.4479899973006039 0.1367827499865252 0 0.4479899973006039 0.1367827499865252 0 0.44221599041969212 0.16183818438693329 0 0.46030990911367259 0.16280508589549539 0 0.44221599041969212 0.16183818438693329 0 0.44390934378202151 0.1869955505783234 0 0.46030990911367259 0.16280508589549539 0 0.42886790669691233 0.1683305758749721 0 0.44221599041969212 0.16183818438693329 0 0.44390934378202151 0.1869955505783234 0 0.44390934378202151 0.1869955505783234 0 0.46030990911367259 0.16280508589549539 0 0.47471792995388828 0.18435875067661631 0 0.46030990911367259 0.16280508589549539 0 0.48162298028441808 0.16304382698580119 0 0.47332178232586258 0.14483424446409521 0 0.46030990911367259 0.16280508589549539 0 0.48162298028441808 0.16304382698580119 0 0.47471792995388828 0.18435875067661631 0 0.5 0.20006456793442701 0 0.47471792995388828 0.18435875067661631 0 0.5 0.17233124292906801 0 0.48162298028441808 0.16304382698580119 0 0.47471792995388828 0.18435875067661631 0 0.5 0.17233124292906801 0 0.48162298028441808 0.16304382698580119 0 0.5 0.17233124292906801 0 0.5 0.14459791792370899 0 0.48162298028441808 0.16304382698580119 0 0.5 0.14459791792370899 0 0.47332178232586258 0.14483424446409521 0 0.47332178232586258 0.14483424446409521 0 0.48369720064842647 0.1280225697211729 0 0.46597719939595772 0.11928854037370019 0 0.5 0.14459791792370899 0 0.48369720064842647 0.1280225697211729 0 0.5 0.1168645929183502 0 0.5 0.14459791792370899 0 0.47332178232586258 0.14483424446409521 0 0.48369720064842647 0.1280225697211729 0 0.48369720064842647 0.1280225697211729 0 0.5 0.1168645929183502 0 0.47911227232856668 0.09907818001940101 0 0.5 0.1168645929183502 0 0.47911227232856668 0.09907818001940101 0 0.5 0.089131267912991197 0 0.48369720064842647 0.1280225697211729 0 0.47911227232856668 0.09907818001940101 0 0.46597719939595772 0.11928854037370019 0 0.48592231416185638 0.0752646054103117 0 0.5 0.089131267912991197 0 0.5 0.06139794290763223 0 0.47911227232856668 0.09907818001940101 0 0.48592231416185638 0.0752646054103117 0 0.5 0.089131267912991197 0 0.47911227232856668 0.09907818001940101 0 0.48592231416185638 0.0752646054103117 0 0.46599422920766509 0.071585542922595516 0 0.48592231416185638 0.0752646054103117 0 0.46599422920766509 0.071585542922595516 0 0.47969083044660421 0.050503904472553283 0 0.47911227232856668 0.09907818001940101 0 0.46599422920766509 0.071585542922595516 0 0.45660210543223351 0.096238293732025512 0 0.46599422920766509 0.071585542922595516 0 0.44319262383460789 0.070531660330671375 0 0.45660210543223351 0.096238293732025512 0 0.44319262383460789 0.070531660330671375 0 0.45660210543223351 0.096238293732025512 0 0.43559540491542181 0.095634413362833848 0 0.46597719939595772 0.11928854037370019 0 0.45660210543223351 0.096238293732025512 0 0.44441253831551758 0.1138689947079024 0 0.47911227232856668 0.09907818001940101 0 0.46597719939595772 0.11928854037370019 0 0.45660210543223351 0.096238293732025512 0 0.45660210543223351 0.096238293732025512 0 0.44441253831551758 0.1138689947079024 0 0.43559540491542181 0.095634413362833848 0 0.4479899973006039 0.1367827499865252 0 0.46597719939595772 0.11928854037370019 0 0.44441253831551758 0.1138689947079024 0 0.429848517254516 0.1255917524949702 0 0.44441253831551758 0.1138689947079024 0 0.42416274095453271 0.1101558860989641 0 0.429848517254516 0.1255917524949702 0 0.41384889774502859 0.12525543762671809 0 0.42416274095453271 0.1101558860989641 0 0.41384889774502859 0.12525543762671809 0 0.42416274095453271 0.1101558860989641 0 0.40716605829359193 0.1120264799895512 0 0.39816792615439378 0.12760480203569169 0 0.41384889774502859 0.12525543762671809 0 0.40716605829359193 0.1120264799895512 0 0.40716605829359193 0.1120264799895512 0 0.41525133388600899 0.093407911538609431 0 0.39656535672550852 0.092974877928873267 0 0.42416274095453271 0.1101558860989641 0 0.40716605829359193 0.1120264799895512 0 0.41525133388600899 0.093407911538609431 0 0.42416274095453271 0.1101558860989641 0 0.43559540491542181 0.095634413362833848 0 0.41525133388600899 0.093407911538609431 0 0.44441253831551758 0.1138689947079024 0 0.42416274095453271 0.1101558860989641 0 0.43559540491542181 0.095634413362833848 0 0.43559540491542181 0.095634413362833848 0 0.4195547633014628 0.073570994746074828 0 0.41525133388600899 0.093407911538609431 0 0.43559540491542181 0.095634413362833848 0 0.4195547633014628 0.073570994746074828 0 0.44319262383460789 0.070531660330671375 0 0.43559540491542181 0.095634413362833848 0 0.4195547633014628 0.073570994746074828 0 0.44319262383460789 0.070531660330671375 0 0.4195547633014628 0.073570994746074828 0 0.42728191937221521 0.050914286525162993 0 0.4195547633014628 0.073570994746074828 0 0.39780951386322527 0.071813900777571313 0 0.40351412168750378 0.051507576129315842 0 0.4195547633014628 0.073570994746074828 0 0.40351412168750378 0.051507576129315842 0 0.4195547633014628 0.073570994746074828 0 0.41525133388600899 0.093407911538609431 0 0.39780951386322527 0.071813900777571313 0 0.41525133388600899 0.093407911538609431 0 0.39656535672550852 0.092974877928873267 0 0.39780951386322527 0.071813900777571313 0 0.37400882161871279 0.083619613235024759 0 0.37883567044039879 0.062600723425798879 0 0.39780951386322527 0.071813900777571313 0 0.37883567044039879 0.062600723425798879 0 0.3909554563133032 0.056876008487314757 0 0.37400882161871279 0.083619613235024759 0 0.39780951386322527 0.071813900777571313 0 0.37883567044039879 0.062600723425798879 0 0.37400882161871279 0.083619613235024759 0 0.39656535672550852 0.092974877928873267 0 0.38808178026068268 0.10392801007035141 0 0.37400882161871279 0.083619613235024759 0 0.39656535672550852 0.092974877928873267 0 0.39780951386322527 0.071813900777571313 0 0.37455144446510141 0.10193275935197101 0 0.37400882161871279 0.083619613235024759 0 0.38808178026068268 0.10392801007035141 0 0.37455144446510141 0.10193275935197101 0 0.38808178026068268 0.10392801007035141 0 0.37815432920295677 0.1109533992790251 0 0.37035748409374952 0.12191913965183331 0 0.38876177119367089 0.116972809820693 0 0.37035748409374952 0.12191913965183331 0 0.37511757494472903 0.123072110010257 0 0.38876177119367089 0.116972809820693 0 0.37035748409374952 0.12191913965183331 0 0.37815432920295677 0.1109533992790251 0 0.38876177119367089 0.116972809820693 0 0.3828943795393005 0.1298338505994551 0 0.37511757494472903 0.123072110010257 0 0.38876177119367089 0.116972809820693 0 0.3828943795393005 0.1298338505994551 0 0.39816792615439378 0.12760480203569169 0 0.38876177119367089 0.116972809820693 0 0.38808178026068268 0.10392801007035141 0 0.37815432920295677 0.1109533992790251 0 0.38876177119367089 0.116972809820693 0 0.40716605829359193 0.1120264799895512 0 0.38876177119367089 0.116972809820693 0 0.39816792615439378 0.12760480203569169 0 0.40716605829359193 0.1120264799895512 0 0.38876177119367089 0.116972809820693 0 0.40716605829359193 0.1120264799895512 0 0.38808178026068268 0.10392801007035141 0 0.38876177119367089 0.116972809820693 0 0.40716605829359193 0.1120264799895512 0 0.39656535672550852 0.092974877928873267 0 0.38808178026068268 0.10392801007035141 0 0.39895333728429933 0.027539300906755181 0 0.38848936808377088 0.020562943807347231 0 0.4122691541308795 0.010257189796790951 0 0.39895333728429933 0.027539300906755181 0 0.38848936808377088 0.020562943807347231 0 0.38747348007354487 0.029444157512556919 0 0.39212595536292472 0.0047271407553128551 0 0.4122691541308795 0.010257189796790951 0 0.40542454288086849 -0.004070234290400764 0 0.38848936808377088 0.020562943807347231 0 0.4122691541308795 0.010257189796790951 0 0.39212595536292472 0.0047271407553128551 0 0.38848936808377088 0.020562943807347231 0 0.4122691541308795 0.010257189796790951 0 0.39212595536292472 0.0047271407553128551 0 0.38120377069012762 0.010554394007073271 0 0.36845156083710567 -0.0060515153414843056 0 0.36934971840039982 0.01412264887454192 0 0.38120377069012762 0.010554394007073271 0 0.38848936808377088 0.020562943807347231 0 0.39212595536292472 0.0047271407553128551 0 0.38120377069012762 0.010554394007073271 0 0.38848936808377088 0.020562943807347231 0 0.39212595536292472 0.0047271407553128551 0 0.38848936808377088 0.020562943807347231 0 0.38848936808377088 0.020562943807347231 0 0.38747348007354487 0.029444157512556919 0 0.38366251926208489 0.041581833616573027 0 0.38848936808377088 0.020562943807347231 0 0.38366251926208489 0.041581833616573027 0 0.36096242836060388 0.032492650360987897 0 0.38848936808377088 0.020562943807347231 0 0.38366251926208489 0.041581833616573027 0 0.37883567044039879 0.062600723425798879 0 0.38366251926208489 0.041581833616573027 0 0.3909554563133032 0.056876008487314757 0 0.37883567044039879 0.062600723425798879 0 0.38366251926208489 0.041581833616573027 0 0.36884998715724038 0.048654936693666287 0 0.37883567044039879 0.062600723425798879 0 0.38366251926208489 0.041581833616573027 0 0.38366251926208489 0.041581833616573027 0 0.40351412168750378 0.051507576129315842 0 0.3909554563133032 0.056876008487314757 0 0.39780951386322527 0.071813900777571313 0 0.40351412168750378 0.051507576129315842 0 0.3909554563133032 0.056876008487314757 0 0.38747348007354487 0.029444157512556919 0 0.40351412168750378 0.051507576129315842 0 0.39895333728429933 0.027539300906755181 0 0.40351412168750378 0.051507576129315842 0 0.40867742594100492 0.02913313449165824 0 0.39895333728429933 0.027539300906755181 0 0.38747348007354487 0.029444157512556919 0 0.40351412168750378 0.051507576129315842 0 0.38747348007354487 0.029444157512556919 0 0.38366251926208489 0.041581833616573027 0 0.40351412168750378 0.051507576129315842 0 0.40351412168750378 0.051507576129315842 0 0.41712069737947322 0.039684074088297272 0 0.40867742594100492 0.02913313449165824 0 0.41712069737947322 0.039684074088297272 0 0.42900932251716922 0.027181299207052031 0 0.40867742594100492 0.02913313449165824 0 0.40351412168750378 0.051507576129315842 0 0.41712069737947322 0.039684074088297272 0 0.42728191937221521 0.050914286525162993 0 0.4195547633014628 0.073570994746074828 0 0.40351412168750378 0.051507576129315842 0 0.42728191937221521 0.050914286525162993 0 0.41712069737947322 0.039684074088297272 0 0.42728191937221521 0.050914286525162993 0 0.42900932251716922 0.027181299207052031 0 0.42728191937221521 0.050914286525162993 0 0.42900932251716922 0.027181299207052031 0 0.45357816737839107 0.043281393992262968 0 0.42900932251716922 0.027181299207052031 0 0.40867742594100492 0.02913313449165824 0 0.4122691541308795 0.010257189796790951 0 0.39895333728429933 0.027539300906755181 0 0.40867742594100492 0.02913313449165824 0 0.4122691541308795 0.010257189796790951 0 0.4122691541308795 0.010257189796790951 0 0.42733427856619571 -0.0085863840744332814 0 0.43604894017798812 -4.8564213765240817e-05 0 0.42900932251716922 0.027181299207052031 0 0.4122691541308795 0.010257189796790951 0 0.43604894017798812 -4.8564213765240817e-05 0 0.4122691541308795 0.010257189796790951 0 0.43604894017798812 -4.8564213765240817e-05 0 0.45021491583924189 0.016350560368503721 0 0.45982872622509668 -0.01035431822432146 0 0.43604894017798812 -4.8564213765240817e-05 0 0.42900932251716922 0.027181299207052031 0 0.45021491583924189 0.016350560368503721 0 0.43604894017798812 -4.8564213765240817e-05 0 0.42900932251716922 0.027181299207052031 0 0.45021491583924189 0.016350560368503721 0 0.45357816737839107 0.043281393992262968 0 0.45021491583924189 0.016350560368503721 0 0.45357816737839107 0.043281393992262968 0 0.47265027193171238 0.017829323700243871 0 0.45021491583924189 0.016350560368503721 0 0.47265027193171238 0.017829323700243871 0 0.45982872622509668 -0.01035431822432146 0 0.45357816737839107 0.043281393992262968 0 0.47969083044660421 0.050503904472553283 0 0.47265027193171238 0.017829323700243871 0 0.44319262383460789 0.070531660330671375 0 0.42728191937221521 0.050914286525162993 0 0.45357816737839107 0.043281393992262968 0 0.46599422920766509 0.071585542922595516 0 0.44319262383460789 0.070531660330671375 0 0.45357816737839107 0.043281393992262968 0 0.46599422920766509 0.071585542922595516 0 0.45357816737839107 0.043281393992262968 0 0.47969083044660421 0.050503904472553283 0 0.47969083044660421 0.050503904472553283 0 0.5 0.033664617902273368 0 0.47265027193171238 0.017829323700243871 0 0.48592231416185638 0.0752646054103117 0 0.47969083044660421 0.050503904472553283 0 0.5 0.06139794290763223 0 0.47969083044660421 0.050503904472553283 0 0.5 0.033664617902273368 0 0.5 0.06139794290763223 0 0.5 0.033664617902273368 0 0.47265027193171238 0.017829323700243871 0 0.5 0.0059312928969145204 0 0.47265027193171238 0.017829323700243871 0 0.5 0.0059312928969145204 0 0.48261795830076532 -0.0084137270416950408 0 0.5 0.0059312928969145204 0 0.48261795830076532 -0.0084137270416950408 0 0.5 -0.021802032108444391 0 0.47265027193171238 0.017829323700243871 0 0.48261795830076532 -0.0084137270416950408 0 0.45982872622509668 -0.01035431822432146 0 0.48261795830076532 -0.0084137270416950408 0 0.48385521188952352 -0.03103713942335571 0 0.45982872622509668 -0.01035431822432146 0 0.48385521188952352 -0.03103713942335571 0 0.46768790053651399 -0.040232759786602873 0 0.45982872622509668 -0.01035431822432146 0 0.48261795830076532 -0.0084137270416950408 0 0.48385521188952352 -0.03103713942335571 0 0.5 -0.021802032108444391 0 0.48385521188952352 -0.03103713942335571 0 0.49518245524492172 -0.045789595090724652 0 0.49482530481253351 -0.04804557135493729 0 0.5 -0.021802032108444391 0 0.49518245524492172 -0.045789595090724652 0 0.49999999999998263 -0.049535357113803247 0 0.48385521188952352 -0.03103713942335571 0 0.5 -0.021802032108444391 0 0.49518245524492172 -0.045789595090724652 0 0.49482530481253351 -0.04804557135493729 0 0.47636674367150789 -0.060588545727567042 0 0.49016972248203172 -0.07745302065780417 0 0.49999999999998263 -0.049535357113803247 0 0.49482530481253351 -0.04804557135493729 0 0.49016972248203172 -0.07745302065780417 0 0.49999999999998263 -0.049535357113803247 0 0.49482530481253351 -0.04804557135493729 0 0.49518245524492172 -0.045789595090724652 0 0.49999999999998263 -0.049535357113803247 0 0.49482530481253351 -0.04804557135493729 0 0.49518245524492172 -0.045789595090724652 0 0.49482530481253351 -0.04804557135493729 0 0.49482530481253351 -0.04804557135493729 0 0.47636674367150789 -0.060588545727567042 0 0.46768790053651399 -0.040232759786602873 0 0.49482530481253351 -0.04804557135493729 0 0.46768790053651399 -0.040232759786602873 0 0.48385521188952352 -0.03103713942335571 0 0.49482530481253351 -0.04804557135493729 0 0.46768790053651399 -0.040232759786602873 0 0.46768790053651399 -0.040232759786602873 0 0.44055049626049481 -0.03241994821826754 0 0.47636674367150789 -0.060588545727567042 0 0.46768790053651399 -0.040232759786602873 0 0.44971823816913109 -0.058611894661768998 0 0.46768790053651399 -0.040232759786602873 0 0.44971823816913109 -0.058611894661768998 0 0.44055049626049481 -0.03241994821826754 0 0.44971823816913109 -0.058611894661768998 0 0.44055049626049481 -0.03241994821826754 0 0.42776585910878662 -0.047462582859365887 0 0.44055049626049481 -0.03241994821826754 0 0.43862233638968018 -0.01433991032473066 0 0.45982872622509668 -0.01035431822432146 0 0.45982872622509668 -0.01035431822432146 0 0.43604894017798812 -4.8564213765240817e-05 0 0.43862233638968018 -0.01433991032473066 0 0.45982872622509668 -0.01035431822432146 0 0.43604894017798812 -4.8564213765240817e-05 0 0.46768790053651399 -0.040232759786602873 0 0.44055049626049481 -0.03241994821826754 0 0.45982872622509668 -0.01035431822432146 0 0.47499259514944292 -0.1202547269832886 0 0.48551414015152222 -0.10686046996066979 0 0.48085855782101261 -0.13626791926353529 0 0.47418157221881441 -0.11112465676427991 0 0.47528951870947961 -0.09927779745641295 0 0.46093003486481321 -0.11810563265674839 0 0.48551414015152222 -0.10686046996066979 0 0.48085855782101261 -0.13626791926353529 0 0.47499259514944292 -0.1202547269832886 0 0.46093003486481321 -0.11810563265674839 0 0.47239045088042492 -0.13005034139104371 0 0.47499259514944292 -0.1202547269832886 0 0.47418157221881441 -0.11112465676427991 0 0.46093003486481321 -0.11810563265674839 0 0.47499259514944292 -0.1202547269832886 0 0.47418157221881441 -0.11112465676427991 0 0.48551414015152222 -0.10686046996066979 0 0.48986304781109291 -0.1242692167884092 0 0.49384429699065369 -0.1173080088948287 0 0.48551414015152222 -0.10686046996066979 0 0.48986304781109291 -0.1242692167884092 0 0.48551414015152222 -0.10686046996066979 0 0.48085855782101261 -0.13626791926353529 0 0.49384429699065369 -0.1173080088948287 0 0.5 -0.1051480109548549 0 0.5 -0.13295433787538069 0 0.48986304781109291 -0.1242692167884092 0 0.49384429699065369 -0.1173080088948287 0 0.5 -0.13295433787538069 0 0.49384429699065369 -0.1173080088948287 0 0.48551414015152222 -0.10686046996066979 0 0.5 -0.1051480109548549 0 0.48551414015152222 -0.10686046996066979 0 0.5 -0.1051480109548549 0 0.49016972248203172 -0.07745302065780417 0 0.48551414015152222 -0.10686046996066979 0 0.47528951870947961 -0.09927779745641295 0 0.4786949329242487 -0.090297096352784045 0 0.47418157221881441 -0.11112465676427991 0 0.48551414015152222 -0.10686046996066979 0 0.47528951870947961 -0.09927779745641295 0 0.47494193394216588 -0.078729965701305249 0 0.4786949329242487 -0.090297096352784045 0 0.46755934933604398 -0.089164227987728051 0 0.47528951870947961 -0.09927779745641295 0 0.4786949329242487 -0.090297096352784045 0 0.46755934933604398 -0.089164227987728051 0 0.47494193394216588 -0.078729965701305249 0 0.4786949329242487 -0.090297096352784045 0 0.49016972248203172 -0.07745302065780417 0 0.48551414015152222 -0.10686046996066979 0 0.49016972248203172 -0.07745302065780417 0 0.5 -0.1051480109548549 0 0.49016972248203172 -0.07745302065780417 0 0.5 -0.077341684034329061 0 0.48551414015152222 -0.10686046996066979 0 0.4786949329242487 -0.090297096352784045 0 0.49016972248203172 -0.07745302065780417 0 0.49999999999998263 -0.049535357113803247 0 0.49016972248203172 -0.07745302065780417 0 0.5 -0.077341684034329061 0 0.49482530481253351 -0.04804557135493729 0 0.49016972248203172 -0.07745302065780417 0 0.47636674367150789 -0.060588545727567042 0 0.47494193394216588 -0.078729965701305249 0 0.49016972248203172 -0.07745302065780417 0 0.47636674367150789 -0.060588545727567042 0 0.47494193394216588 -0.078729965701305249 0 0.4592808493329405 -0.078369632624057675 0 0.47636674367150789 -0.060588545727567042 0 0.44971823816913109 -0.058611894661768998 0 0.4592808493329405 -0.078369632624057675 0 0.47636674367150789 -0.060588545727567042 0 0.4592808493329405 -0.078369632624057675 0 0.44971823816913109 -0.058611894661768998 0 0.44126951216661869 -0.079236189142810429 0 0.42731029070553322 -0.068277018127587574 0 0.44971823816913109 -0.058611894661768998 0 0.44126951216661869 -0.079236189142810429 0 0.4592808493329405 -0.078369632624057675 0 0.4592808493329405 -0.078369632624057675 0 0.44219495499437311 -0.096150719520548239 0 0.44126951216661869 -0.079236189142810429 0 0.4592808493329405 -0.078369632624057675 0 0.44219495499437311 -0.096150719520548239 0 0.47494193394216588 -0.078729965701305249 0 0.4592808493329405 -0.078369632624057675 0 0.46755934933604398 -0.089164227987728051 0 0.4592808493329405 -0.078369632624057675 0 0.46755934933604398 -0.089164227987728051 0 0.44219495499437311 -0.096150719520548239 0 0.46755934933604398 -0.089164227987728051 0 0.46093003486481321 -0.11810563265674839 0 0.46755934933604398 -0.089164227987728051 0 0.44219495499437311 -0.096150719520548239 0 0.46093003486481321 -0.11810563265674839 0 0.47528951870947961 -0.09927779745641295 0 0.46755934933604398 -0.089164227987728051 0 0.46093003486481321 -0.11810563265674839 0 0.441730170532879 -0.1159420230490274 0 0.46093003486481321 -0.11810563265674839 0 0.44582693855797939 -0.1311402400572215 0 0.44219495499437311 -0.096150719520548239 0 0.441730170532879 -0.1159420230490274 0 0.46093003486481321 -0.11810563265674839 0 0.42510906065580589 -0.11393180641703871 0 0.40802316631723889 -0.13171289331352951 0 0.40725115801851319 -0.1169919833964142 0 0.42510906065580589 -0.11393180641703871 0 0.40802316631723889 -0.13171289331352951 0 0.40725115801851319 -0.1169919833964142 0 0.42510906065580589 -0.11393180641703871 0 0.4147200547274239 -0.1079547067436207 0 0.40725115801851319 -0.1169919833964142 0 0.4147200547274239 -0.1079547067436207 0 0.40692444267373179 -0.1088204768843429 0 0.441730170532879 -0.1159420230490274 0 0.42510906065580589 -0.11393180641703871 0 0.43087782981676859 -0.131879285754128 0 0.44219495499437311 -0.096150719520548239 0 0.42510906065580589 -0.11393180641703871 0 0.44219495499437311 -0.096150719520548239 0 0.441730170532879 -0.1159420230490274 0 0.42510906065580589 -0.11393180641703871 0 0.44219495499437311 -0.096150719520548239 0 0.42510906065580589 -0.11393180641703871 0 0.4234909377050316 -0.092737982748798881 0 0.42510906065580589 -0.11393180641703871 0 0.4147200547274239 -0.1079547067436207 0 0.4234909377050316 -0.092737982748798881 0 0.4147200547274239 -0.1079547067436207 0 0.40904120664506322 -0.09935874077938342 0 0.4234909377050316 -0.092737982748798881 0 0.4147200547274239 -0.1079547067436207 0 0.40692444267373179 -0.1088204768843429 0 0.40904120664506322 -0.09935874077938342 0 0.40904120664506322 -0.09935874077938342 0 0.4234909377050316 -0.092737982748798881 0 0.40226126486411301 -0.082186696628613137 0 0.4234909377050316 -0.092737982748798881 0 0.42731029070553322 -0.068277018127587574 0 0.40226126486411301 -0.082186696628613137 0 0.44126951216661869 -0.079236189142810429 0 0.4234909377050316 -0.092737982748798881 0 0.42731029070553322 -0.068277018127587574 0 0.44126951216661869 -0.079236189142810429 0 0.44219495499437311 -0.096150719520548239 0 0.4234909377050316 -0.092737982748798881 0 0.42731029070553322 -0.068277018127587574 0 0.40226126486411301 -0.082186696628613137 0 0.40783717842429862 -0.053396916639273179 0 0.40226126486411301 -0.082186696628613137 0 0.40783717842429862 -0.053396916639273179 0 0.38429333219820472 -0.067131704106828338 0 0.40226126486411301 -0.082186696628613137 0 0.40783717842429862 -0.053396916639273179 0 0.38429333219820472 -0.067131704106828338 0 0.38199460798391838 -0.085246791459625215 0 0.40226126486411301 -0.082186696628613137 0 0.38199460798391838 -0.085246791459625215 0 0.40226126486411301 -0.082186696628613137 0 0.39106825526090561 -0.1007030293946076 0 0.40226126486411301 -0.082186696628613137 0 0.39106825526090561 -0.1007030293946076 0 0.39668535130392929 -0.1109764766179535 0 0.40904120664506322 -0.09935874077938342 0 0.40226126486411301 -0.082186696628613137 0 0.39668535130392929 -0.1109764766179535 0 0.40226126486411301 -0.082186696628613137 0 0.39668535130392929 -0.1109764766179535 0 0.40692444267373179 -0.1088204768843429 0 0.40904120664506322 -0.09935874077938342 0 0.39668535130392929 -0.1109764766179535 0 0.39106825526090561 -0.1007030293946076 0 0.39668535130392929 -0.1109764766179535 0 0.39106825526090561 -0.1007030293946076 0 0.3799934613124491 -0.1141351934829782 0 0.39668535130392929 -0.1109764766179535 0 0.38199460798391838 -0.085246791459625215 0 0.39106825526090561 -0.1007030293946076 0 0.37706007999693841 -0.1011775095245466 0 0.39106825526090561 -0.1007030293946076 0 0.37706007999693841 -0.1011775095245466 0 0.3799934613124491 -0.1141351934829782 0 0.3799934613124491 -0.1141351934829782 0 0.39668535130392929 -0.1109764766179535 0 0.3932705088567644 -0.1286081277708763 0 0.3799934613124491 -0.1141351934829782 0 0.37104303648388809 -0.1272612894930944 0 0.3932705088567644 -0.1286081277708763 0 0.40224748518751269 -0.1211494002184121 0 0.3932705088567644 -0.1286081277708763 0 0.39668535130392929 -0.1109764766179535 0 0.3932705088567644 -0.1286081277708763 0 0.39668535130392929 -0.1109764766179535 0 0.40224748518751269 -0.1211494002184121 0 0.3932705088567644 -0.1286081277708763 0 0.40725115801851319 -0.1169919833964142 0 0.39668535130392929 -0.1109764766179535 0 0.40224748518751269 -0.1211494002184121 0 0.39668535130392929 -0.1109764766179535 0 0.40224748518751269 -0.1211494002184121 0 0.40725115801851319 -0.1169919833964142 0 0.40692444267373179 -0.1088204768843429 0 0.39668535130392929 -0.1109764766179535 0 0.40725115801851319 -0.1169919833964142 0 0.40224748518751269 -0.1211494002184121 0 0.40725115801851319 -0.1169919833964142 0 0.40224748518751269 -0.1211494002184121 0 0.40802316631723889 -0.13171289331352951 0 0.42156842614681772 -0.015954947998216139 0 0.41341309198447568 -0.024607136649931451 0 0.42934924071862562 -0.02029033689286578 0 0.41341309198447568 -0.024607136649931451 0 0.41617709331797431 -0.010335934375633319 0 0.42156842614681772 -0.015954947998216139 0 0.41341309198447568 -0.024607136649931451 0 0.41617709331797431 -0.010335934375633319 0 0.41341309198447568 -0.024607136649931451 0 0.40231254689356027 -0.037392070823486202 0 0.40309603266908228 -0.02802239201193971 0 0.41341309198447568 -0.024607136649931451 0 0.41078796895048542 -0.01389090533175278 0 0.39783226839882679 -0.020121444594939791 0 0.41341309198447568 -0.024607136649931451 0 0.41078796895048542 -0.01389090533175278 0 0.41617709331797431 -0.010335934375633319 0 0.41078796895048542 -0.01389090533175278 0 0.41617709331797431 -0.010335934375633319 0 0.40542454288086849 -0.004070234290400764 0 0.4122691541308795 0.010257189796790951 0 0.41617709331797431 -0.010335934375633319 0 0.40542454288086849 -0.004070234290400764 0 0.4122691541308795 0.010257189796790951 0 0.41617709331797431 -0.010335934375633319 0 0.42733427856619571 -0.0085863840744332814 0 0.42156842614681772 -0.015954947998216139 0 0.41617709331797431 -0.010335934375633319 0 0.42733427856619571 -0.0085863840744332814 0 0.42156842614681772 -0.015954947998216139 0 0.42733427856619571 -0.0085863840744332814 0 0.42934924071862562 -0.02029033689286578 0 0.43862233638968018 -0.01433991032473066 0 0.42733427856619571 -0.0085863840744332814 0 0.43604894017798812 -4.8564213765240817e-05 0 0.43862233638968018 -0.01433991032473066 0 0.42733427856619571 -0.0085863840744332814 0 0.42934924071862562 -0.02029033689286578 0 0.44055049626049481 -0.03241994821826754 0 0.43862233638968018 -0.01433991032473066 0 0.42934924071862562 -0.02029033689286578 0 0.44055049626049481 -0.03241994821826754 0 0.41341309198447568 -0.024607136649931451 0 0.42934924071862562 -0.02029033689286578 0 0.44055049626049481 -0.03241994821826754 0 0.41341309198447568 -0.024607136649931451 0 0.44055049626049481 -0.03241994821826754 0 0.41341309198447568 -0.024607136649931451 0 0.42776585910878662 -0.047462582859365887 0 0.44971823816913109 -0.058611894661768998 0 0.42731029070553322 -0.068277018127587574 0 0.42776585910878662 -0.047462582859365887 0 0.42731029070553322 -0.068277018127587574 0 0.42776585910878662 -0.047462582859365887 0 0.40783717842429862 -0.053396916639273179 0 0.41341309198447568 -0.024607136649931451 0 0.42776585910878662 -0.047462582859365887 0 0.40783717842429862 -0.053396916639273179 0 0.41341309198447568 -0.024607136649931451 0 0.40783717842429862 -0.053396916639273179 0 0.40231254689356027 -0.037392070823486202 0 0.41341309198447568 -0.024607136649931451 0 0.40783717842429862 -0.053396916639273179 0 0.40231254689356027 -0.037392070823486202 0 0.3981973431289102 -0.028872790202489229 0 0.40309603266908228 -0.02802239201193971 0 0.40231254689356027 -0.037392070823486202 0 0.38732801778773829 -0.04651698367670077 0 0.38934459454031273 -0.029067224222560958 0 0.40783717842429862 -0.053396916639273179 0 0.40231254689356027 -0.037392070823486202 0 0.38732801778773829 -0.04651698367670077 0 0.40231254689356027 -0.037392070823486202 0 0.38934459454031273 -0.029067224222560958 0 0.3981973431289102 -0.028872790202489229 0 0.38429333219820472 -0.067131704106828338 0 0.40783717842429862 -0.053396916639273179 0 0.38732801778773829 -0.04651698367670077 0 0.38429333219820472 -0.067131704106828338 0 0.38732801778773829 -0.04651698367670077 0 0.37042415964797237 -0.053058901563766692 0 0.38732801778773829 -0.04651698367670077 0 0.37068698927403948 -0.035605583580554698 0 0.37042415964797237 -0.053058901563766692 0 0.38732801778773829 -0.04651698367670077 0 0.38934459454031273 -0.029067224222560958 0 0.37068698927403948 -0.035605583580554698 0 0.38934459454031273 -0.029067224222560958 0 0.36983137800827248 -0.01206003687362641 0 0.37068698927403948 -0.035605583580554698 0 0.38934459454031273 -0.029067224222560958 0 0.39783226839882679 -0.020121444594939791 0 0.36983137800827248 -0.01206003687362641 0 0.39783226839882679 -0.020121444594939791 0 0.36983137800827248 -0.01206003687362641 0 0.38934459454031273 -0.029067224222560958 0 0.3981973431289102 -0.028872790202489229 0 0.39783226839882679 -0.020121444594939791 0 0.41341309198447568 -0.024607136649931451 0 0.39783226839882679 -0.020121444594939791 0 0.41341309198447568 -0.024607136649931451 0 0.39783226839882679 -0.020121444594939791 0 0.40309603266908228 -0.02802239201193971 0 0.3981973431289102 -0.028872790202489229 0 0.39783226839882679 -0.020121444594939791 0 0.40309603266908228 -0.02802239201193971 0 0.39212595536292472 0.0047271407553128551 0 0.39576254264207811 -0.011108662296721609 0 0.39212595536292472 0.0047271407553128551 0 0.40542454288086849 -0.004070234290400764 0 0.39576254264207811 -0.011108662296721609 0 0.41078796895048542 -0.01389090533175278 0 0.39783226839882679 -0.020121444594939791 0 0.39576254264207811 -0.011108662296721609 0 0.41078796895048542 -0.01389090533175278 0 0.39576254264207811 -0.011108662296721609 0 0.41078796895048542 -0.01389090533175278 0 0.40542454288086849 -0.004070234290400764 0 0.39576254264207811 -0.011108662296721609 0 0.39783226839882679 -0.020121444594939791 0 0.39576254264207811 -0.011108662296721609 0 0.39576254264207811 -0.011108662296721609 0 0.36983137800827248 -0.01206003687362641 0 0.36845156083710567 -0.0060515153414843056 0 0.39576254264207811 -0.011108662296721609 0 0.36845156083710567 -0.0060515153414843056 0 0.39212595536292472 0.0047271407553128551 0 0.39576254264207811 -0.011108662296721609 0 0.36845156083710567 -0.0060515153414843056 0 0.39783226839882679 -0.020121444594939791 0 0.39576254264207811 -0.011108662296721609 0 0.36983137800827248 -0.01206003687362641 0 0.36983137800827248 -0.01206003687362641 0 0.36845156083710567 -0.0060515153414843056 0 0.34183048761771712 -0.0039986291523161147 0 0.36983137800827248 -0.01206003687362641 0 0.35223914962217417 -0.02278106829858554 0 0.37068698927403948 -0.035605583580554698 0 0.36983137800827248 -0.01206003687362641 0 0.35223914962217417 -0.02278106829858554 0 0.34183048761771712 -0.0039986291523161147 0 0.36983137800827248 -0.01206003687362641 0 0.34183048761771712 -0.0039986291523161147 0 0.36845156083710567 -0.0060515153414843056 0 0.34114057903213352 -0.00099436838624600288 0 0.36845156083710567 -0.0060515153414843056 0 0.34183048761771712 -0.0039986291523161147 0 0.34114057903213352 -0.00099436838624600288 0 0.35223914962217417 -0.02278106829858554 0 0.34183048761771712 -0.0039986291523161147 0 0.33977780877024261 -0.017668132193127541 0 0.31382959722716158 0.0040627785689932028 0 0.34183048761771712 -0.0039986291523161147 0 0.34114057903213352 -0.00099436838624600288 0 0.34183048761771712 -0.0039986291523161147 0 0.33574973546384762 -0.01167659105592548 0 0.32194573769061952 -0.0077676308935595512 0 0.34183048761771712 -0.0039986291523161147 0 0.33574973546384762 -0.01167659105592548 0 0.33977780877024261 -0.017668132193127541 0 0.35223914962217417 -0.02278106829858554 0 0.33977780877024261 -0.017668132193127541 0 0.33879793226643329 -0.029417681387060649 0 0.33574973546384762 -0.01167659105592548 0 0.3302717388810405 -0.020466691071749941 0 0.3196214637881436 -0.021924893160697439 0 0.33977780877024261 -0.017668132193127541 0 0.33879793226643329 -0.029417681387060649 0 0.3302717388810405 -0.020466691071749941 0 0.33879793226643329 -0.029417681387060649 0 0.32862271298124018 -0.028919582591936679 0 0.3302717388810405 -0.020466691071749941 0 0.33574973546384762 -0.01167659105592548 0 0.33977780877024261 -0.017668132193127541 0 0.3302717388810405 -0.020466691071749941 0 0.3302717388810405 -0.020466691071749941 0 0.32526768976560849 -0.02407540610795475 0 0.3196214637881436 -0.021924893160697439 0 0.33574973546384762 -0.01167659105592548 0 0.3196214637881436 -0.021924893160697439 0 0.32862271298124018 -0.028919582591936679 0 0.3302717388810405 -0.020466691071749941 0 0.32526768976560849 -0.02407540610795475 0 0.32862271298124018 -0.028919582591936679 0 0.32095671603858011 -0.024994897592425049 0 0.3231679364015333 -0.033306441836977792 0 0.32862271298124018 -0.028919582591936679 0 0.32526768976560849 -0.02407540610795475 0 0.32095671603858011 -0.024994897592425049 0 0.32526768976560849 -0.02407540610795475 0 0.32095671603858011 -0.024994897592425049 0 0.3196214637881436 -0.021924893160697439 0 0.32095671603858011 -0.024994897592425049 0 0.3196214637881436 -0.021924893160697439 0 0.31660160940309118 -0.035871797032442469 0 0.32095671603858011 -0.024994897592425049 0 0.3196214637881436 -0.021924893160697439 0 0.33574973546384762 -0.01167659105592548 0 0.3196214637881436 -0.021924893160697439 0 0.32194573769061952 -0.0077676308935595512 0 0.30752965714041391 0.0058765203804442539 0 0.3196214637881436 -0.021924893160697439 0 0.32194573769061952 -0.0077676308935595512 0 0.31382959722716158 0.0040627785689932028 0 0.34183048761771712 -0.0039986291523161147 0 0.32194573769061952 -0.0077676308935595512 0 0.30752965714041391 0.0058765203804442539 0 0.3196214637881436 -0.021924893160697439 0 0.31292981148517318 -0.054457989835630861 0 0.33951515654934239 -0.057829064589421393 0 0.331762206516936 -0.074199649102278678 0 0.31292981148517318 -0.054457989835630861 0 0.32943454752299528 -0.042779626289088678 0 0.31292981148517318 -0.054457989835630861 0 0.32943454752299528 -0.042779626289088678 0 0.33951515654934239 -0.057829064589421393 0 0.31292981148517318 -0.054457989835630861 0 0.31660160940309118 -0.035871797032442469 0 0.32943454752299528 -0.042779626289088678 0 0.32095671603858011 -0.024994897592425049 0 0.31660160940309118 -0.035871797032442469 0 0.3231679364015333 -0.033306441836977792 0 0.32862271298124018 -0.028919582591936679 0 0.3231679364015333 -0.033306441836977792 0 0.32943454752299528 -0.042779626289088678 0 0.31660160940309118 -0.035871797032442469 0 0.3231679364015333 -0.033306441836977792 0 0.32943454752299528 -0.042779626289088678 0 0.33879793226643329 -0.029417681387060649 0 0.32943454752299528 -0.042779626289088678 0 0.35178468962230941 -0.045374559850196158 0 0.33879793226643329 -0.029417681387060649 0 0.32862271298124018 -0.028919582591936679 0 0.32943454752299528 -0.042779626289088678 0 0.32943454752299528 -0.042779626289088678 0 0.33951515654934239 -0.057829064589421393 0 0.35178468962230941 -0.045374559850196158 0 0.33951515654934239 -0.057829064589421393 0 0.35178468962230941 -0.045374559850196158 0 0.35802776935757019 -0.070665676604553529 0 0.35223914962217417 -0.02278106829858554 0 0.35178468962230941 -0.045374559850196158 0 0.37068698927403948 -0.035605583580554698 0 0.35223914962217417 -0.02278106829858554 0 0.33879793226643329 -0.029417681387060649 0 0.35178468962230941 -0.045374559850196158 0 0.35178468962230941 -0.045374559850196158 0 0.37068698927403948 -0.035605583580554698 0 0.37042415964797237 -0.053058901563766692 0 0.35178468962230941 -0.045374559850196158 0 0.37042415964797237 -0.053058901563766692 0 0.35802776935757019 -0.070665676604553529 0 0.38429333219820472 -0.067131704106828338 0 0.38199460798391838 -0.085246791459625215 0 0.35802776935757019 -0.070665676604553529 0 0.38429333219820472 -0.067131704106828338 0 0.37042415964797237 -0.053058901563766692 0 0.35802776935757019 -0.070665676604553529 0 0.38429333219820472 -0.067131704106828338 0 0.35802776935757019 -0.070665676604553529 0 0.38199460798391838 -0.085246791459625215 0 0.36577500316168848 -0.093055365242956031 0 0.35802776935757019 -0.070665676604553529 0 0.38199460798391838 -0.085246791459625215 0 0.37706007999693841 -0.1011775095245466 0 0.36577500316168848 -0.093055365242956031 0 0.35802776935757019 -0.070665676604553529 0 0.34487393367809682 -0.095216741312257352 0 0.331762206516936 -0.074199649102278678 0 0.36577500316168848 -0.093055365242956031 0 0.35802776935757019 -0.070665676604553529 0 0.34487393367809682 -0.095216741312257352 0 0.35802776935757019 -0.070665676604553529 0 0.331762206516936 -0.074199649102278678 0 0.3799934613124491 -0.1141351934829782 0 0.36192545204167298 -0.11208328153174781 0 0.37104303648388809 -0.1272612894930944 0 0.36192545204167298 -0.11208328153174781 0 0.35551888896884759 -0.1297027680154724 0 0.37104303648388809 -0.1272612894930944 0 0.37706007999693841 -0.1011775095245466 0 0.3799934613124491 -0.1141351934829782 0 0.36192545204167298 -0.11208328153174781 0 0.37706007999693841 -0.1011775095245466 0 0.36577500316168848 -0.093055365242956031 0 0.36192545204167298 -0.11208328153174781 0 0.36192545204167298 -0.11208328153174781 0 0.34487393367809682 -0.095216741312257352 0 0.34014121552940491 -0.1203166258242544 0 0.36577500316168848 -0.093055365242956031 0 0.36192545204167298 -0.11208328153174781 0 0.34487393367809682 -0.095216741312257352 0 0.36192545204167298 -0.11208328153174781 0 0.34014121552940491 -0.1203166258242544 0 0.35551888896884759 -0.1297027680154724 0 0.34014121552940491 -0.1203166258242544 0 0.32517348349888747 -0.118580130041643 0 0.32373683991627678 -0.1342707635111336 0 0.34014121552940491 -0.1203166258242544 0 0.32895182275083351 -0.1060869523066566 0 0.32517348349888747 -0.118580130041643 0 0.34487393367809682 -0.095216741312257352 0 0.34014121552940491 -0.1203166258242544 0 0.32895182275083351 -0.1060869523066566 0 0.34487393367809682 -0.095216741312257352 0 0.32895182275083351 -0.1060869523066566 0 0.32681031061177879 -0.089772122834636051 0 0.32895182275083351 -0.1060869523066566 0 0.31743464692623941 -0.099981704590172707 0 0.32681031061177879 -0.089772122834636051 0 0.31743464692623941 -0.099981704590172707 0 0.31638799147784608 -0.1118713826410174 0 0.30885616350321549 -0.1072846913931271 0 0.32895182275083351 -0.1060869523066566 0 0.31743464692623941 -0.099981704590172707 0 0.31638799147784608 -0.1118713826410174 0 0.32895182275083351 -0.1060869523066566 0 0.31638799147784608 -0.1118713826410174 0 0.32517348349888747 -0.118580130041643 0 0.31638799147784608 -0.1118713826410174 0 0.31399575267335023 -0.12250180558336519 0 0.30853123694459123 -0.1170064061326217 0 0.31638799147784608 -0.1118713826410174 0 0.31399575267335023 -0.12250180558336519 0 0.32517348349888747 -0.118580130041643 0 0.33951515654934239 -0.057829064589421393 0 0.35802776935757019 -0.070665676604553529 0 0.331762206516936 -0.074199649102278678 0 0.34487393367809682 -0.095216741312257352 0 0.331762206516936 -0.074199649102278678 0 0.32681031061177879 -0.089772122834636051 0 0.32681031061177879 -0.089772122834636051 0 0.30549664367630158 -0.077733621600003855 0 0.31220284993755582 -0.090742102146006851 0 0.331762206516936 -0.074199649102278678 0 0.32681031061177879 -0.089772122834636051 0 0.30549664367630158 -0.077733621600003855 0 0.31743464692623941 -0.099981704590172707 0 0.32681031061177879 -0.089772122834636051 0 0.31220284993755582 -0.090742102146006851 0 0.31292981148517318 -0.054457989835630861 0 0.331762206516936 -0.074199649102278678 0 0.30549664367630158 -0.077733621600003855 0 0.331762206516936 -0.074199649102278678 0 0.30549664367630158 -0.077733621600003855 0 0.31292981148517318 -0.054457989835630861 0 0.30549664367630158 -0.077733621600003855 0 0.29642507544735103 -0.06613635338217283 0 0.30549664367630158 -0.077733621600003855 0 0.29743178973804058 -0.092817056036521225 0 0.29642507544735103 -0.06613635338217283 0 0.29743178973804058 -0.092817056036521225 0 0.29642507544735103 -0.06613635338217283 0 0.31220284993755582 -0.090742102146006851 0 0.30524841693787119 -0.089877123387424693 0 0.30586238439958702 -0.098215713767166868 0 0.30549664367630158 -0.077733621600003855 0 0.31220284993755582 -0.090742102146006851 0 0.30524841693787119 -0.089877123387424693 0 0.30524841693787119 -0.089877123387424693 0 0.29743178973804058 -0.092817056036521225 0 0.30586238439958702 -0.098215713767166868 0 0.30549664367630158 -0.077733621600003855 0 0.30524841693787119 -0.089877123387424693 0 0.29743178973804058 -0.092817056036521225 0 0.29430385704143641 -0.093334685648855456 0 0.28333646668855839 -0.1038254721913715 0 0.27844545300264117 -0.078858311907156253 0 0.29743178973804058 -0.092817056036521225 0 0.29430385704143641 -0.093334685648855456 0 0.29347904805936648 -0.068220893163732282 0 0.29430385704143641 -0.093334685648855456 0 0.29347904805936648 -0.068220893163732282 0 0.27844545300264117 -0.078858311907156253 0 0.29430385704143641 -0.093334685648855456 0 0.29347904805936648 -0.068220893163732282 0 0.29743178973804058 -0.092817056036521225 0 0.29642507544735103 -0.06613635338217283 0 0.29347904805936648 -0.068220893163732282 0 0.28521560802072671 -0.062721316040594208 0 0.29347904805936648 -0.068220893163732282 0 0.27844545300264117 -0.078858311907156253 0 0.29347904805936648 -0.068220893163732282 0 0.27844545300264117 -0.078858311907156253 0 0.29642507544735103 -0.06613635338217283 0 0.29347904805936648 -0.068220893163732282 0 0.29301224914481439 -0.054007794946804598 0 0.29642507544735103 -0.06613635338217283 0 0.29347904805936648 -0.068220893163732282 0 0.29743178973804058 -0.092817056036521225 0 0.29843850402873079 -0.11949775869086959 0 0.29512866602350563 -0.1184484781339787 0 0.29843850402873079 -0.11949775869086959 0 0.29512866602350563 -0.1184484781339787 0 0.30010147488007238 -0.1276093355582181 0 0.29843850402873079 -0.11949775869086959 0 0.30554459793957989 -0.1238630007756472 0 0.30853123694459123 -0.1170064061326217 0 0.29843850402873079 -0.11949775869086959 0 0.30554459793957989 -0.1238630007756472 0 0.30010147488007238 -0.1276093355582181 0 0.31399575267335023 -0.12250180558336519 0 0.30554459793957989 -0.1238630007756472 0 0.30853123694459123 -0.1170064061326217 0 0.29843850402873079 -0.11949775869086959 0 0.30853123694459123 -0.1170064061326217 0 0.30885616350321549 -0.1072846913931271 0 0.31638799147784608 -0.1118713826410174 0 0.30853123694459123 -0.1170064061326217 0 0.30885616350321549 -0.1072846913931271 0 0.29843850402873079 -0.11949775869086959 0 0.30885616350321549 -0.1072846913931271 0 0.30586238439958702 -0.098215713767166868 0 0.29743178973804058 -0.092817056036521225 0 0.29843850402873079 -0.11949775869086959 0 0.30586238439958702 -0.098215713767166868 0 0.29743178973804058 -0.092817056036521225 0 0.29843850402873079 -0.11949775869086959 0 0.31743464692623941 -0.099981704590172707 0 0.30885616350321549 -0.1072846913931271 0 0.30586238439958702 -0.098215713767166868 0 0.31743464692623941 -0.099981704590172707 0 0.31220284993755582 -0.090742102146006851 0 0.30586238439958702 -0.098215713767166868 0 0.29430385704143641 -0.093334685648855456 0 0.29512866602350563 -0.1184484781339787 0 0.29430385704143641 -0.093334685648855456 0 0.28333646668855839 -0.1038254721913715 0 0.29512866602350563 -0.1184484781339787 0 0.29743178973804058 -0.092817056036521225 0 0.29430385704143641 -0.093334685648855456 0 0.29512866602350563 -0.1184484781339787 0 0.28333646668855839 -0.1038254721913715 0 0.29512866602350563 -0.1184484781339787 0 0.28822748037447399 -0.12879263247558709 0 0.28333646668855839 -0.1038254721913715 0 0.28822748037447399 -0.12879263247558709 0 0.26621118532108262 -0.1119181791838486 0 0.25741251913389712 -0.1305951081492244 0 0.28822748037447399 -0.12879263247558709 0 0.28333646668855839 -0.1038254721913715 0 0.26621118532108262 -0.1119181791838486 0 0.28822748037447399 -0.12879263247558709 0 0.28333646668855839 -0.1038254721913715 0 0.26621118532108262 -0.1119181791838486 0 0.26565518081306061 -0.08790840808238623 0 0.26621118532108262 -0.1119181791838486 0 0.25154255280112903 -0.1006059983499779 0 0.24954668948061209 -0.11284283178631641 0 0.26621118532108262 -0.1119181791838486 0 0.25154255280112903 -0.1006059983499779 0 0.26565518081306061 -0.08790840808238623 0 0.26621118532108262 -0.1119181791838486 0 0.25741251913389712 -0.1305951081492244 0 0.24954668948061209 -0.11284283178631641 0 0.27844545300264117 -0.078858311907156253 0 0.2741393958395883 -0.056877179510702792 0 0.28007443442101287 -0.061799103716356343 0 0.27844545300264117 -0.078858311907156253 0 0.2741393958395883 -0.056877179510702792 0 0.26628957168076178 -0.070692469674316694 0 0.27844545300264117 -0.078858311907156253 0 0.2741393958395883 -0.056877179510702792 0 0.28521560802072671 -0.062721316040594208 0 0.27844545300264117 -0.078858311907156253 0 0.28007443442101287 -0.061799103716356343 0 0.26628957168076178 -0.070692469674316694 0 0.27844545300264117 -0.078858311907156253 0 0.26565518081306061 -0.08790840808238623 0 0.28333646668855839 -0.1038254721913715 0 0.27844545300264117 -0.078858311907156253 0 0.26565518081306061 -0.08790840808238623 0 0.28333646668855839 -0.1038254721913715 0 0.27844545300264117 -0.078858311907156253 0 0.27844545300264117 -0.078858311907156253 0 0.26565518081306061 -0.08790840808238623 0 0.25154255280112903 -0.1006059983499779 0 0.25664035233608162 -0.078361863555500011 0 0.24390890644978661 -0.075150332687283522 0 0.25154255280112903 -0.1006059983499779 0 0.26565518081306061 -0.08790840808238623 0 0.25664035233608162 -0.078361863555500011 0 0.26628957168076178 -0.070692469674316694 0 0.26565518081306061 -0.08790840808238623 0 0.25664035233608162 -0.078361863555500011 0 0.25664035233608162 -0.078361863555500011 0 0.25256726729664603 -0.064532785491330763 0 0.24390890644978661 -0.075150332687283522 0 0.26628957168076178 -0.070692469674316694 0 0.25256726729664603 -0.064532785491330763 0 0.2741393958395883 -0.056877179510702792 0 0.26628957168076178 -0.070692469674316694 0 0.25664035233608162 -0.078361863555500011 0 0.25256726729664603 -0.064532785491330763 0 0.25256726729664603 -0.064532785491330763 0 0.25164978009717781 -0.053061021673298493 0 0.24617004458672351 -0.058202332164817121 0 0.25256726729664603 -0.064532785491330763 0 0.26131371929964131 -0.050907379716302707 0 0.27395317434556299 -0.0509436520349522 0 0.25256726729664603 -0.064532785491330763 0 0.25164978009717781 -0.053061021673298493 0 0.26131371929964131 -0.050907379716302707 0 0.25256726729664603 -0.064532785491330763 0 0.27395317434556299 -0.0509436520349522 0 0.25164978009717781 -0.053061021673298493 0 0.26131371929964131 -0.050907379716302707 0 0.2539732262079259 -0.044675773385505282 0 0.26131371929964131 -0.050907379716302707 0 0.26227784506780882 -0.045421506107560787 0 0.2539732262079259 -0.044675773385505282 0 0.26131371929964131 -0.050907379716302707 0 0.26742863268251632 -0.045985676557136583 0 0.26227784506780882 -0.045421506107560787 0 0.25256726729664603 -0.064532785491330763 0 0.27395317434556299 -0.0509436520349522 0 0.2741393958395883 -0.056877179510702792 0 0.26131371929964131 -0.050907379716302707 0 0.27395317434556299 -0.0509436520349522 0 0.26742863268251632 -0.045985676557136583 0 0.27395317434556299 -0.0509436520349522 0 0.2741393958395883 -0.056877179510702792 0 0.28351618772518777 -0.053458991616202503 0 0.2741393958395883 -0.056877179510702792 0 0.28007443442101287 -0.061799103716356343 0 0.28351618772518777 -0.053458991616202503 0 0.2807394014679111 -0.038000872253349499 0 0.27361436003936901 -0.034999677146069851 0 0.27240238673917438 -0.042113497984529957 0 0.2807394014679111 -0.038000872253349499 0 0.27361436003936901 -0.034999677146069851 0 0.28248009054126683 -0.027824818882371601 0 0.27395317434556299 -0.0509436520349522 0 0.2807394014679111 -0.038000872253349499 0 0.27240238673917438 -0.042113497984529957 0 0.27395317434556299 -0.0509436520349522 0 0.27240238673917438 -0.042113497984529957 0 0.26742863268251632 -0.045985676557136583 0 0.27361436003936901 -0.034999677146069851 0 0.27240238673917438 -0.042113497984529957 0 0.26639580208115188 -0.040117194771298603 0 0.27240238673917438 -0.042113497984529957 0 0.26742863268251632 -0.045985676557136583 0 0.26639580208115188 -0.040117194771298603 0 0.27361436003936901 -0.034999677146069851 0 0.26639580208115188 -0.040117194771298603 0 0.26859201328057281 -0.027442020841521631 0 0.2539732262079259 -0.044675773385505282 0 0.25845033672230949 -0.02738613623275089 0 0.26859201328057281 -0.027442020841521631 0 0.2539732262079259 -0.044675773385505282 0 0.25845033672230949 -0.02738613623275089 0 0.24422464309495209 -0.046986837608536558 0 0.25845033672230949 -0.02738613623275089 0 0.24422464309495209 -0.046986837608536558 0 0.26639580208115188 -0.040117194771298603 0 0.2539732262079259 -0.044675773385505282 0 0.26859201328057281 -0.027442020841521631 0 0.2539732262079259 -0.044675773385505282 0 0.26859201328057281 -0.027442020841521631 0 0.26639580208115188 -0.040117194771298603 0 0.26227784506780882 -0.045421506107560787 0 0.2539732262079259 -0.044675773385505282 0 0.26742863268251632 -0.045985676557136583 0 0.26639580208115188 -0.040117194771298603 0 0.26227784506780882 -0.045421506107560787 0 0.25013504981522988 -0.025019616072594848 0 0.25845033672230949 -0.02738613623275089 0 0.24524507923365879 -0.0330622213940093 0 0.25845033672230949 -0.02738613623275089 0 0.27267603034966698 -0.0077854348569651906 0 0.25845033672230949 -0.02738613623275089 0 0.25886508985187012 -0.013172853544477199 0 0.27267603034966698 -0.0077854348569651906 0 0.25013504981522988 -0.025019616072594848 0 0.25247407830029878 -0.019873092178793648 0 0.25845033672230949 -0.02738613623275089 0 0.25247407830029878 -0.019873092178793648 0 0.25845033672230949 -0.02738613623275089 0 0.25886508985187012 -0.013172853544477199 0 0.25598072684389089 -0.0058943492075353007 0 0.25006914023697918 -0.01208141302270524 0 0.2479891295484222 -0.0022684572774312019 0 0.25894279220913391 0.003459445712386486 0 0.25598072684389089 -0.0058943492075353007 0 0.2479891295484222 -0.0022684572774312019 0 0.25598072684389089 -0.0058943492075353007 0 0.25006914023697918 -0.01208141302270524 0 0.25886508985187012 -0.013172853544477199 0 0.25247407830029878 -0.019873092178793648 0 0.25006914023697918 -0.01208141302270524 0 0.25886508985187012 -0.013172853544477199 0 0.25886508985187012 -0.013172853544477199 0 0.26317147738524183 -0.0038637327990410169 0 0.27267603034966698 -0.0077854348569651906 0 0.25598072684389089 -0.0058943492075353007 0 0.25886508985187012 -0.013172853544477199 0 0.26317147738524183 -0.0038637327990410169 0 0.25894279220913391 0.003459445712386486 0 0.25598072684389089 -0.0058943492075353007 0 0.26317147738524183 -0.0038637327990410169 0 0.27267603034966698 -0.0077854348569651906 0 0.26859201328057281 -0.027442020841521631 0 0.28321080035321983 -0.010208268297538009 0 0.26939274767164711 0.0040745279013861191 0 0.26317147738524183 -0.0038637327990410169 0 0.27267603034966698 -0.0077854348569651906 0 0.28687677889875068 0.001725005618485562 0 0.27267603034966698 -0.0077854348569651906 0 0.28321080035321983 -0.010208268297538009 0 0.26859201328057281 -0.027442020841521631 0 0.28321080035321983 -0.010208268297538009 0 0.25845033672230949 -0.02738613623275089 0 0.27267603034966698 -0.0077854348569651906 0 0.26859201328057281 -0.027442020841521631 0 0.26859201328057281 -0.027442020841521631 0 0.28248009054126683 -0.027824818882371601 0 0.28321080035321983 -0.010208268297538009 0 0.27361436003936901 -0.034999677146069851 0 0.26859201328057281 -0.027442020841521631 0 0.28248009054126683 -0.027824818882371601 0 0.29465383366866438 -0.01919356567853802 0 0.28248009054126683 -0.027824818882371601 0 0.29533908139447967 -0.037354518578573179 0 0.29465383366866438 -0.01919356567853802 0 0.28248009054126683 -0.027824818882371601 0 0.28321080035321983 -0.010208268297538009 0 0.29465383366866438 -0.01919356567853802 0 0.29533908139447967 -0.037354518578573179 0 0.2978295874258669 0.0070254842464454832 0 0.28321080035321983 -0.010208268297538009 0 0.29396858594285019 -0.001032612778502764 0 0.2978295874258669 0.0070254842464454832 0 0.28687677889875068 0.001725005618485562 0 0.28321080035321983 -0.010208268297538009 0 0.29465383366866438 -0.01919356567853802 0 0.28321080035321983 -0.010208268297538009 0 0.29396858594285019 -0.001032612778502764 0 0.2978295874258669 0.0070254842464454832 0 0.28321080035321983 -0.010208268297538009 0 0.29465383366866438 -0.01919356567853802 0 0.29396858594285019 -0.001032612778502764 0 0.30752965714041391 0.0058765203804442539 0 0.29465383366866438 -0.01919356567853802 0 0.29396858594285019 -0.001032612778502764 0 0.30752965714041391 0.0058765203804442539 0 0.3196214637881436 -0.021924893160697439 0 0.29465383366866438 -0.01919356567853802 0 0.3196214637881436 -0.021924893160697439 0 0.29465383366866438 -0.01919356567853802 0 0.29533908139447967 -0.037354518578573179 0 0.3196214637881436 -0.021924893160697439 0 0.29533908139447967 -0.037354518578573179 0 0.3196214637881436 -0.021924893160697439 0 0.31660160940309118 -0.035871797032442469 0 0.29533908139447967 -0.037354518578573179 0 0.31292981148517318 -0.054457989835630861 0 0.31660160940309118 -0.035871797032442469 0 0.29533908139447967 -0.037354518578573179 0 0.31292981148517318 -0.054457989835630861 0 0.29642507544735103 -0.06613635338217283 0 0.31292981148517318 -0.054457989835630861 0 0.29642507544735103 -0.06613635338217283 0 0.29533908139447967 -0.037354518578573179 0 0.29642507544735103 -0.06613635338217283 0 0.29301224914481439 -0.054007794946804598 0 0.29533908139447967 -0.037354518578573179 0 0.27395317434556299 -0.0509436520349522 0 0.28351618772518777 -0.053458991616202503 0 0.29533908139447967 -0.037354518578573179 0 0.29301224914481439 -0.054007794946804598 0 0.28351618772518777 -0.053458991616202503 0 0.29533908139447967 -0.037354518578573179 0 0.29642507544735103 -0.06613635338217283 0 0.29533908139447967 -0.037354518578573179 0 0.29347904805936648 -0.068220893163732282 0 0.29301224914481439 -0.054007794946804598 0 0.28521560802072671 -0.062721316040594208 0 0.29347904805936648 -0.068220893163732282 0 0.29301224914481439 -0.054007794946804598 0 0.28521560802072671 -0.062721316040594208 0 0.29301224914481439 -0.054007794946804598 0 0.28351618772518777 -0.053458991616202503 0 0.28521560802072671 -0.062721316040594208 0 0.28007443442101287 -0.061799103716356343 0 0.28351618772518777 -0.053458991616202503 0 0.27395317434556299 -0.0509436520349522 0 0.29533908139447967 -0.037354518578573179 0 0.27395317434556299 -0.0509436520349522 0 0.2807394014679111 -0.038000872253349499 0 0.29533908139447967 -0.037354518578573179 0 0.2807394014679111 -0.038000872253349499 0 0.28248009054126683 -0.027824818882371601 0 0.29533908139447967 -0.037354518578573179 0 0.30290052143222262 -0.20369411332823331 0 0.28158405213751547 -0.22140539282722879 0 0.30290052143222262 -0.20369411332823331 0 0.28158405213751547 -0.22140539282722879 0 0.27747759048209231 -0.20168759245952969 0 0.28632476970011178 -0.18938030831719929 0 0.30290052143222262 -0.20369411332823331 0 0.2980095077463053 -0.17872695304401809 0 0.28632476970011178 -0.18938030831719929 0 0.30290052143222262 -0.20369411332823331 0 0.27747759048209231 -0.20168759245952969 0 0.30290052143222262 -0.20369411332823331 0 0.2980095077463053 -0.17872695304401809 0 0.32549301828835953 -0.18492261693889581 0 0.30290052143222262 -0.20369411332823331 0 0.2980095077463053 -0.17872695304401809 0 0.30290052143222262 -0.20369411332823331 0 0.30715254712033069 -0.22539943122446929 0 0.28158405213751547 -0.22140539282722879 0 0.30290052143222262 -0.20369411332823331 0 0.30715254712033069 -0.22539943122446929 0 0.30290052143222262 -0.20369411332823331 0 0.30715254712033069 -0.22539943122446929 0 0.32148368101975677 -0.2112815477794289 0 0.31140457280844042 -0.24710474912070499 0 0.29234931722919649 -0.23956849287787771 0 0.29718577407036301 -0.25519814195989071 0 0.30715254712033069 -0.22539943122446929 0 0.31140457280844042 -0.24710474912070499 0 0.29234931722919649 -0.23956849287787771 0 0.30715254712033069 -0.22539943122446929 0 0.31140457280844042 -0.24710474912070499 0 0.29234931722919649 -0.23956849287787771 0 0.27362138757170362 -0.2426007269765893 0 0.28009493911397709 -0.25531812806766069 0 0.29234931722919649 -0.23956849287787771 0 0.28158405213751547 -0.22140539282722879 0 0.27362138757170362 -0.2426007269765893 0 0.30715254712033069 -0.22539943122446929 0 0.29234931722919649 -0.23956849287787771 0 0.28158405213751547 -0.22140539282722879 0 0.28158405213751547 -0.22140539282722879 0 0.26621460642996558 -0.23052855599088379 0 0.27362138757170362 -0.2426007269765893 0 0.28158405213751547 -0.22140539282722879 0 0.26621460642996558 -0.23052855599088379 0 0.26307381511529532 -0.2143756044194241 0 0.26621460642996558 -0.23052855599088379 0 0.27362138757170362 -0.2426007269765893 0 0.26034160768121078 -0.2422716922893062 0 0.27362138757170362 -0.2426007269765893 0 0.26034160768121078 -0.2422716922893062 0 0.26515279713901752 -0.25474276698909742 0 0.26034160768121078 -0.2422716922893062 0 0.26515279713901752 -0.25474276698909742 0 0.25575058308532189 -0.25269357128633052 0 0.26034160768121078 -0.2422716922893062 0 0.25134951441318748 -0.22920843539767929 0 0.2499607574480687 -0.24385609709525671 0 0.25575058308532189 -0.25269357128633052 0 0.2462907050713771 -0.25204034373521428 0 0.2499607574480687 -0.24385609709525671 0 0.26034160768121078 -0.2422716922893062 0 0.25575058308532189 -0.25269357128633052 0 0.2499607574480687 -0.24385609709525671 0 0.26621460642996558 -0.23052855599088379 0 0.25134951441318748 -0.22920843539767929 0 0.26307381511529532 -0.2143756044194241 0 0.26621460642996558 -0.23052855599088379 0 0.26034160768121078 -0.2422716922893062 0 0.25134951441318748 -0.22920843539767929 0 0.25134951441318748 -0.22920843539767929 0 0.26307381511529532 -0.2143756044194241 0 0.24314545538918961 -0.20571013864437751 0 0.26307381511529532 -0.2143756044194241 0 0.2593871514889205 -0.19799184377322379 0 0.24314545538918961 -0.20571013864437751 0 0.26307381511529532 -0.2143756044194241 0 0.27747759048209231 -0.20168759245952969 0 0.2593871514889205 -0.19799184377322379 0 0.28158405213751547 -0.22140539282722879 0 0.26307381511529532 -0.2143756044194241 0 0.27747759048209231 -0.20168759245952969 0 0.27747759048209231 -0.20168759245952969 0 0.2593871514889205 -0.19799184377322379 0 0.269221803856454 -0.185599514949991 0 0.28632476970011178 -0.18938030831719929 0 0.27747759048209231 -0.20168759245952969 0 0.269221803856454 -0.185599514949991 0 0.2593871514889205 -0.19799184377322379 0 0.269221803856454 -0.185599514949991 0 0.2437278363918948 -0.18195096812212239 0 0.260919387449559 -0.16579352929295721 0 0.269221803856454 -0.185599514949991 0 0.2437278363918948 -0.18195096812212239 0 0.260919387449559 -0.16579352929295721 0 0.28401442498348639 -0.17719336780422379 0 0.260919387449559 -0.16579352929295721 0 0.27757308642867828 -0.16101723958663619 0 0.28401442498348639 -0.17719336780422379 0 0.260919387449559 -0.16579352929295721 0 0.27757308642867828 -0.16101723958663619 0 0.27224003922127837 -0.1473222684895614 0 0.260919387449559 -0.16579352929295721 0 0.269221803856454 -0.185599514949991 0 0.28401442498348639 -0.17719336780422379 0 0.28632476970011178 -0.18938030831719929 0 0.269221803856454 -0.185599514949991 0 0.28401442498348639 -0.17719336780422379 0 0.260919387449559 -0.16579352929295721 0 0.25452239946831973 -0.14829655140993131 0 0.27224003922127837 -0.1473222684895614 0 0.260919387449559 -0.16579352929295721 0 0.25452239946831973 -0.14829655140993131 0 0.23782434991563151 -0.15439369078169049 0 0.25741251913389712 -0.1305951081492244 0 0.25452239946831973 -0.14829655140993131 0 0.27224003922127837 -0.1473222684895614 0 0.27757308642867828 -0.16101723958663619 0 0.27224003922127837 -0.1473222684895614 0 0.2931184940603897 -0.15375979275980259 0 0.25741251913389712 -0.1305951081492244 0 0.27224003922127837 -0.1473222684895614 0 0.28822748037447399 -0.12879263247558709 0 0.29512866602350563 -0.1184484781339787 0 0.2959534750055749 -0.1435622706191019 0 0.29512866602350563 -0.1184484781339787 0 0.28822748037447399 -0.12879263247558709 0 0.2959534750055749 -0.1435622706191019 0 0.2959534750055749 -0.1435622706191019 0 0.2931184940603897 -0.15375979275980259 0 0.29606782433269818 -0.16881524064208181 0 0.28822748037447399 -0.12879263247558709 0 0.2959534750055749 -0.1435622706191019 0 0.2931184940603897 -0.15375979275980259 0 0.28822748037447399 -0.12879263247558709 0 0.2931184940603897 -0.15375979275980259 0 0.27224003922127837 -0.1473222684895614 0 0.28822748037447399 -0.12879263247558709 0 0.2931184940603897 -0.15375979275980259 0 0.2959534750055749 -0.1435622706191019 0 0.29606782433269818 -0.16881524064208181 0 0.2959534750055749 -0.1435622706191019 0 0.30786991093933941 -0.1327242262548293 0 0.31334084787329858 -0.14560100496875439 0 0.2959534750055749 -0.1435622706191019 0 0.30589655906226038 -0.156608858018214 0 0.31334084787329858 -0.14560100496875439 0 0.30589655906226038 -0.156608858018214 0 0.31666093946419188 -0.15748088094218049 0 0.31334084787329858 -0.14560100496875439 0 0.29512866602350563 -0.1184484781339787 0 0.2959534750055749 -0.1435622706191019 0 0.30010147488007238 -0.1276093355582181 0 0.2959534750055749 -0.1435622706191019 0 0.30786991093933941 -0.1327242262548293 0 0.30010147488007238 -0.1276093355582181 0 0.31399575267335023 -0.12250180558336519 0 0.30554459793957989 -0.1238630007756472 0 0.30786991093933941 -0.1327242262548293 0 0.30554459793957989 -0.1238630007756472 0 0.30786991093933941 -0.1327242262548293 0 0.30010147488007238 -0.1276093355582181 0 0.28401442498348639 -0.17719336780422379 0 0.29606782433269818 -0.16881524064208181 0 0.2980095077463053 -0.17872695304401809 0 0.28632476970011178 -0.18938030831719929 0 0.28401442498348639 -0.17719336780422379 0 0.2980095077463053 -0.17872695304401809 0 0.27757308642867828 -0.16101723958663619 0 0.2931184940603897 -0.15375979275980259 0 0.28401442498348639 -0.17719336780422379 0 0.2931184940603897 -0.15375979275980259 0 0.28401442498348639 -0.17719336780422379 0 0.29606782433269818 -0.16881524064208181 0 0.2931184940603897 -0.15375979275980259 0 0.29606782433269818 -0.16881524064208181 0 0.29606782433269818 -0.16881524064208181 0 0.30589655906226038 -0.156608858018214 0 0.31145366373618227 -0.1686264437044486 0 0.2959534750055749 -0.1435622706191019 0 0.29606782433269818 -0.16881524064208181 0 0.30589655906226038 -0.156608858018214 0 0.30589655906226038 -0.156608858018214 0 0.31145366373618227 -0.1686264437044486 0 0.31666093946419188 -0.15748088094218049 0 0.31145366373618227 -0.1686264437044486 0 0.2980095077463053 -0.17872695304401809 0 0.32549301828835953 -0.18492261693889581 0 0.29606782433269818 -0.16881524064208181 0 0.31145366373618227 -0.1686264437044486 0 0.2980095077463053 -0.17872695304401809 0 0.29606782433269818 -0.16881524064208181 0 0.2980095077463053 -0.17872695304401809 0 0.31145366373618227 -0.1686264437044486 0 0.32549301828835953 -0.18492261693889581 0 0.32738776678709508 -0.16545123116759969 0 0.31145366373618227 -0.1686264437044486 0 0.32738776678709508 -0.16545123116759969 0 0.31666093946419188 -0.15748088094218049 0 0.32738776678709508 -0.16545123116759969 0 0.31666093946419188 -0.15748088094218049 0 0.32968898845727718 -0.1497650634196834 0 0.32738776678709508 -0.16545123116759969 0 0.32968898845727718 -0.1497650634196834 0 0.34808551514449421 -0.1661511205495555 0 0.32549301828835953 -0.18492261693889581 0 0.32738776678709508 -0.16545123116759969 0 0.34808551514449421 -0.1661511205495555 0 0.32549301828835953 -0.18492261693889581 0 0.34808551514449421 -0.1661511205495555 0 0.32549301828835953 -0.18492261693889581 0 0.34808551514449421 -0.1661511205495555 0 0.34521429895780248 -0.1968392362703156 0 0.30786991093933941 -0.1327242262548293 0 0.32373683991627678 -0.1342707635111336 0 0.31334084787329858 -0.14560100496875439 0 0.31399575267335023 -0.12250180558336519 0 0.32517348349888747 -0.118580130041643 0 0.32373683991627678 -0.1342707635111336 0 0.31399575267335023 -0.12250180558336519 0 0.30786991093933941 -0.1327242262548293 0 0.32373683991627678 -0.1342707635111336 0 0.32373683991627678 -0.1342707635111336 0 0.31334084787329858 -0.14560100496875439 0 0.32968898845727718 -0.1497650634196834 0 0.31666093946419188 -0.15748088094218049 0 0.31334084787329858 -0.14560100496875439 0 0.32968898845727718 -0.1497650634196834 0 0.32373683991627678 -0.1342707635111336 0 0.32968898845727718 -0.1497650634196834 0 0.34485783347551252 -0.1433779188078016 0 0.32968898845727718 -0.1497650634196834 0 0.34485783347551252 -0.1433779188078016 0 0.34808551514449421 -0.1661511205495555 0 0.34014121552940491 -0.1203166258242544 0 0.32373683991627678 -0.1342707635111336 0 0.34485783347551252 -0.1433779188078016 0 0.34014121552940491 -0.1203166258242544 0 0.35551888896884759 -0.1297027680154724 0 0.34485783347551252 -0.1433779188078016 0 0.35551888896884759 -0.1297027680154724 0 0.34485783347551252 -0.1433779188078016 0 0.37067801200062889 -0.1473796241602153 0 0.34485783347551252 -0.1433779188078016 0 0.37067801200062889 -0.1473796241602153 0 0.34808551514449421 -0.1661511205495555 0 0.35551888896884759 -0.1297027680154724 0 0.37067801200062889 -0.1473796241602153 0 0.37104303648388809 -0.1272612894930944 0 0.34808551514449421 -0.1661511205495555 0 0.36752808638216261 -0.17990459429682831 0 0.34521429895780248 -0.1968392362703156 0 0.34808551514449421 -0.1661511205495555 0 0.37072349948513561 -0.1630779710757761 0 0.36752808638216261 -0.17990459429682831 0 0.37067801200062889 -0.1473796241602153 0 0.34808551514449421 -0.1661511205495555 0 0.37072349948513561 -0.1630779710757761 0 0.37067801200062889 -0.1473796241602153 0 0.34808551514449421 -0.1661511205495555 0 0.37072349948513561 -0.1630779710757761 0 0.36752808638216261 -0.17990459429682831 0 0.38565700028273392 -0.16791849986101029 0 0.36752808638216261 -0.17990459429682831 0 0.36890805570422369 -0.19954003101511669 0 0.34521429895780248 -0.1968392362703156 0 0.36752808638216261 -0.17990459429682831 0 0.36890805570422369 -0.19954003101511669 0 0.38551481473406651 -0.18910273675150999 0 0.36890805570422369 -0.19954003101511669 0 0.35851964138810982 -0.2171827375251118 0 0.37645297458065691 -0.21353851220024839 0 0.35851964138810982 -0.2171827375251118 0 0.34521429895780248 -0.1968392362703156 0 0.33865146772119931 -0.2184974665014994 0 0.36890805570422369 -0.19954003101511669 0 0.35851964138810982 -0.2171827375251118 0 0.34521429895780248 -0.1968392362703156 0 0.32549301828835953 -0.18492261693889581 0 0.34521429895780248 -0.1968392362703156 0 0.32148368101975677 -0.2112815477794289 0 0.34521429895780248 -0.1968392362703156 0 0.33865146772119931 -0.2184974665014994 0 0.32148368101975677 -0.2112815477794289 0 0.30290052143222262 -0.20369411332823331 0 0.32549301828835953 -0.18492261693889581 0 0.32148368101975677 -0.2112815477794289 0 0.30290052143222262 -0.20369411332823331 0 0.32549301828835953 -0.18492261693889581 0 0.31140457280844042 -0.24710474912070499 0 0.32841487832378857 -0.23419691532036521 0 0.32909477526671738 -0.25319804842994992 0 0.30715254712033069 -0.22539943122446929 0 0.31140457280844042 -0.24710474912070499 0 0.32841487832378857 -0.23419691532036521 0 0.30715254712033069 -0.22539943122446929 0 0.32148368101975677 -0.2112815477794289 0 0.32841487832378857 -0.23419691532036521 0 0.33865146772119931 -0.2184974665014994 0 0.32841487832378857 -0.23419691532036521 0 0.34678876975393269 -0.23153157971564481 0 0.33865146772119931 -0.2184974665014994 0 0.32148368101975677 -0.2112815477794289 0 0.32841487832378857 -0.23419691532036521 0 0.32841487832378857 -0.23419691532036521 0 0.34542116247921317 -0.24786541093840589 0 0.32909477526671738 -0.25319804842994992 0 0.32841487832378857 -0.23419691532036521 0 0.34542116247921317 -0.24786541093840589 0 0.34678876975393269 -0.23153157971564481 0 0.34542116247921317 -0.24786541093840589 0 0.36282952759798831 -0.23490181410806829 0 0.36211004630048071 -0.25874315800932568 0 0.34542116247921317 -0.24786541093840589 0 0.34678876975393269 -0.23153157971564481 0 0.36282952759798831 -0.23490181410806829 0 0.35851964138810982 -0.2171827375251118 0 0.33865146772119931 -0.2184974665014994 0 0.34678876975393269 -0.23153157971564481 0 0.35851964138810982 -0.2171827375251118 0 0.34678876975393269 -0.23153157971564481 0 0.36282952759798831 -0.23490181410806829 0 0.35851964138810982 -0.2171827375251118 0 0.37179579398026102 -0.22561915142401329 0 0.36282952759798831 -0.23490181410806829 0 0.35851964138810982 -0.2171827375251118 0 0.37179579398026102 -0.22561915142401329 0 0.37645297458065691 -0.21353851220024839 0 0.37179579398026102 -0.22561915142401329 0 0.36282952759798831 -0.23490181410806829 0 0.37754581309809132 -0.23651361028518689 0 0.36282952759798831 -0.23490181410806829 0 0.36876625398544938 -0.24898888889403961 0 0.36211004630048071 -0.25874315800932568 0 0.36282952759798831 -0.23490181410806829 0 0.36211004630048071 -0.25874315800932568 0 0.36282952759798831 -0.23490181410806829 0 0.36876625398544938 -0.24898888889403961 0 0.37754581309809132 -0.23651361028518689 0 0.37754581309809132 -0.23651361028518689 0 0.39300219267510322 -0.23842714914515989 0 0.3871149211879113 -0.25548270742864421 0 0.39300219267510322 -0.23842714914515989 0 0.3871149211879113 -0.25548270742864421 0 0.40207495352916539 -0.25113417058953519 0 0.39300219267510322 -0.23842714914515989 0 0.40723458142941671 -0.23497076085713389 0 0.40207495352916539 -0.25113417058953519 0 0.39851670543712209 -0.2244771902628257 0 0.41039622944065363 -0.2185270516157129 0 0.40723458142941671 -0.23497076085713389 0 0.39300219267510322 -0.23842714914515989 0 0.39851670543712209 -0.2244771902628257 0 0.40723458142941671 -0.23497076085713389 0 0.39300219267510322 -0.23842714914515989 0 0.39851670543712209 -0.2244771902628257 0 0.38505811203634721 -0.22522643630241351 0 0.39851670543712209 -0.2244771902628257 0 0.38505811203634721 -0.22522643630241351 0 0.39303519244684892 -0.21278300449704671 0 0.37754581309809132 -0.23651361028518689 0 0.39300219267510322 -0.23842714914515989 0 0.38505811203634721 -0.22522643630241351 0 0.37179579398026102 -0.22561915142401329 0 0.37754581309809132 -0.23651361028518689 0 0.38505811203634721 -0.22522643630241351 0 0.37179579398026102 -0.22561915142401329 0 0.38505811203634721 -0.22522643630241351 0 0.37645297458065691 -0.21353851220024839 0 0.38505811203634721 -0.22522643630241351 0 0.37645297458065691 -0.21353851220024839 0 0.39303519244684892 -0.21278300449704671 0 0.36890805570422369 -0.19954003101511669 0 0.37645297458065691 -0.21353851220024839 0 0.38544293285627962 -0.20314808770867229 0 0.37645297458065691 -0.21353851220024839 0 0.38544293285627962 -0.20314808770867229 0 0.39303519244684892 -0.21278300449704671 0 0.36890805570422369 -0.19954003101511669 0 0.38544293285627962 -0.20314808770867229 0 0.38551481473406651 -0.18910273675150999 0 0.38544293285627962 -0.20314808770867229 0 0.38551481473406651 -0.18910273675150999 0 0.40330362681560211 -0.20077615407943949 0 0.38551481473406651 -0.18910273675150999 0 0.40330362681560211 -0.20077615407943949 0 0.39995041381356911 -0.1868338584648204 0 0.40330362681560211 -0.20077615407943949 0 0.4125958117473455 -0.19170302267586259 0 0.39995041381356911 -0.1868338584648204 0 0.40330362681560211 -0.20077615407943949 0 0.39303519244684892 -0.21278300449704671 0 0.41039622944065363 -0.2185270516157129 0 0.38544293285627962 -0.20314808770867229 0 0.40330362681560211 -0.20077615407943949 0 0.39303519244684892 -0.21278300449704671 0 0.39851670543712209 -0.2244771902628257 0 0.39303519244684892 -0.21278300449704671 0 0.41039622944065363 -0.2185270516157129 0 0.40330362681560211 -0.20077615407943949 0 0.41039622944065363 -0.2185270516157129 0 0.42189732607146729 -0.20211324892629831 0 0.41039622944065363 -0.2185270516157129 0 0.42189732607146729 -0.20211324892629831 0 0.42790605200351661 -0.22140108800821251 0 0.40330362681560211 -0.20077615407943949 0 0.4125958117473455 -0.19170302267586259 0 0.42189732607146729 -0.20211324892629831 0 0.4125958117473455 -0.19170302267586259 0 0.42189732607146729 -0.20211324892629831 0 0.42233780496578233 -0.18319904235883591 0 0.42189732607146729 -0.20211324892629831 0 0.43389642119060762 -0.191962199940241 0 0.42233780496578233 -0.18319904235883591 0 0.42189732607146729 -0.20211324892629831 0 0.43389642119060762 -0.191962199940241 0 0.43723926749718739 -0.20471492206911249 0 0.43723926749718739 -0.20471492206911249 0 0.42790605200351661 -0.22140108800821251 0 0.44233814121790038 -0.22173902575952509 0 0.42189732607146729 -0.20211324892629831 0 0.43723926749718739 -0.20471492206911249 0 0.42790605200351661 -0.22140108800821251 0 0.43048550082884018 -0.24614270293406881 0 0.44233814121790038 -0.22173902575952509 0 0.42790605200351661 -0.22140108800821251 0 0.43048550082884018 -0.24614270293406881 0 0.44233814121790038 -0.22173902575952509 0 0.42790605200351661 -0.22140108800821251 0 0.43048550082884018 -0.24614270293406881 0 0.42088007225406548 -0.23367140350055049 0 0.43048550082884018 -0.24614270293406881 0 0.44582088554477811 -0.24525862245079941 0 0.43357426810421817 -0.25015303326672972 0 0.43048550082884018 -0.24614270293406881 0 0.42846035594967069 -0.25031232086228522 0 0.43357426810421817 -0.25015303326672972 0 0.43048550082884018 -0.24614270293406881 0 0.43357426810421817 -0.25015303326672972 0 0.43048550082884018 -0.24614270293406881 0 0.418537335240391 -0.2435876000290193 0 0.42846035594967069 -0.25031232086228522 0 0.43048550082884018 -0.24614270293406881 0 0.42846035594967069 -0.25031232086228522 0 0.43048550082884018 -0.24614270293406881 0 0.42088007225406548 -0.23367140350055049 0 0.43048550082884018 -0.24614270293406881 0 0.418537335240391 -0.2435876000290193 0 0.42088007225406548 -0.23367140350055049 0 0.418537335240391 -0.2435876000290193 0 0.40723458142941671 -0.23497076085713389 0 0.42088007225406548 -0.23367140350055049 0 0.418537335240391 -0.2435876000290193 0 0.40723458142941671 -0.23497076085713389 0 0.40207495352916539 -0.25113417058953519 0 0.418537335240391 -0.2435876000290193 0 0.40207495352916539 -0.25113417058953519 0 0.42846035594967069 -0.25031232086228522 0 0.41039622944065363 -0.2185270516157129 0 0.40723458142941671 -0.23497076085713389 0 0.42088007225406548 -0.23367140350055049 0 0.41039622944065363 -0.2185270516157129 0 0.42790605200351661 -0.22140108800821251 0 0.42088007225406548 -0.23367140350055049 0 0.3932705088567644 -0.1286081277708763 0 0.38946375456974969 -0.1482633138159434 0 0.40032650034539519 -0.13972272199131119 0 0.3932705088567644 -0.1286081277708763 0 0.38946375456974969 -0.1482633138159434 0 0.40224748518751269 -0.1211494002184121 0 0.40802316631723889 -0.13171289331352951 0 0.40224748518751269 -0.1211494002184121 0 0.40096691517672778 -0.13029828582353201 0 0.3932705088567644 -0.1286081277708763 0 0.40224748518751269 -0.1211494002184121 0 0.40096691517672778 -0.13029828582353201 0 0.40802316631723889 -0.13171289331352951 0 0.40096691517672778 -0.13029828582353201 0 0.40032650034539519 -0.13972272199131119 0 0.40802316631723889 -0.13171289331352951 0 0.40032650034539519 -0.13972272199131119 0 0.40802316631723889 -0.13171289331352951 0 0.40096691517672778 -0.13029828582353201 0 0.40032650034539519 -0.13972272199131119 0 0.3932705088567644 -0.1286081277708763 0 0.37067801200062889 -0.1473796241602153 0 0.37104303648388809 -0.1272612894930944 0 0.3932705088567644 -0.1286081277708763 0 0.37067801200062889 -0.1473796241602153 0 0.3932705088567644 -0.1286081277708763 0 0.37067801200062889 -0.1473796241602153 0 0.37072349948513561 -0.1630779710757761 0 0.38946375456974969 -0.1482633138159434 0 0.37067801200062889 -0.1473796241602153 0 0.3932705088567644 -0.1286081277708763 0 0.38946375456974969 -0.1482633138159434 0 0.40032650034539519 -0.13972272199131119 0 0.38946375456974969 -0.1482633138159434 0 0.40103769468862932 -0.15735650722112959 0 0.38946375456974969 -0.1482633138159434 0 0.40103769468862932 -0.15735650722112959 0 0.38565700028273392 -0.16791849986101029 0 0.40103769468862932 -0.15735650722112959 0 0.38565700028273392 -0.16791849986101029 0 0.40804365254297231 -0.17415516972609171 0 0.37072349948513561 -0.1630779710757761 0 0.38946375456974969 -0.1482633138159434 0 0.38565700028273392 -0.16791849986101029 0 0.38946375456974969 -0.1482633138159434 0 0.38565700028273392 -0.16791849986101029 0 0.38551481473406651 -0.18910273675150999 0 0.38565700028273392 -0.16791849986101029 0 0.39995041381356911 -0.1868338584648204 0 0.36752808638216261 -0.17990459429682831 0 0.38551481473406651 -0.18910273675150999 0 0.38565700028273392 -0.16791849986101029 0 0.38565700028273392 -0.16791849986101029 0 0.39995041381356911 -0.1868338584648204 0 0.40804365254297231 -0.17415516972609171 0 0.4125958117473455 -0.19170302267586259 0 0.40804365254297231 -0.17415516972609171 0 0.42233780496578233 -0.18319904235883591 0 0.4125958117473455 -0.19170302267586259 0 0.39995041381356911 -0.1868338584648204 0 0.40804365254297231 -0.17415516972609171 0 0.42233780496578233 -0.18319904235883591 0 0.43537196508735049 -0.18173276810905351 0 0.42169756570229522 -0.15672283071129131 0 0.43389642119060762 -0.191962199940241 0 0.42233780496578233 -0.18319904235883591 0 0.43537196508735049 -0.18173276810905351 0 0.43537196508735049 -0.18173276810905351 0 0.42169756570229522 -0.15672283071129131 0 0.43537196508735049 -0.18173276810905351 0 0.42169756570229522 -0.15672283071129131 0 0.44011919579772352 -0.15902857640534751 0 0.40804365254297231 -0.17415516972609171 0 0.42233780496578233 -0.18319904235883591 0 0.42169756570229522 -0.15672283071129131 0 0.40103769468862932 -0.15735650722112959 0 0.40804365254297231 -0.17415516972609171 0 0.42169756570229522 -0.15672283071129131 0 0.40032650034539519 -0.13972272199131119 0 0.40103769468862932 -0.15735650722112959 0 0.42169756570229522 -0.15672283071129131 0 0.42169756570229522 -0.15672283071129131 0 0.40802316631723889 -0.13171289331352951 0 0.40032650034539519 -0.13972272199131119 0 0.42169756570229522 -0.15672283071129131 0 0.40802316631723889 -0.13171289331352951 0 0.42169756570229522 -0.15672283071129131 0 0.43087782981676859 -0.131879285754128 0 0.44052259681213413 -0.14512254840888281 0 0.42169756570229522 -0.15672283071129131 0 0.44052259681213413 -0.14512254840888281 0 0.44011919579772352 -0.15902857640534751 0 0.42510906065580589 -0.11393180641703871 0 0.43087782981676859 -0.131879285754128 0 0.40802316631723889 -0.13171289331352951 0 0.42169756570229522 -0.15672283071129131 0 0.43087782981676859 -0.131879285754128 0 0.40802316631723889 -0.13171289331352951 0 0.46093003486481321 -0.11810563265674839 0 0.46623847963083442 -0.1374076686568538 0 0.47239045088042492 -0.13005034139104371 0 0.46093003486481321 -0.11810563265674839 0 0.45430072039358249 -0.1470470373257684 0 0.46093003486481321 -0.11810563265674839 0 0.46623847963083442 -0.1374076686568538 0 0.45430072039358249 -0.1470470373257684 0 0.46093003486481321 -0.11810563265674839 0 0.44582693855797939 -0.1311402400572215 0 0.45430072039358249 -0.1470470373257684 0 0.441730170532879 -0.1159420230490274 0 0.43087782981676859 -0.131879285754128 0 0.44582693855797939 -0.1311402400572215 0 0.43087782981676859 -0.131879285754128 0 0.44582693855797939 -0.1311402400572215 0 0.44052259681213413 -0.14512254840888281 0 0.44582693855797939 -0.1311402400572215 0 0.44052259681213413 -0.14512254840888281 0 0.45430072039358249 -0.1470470373257684 0 0.44052259681213413 -0.14512254840888281 0 0.45430072039358249 -0.1470470373257684 0 0.44011919579772352 -0.15902857640534751 0 0.46623847963083442 -0.1374076686568538 0 0.45430072039358249 -0.1470470373257684 0 0.46795215833203208 -0.14958538313512479 0 0.45430072039358249 -0.1470470373257684 0 0.46795215833203208 -0.14958538313512479 0 0.46249654728105127 -0.15875526896169859 0 0.46249654728105127 -0.15875526896169859 0 0.44767140592235177 -0.17598844199478861 0 0.4590637049386419 -0.17656280063954849 0 0.46795215833203208 -0.14958538313512479 0 0.46765797362325351 -0.16960743348544691 0 0.46249654728105127 -0.15875526896169859 0 0.46765797362325351 -0.16960743348544691 0 0.46249654728105127 -0.15875526896169859 0 0.4590637049386419 -0.17656280063954849 0 0.45430072039358249 -0.1470470373257684 0 0.46249654728105127 -0.15875526896169859 0 0.44767140592235177 -0.17598844199478861 0 0.46249654728105127 -0.15875526896169859 0 0.4590637049386419 -0.17656280063954849 0 0.45430072039358249 -0.1470470373257684 0 0.44011919579772352 -0.15902857640534751 0 0.44767140592235177 -0.17598844199478861 0 0.45430072039358249 -0.1470470373257684 0 0.44767140592235177 -0.17598844199478861 0 0.44767140592235177 -0.17598844199478861 0 0.45131049953134228 -0.18433764364674099 0 0.4590637049386419 -0.17656280063954849 0 0.43537196508735049 -0.18173276810905351 0 0.44011919579772352 -0.15902857640534751 0 0.44767140592235177 -0.17598844199478861 0 0.43389642119060762 -0.191962199940241 0 0.43537196508735049 -0.18173276810905351 0 0.44405046135624082 -0.18412940313962539 0 0.43537196508735049 -0.18173276810905351 0 0.44767140592235177 -0.17598844199478861 0 0.44405046135624082 -0.18412940313962539 0 0.44405046135624082 -0.18412940313962539 0 0.45131049953134228 -0.18433764364674099 0 0.4501360628432447 -0.19063724014234421 0 0.44767140592235177 -0.17598844199478861 0 0.44405046135624082 -0.18412940313962539 0 0.45131049953134228 -0.18433764364674099 0 0.46765797362325351 -0.16960743348544691 0 0.4590637049386419 -0.17656280063954849 0 0.45563086259623248 -0.19437033231739831 0 0.4590637049386419 -0.17656280063954849 0 0.45563086259623248 -0.19437033231739831 0 0.46765797362325351 -0.16960743348544691 0 0.45563086259623248 -0.19437033231739831 0 0.46765797362325351 -0.16960743348544691 0 0.46817453342310178 -0.17984984725849121 0 0.45563086259623248 -0.19437033231739831 0 0.45131049953134228 -0.18433764364674099 0 0.4590637049386419 -0.17656280063954849 0 0.45563086259623248 -0.19437033231739831 0 0.46817453342310178 -0.17984984725849121 0 0.47868008644015098 -0.18364062408913809 0 0.4864423059537345 -0.17561039486471769 0 0.46817453342310178 -0.17984984725849121 0 0.47868008644015098 -0.18364062408913809 0 0.47427671796452459 -0.19390449174425081 0 0.4864423059537345 -0.17561039486471769 0 0.5 -0.16076066479590659 0 0.5 -0.1885669917164324 0 0.47868008644015098 -0.18364062408913809 0 0.4864423059537345 -0.17561039486471769 0 0.5 -0.1885669917164324 0 0.4864423059537345 -0.17561039486471769 0 0.5 -0.16076066479590659 0 0.4874204893839118 -0.1629257968797283 0 0.5 -0.16076066479590659 0 0.4874204893839118 -0.1629257968797283 0 0.48836632050416018 -0.15319142364385391 0 0.46765797362325351 -0.16960743348544691 0 0.47968508465027437 -0.14484453465349531 0 0.46817453342310178 -0.17984984725849121 0 0.4864423059537345 -0.17561039486471769 0 0.47621222687475862 -0.15989320835224299 0 0.46765797362325351 -0.16960743348544691 0 0.46817453342310178 -0.17984984725849121 0 0.47621222687475862 -0.15989320835224299 0 0.4864423059537345 -0.17561039486471769 0 0.4874204893839118 -0.1629257968797283 0 0.47621222687475862 -0.15989320835224299 0 0.46817453342310178 -0.17984984725849121 0 0.47621222687475862 -0.15989320835224299 0 0.4874204893839118 -0.1629257968797283 0 0.47621222687475862 -0.15989320835224299 0 0.48836632050416018 -0.15319142364385391 0 0.46765797362325351 -0.16960743348544691 0 0.47621222687475862 -0.15989320835224299 0 0.47968508465027437 -0.14484453465349531 0 0.47621222687475862 -0.15989320835224299 0 0.48424992032641551 -0.13993656944599481 0 0.47621222687475862 -0.15989320835224299 0 0.48836632050416018 -0.15319142364385391 0 0.48424992032641551 -0.13993656944599481 0 0.46795215833203208 -0.14958538313512479 0 0.46765797362325351 -0.16960743348544691 0 0.47968508465027437 -0.14484453465349531 0 0.47621222687475862 -0.15989320835224299 0 0.47968508465027437 -0.14484453465349531 0 0.48424992032641551 -0.13993656944599481 0 0.46623847963083442 -0.1374076686568538 0 0.46795215833203208 -0.14958538313512479 0 0.47424994269801352 -0.1397372940967013 0 0.46795215833203208 -0.14958538313512479 0 0.47968508465027437 -0.14484453465349531 0 0.47424994269801352 -0.1397372940967013 0 0.47968508465027437 -0.14484453465349531 0 0.47994759956173211 -0.14051186616834291 0 0.47424994269801352 -0.1397372940967013 0 0.47968508465027437 -0.14484453465349531 0 0.48424992032641551 -0.13993656944599481 0 0.47994759956173211 -0.14051186616834291 0 0.5 -0.16076066479590659 0 0.48836632050416018 -0.15319142364385391 0 0.5 -0.13295433787538069 0 0.48836632050416018 -0.15319142364385391 0 0.5 -0.13295433787538069 0 0.48424992032641551 -0.13993656944599481 0 0.48916266477234061 -0.13224727383335569 0 0.48085855782101261 -0.13626791926353529 0 0.48424992032641551 -0.13993656944599481 0 0.5 -0.13295433787538069 0 0.48916266477234061 -0.13224727383335569 0 0.48424992032641551 -0.13993656944599481 0 0.48986304781109291 -0.1242692167884092 0 0.5 -0.13295433787538069 0 0.48916266477234061 -0.13224727383335569 0 0.48986304781109291 -0.1242692167884092 0 0.48916266477234061 -0.13224727383335569 0 0.48085855782101261 -0.13626791926353529 0 0.47499259514944292 -0.1202547269832886 0 0.48085855782101261 -0.13626791926353529 0 0.47239045088042492 -0.13005034139104371 0 0.48085855782101261 -0.13626791926353529 0 0.48424992032641551 -0.13993656944599481 0 0.47994759956173211 -0.14051186616834291 0 0.48085855782101261 -0.13626791926353529 0 0.47994759956173211 -0.14051186616834291 0 0.47424994269801352 -0.1397372940967013 0 0.48085855782101261 -0.13626791926353529 0 0.47424994269801352 -0.1397372940967013 0 0.47239045088042492 -0.13005034139104371 0 0.46623847963083442 -0.1374076686568538 0 0.47424994269801352 -0.1397372940967013 0 0.47239045088042492 -0.13005034139104371 0 0.45735248248792831 -0.2263504469462593 0 0.45606595353113982 -0.2348942090935259 0 0.45040787416373163 -0.22146407059246401 0 0.4593659812364308 -0.22004368230368379 0 0.45735248248792831 -0.2263504469462593 0 0.45040787416373163 -0.22146407059246401 0 0.4593659812364308 -0.22004368230368379 0 0.45735248248792831 -0.2263504469462593 0 0.47005683011064803 -0.22590290220369119 0 0.4593659812364308 -0.22004368230368379 0 0.46586242272604061 -0.21273545752659301 0 0.47005683011064803 -0.22590290220369119 0 0.45735248248792831 -0.2263504469462593 0 0.45606595353113982 -0.2348942090935259 0 0.47005683011064803 -0.22590290220369119 0 0.46661169077989217 -0.2415165845456661 0 0.45606595353113982 -0.2348942090935259 0 0.47005683011064803 -0.22590290220369119 0 0.46661169077989217 -0.2415165845456661 0 0.45571617873614662 -0.24946335937342859 0 0.47785808936807489 -0.24877368548012899 0 0.45571617873614662 -0.24946335937342859 0 0.47785808936807489 -0.24877368548012899 0 0.46661169077989217 -0.2415165845456661 0 0.45518121600666411 -0.24259067484840299 0 0.45571617873614662 -0.24946335937342859 0 0.46661169077989217 -0.2415165845456661 0 0.45518121600666411 -0.24259067484840299 0 0.45606595353113982 -0.2348942090935259 0 0.45571617873614662 -0.24946335937342859 0 0.43357426810421817 -0.25015303326672972 0 0.43048550082884018 -0.24614270293406881 0 0.44582088554477811 -0.24525862245079941 0 0.44233814121790038 -0.22173902575952509 0 0.45571617873614662 -0.24946335937342859 0 0.44582088554477811 -0.24525862245079941 0 0.43357426810421817 -0.25015303326672972 0 0.45518121600666411 -0.24259067484840299 0 0.45606595353113982 -0.2348942090935259 0 0.44582088554477811 -0.24525862245079941 0 0.45518121600666411 -0.24259067484840299 0 0.45571617873614662 -0.24946335937342859 0 0.44582088554477811 -0.24525862245079941 0 0.44582088554477811 -0.24525862245079941 0 0.44233814121790038 -0.22173902575952509 0 0.45040787416373163 -0.22146407059246401 0 0.44582088554477811 -0.24525862245079941 0 0.45040787416373163 -0.22146407059246401 0 0.45606595353113982 -0.2348942090935259 0 0.44582088554477811 -0.24525862245079941 0 0.45040787416373163 -0.22146407059246401 0 0.43723926749718739 -0.20471492206911249 0 0.44233814121790038 -0.22173902575952509 0 0.45499486278268447 -0.1976695187341285 0 0.45040787416373163 -0.22146407059246401 0 0.45499486278268447 -0.1976695187341285 0 0.44233814121790038 -0.22173902575952509 0 0.45040787416373163 -0.22146407059246401 0 0.45499486278268447 -0.1976695187341285 0 0.44233814121790038 -0.22173902575952509 0 0.45499486278268447 -0.1976695187341285 0 0.43723926749718739 -0.20471492206911249 0 0.44395992212319679 -0.19308347956624619 0 0.45499486278268447 -0.1976695187341285 0 0.43389642119060762 -0.191962199940241 0 0.44405046135624082 -0.18412940313962539 0 0.44395992212319679 -0.19308347956624619 0 0.43389642119060762 -0.191962199940241 0 0.43723926749718739 -0.20471492206911249 0 0.44395992212319679 -0.19308347956624619 0 0.44395992212319679 -0.19308347956624619 0 0.45499486278268447 -0.1976695187341285 0 0.45131049953134228 -0.18433764364674099 0 0.4501360628432447 -0.19063724014234421 0 0.45563086259623248 -0.19437033231739831 0 0.44395992212319679 -0.19308347956624619 0 0.4501360628432447 -0.19063724014234421 0 0.45499486278268447 -0.1976695187341285 0 0.44405046135624082 -0.18412940313962539 0 0.44395992212319679 -0.19308347956624619 0 0.4501360628432447 -0.19063724014234421 0 0.46817453342310178 -0.17984984725849121 0 0.46013683997144489 -0.19980648616473931 0 0.47427671796452459 -0.19390449174425081 0 0.46817453342310178 -0.17984984725849121 0 0.46013683997144489 -0.19980648616473931 0 0.46817453342310178 -0.17984984725849121 0 0.45563086259623248 -0.19437033231739831 0 0.46013683997144489 -0.19980648616473931 0 0.4501360628432447 -0.19063724014234421 0 0.45563086259623248 -0.19437033231739831 0 0.45499486278268447 -0.1976695187341285 0 0.45499486278268447 -0.1976695187341285 0 0.46013683997144489 -0.19980648616473931 0 0.45563086259623248 -0.19437033231739831 0 0.45499486278268447 -0.1976695187341285 0 0.45563086259623248 -0.19437033231739831 0 0.45499486278268447 -0.1976695187341285 0 0.46013683997144489 -0.19980648616473931 0 0.46013683997144489 -0.19980648616473931 0 0.46586242272604061 -0.21273545752659301 0 0.48006841998572208 -0.20808990240084899 0 0.45040787416373163 -0.22146407059246401 0 0.45499486278268447 -0.1976695187341285 0 0.4548395438527213 -0.21295904373074681 0 0.4593659812364308 -0.22004368230368379 0 0.45040787416373163 -0.22146407059246401 0 0.4548395438527213 -0.21295904373074681 0 0.4593659812364308 -0.22004368230368379 0 0.4548395438527213 -0.21295904373074681 0 0.46586242272604061 -0.21273545752659301 0 0.46013683997144489 -0.19980648616473931 0 0.4548395438527213 -0.21295904373074681 0 0.45499486278268447 -0.1976695187341285 0 0.46013683997144489 -0.19980648616473931 0 0.4548395438527213 -0.21295904373074681 0 0.46013683997144489 -0.19980648616473931 0 0.4548395438527213 -0.21295904373074681 0 0.46586242272604061 -0.21273545752659301 0 0.46013683997144489 -0.19980648616473931 0 0.48006841998572208 -0.20808990240084899 0 0.46586242272604061 -0.21273545752659301 0 0.48006841998572208 -0.20808990240084899 0 0.47005683011064803 -0.22590290220369119 0 0.46013683997144489 -0.19980648616473931 0 0.48006841998572208 -0.20808990240084899 0 0.47427671796452459 -0.19390449174425081 0 0.47868008644015098 -0.18364062408913809 0 0.47427671796452459 -0.19390449174425081 0 0.5 -0.1885669917164324 0 0.48006841998572208 -0.20808990240084899 0 0.47427671796452459 -0.19390449174425081 0 0.5 -0.1885669917164324 0 0.48006841998572208 -0.20808990240084899 0 0.5 -0.1885669917164324 0 0.49999999999999961 -0.21637331863695819 0 0.48006841998572208 -0.20808990240084899 0 0.49999999999999961 -0.21637331863695819 0 0.48006841998572208 -0.20808990240084899 0 0.49999999999999961 -0.21637331863695819 0 0.4862545149737133 -0.22430099187442659 0 0.49999999999999961 -0.21637331863695819 0 0.5 -0.2322286651118938 0 0.4862545149737133 -0.22430099187442659 0 0.5 -0.2322286651118938 0 0.4862545149737133 -0.22430099187442659 0 0.48731543898686108 -0.23834171508702701 0 0.4862545149737133 -0.22430099187442659 0 0.47005683011064803 -0.22590290220369119 0 0.48731543898686108 -0.23834171508702701 0 0.48006841998572208 -0.20808990240084899 0 0.4862545149737133 -0.22430099187442659 0 0.47005683011064803 -0.22590290220369119 0 0.46661169077989217 -0.2415165845456661 0 0.47005683011064803 -0.22590290220369119 0 0.48731543898686108 -0.23834171508702701 0 0.46661169077989217 -0.2415165845456661 0 0.47785808936807489 -0.24877368548012899 0 0.48731543898686108 -0.23834171508702701 0 0.47785808936807489 -0.24877368548012899 0 0.50000000000000333 -0.24808401158682941 0 0.48731543898686108 -0.23834171508702701 0 0.5 -0.2322286651118938 0 0.50000000000000333 -0.24808401158682941 0 0.48731543898686108 -0.23834171508702701 0 0.47785808936807489 -0.24877368548012899 0 0.50000000000000333 -0.24808401158682941 0 0.50000000000000333 -0.24808401158682941 0 0.48656724266228879 -0.26126228076250718 0 0.5 -0.26842994380811291 0 0.47785808936807489 -0.24877368548012899 0 0.50000000000000333 -0.24808401158682941 0 0.48656724266228879 -0.26126228076250718 0 0.5 -0.26842994380811291 0 0.48208681399926079 -0.27581357356502773 0 0.50000000000000111 -0.28877587602939642 0 0.48656724266228879 -0.26126228076250718 0 0.5 -0.26842994380811291 0 0.48208681399926079 -0.27581357356502773 0 0.48208681399926079 -0.27581357356502773 0 0.46068671901070851 -0.28535474144655731 0 0.48208681399926079 -0.27581357356502773 0 0.46768981413575761 -0.2649492641288182 0 0.46068671901070851 -0.28535474144655731 0 0.48656724266228879 -0.26126228076250718 0 0.48208681399926079 -0.27581357356502773 0 0.46768981413575761 -0.2649492641288182 0 0.47785808936807489 -0.24877368548012899 0 0.48656724266228879 -0.26126228076250718 0 0.46768981413575761 -0.2649492641288182 0 0.45571617873614662 -0.24946335937342859 0 0.47785808936807489 -0.24877368548012899 0 0.46768981413575761 -0.2649492641288182 0 0.45571617873614662 -0.24946335937342859 0 0.46768981413575761 -0.2649492641288182 0 0.44713049355746243 -0.26775388735664418 0 0.46768981413575761 -0.2649492641288182 0 0.44713049355746243 -0.26775388735664418 0 0.46068671901070851 -0.28535474144655731 0 0.44713049355746243 -0.26775388735664418 0 0.46068671901070851 -0.28535474144655731 0 0.45571617873614662 -0.24946335937342859 0 0.44713049355746243 -0.26775388735664418 0 0.43357426810421817 -0.25015303326672972 0 0.44713049355746243 -0.26775388735664418 0 0.43357426810421817 -0.25015303326672972 0 0.43808872290812301 -0.29542998993102848 0 0.44582747314286902 -0.31276753443956201 0 0.43031487288344161 -0.31703067604683871 0 0.43808872290812301 -0.29542998993102848 0 0.45932525709009708 -0.30194153040829069 0 0.44582747314286902 -0.31276753443956201 0 0.43808872290812301 -0.29542998993102848 0 0.46068671901070851 -0.28535474144655731 0 0.45932525709009708 -0.30194153040829069 0 0.43808872290812301 -0.29542998993102848 0 0.46068671901070851 -0.28535474144655731 0 0.44713049355746243 -0.26775388735664418 0 0.43808872290812301 -0.29542998993102848 0 0.46068671901070851 -0.28535474144655731 0 0.46068671901070851 -0.28535474144655731 0 0.47654280981399377 -0.30594164756046982 0 0.46068671901070851 -0.28535474144655731 0 0.45932525709009708 -0.30194153040829069 0 0.47654280981399377 -0.30594164756046982 0 0.45932525709009708 -0.30194153040829069 0 0.46020140703816609 -0.31790014661013011 0 0.44582747314286902 -0.31276753443956201 0 0.47654280981399377 -0.30594164756046982 0 0.46020140703816609 -0.31790014661013011 0 0.45932525709009708 -0.30194153040829069 0 0.47654280981399377 -0.30594164756046982 0 0.46020140703816609 -0.31790014661013011 0 0.47654280981399377 -0.30594164756046982 0 0.48452590656705868 -0.31630657706248883 0 0.48208681399926079 -0.27581357356502773 0 0.46068671901070851 -0.28535474144655731 0 0.47654280981399377 -0.30594164756046982 0 0.48208681399926079 -0.27581357356502773 0 0.47654280981399377 -0.30594164756046982 0 0.50000000000000111 -0.28877587602939642 0 0.50000000000000111 -0.28877587602939642 0 0.5 -0.31627016595707702 0 0.48452590656705868 -0.31630657706248883 0 0.47654280981399377 -0.30594164756046982 0 0.50000000000000111 -0.28877587602939642 0 0.47654280981399377 -0.30594164756046982 0 0.50000000000000111 -0.28877587602939642 0 0.48452590656705868 -0.31630657706248883 0 0.5 -0.31627016595707702 0 0.48452590656705868 -0.31630657706248883 0 0.4798244965011923 -0.33203805400226027 0 0.5 -0.31627016595707702 0 0.4798244965011923 -0.33203805400226027 0 0.5 -0.34376445588475768 0 0.4798244965011923 -0.33203805400226027 0 0.46847105179670839 -0.34389899480205388 0 0.46020140703816609 -0.31790014661013011 0 0.47654280981399377 -0.30594164756046982 0 0.47527365498010271 -0.31804660630883719 0 0.46020140703816609 -0.31790014661013011 0 0.48452590656705868 -0.31630657706248883 0 0.4798244965011923 -0.33203805400226027 0 0.47527365498010271 -0.31804660630883719 0 0.4798244965011923 -0.33203805400226027 0 0.47527365498010271 -0.31804660630883719 0 0.46020140703816609 -0.31790014661013011 0 0.47654280981399377 -0.30594164756046982 0 0.48452590656705868 -0.31630657706248883 0 0.47527365498010271 -0.31804660630883719 0 0.49999999999999711 -0.37125874581243851 0 0.48806042456369142 -0.35612155968098341 0 0.47674069655525092 -0.3698978429939776 0 0.4798244965011923 -0.33203805400226027 0 0.48806042456369142 -0.35612155968098341 0 0.5 -0.34376445588475768 0 0.49999999999999711 -0.37125874581243851 0 0.48806042456369142 -0.35612155968098341 0 0.5 -0.34376445588475768 0 0.4798244965011923 -0.33203805400226027 0 0.48806042456369142 -0.35612155968098341 0 0.46847105179670839 -0.34389899480205388 0 0.48806042456369142 -0.35612155968098341 0 0.47674069655525092 -0.3698978429939776 0 0.46847105179670839 -0.34389899480205388 0 0.47674069655525092 -0.3698978429939776 0 0.46847105179670839 -0.34389899480205388 0 0.47674069655525092 -0.3698978429939776 0 0.45392603783110008 -0.37108838658624999 0 0.46847105179670839 -0.34389899480205388 0 0.45392603783110008 -0.37108838658624999 0 0.46847105179670839 -0.34389899480205388 0 0.44672977628043381 -0.35017364189741718 0 0.45392603783110008 -0.37108838658624999 0 0.44672977628043381 -0.35017364189741718 0 0.42785183481717409 -0.36595316276467199 0 0.45392603783110008 -0.37108838658624999 0 0.42785183481717409 -0.36595316276467199 0 0.43242581624588322 -0.38730115333965082 0 0.46847105179670839 -0.34389899480205388 0 0.46020140703816609 -0.31790014661013011 0 0.46847105179670839 -0.34389899480205388 0 0.46020140703816609 -0.31790014661013011 0 0.45431986664039198 -0.33607192194780172 0 0.46847105179670839 -0.34389899480205388 0 0.44672977628043381 -0.35017364189741718 0 0.45431986664039198 -0.33607192194780172 0 0.44672977628043381 -0.35017364189741718 0 0.44127539957872802 -0.33175003730325792 0 0.42823689835664952 -0.34636857782623809 0 0.44672977628043381 -0.35017364189741718 0 0.45431986664039198 -0.33607192194780172 0 0.44127539957872802 -0.33175003730325792 0 0.46020140703816609 -0.31790014661013011 0 0.45431986664039198 -0.33607192194780172 0 0.44127539957872802 -0.33175003730325792 0 0.44127539957872802 -0.33175003730325792 0 0.44582747314286902 -0.31276753443956201 0 0.43031487288344161 -0.31703067604683871 0 0.46020140703816609 -0.31790014661013011 0 0.44127539957872802 -0.33175003730325792 0 0.46020140703816609 -0.31790014661013011 0 0.44127539957872802 -0.33175003730325792 0 0.44582747314286902 -0.31276753443956201 0 0.44127539957872802 -0.33175003730325792 0 0.43031487288344161 -0.31703067604683871 0 0.41707429101309201 -0.3297381436533145 0 0.44127539957872802 -0.33175003730325792 0 0.41707429101309201 -0.3297381436533145 0 0.42823689835664952 -0.34636857782623809 0 0.41707429101309201 -0.3297381436533145 0 0.42823689835664952 -0.34636857782623809 0 0.40866613474490449 -0.35252068697126149 0 0.41707429101309201 -0.3297381436533145 0 0.39289273070295128 -0.31558048689996993 0 0.41549072680553711 -0.30550523841549909 0 0.43031487288344161 -0.31703067604683871 0 0.41707429101309201 -0.3297381436533145 0 0.41549072680553711 -0.30550523841549909 0 0.44672977628043381 -0.35017364189741718 0 0.42785183481717409 -0.36595316276467199 0 0.42823689835664952 -0.34636857782623809 0 0.42785183481717409 -0.36595316276467199 0 0.40866613474490449 -0.35252068697126149 0 0.42785183481717409 -0.36595316276467199 0 0.42823689835664952 -0.34636857782623809 0 0.40866613474490449 -0.35252068697126149 0 0.42785183481717409 -0.36595316276467199 0 0.4111933065081313 -0.36805982019164402 0 0.41287057948892703 -0.38518927514730122 0 0.42785183481717409 -0.36595316276467199 0 0.40866613474490449 -0.35252068697126149 0 0.4111933065081313 -0.36805982019164402 0 0.39290052262193498 -0.35565000096393579 0 0.38249634533461108 -0.36797477098799591 0 0.39650622041158878 -0.3765742856902482 0 0.4111933065081313 -0.36805982019164402 0 0.39290052262193498 -0.35565000096393579 0 0.39650622041158878 -0.3765742856902482 0 0.40866613474490449 -0.35252068697126149 0 0.39290052262193498 -0.35565000096393579 0 0.38948043467263488 -0.33908821117785082 0 0.40866613474490449 -0.35252068697126149 0 0.38948043467263488 -0.33908821117785082 0 0.40866613474490449 -0.35252068697126149 0 0.4111933065081313 -0.36805982019164402 0 0.39290052262193498 -0.35565000096393579 0 0.39290052262193498 -0.35565000096393579 0 0.37818146540529818 -0.34934783795600571 0 0.38249634533461108 -0.36797477098799591 0 0.39290052262193498 -0.35565000096393579 0 0.37818146540529818 -0.34934783795600571 0 0.38948043467263488 -0.33908821117785082 0 0.37818146540529818 -0.34934783795600571 0 0.38249634533461108 -0.36797477098799591 0 0.37305712147220338 -0.36102055586376819 0 0.41707429101309201 -0.3297381436533145 0 0.40866613474490449 -0.35252068697126149 0 0.38948043467263488 -0.33908821117785082 0 0.41707429101309201 -0.3297381436533145 0 0.39289273070295128 -0.31558048689996993 0 0.38948043467263488 -0.33908821117785082 0 0.37818146540529818 -0.34934783795600571 0 0.38948043467263488 -0.33908821117785082 0 0.37212478857772979 -0.33864880005647208 0 0.38948043467263488 -0.33908821117785082 0 0.37029473460036533 -0.32565573538444043 0 0.38948043467263488 -0.33908821117785082 0 0.37029473460036533 -0.32565573538444043 0 0.37212478857772979 -0.33864880005647208 0 0.39289273070295128 -0.31558048689996993 0 0.38064079273778262 -0.31288188218018531 0 0.37029473460036533 -0.32565573538444043 0 0.39289273070295128 -0.31558048689996993 0 0.37029473460036533 -0.32565573538444043 0 0.39289273070295128 -0.31558048689996993 0 0.38948043467263488 -0.33908821117785082 0 0.37029473460036533 -0.32565573538444043 0 0.38064079273778262 -0.31288188218018531 0 0.37804720550635529 -0.30651687721429538 0 0.38870969627640167 -0.30439929484627132 0 0.38064079273778262 -0.31288188218018531 0 0.37804720550635529 -0.30651687721429538 0 0.37325959660283969 -0.31225701655594912 0 0.37804720550635529 -0.30651687721429538 0 0.38032829646105881 -0.29636137241382532 0 0.36761344479238373 -0.29508033606196837 0 0.37804720550635529 -0.30651687721429538 0 0.38870969627640167 -0.30439929484627132 0 0.38032829646105881 -0.29636137241382532 0 0.38870969627640167 -0.30439929484627132 0 0.3879772147484597 -0.29176707856862888 0 0.38032829646105881 -0.29636137241382532 0 0.39289273070295128 -0.31558048689996993 0 0.38064079273778262 -0.31288188218018531 0 0.38870969627640167 -0.30439929484627132 0 0.39289273070295128 -0.31558048689996993 0 0.39985527598894161 -0.30920798579428682 0 0.41549072680553711 -0.30550523841549909 0 0.39985527598894161 -0.30920798579428682 0 0.39681295496079538 -0.29611275996065012 0 0.40939030264251791 -0.28957609748361951 0 0.39985527598894161 -0.30920798579428682 0 0.40939030264251791 -0.28957609748361951 0 0.39289273070295128 -0.31558048689996993 0 0.41549072680553711 -0.30550523841549909 0 0.39289273070295128 -0.31558048689996993 0 0.38870969627640167 -0.30439929484627132 0 0.39985527598894161 -0.30920798579428682 0 0.38870969627640167 -0.30439929484627132 0 0.39681295496079538 -0.29611275996065012 0 0.3879772147484597 -0.29176707856862888 0 0.38870969627640167 -0.30439929484627132 0 0.39985527598894161 -0.30920798579428682 0 0.39681295496079538 -0.29611275996065012 0 0.39922652050867191 -0.28295197323892363 0 0.39681295496079538 -0.29611275996065012 0 0.40939030264251791 -0.28957609748361951 0 0.39922652050867191 -0.28295197323892363 0 0.39681295496079538 -0.29611275996065012 0 0.3879772147484597 -0.29176707856862888 0 0.39922652050867191 -0.28295197323892363 0 0.3879772147484597 -0.29176707856862888 0 0.38840358504398731 -0.28029486931936831 0 0.3879772147484597 -0.29176707856862888 0 0.37929392098169401 -0.28404327537796259 0 0.38840358504398731 -0.28029486931936831 0 0.38032829646105881 -0.29636137241382532 0 0.37929392098169401 -0.28404327537796259 0 0.36761344479238373 -0.29508033606196837 0 0.3879772147484597 -0.29176707856862888 0 0.38032829646105881 -0.29636137241382532 0 0.37929392098169401 -0.28404327537796259 0 0.37929392098169401 -0.28404327537796259 0 0.38326599173650672 -0.27147868498013239 0 0.3725796289452375 -0.26579697317357759 0 0.37929392098169401 -0.28404327537796259 0 0.38326599173650672 -0.27147868498013239 0 0.38840358504398731 -0.28029486931936831 0 0.38326599173650672 -0.27147868498013239 0 0.38840358504398731 -0.28029486931936831 0 0.39544519547575041 -0.26880031542545191 0 0.37754581309809132 -0.23651361028518689 0 0.3725796289452375 -0.26579697317357759 0 0.37754581309809132 -0.23651361028518689 0 0.3871149211879113 -0.25548270742864421 0 0.3725796289452375 -0.26579697317357759 0 0.38326599173650672 -0.27147868498013239 0 0.3871149211879113 -0.25548270742864421 0 0.39544519547575041 -0.26880031542545191 0 0.38326599173650672 -0.27147868498013239 0 0.3871149211879113 -0.25548270742864421 0 0.3725796289452375 -0.26579697317357759 0 0.3871149211879113 -0.25548270742864421 0 0.40207495352916539 -0.25113417058953519 0 0.39544519547575041 -0.26880031542545191 0 0.40207495352916539 -0.25113417058953519 0 0.39544519547575041 -0.26880031542545191 0 0.41892532929609411 -0.26994420917295231 0 0.39922652050867191 -0.28295197323892363 0 0.39544519547575041 -0.26880031542545191 0 0.41892532929609411 -0.26994420917295231 0 0.39922652050867191 -0.28295197323892363 0 0.38840358504398731 -0.28029486931936831 0 0.39544519547575041 -0.26880031542545191 0 0.41892532929609411 -0.26994420917295231 0 0.40939030264251791 -0.28957609748361951 0 0.41892532929609411 -0.26994420917295231 0 0.42674472615619141 -0.28201696019190231 0 0.40939030264251791 -0.28957609748361951 0 0.39922652050867191 -0.28295197323892363 0 0.41892532929609411 -0.26994420917295231 0 0.40939030264251791 -0.28957609748361951 0 0.40207495352916539 -0.25113417058953519 0 0.41892532929609411 -0.26994420917295231 0 0.42846035594967069 -0.25031232086228522 0 0.40207495352916539 -0.25113417058953519 0 0.42846035594967069 -0.25031232086228522 0 0.44713049355746243 -0.26775388735664418 0 0.4314427817274139 -0.26389233879167029 0 0.43357426810421817 -0.25015303326672972 0 0.41892532929609411 -0.26994420917295231 0 0.42846035594967069 -0.25031232086228522 0 0.41892532929609411 -0.26994420917295231 0 0.42846035594967069 -0.25031232086228522 0 0.4314427817274139 -0.26389233879167029 0 0.42846035594967069 -0.25031232086228522 0 0.4314427817274139 -0.26389233879167029 0 0.43357426810421817 -0.25015303326672972 0 0.42846035594967069 -0.25031232086228522 0 0.43357426810421817 -0.25015303326672972 0 0.41892532929609411 -0.26994420917295231 0 0.4314427817274139 -0.26389233879167029 0 0.42674472615619141 -0.28201696019190231 0 0.44713049355746243 -0.26775388735664418 0 0.4314427817274139 -0.26389233879167029 0 0.42674472615619141 -0.28201696019190231 0 0.43808872290812301 -0.29542998993102848 0 0.42674472615619141 -0.28201696019190231 0 0.41549072680553711 -0.30550523841549909 0 0.44713049355746243 -0.26775388735664418 0 0.43808872290812301 -0.29542998993102848 0 0.42674472615619141 -0.28201696019190231 0 0.43808872290812301 -0.29542998993102848 0 0.43031487288344161 -0.31703067604683871 0 0.41549072680553711 -0.30550523841549909 0 0.43808872290812301 -0.29542998993102848 0 0.41549072680553711 -0.30550523841549909 0 0.39985527598894161 -0.30920798579428682 0 0.41549072680553711 -0.30550523841549909 0 0.40939030264251791 -0.28957609748361951 0 0.42674472615619141 -0.28201696019190231 0 0.41549072680553711 -0.30550523841549909 0 0.40939030264251791 -0.28957609748361951 0 0.43773802119989941 -0.49999999999999978 0 0.45890943729545802 -0.4823892052391901 0 0.4796611806106722 -0.48718440019654963 0 0.43773802119989941 -0.49999999999999978 0 0.44535189907423273 -0.48425652050154361 0 0.43773802119989941 -0.49999999999999978 0 0.44535189907423273 -0.48425652050154361 0 0.45890943729545802 -0.4823892052391901 0 0.43920548674920379 -0.47249175324936749 0 0.44535189907423273 -0.48425652050154361 0 0.45296577694856682 -0.46851304100308783 0 0.43920548674920379 -0.47249175324936749 0 0.44535189907423273 -0.48425652050154361 0 0.42866409193048188 -0.47676758270227471 0 0.44535189907423273 -0.48425652050154361 0 0.45589009982111051 -0.4775459799915327 0 0.45296577694856682 -0.46851304100308783 0 0.44535189907423273 -0.48425652050154361 0 0.45296577694856682 -0.46851304100308783 0 0.45589009982111051 -0.4775459799915327 0 0.45890943729545802 -0.4823892052391901 0 0.46145872075250199 -0.4714816097570898 0 0.44535189907423273 -0.48425652050154361 0 0.45589009982111051 -0.4775459799915327 0 0.45890943729545802 -0.4823892052391901 0 0.45890943729545802 -0.4823892052391901 0 0.46145872075250199 -0.4714816097570898 0 0.47563876839417468 -0.4748936591889994 0 0.46145872075250199 -0.4714816097570898 0 0.45296577694856682 -0.46851304100308783 0 0.45589009982111051 -0.4775459799915327 0 0.46145872075250199 -0.4714816097570898 0 0.45296577694856682 -0.46851304100308783 0 0.43773802119989941 -0.49999999999999978 0 0.4796611806106722 -0.48718440019654963 0 0.5 -0.5 0 0.4796611806106722 -0.48718440019654963 0 0.5 -0.5 0 0.5 -0.47026069904804169 0 0.5 -0.47026069904804169 0 0.47563876839417468 -0.4748936591889994 0 0.47905351322328699 -0.46315238170412548 0 0.4796611806106722 -0.48718440019654963 0 0.5 -0.47026069904804169 0 0.47563876839417468 -0.4748936591889994 0 0.46145872075250199 -0.4714816097570898 0 0.47563876839417468 -0.4748936591889994 0 0.47905351322328699 -0.46315238170412548 0 0.45890943729545802 -0.4823892052391901 0 0.4796611806106722 -0.48718440019654963 0 0.47563876839417468 -0.4748936591889994 0 0.47905351322328699 -0.46315238170412548 0 0.45899603635761982 -0.45604406436020939 0 0.47905351322328699 -0.46315238170412548 0 0.4788951805990147 -0.44564391983896778 0 0.45899603635761982 -0.45604406436020939 0 0.5 -0.47026069904804169 0 0.47905351322328699 -0.46315238170412548 0 0.5 -0.44373220895607401 0 0.5 -0.47026069904804169 0 0.47905351322328699 -0.46315238170412548 0 0.5 -0.44373220895607401 0 0.4788951805990147 -0.44564391983896778 0 0.48552804520920678 -0.42799216931292611 0 0.47905351322328699 -0.46315238170412548 0 0.5 -0.44373220895607401 0 0.4788951805990147 -0.44564391983896778 0 0.4788951805990147 -0.44564391983896778 0 0.45899603635761982 -0.45604406436020939 0 0.46924702726821282 -0.43484773472326599 0 0.45899603635761982 -0.45604406436020939 0 0.46924702726821282 -0.43484773472326599 0 0.45899603635761982 -0.45604406436020939 0 0.44838303037477362 -0.43447900987216292 0 0.46924702726821282 -0.43484773472326599 0 0.46145872075250199 -0.4714816097570898 0 0.47905351322328699 -0.46315238170412548 0 0.45899603635761982 -0.45604406436020939 0 0.46145872075250199 -0.4714816097570898 0 0.45899603635761982 -0.45604406436020939 0 0.45296577694856682 -0.46851304100308783 0 0.45899603635761982 -0.45604406436020939 0 0.45296577694856682 -0.46851304100308783 0 0.44562172027540892 -0.45801600689332289 0 0.45296577694856682 -0.46851304100308783 0 0.42984017904353489 -0.46042986879056458 0 0.43920548674920379 -0.47249175324936749 0 0.45296577694856682 -0.46851304100308783 0 0.42984017904353489 -0.46042986879056458 0 0.44562172027540892 -0.45801600689332289 0 0.43764883001816302 -0.44847867026387339 0 0.42984017904353489 -0.46042986879056458 0 0.45899603635761982 -0.45604406436020939 0 0.44562172027540892 -0.45801600689332289 0 0.45296577694856682 -0.46851304100308783 0 0.45296577694856682 -0.46851304100308783 0 0.42984017904353489 -0.46042986879056458 0 0.45899603635761982 -0.45604406436020939 0 0.44562172027540892 -0.45801600689332289 0 0.43764883001816302 -0.44847867026387339 0 0.45899603635761982 -0.45604406436020939 0 0.43764883001816302 -0.44847867026387339 0 0.44838303037477362 -0.43447900987216292 0 0.43764883001816302 -0.44847867026387339 0 0.44838303037477362 -0.43447900987216292 0 0.43199803478474752 -0.43480066315574151 0 0.45899603635761982 -0.45604406436020939 0 0.43764883001816302 -0.44847867026387339 0 0.44838303037477362 -0.43447900987216292 0 0.43524810038533429 -0.42324892749070769 0 0.43199803478474752 -0.43480066315574151 0 0.44838303037477362 -0.43447900987216292 0 0.45481320319103757 -0.41743251132042969 0 0.43524810038533429 -0.42324892749070769 0 0.45481320319103757 -0.41743251132042969 0 0.43477646914432833 -0.40550992295969079 0 0.43524810038533429 -0.42324892749070769 0 0.45481320319103757 -0.41743251132042969 0 0.46680969583490778 -0.41274858841526157 0 0.46924702726821282 -0.43484773472326599 0 0.45481320319103757 -0.41743251132042969 0 0.46680969583490778 -0.41274858841526157 0 0.46697148891275431 -0.40002921638500172 0 0.44838303037477362 -0.43447900987216292 0 0.45481320319103757 -0.41743251132042969 0 0.46924702726821282 -0.43484773472326599 0 0.5 -0.44373220895607401 0 0.48552804520920678 -0.42799216931292611 0 0.5 -0.40208557795999961 0 0.46924702726821282 -0.43484773472326599 0 0.48552804520920678 -0.42799216931292611 0 0.47949801817880677 -0.41365140508632309 0 0.4788951805990147 -0.44564391983896778 0 0.46924702726821282 -0.43484773472326599 0 0.48552804520920678 -0.42799216931292611 0 0.46924702726821282 -0.43484773472326599 0 0.47949801817880677 -0.41365140508632309 0 0.48552804520920678 -0.42799216931292611 0 0.47949801817880677 -0.41365140508632309 0 0.5 -0.40208557795999961 0 0.46680969583490778 -0.41274858841526157 0 0.46924702726821282 -0.43484773472326599 0 0.47949801817880677 -0.41365140508632309 0 0.46680969583490778 -0.41274858841526157 0 0.47949801817880677 -0.41365140508632309 0 0.47485796399023311 -0.40328323013715978 0 0.47949801817880677 -0.41365140508632309 0 0.47485796399023311 -0.40328323013715978 0 0.48501034131379339 -0.39589669118590137 0 0.46680969583490778 -0.41274858841526157 0 0.47485796399023311 -0.40328323013715978 0 0.46697148891275431 -0.40002921638500172 0 0.47485796399023311 -0.40328323013715978 0 0.47548297721973709 -0.39513831255209197 0 0.46697148891275431 -0.40002921638500172 0 0.47548297721973709 -0.39513831255209197 0 0.47310568845609052 -0.38536867418522291 0 0.46697148891275431 -0.40002921638500172 0 0.47548297721973709 -0.39513831255209197 0 0.48501034131379339 -0.39589669118590137 0 0.47310568845609052 -0.38536867418522291 0 0.47485796399023311 -0.40328323013715978 0 0.47548297721973709 -0.39513831255209197 0 0.48501034131379339 -0.39589669118590137 0 0.47949801817880677 -0.41365140508632309 0 0.48974900908940078 -0.39245507544938019 0 0.47949801817880677 -0.41365140508632309 0 0.5 -0.40208557795999961 0 0.48974900908940078 -0.39245507544938019 0 0.47949801817880677 -0.41365140508632309 0 0.48974900908940078 -0.39245507544938019 0 0.48501034131379339 -0.39589669118590137 0 0.49999999999999711 -0.37125874581243851 0 0.5 -0.40208557795999961 0 0.48974900908940078 -0.39245507544938019 0 0.49999999999999711 -0.37125874581243851 0 0.47674069655525092 -0.3698978429939776 0 0.48974900908940078 -0.39245507544938019 0 0.49999999999999711 -0.37125874581243851 0 0.48974900908940078 -0.39245507544938019 0 0.47674069655525092 -0.3698978429939776 0 0.48501034131379339 -0.39589669118590137 0 0.47310568845609052 -0.38536867418522291 0 0.47674069655525092 -0.3698978429939776 0 0.48974900908940078 -0.39245507544938019 0 0.48501034131379339 -0.39589669118590137 0 0.47674069655525092 -0.3698978429939776 0 0.48501034131379339 -0.39589669118590137 0 0.45392603783110008 -0.37108838658624999 0 0.47310568845609052 -0.38536867418522291 0 0.45155556879862868 -0.3944603689424081 0 0.47674069655525092 -0.3698978429939776 0 0.45392603783110008 -0.37108838658624999 0 0.47310568845609052 -0.38536867418522291 0 0.45481320319103757 -0.41743251132042969 0 0.46697148891275431 -0.40002921638500172 0 0.45155556879862868 -0.3944603689424081 0 0.47310568845609052 -0.38536867418522291 0 0.46697148891275431 -0.40002921638500172 0 0.45155556879862868 -0.3944603689424081 0 0.45481320319103757 -0.41743251132042969 0 0.45155556879862868 -0.3944603689424081 0 0.43477646914432833 -0.40550992295969079 0 0.45155556879862868 -0.3944603689424081 0 0.43242581624588322 -0.38730115333965082 0 0.43477646914432833 -0.40550992295969079 0 0.45392603783110008 -0.37108838658624999 0 0.45155556879862868 -0.3944603689424081 0 0.43242581624588322 -0.38730115333965082 0 0.42785183481717409 -0.36595316276467199 0 0.43242581624588322 -0.38730115333965082 0 0.41287057948892703 -0.38518927514730122 0 0.43242581624588322 -0.38730115333965082 0 0.43477646914432833 -0.40550992295969079 0 0.41749483707519452 -0.40538692165420498 0 0.43242581624588322 -0.38730115333965082 0 0.41749483707519452 -0.40538692165420498 0 0.41287057948892703 -0.38518927514730122 0 0.41749483707519452 -0.40538692165420498 0 0.41287057948892703 -0.38518927514730122 0 0.40336078828097621 -0.40362515372992341 0 0.4111933065081313 -0.36805982019164402 0 0.41287057948892703 -0.38518927514730122 0 0.39650622041158878 -0.3765742856902482 0 0.41287057948892703 -0.38518927514730122 0 0.39650622041158878 -0.3765742856902482 0 0.39372170841196569 -0.3925803949292499 0 0.38249634533461108 -0.36797477098799591 0 0.39650622041158878 -0.3765742856902482 0 0.37900977316023637 -0.39091548517495972 0 0.39650622041158878 -0.3765742856902482 0 0.37900977316023637 -0.39091548517495972 0 0.39372170841196569 -0.3925803949292499 0 0.38249634533461108 -0.36797477098799591 0 0.37900977316023637 -0.39091548517495972 0 0.36724772315424481 -0.38247146420994571 0 0.37900977316023637 -0.39091548517495972 0 0.39372170841196569 -0.3925803949292499 0 0.37842665921942997 -0.40887405987875969 0 0.37900977316023637 -0.39091548517495972 0 0.37842665921942997 -0.40887405987875969 0 0.36824105802713031 -0.4000969440192842 0 0.39372170841196569 -0.3925803949292499 0 0.39194747191700757 -0.41402513481906722 0 0.37842665921942997 -0.40887405987875969 0 0.41287057948892703 -0.38518927514730122 0 0.39372170841196569 -0.3925803949292499 0 0.40336078828097621 -0.40362515372992341 0 0.39372170841196569 -0.3925803949292499 0 0.40336078828097621 -0.40362515372992341 0 0.39194747191700757 -0.41402513481906722 0 0.40336078828097621 -0.40362515372992341 0 0.39194747191700757 -0.41402513481906722 0 0.41036500379586138 -0.42217021861448573 0 0.39194747191700757 -0.41402513481906722 0 0.37842665921942997 -0.40887405987875969 0 0.3754845505291648 -0.42231636227288599 0 0.39194747191700757 -0.41402513481906722 0 0.38276612650569841 -0.43173139982273478 0 0.39495441733924969 -0.43334788207120151 0 0.39194747191700757 -0.41402513481906722 0 0.3754845505291648 -0.42231636227288599 0 0.38276612650569841 -0.43173139982273478 0 0.38276612650569841 -0.43173139982273478 0 0.39495441733924969 -0.43334788207120151 0 0.38358898323347101 -0.44426352436551808 0 0.39495441733924969 -0.43334788207120151 0 0.41630162367870638 -0.44091327616753739 0 0.39194747191700757 -0.41402513481906722 0 0.39495441733924969 -0.43334788207120151 0 0.41036500379586138 -0.42217021861448573 0 0.41036500379586138 -0.42217021861448573 0 0.42295569064062533 -0.42699492369753778 0 0.41630162367870638 -0.44091327616753739 0 0.39495441733924969 -0.43334788207120151 0 0.41036500379586138 -0.42217021861448573 0 0.41630162367870638 -0.44091327616753739 0 0.41749483707519452 -0.40538692165420498 0 0.40336078828097621 -0.40362515372992341 0 0.41036500379586138 -0.42217021861448573 0 0.41749483707519452 -0.40538692165420498 0 0.41036500379586138 -0.42217021861448573 0 0.42458756094721539 -0.41613405657310448 0 0.41036500379586138 -0.42217021861448573 0 0.42458756094721539 -0.41613405657310448 0 0.42295569064062533 -0.42699492369753778 0 0.43477646914432833 -0.40550992295969079 0 0.41749483707519452 -0.40538692165420498 0 0.42458756094721539 -0.41613405657310448 0 0.43477646914432833 -0.40550992295969079 0 0.42458756094721539 -0.41613405657310448 0 0.43524810038533429 -0.42324892749070769 0 0.43199803478474752 -0.43480066315574151 0 0.42295569064062533 -0.42699492369753778 0 0.41630162367870638 -0.44091327616753739 0 0.43524810038533429 -0.42324892749070769 0 0.43199803478474752 -0.43480066315574151 0 0.42295569064062533 -0.42699492369753778 0 0.42458756094721539 -0.41613405657310448 0 0.43524810038533429 -0.42324892749070769 0 0.42295569064062533 -0.42699492369753778 0 0.43764883001816302 -0.44847867026387339 0 0.41630162367870638 -0.44091327616753739 0 0.43764883001816302 -0.44847867026387339 0 0.42984017904353489 -0.46042986879056458 0 0.41630162367870638 -0.44091327616753739 0 0.43764883001816302 -0.44847867026387339 0 0.43199803478474752 -0.43480066315574151 0 0.41630162367870638 -0.44091327616753739 0 0.42984017904353489 -0.46042986879056458 0 0.41583716859034447 -0.46620520778226737 0 0.42866409193048188 -0.47676758270227471 0 0.42984017904353489 -0.46042986879056458 0 0.4067145811385029 -0.45234669657804139 0 0.42984017904353489 -0.46042986879056458 0 0.41583716859034447 -0.46620520778226737 0 0.4067145811385029 -0.45234669657804139 0 0.41583716859034447 -0.46620520778226737 0 0.4067145811385029 -0.45234669657804139 0 0.40148396946935899 -0.46677367853588281 0 0.42984017904353489 -0.46042986879056458 0 0.4067145811385029 -0.45234669657804139 0 0.41630162367870638 -0.44091327616753739 0 0.4067145811385029 -0.45234669657804139 0 0.38358898323347101 -0.44426352436551808 0 0.39182712026942329 -0.45690385307896481 0 0.39495441733924969 -0.43334788207120151 0 0.4067145811385029 -0.45234669657804139 0 0.41630162367870638 -0.44091327616753739 0 0.39495441733924969 -0.43334788207120151 0 0.4067145811385029 -0.45234669657804139 0 0.38358898323347101 -0.44426352436551808 0 0.4067145811385029 -0.45234669657804139 0 0.38358898323347101 -0.44426352436551808 0 0.38358898323347101 -0.44426352436551808 0 0.37514595674159079 -0.45476526552439389 0 0.39182712026942329 -0.45690385307896481 0 0.38276612650569841 -0.43173139982273478 0 0.38358898323347101 -0.44426352436551808 0 0.36596817218281208 -0.43846752572535042 0 0.37514595674159079 -0.45476526552439389 0 0.38538716437757631 -0.46842775420537441 0 0.39182712026942329 -0.45690385307896481 0 0.37514595674159079 -0.45476526552439389 0 0.38538716437757631 -0.46842775420537441 0 0.37212180294075042 -0.46808428500039262 0 0.38538716437757631 -0.46842775420537441 0 0.39182712026942329 -0.45690385307896481 0 0.40148396946935899 -0.46677367853588281 0 0.4067145811385029 -0.45234669657804139 0 0.39182712026942329 -0.45690385307896481 0 0.40148396946935899 -0.46677367853588281 0 0.39434508200087892 -0.48168095957978257 0 0.4057717135424021 -0.48929931529832937 0 0.41138522724611992 -0.47610642689805982 0 0.38538716437757631 -0.46842775420537441 0 0.40148396946935899 -0.46677367853588281 0 0.39434508200087892 -0.48168095957978257 0 0.40148396946935899 -0.46677367853588281 0 0.39434508200087892 -0.48168095957978257 0 0.41138522724611992 -0.47610642689805982 0 0.38538716437757631 -0.46842775420537441 0 0.39434508200087892 -0.48168095957978257 0 0.37586822855092661 -0.48439202442808083 0 0.38538716437757631 -0.46842775420537441 0 0.37586822855092661 -0.48439202442808083 0 0.37212180294075042 -0.46808428500039262 0 0.39434508200087892 -0.48168095957978257 0 0.37586822855092661 -0.48439202442808083 0 0.39289039342582149 -0.5 0 0.37586822855092661 -0.48439202442808083 0 0.39289039342582149 -0.5 0 0.3704665795387827 -0.49999999999999961 0 0.39434508200087892 -0.48168095957978257 0 0.39289039342582149 -0.5 0 0.4057717135424021 -0.48929931529832937 0 0.39289039342582149 -0.5 0 0.4057717135424021 -0.48929931529832937 0 0.41531420731286051 -0.5 0 0.4057717135424021 -0.48929931529832937 0 0.41138522724611992 -0.47610642689805982 0 0.425256426736628 -0.48969697811313823 0 0.4057717135424021 -0.48929931529832937 0 0.41531420731286051 -0.5 0 0.425256426736628 -0.48969697811313823 0 0.41583716859034447 -0.46620520778226737 0 0.41138522724611992 -0.47610642689805982 0 0.42866409193048188 -0.47676758270227471 0 0.41138522724611992 -0.47610642689805982 0 0.42866409193048188 -0.47676758270227471 0 0.425256426736628 -0.48969697811313823 0 0.41583716859034447 -0.46620520778226737 0 0.40148396946935899 -0.46677367853588281 0 0.41138522724611992 -0.47610642689805982 0 0.44535189907423273 -0.48425652050154361 0 0.42866409193048188 -0.47676758270227471 0 0.425256426736628 -0.48969697811313823 0 0.43920548674920379 -0.47249175324936749 0 0.42984017904353489 -0.46042986879056458 0 0.42866409193048188 -0.47676758270227471 0 0.43773802119989941 -0.49999999999999978 0 0.44535189907423273 -0.48425652050154361 0 0.425256426736628 -0.48969697811313823 0 0.43773802119989941 -0.49999999999999978 0 0.41531420731286051 -0.5 0 0.425256426736628 -0.48969697811313823 0 0.32577547594680167 -0.48549728563522948 0 0.313100747974287 -0.5 0 0.34178366375653479 -0.5 0 0.32577547594680167 -0.48549728563522948 0 0.33309118936964399 -0.46704031311580291 0 0.30810638268294871 -0.47012115952174682 0 0.353331436476917 -0.48488928282810861 0 0.33309118936964399 -0.46704031311580291 0 0.32577547594680167 -0.48549728563522948 0 0.353331436476917 -0.48488928282810861 0 0.33309118936964399 -0.46704031311580291 0 0.32577547594680167 -0.48549728563522948 0 0.353331436476917 -0.48488928282810861 0 0.32577547594680167 -0.48549728563522948 0 0.34178366375653479 -0.5 0 0.353331436476917 -0.48488928282810861 0 0.34178366375653479 -0.5 0 0.353331436476917 -0.48488928282810861 0 0.3704665795387827 -0.49999999999999961 0 0.353331436476917 -0.48488928282810861 0 0.3704665795387827 -0.49999999999999961 0 0.37586822855092661 -0.48439202442808083 0 0.353331436476917 -0.48488928282810861 0 0.37586822855092661 -0.48439202442808083 0 0.353331436476917 -0.48488928282810861 0 0.3704665795387827 -0.49999999999999961 0 0.37586822855092661 -0.48439202442808083 0 0.353331436476917 -0.48488928282810861 0 0.36174609683149922 -0.47333229839911978 0 0.37586822855092661 -0.48439202442808083 0 0.36174609683149922 -0.47333229839911978 0 0.37212180294075042 -0.46808428500039262 0 0.353331436476917 -0.48488928282810861 0 0.3511187368843669 -0.46644655109408317 0 0.33309118936964399 -0.46704031311580291 0 0.353331436476917 -0.48488928282810861 0 0.36174609683149922 -0.47333229839911978 0 0.3511187368843669 -0.46644655109408317 0 0.3511187368843669 -0.46644655109408317 0 0.34821094164401439 -0.44963138573543099 0 0.33309118936964399 -0.46704031311580291 0 0.3511187368843669 -0.46644655109408317 0 0.36000734278227892 -0.4581682973830864 0 0.34821094164401439 -0.44963138573543099 0 0.36174609683149922 -0.47333229839911978 0 0.3511187368843669 -0.46644655109408317 0 0.36000734278227892 -0.4581682973830864 0 0.36174609683149922 -0.47333229839911978 0 0.36000734278227892 -0.4581682973830864 0 0.37212180294075042 -0.46808428500039262 0 0.37514595674159079 -0.45476526552439389 0 0.36000734278227892 -0.4581682973830864 0 0.37212180294075042 -0.46808428500039262 0 0.38358898323347101 -0.44426352436551808 0 0.37514595674159079 -0.45476526552439389 0 0.36596817218281208 -0.43846752572535042 0 0.37514595674159079 -0.45476526552439389 0 0.36000734278227892 -0.4581682973830864 0 0.36596817218281208 -0.43846752572535042 0 0.36596817218281208 -0.43846752572535042 0 0.34821094164401439 -0.44963138573543099 0 0.34622956703096991 -0.43300533851794337 0 0.36000734278227892 -0.4581682973830864 0 0.36596817218281208 -0.43846752572535042 0 0.34821094164401439 -0.44963138573543099 0 0.34821094164401439 -0.44963138573543099 0 0.33295970409203041 -0.44505156475946112 0 0.34622956703096991 -0.43300533851794337 0 0.34821094164401439 -0.44963138573543099 0 0.33295970409203041 -0.44505156475946112 0 0.33309118936964399 -0.46704031311580291 0 0.33295970409203041 -0.44505156475946112 0 0.33309118936964399 -0.46704031311580291 0 0.31285094226236981 -0.44919134340349842 0 0.33309118936964399 -0.46704031311580291 0 0.31285094226236981 -0.44919134340349842 0 0.33309118936964399 -0.46704031311580291 0 0.31285094226236981 -0.44919134340349842 0 0.30810638268294871 -0.47012115952174682 0 0.33295970409203041 -0.44505156475946112 0 0.31285094226236981 -0.44919134340349842 0 0.32443481461114221 -0.42819348402864749 0 0.31285094226236981 -0.44919134340349842 0 0.32443481461114221 -0.42819348402864749 0 0.30716585811758268 -0.42152601893676211 0 0.32443481461114221 -0.42819348402864749 0 0.3377381929345476 -0.41993594981441068 0 0.31826237910007699 -0.40611857650776678 0 0.32443481461114221 -0.42819348402864749 0 0.31826237910007699 -0.40611857650776678 0 0.30716585811758268 -0.42152601893676211 0 0.3377381929345476 -0.41993594981441068 0 0.33955155732169001 -0.40481801647484189 0 0.31826237910007699 -0.40611857650776678 0 0.32443481461114221 -0.42819348402864749 0 0.3377381929345476 -0.41993594981441068 0 0.34622956703096991 -0.43300533851794337 0 0.33295970409203041 -0.44505156475946112 0 0.32443481461114221 -0.42819348402864749 0 0.34622956703096991 -0.43300533851794337 0 0.3377381929345476 -0.41993594981441068 0 0.34622956703096991 -0.43300533851794337 0 0.35818280584871282 -0.41603879828427831 0 0.36596817218281208 -0.43846752572535042 0 0.34622956703096991 -0.43300533851794337 0 0.35818280584871282 -0.41603879828427831 0 0.3754845505291648 -0.42231636227288599 0 0.36596817218281208 -0.43846752572535042 0 0.35818280584871282 -0.41603879828427831 0 0.3754845505291648 -0.42231636227288599 0 0.38276612650569841 -0.43173139982273478 0 0.36596817218281208 -0.43846752572535042 0 0.37842665921942997 -0.40887405987875969 0 0.3754845505291648 -0.42231636227288599 0 0.35818280584871282 -0.41603879828427831 0 0.37842665921942997 -0.40887405987875969 0 0.35818280584871282 -0.41603879828427831 0 0.36824105802713031 -0.4000969440192842 0 0.3377381929345476 -0.41993594981441068 0 0.35818280584871282 -0.41603879828427831 0 0.33955155732169001 -0.40481801647484189 0 0.35818280584871282 -0.41603879828427831 0 0.35120943534252291 -0.3914849644630724 0 0.33955155732169001 -0.40481801647484189 0 0.35818280584871282 -0.41603879828427831 0 0.35120943534252291 -0.3914849644630724 0 0.36824105802713031 -0.4000969440192842 0 0.37900977316023637 -0.39091548517495972 0 0.36824105802713031 -0.4000969440192842 0 0.36724772315424481 -0.38247146420994571 0 0.35120943534252291 -0.3914849644630724 0 0.36824105802713031 -0.4000969440192842 0 0.36724772315424481 -0.38247146420994571 0 0.36724772315424481 -0.38247146420994571 0 0.3553956415560332 -0.375446985373177 0 0.36664078794155069 -0.36853845970684512 0 0.35120943534252291 -0.3914849644630724 0 0.3553956415560332 -0.375446985373177 0 0.34024068493209042 -0.37145909403295352 0 0.35120943534252291 -0.3914849644630724 0 0.36724772315424481 -0.38247146420994571 0 0.3553956415560332 -0.375446985373177 0 0.35120943534252291 -0.3914849644630724 0 0.33045907805143321 -0.38798152631774108 0 0.34024068493209042 -0.37145909403295352 0 0.33045907805143321 -0.38798152631774108 0 0.34024068493209042 -0.37145909403295352 0 0.32473595581008968 -0.36877041147622941 0 0.33045907805143321 -0.38798152631774108 0 0.33955155732169001 -0.40481801647484189 0 0.31826237910007699 -0.40611857650776678 0 0.35120943534252291 -0.3914849644630724 0 0.33045907805143321 -0.38798152631774108 0 0.33955155732169001 -0.40481801647484189 0 0.33045907805143321 -0.38798152631774108 0 0.31826237910007699 -0.40611857650776678 0 0.30852465471842783 -0.38296478278532459 0 0.33045907805143321 -0.38798152631774108 0 0.30852465471842783 -0.38296478278532459 0 0.32473595581008968 -0.36877041147622941 0 0.30852465471842783 -0.38296478278532459 0 0.30157177088572762 -0.39984768184154418 0 0.28524522637625171 -0.38748256695808048 0 0.31826237910007699 -0.40611857650776678 0 0.30852465471842783 -0.38296478278532459 0 0.30157177088572762 -0.39984768184154418 0 0.30157177088572762 -0.39984768184154418 0 0.28524522637625171 -0.38748256695808048 0 0.28909827497095891 -0.41314244090476959 0 0.30852465471842783 -0.38296478278532459 0 0.28524522637625171 -0.38748256695808048 0 0.29576167506738288 -0.36584798696867898 0 0.28524522637625171 -0.38748256695808048 0 0.26194523537769671 -0.38343407302417171 0 0.27628411724202862 -0.36524783617958329 0 0.26194523537769671 -0.38343407302417171 0 0.2677956642119742 -0.40840362680373948 0 0.24730388124056729 -0.40448370284608931 0 0.28524522637625171 -0.38748256695808048 0 0.26194523537769671 -0.38343407302417171 0 0.2677956642119742 -0.40840362680373948 0 0.28524522637625171 -0.38748256695808048 0 0.2677956642119742 -0.40840362680373948 0 0.28909827497095891 -0.41314244090476959 0 0.2677956642119742 -0.40840362680373948 0 0.27472650047210662 -0.43131219108599711 0 0.28909827497095891 -0.41314244090476959 0 0.2677956642119742 -0.40840362680373948 0 0.24845486683426421 -0.43056678600332871 0 0.24730388124056729 -0.40448370284608931 0 0.2677956642119742 -0.40840362680373948 0 0.27472650047210662 -0.43131219108599711 0 0.24845486683426421 -0.43056678600332871 0 0.27472650047210662 -0.43131219108599711 0 0.26710508502781599 -0.44926171113960661 0 0.24845486683426421 -0.43056678600332871 0 0.27472650047210662 -0.43131219108599711 0 0.29418269027227539 -0.43431919247607059 0 0.28909827497095891 -0.41314244090476959 0 0.29418269027227539 -0.43431919247607059 0 0.28909827497095891 -0.41314244090476959 0 0.30716585811758268 -0.42152601893676211 0 0.31826237910007699 -0.40611857650776678 0 0.30157177088572762 -0.39984768184154418 0 0.30716585811758268 -0.42152601893676211 0 0.30157177088572762 -0.39984768184154418 0 0.28909827497095891 -0.41314244090476959 0 0.30716585811758268 -0.42152601893676211 0 0.31285094226236981 -0.44919134340349842 0 0.29418269027227539 -0.43431919247607059 0 0.30716585811758268 -0.42152601893676211 0 0.31285094226236981 -0.44919134340349842 0 0.29418269027227539 -0.43431919247607059 0 0.28597809560131299 -0.4567624239266439 0 0.31285094226236981 -0.44919134340349842 0 0.28597809560131299 -0.4567624239266439 0 0.30810638268294871 -0.47012115952174682 0 0.28597809560131299 -0.4567624239266439 0 0.27356505094757272 -0.46654042127887851 0 0.28658471780149791 -0.47429793876749549 0 0.28597809560131299 -0.4567624239266439 0 0.28658471780149791 -0.47429793876749549 0 0.30810638268294871 -0.47012115952174682 0 0.27472650047210662 -0.43131219108599711 0 0.29418269027227539 -0.43431919247607059 0 0.28597809560131299 -0.4567624239266439 0 0.27472650047210662 -0.43131219108599711 0 0.28597809560131299 -0.4567624239266439 0 0.26710508502781599 -0.44926171113960661 0 0.26710508502781599 -0.44926171113960661 0 0.25055382002994903 -0.45112655962101422 0 0.24845486683426421 -0.43056678600332871 0 0.25055382002994903 -0.45112655962101422 0 0.25749380142066591 -0.46566674131117769 0 0.24452211955108941 -0.47321082899062988 0 0.26710508502781599 -0.44926171113960661 0 0.25055382002994903 -0.45112655962101422 0 0.25749380142066591 -0.46566674131117769 0 0.26710508502781599 -0.44926171113960661 0 0.25749380142066591 -0.46566674131117769 0 0.27356505094757272 -0.46654042127887851 0 0.28597809560131299 -0.4567624239266439 0 0.26710508502781599 -0.44926171113960661 0 0.27356505094757272 -0.46654042127887851 0 0.25749380142066591 -0.46566674131117769 0 0.27356505094757272 -0.46654042127887851 0 0.27066355488657068 -0.48671329124946883 0 0.27356505094757272 -0.46654042127887851 0 0.27066355488657068 -0.48671329124946883 0 0.28658471780149791 -0.47429793876749549 0 0.27066355488657068 -0.48671329124946883 0 0.24310759435645521 -0.48732129405658853 0 0.24452211955108941 -0.47321082899062988 0 0.25749380142066591 -0.46566674131117769 0 0.27066355488657068 -0.48671329124946883 0 0.24452211955108941 -0.47321082899062988 0 0.25573491640979129 -0.5 0 0.27066355488657068 -0.48671329124946883 0 0.24310759435645521 -0.48732129405658853 0 0.27066355488657068 -0.48671329124946883 0 0.24310759435645521 -0.48732129405658853 0 0.25573491640979129 -0.5 0 0.27066355488657068 -0.48671329124946883 0 0.2844178321920392 -0.5 0 0.27066355488657068 -0.48671329124946883 0 0.2844178321920392 -0.5 0 0.29821951541668618 -0.48610528844234918 0 0.27066355488657068 -0.48671329124946883 0 0.29821951541668618 -0.48610528844234918 0 0.27066355488657068 -0.48671329124946883 0 0.28658471780149791 -0.47429793876749549 0 0.29821951541668618 -0.48610528844234918 0 0.28658471780149791 -0.47429793876749549 0 0.30810638268294871 -0.47012115952174682 0 0.29821951541668618 -0.48610528844234918 0 0.32577547594680167 -0.48549728563522948 0 0.30810638268294871 -0.47012115952174682 0 0.29821951541668618 -0.48610528844234918 0 0.313100747974287 -0.5 0 0.2844178321920392 -0.5 0 0.29821951541668618 -0.48610528844234918 0 0.32577547594680167 -0.48549728563522948 0 0.29821951541668618 -0.48610528844234918 0 0.32577547594680167 -0.48549728563522948 0 0.313100747974287 -0.5 0 0.29821951541668618 -0.48610528844234918 0 0.330274064289036 -0.28402767586280209 0 0.34332234684577362 -0.29793808318023329 0 0.34457666422559302 -0.26801309975333321 0 0.330274064289036 -0.28402767586280209 0 0.34332234684577362 -0.29793808318023329 0 0.32977293544345387 -0.30596193421111573 0 0.34332234684577362 -0.29793808318023329 0 0.32977293544345387 -0.30596193421111573 0 0.34206802946595682 -0.32786306660713371 0 0.31744302567780058 -0.29875438106107682 0 0.32081511337912821 -0.31891284763754968 0 0.29956219729229971 -0.30996262866796498 0 0.32977293544345387 -0.30596193421111573 0 0.31744302567780058 -0.29875438106107682 0 0.32081511337912821 -0.31891284763754968 0 0.31744302567780058 -0.29875438106107682 0 0.315203972569992 -0.28599406388836862 0 0.30893165249025939 -0.29458973757352408 0 0.330274064289036 -0.28402767586280209 0 0.32977293544345387 -0.30596193421111573 0 0.31744302567780058 -0.29875438106107682 0 0.330274064289036 -0.28402767586280209 0 0.31744302567780058 -0.29875438106107682 0 0.315203972569992 -0.28599406388836862 0 0.31616400359283131 -0.27140021809428472 0 0.31565659849655159 -0.26881006701694032 0 0.34457666422559302 -0.26801309975333321 0 0.31616400359283131 -0.27140021809428472 0 0.31565659849655159 -0.26881006701694032 0 0.330274064289036 -0.28402767586280209 0 0.315203972569992 -0.28599406388836862 0 0.31616400359283131 -0.27140021809428472 0 0.31140457280844042 -0.24710474912070499 0 0.31565659849655159 -0.26881006701694032 0 0.31140457280844042 -0.24710474912070499 0 0.31565659849655159 -0.26881006701694032 0 0.32909477526671738 -0.25319804842994992 0 0.34542116247921317 -0.24786541093840589 0 0.32909477526671738 -0.25319804842994992 0 0.34457666422559302 -0.26801309975333321 0 0.31565659849655159 -0.26881006701694032 0 0.32909477526671738 -0.25319804842994992 0 0.34457666422559302 -0.26801309975333321 0 0.31565659849655159 -0.26881006701694032 0 0.34457666422559302 -0.26801309975333321 0 0.330274064289036 -0.28402767586280209 0 0.31616400359283131 -0.27140021809428472 0 0.34457666422559302 -0.26801309975333321 0 0.35327842571551671 -0.2677733001931194 0 0.36211004630048071 -0.25874315800932568 0 0.36139056500297317 -0.28258450191058321 0 0.34457666422559302 -0.26801309975333321 0 0.35327842571551671 -0.2677733001931194 0 0.36139056500297317 -0.28258450191058321 0 0.34457666422559302 -0.26801309975333321 0 0.35327842571551671 -0.2677733001931194 0 0.34542116247921317 -0.24786541093840589 0 0.35327842571551671 -0.2677733001931194 0 0.36211004630048071 -0.25874315800932568 0 0.34542116247921317 -0.24786541093840589 0 0.34457666422559302 -0.26801309975333321 0 0.34542116247921317 -0.24786541093840589 0 0.34457666422559302 -0.26801309975333321 0 0.35327842571551671 -0.2677733001931194 0 0.36876625398544938 -0.24898888889403961 0 0.37754581309809132 -0.23651361028518689 0 0.3725796289452375 -0.26579697317357759 0 0.36876625398544938 -0.24898888889403961 0 0.36211004630048071 -0.25874315800932568 0 0.3725796289452375 -0.26579697317357759 0 0.36211004630048071 -0.25874315800932568 0 0.36139056500297317 -0.28258450191058321 0 0.36211004630048071 -0.25874315800932568 0 0.3725796289452375 -0.26579697317357759 0 0.36139056500297317 -0.28258450191058321 0 0.3725796289452375 -0.26579697317357759 0 0.36761344479238373 -0.29508033606196837 0 0.3725796289452375 -0.26579697317357759 0 0.36139056500297317 -0.28258450191058321 0 0.36761344479238373 -0.29508033606196837 0 0.36139056500297317 -0.28258450191058321 0 0.36067108370546558 -0.30642584581184062 0 0.36139056500297317 -0.28258450191058321 0 0.36761344479238373 -0.29508033606196837 0 0.36067108370546558 -0.30642584581184062 0 0.37929392098169401 -0.28404327537796259 0 0.3725796289452375 -0.26579697317357759 0 0.36761344479238373 -0.29508033606196837 0 0.34332234684577362 -0.29793808318023329 0 0.36139056500297317 -0.28258450191058321 0 0.36067108370546558 -0.30642584581184062 0 0.34332234684577362 -0.29793808318023329 0 0.34457666422559302 -0.26801309975333321 0 0.34332234684577362 -0.29793808318023329 0 0.34457666422559302 -0.26801309975333321 0 0.36139056500297317 -0.28258450191058321 0 0.34332234684577362 -0.29793808318023329 0 0.36067108370546558 -0.30642584581184062 0 0.35385294866325562 -0.31815161708919842 0 0.37804720550635529 -0.30651687721429538 0 0.36761344479238373 -0.29508033606196837 0 0.37325959660283969 -0.31225701655594912 0 0.36761344479238373 -0.29508033606196837 0 0.37325959660283969 -0.31225701655594912 0 0.36522996683296982 -0.32210974174446261 0 0.36761344479238373 -0.29508033606196837 0 0.3626472606395299 -0.32436369895035932 0 0.36761344479238373 -0.29508033606196837 0 0.36067108370546558 -0.30642584581184062 0 0.3626472606395299 -0.32436369895035932 0 0.36067108370546558 -0.30642584581184062 0 0.35995160240795782 -0.33026718971309799 0 0.37325959660283969 -0.31225701655594912 0 0.36522996683296982 -0.32210974174446261 0 0.37029473460036533 -0.32565573538444043 0 0.36761344479238373 -0.29508033606196837 0 0.3626472606395299 -0.32436369895035932 0 0.36522996683296982 -0.32210974174446261 0 0.36067108370546558 -0.30642584581184062 0 0.3626472606395299 -0.32436369895035932 0 0.35995160240795782 -0.33026718971309799 0 0.38064079273778262 -0.31288188218018531 0 0.37325959660283969 -0.31225701655594912 0 0.37029473460036533 -0.32565573538444043 0 0.3626472606395299 -0.32436369895035932 0 0.37029473460036533 -0.32565573538444043 0 0.35995160240795782 -0.33026718971309799 0 0.37029473460036533 -0.32565573538444043 0 0.35995160240795782 -0.33026718971309799 0 0.3626472606395299 -0.32436369895035932 0 0.36522996683296982 -0.32210974174446261 0 0.37029473460036533 -0.32565573538444043 0 0.36522996683296982 -0.32210974174446261 0 0.37029473460036533 -0.32565573538444043 0 0.35995160240795782 -0.33026718971309799 0 0.35941557651728179 -0.34802939929915899 0 0.37029473460036533 -0.32565573538444043 0 0.37212478857772979 -0.33864880005647208 0 0.35995160240795782 -0.33026718971309799 0 0.3654326502107581 -0.34245967622864359 0 0.35995160240795782 -0.33026718971309799 0 0.35941557651728179 -0.34802939929915899 0 0.37212478857772979 -0.33864880005647208 0 0.3654326502107581 -0.34245967622864359 0 0.37040156667629781 -0.34671437794913718 0 0.37212478857772979 -0.33864880005647208 0 0.3654326502107581 -0.34245967622864359 0 0.35995160240795782 -0.33026718971309799 0 0.35995160240795782 -0.33026718971309799 0 0.35941557651728179 -0.34802939929915899 0 0.34162477060798069 -0.33843815246039383 0 0.35941557651728179 -0.34802939929915899 0 0.34146637893605181 -0.3422169952266676 0 0.34162477060798069 -0.33843815246039383 0 0.35995160240795782 -0.33026718971309799 0 0.34162477060798069 -0.33843815246039383 0 0.35995160240795782 -0.33026718971309799 0 0.34764647170350632 -0.33021231032179682 0 0.34162477060798069 -0.33843815246039383 0 0.35995160240795782 -0.33026718971309799 0 0.34764647170350632 -0.33021231032179682 0 0.35274785573456591 -0.3260756163463463 0 0.34764647170350632 -0.33021231032179682 0 0.34206802946595682 -0.32786306660713371 0 0.34162477060798069 -0.33843815246039383 0 0.34764647170350632 -0.33021231032179682 0 0.34206802946595682 -0.32786306660713371 0 0.35385294866325562 -0.31815161708919842 0 0.35274785573456591 -0.3260756163463463 0 0.34206802946595682 -0.32786306660713371 0 0.34764647170350632 -0.33021231032179682 0 0.35274785573456591 -0.3260756163463463 0 0.34206802946595682 -0.32786306660713371 0 0.34332234684577362 -0.29793808318023329 0 0.35385294866325562 -0.31815161708919842 0 0.34206802946595682 -0.32786306660713371 0 0.36067108370546558 -0.30642584581184062 0 0.35995160240795782 -0.33026718971309799 0 0.35385294866325562 -0.31815161708919842 0 0.35995160240795782 -0.33026718971309799 0 0.35385294866325562 -0.31815161708919842 0 0.35274785573456591 -0.3260756163463463 0 0.38249634533461108 -0.36797477098799591 0 0.36724772315424481 -0.38247146420994571 0 0.36664078794155069 -0.36853845970684512 0 0.38249634533461108 -0.36797477098799591 0 0.36664078794155069 -0.36853845970684512 0 0.37305712147220338 -0.36102055586376819 0 0.3553956415560332 -0.375446985373177 0 0.36664078794155069 -0.36853845970684512 0 0.35901533294662008 -0.36129221050145399 0 0.36664078794155069 -0.36853845970684512 0 0.37305712147220338 -0.36102055586376819 0 0.36517854466496658 -0.35714892472411869 0 0.36664078794155069 -0.36853845970684512 0 0.36517854466496658 -0.35714892472411869 0 0.35901533294662008 -0.36129221050145399 0 0.36517854466496658 -0.35714892472411869 0 0.35941557651728179 -0.34802939929915899 0 0.35901533294662008 -0.36129221050145399 0 0.36517854466496658 -0.35714892472411869 0 0.36469303305047901 -0.34973837317986511 0 0.35941557651728179 -0.34802939929915899 0 0.36517854466496658 -0.35714892472411869 0 0.37030234625384911 -0.35279401393457888 0 0.36469303305047901 -0.34973837317986511 0 0.37818146540529818 -0.34934783795600571 0 0.37305712147220338 -0.36102055586376819 0 0.37030234625384911 -0.35279401393457888 0 0.37305712147220338 -0.36102055586376819 0 0.36517854466496658 -0.35714892472411869 0 0.37030234625384911 -0.35279401393457888 0 0.37818146540529818 -0.34934783795600571 0 0.37212478857772979 -0.33864880005647208 0 0.37040156667629781 -0.34671437794913718 0 0.37818146540529818 -0.34934783795600571 0 0.37030234625384911 -0.35279401393457888 0 0.37040156667629781 -0.34671437794913718 0 0.37030234625384911 -0.35279401393457888 0 0.37040156667629781 -0.34671437794913718 0 0.36469303305047901 -0.34973837317986511 0 0.3654326502107581 -0.34245967622864359 0 0.37040156667629781 -0.34671437794913718 0 0.36469303305047901 -0.34973837317986511 0 0.36469303305047901 -0.34973837317986511 0 0.35941557651728179 -0.34802939929915899 0 0.3654326502107581 -0.34245967622864359 0 0.36469303305047901 -0.34973837317986511 0 0.35941557651728179 -0.34802939929915899 0 0.35003449333301101 -0.35574942476505861 0 0.34024068493209042 -0.37145909403295352 0 0.34146637893605181 -0.3422169952266676 0 0.35941557651728179 -0.34802939929915899 0 0.35003449333301101 -0.35574942476505861 0 0.34146637893605181 -0.3422169952266676 0 0.35941557651728179 -0.34802939929915899 0 0.34146637893605181 -0.3422169952266676 0 0.35941557651728179 -0.34802939929915899 0 0.35901533294662008 -0.36129221050145399 0 0.35941557651728179 -0.34802939929915899 0 0.35003449333301101 -0.35574942476505861 0 0.35901533294662008 -0.36129221050145399 0 0.35003449333301101 -0.35574942476505861 0 0.35901533294662008 -0.36129221050145399 0 0.34024068493209042 -0.37145909403295352 0 0.3553956415560332 -0.375446985373177 0 0.35901533294662008 -0.36129221050145399 0 0.34024068493209042 -0.37145909403295352 0 0.34024068493209042 -0.37145909403295352 0 0.33264239376833749 -0.35548373211026962 0 0.32473595581008968 -0.36877041147622941 0 0.34024068493209042 -0.37145909403295352 0 0.33264239376833749 -0.35548373211026962 0 0.34146637893605181 -0.3422169952266676 0 0.34024068493209042 -0.37145909403295352 0 0.34146637893605181 -0.3422169952266676 0 0.33264239376833749 -0.35548373211026962 0 0.32969677432389999 -0.34883746930945858 0 0.32350037713642671 -0.3535383953733186 0 0.33264239376833749 -0.35548373211026962 0 0.33484083241944268 -0.34588391539316982 0 0.34146637893605181 -0.3422169952266676 0 0.33264239376833749 -0.35548373211026962 0 0.33484083241944268 -0.34588391539316982 0 0.32969677432389999 -0.34883746930945858 0 0.33484083241944268 -0.34588391539316982 0 0.32969677432389999 -0.34883746930945858 0 0.33080291213000951 -0.34437854531234752 0 0.32969677432389999 -0.34883746930945858 0 0.33080291213000951 -0.34437854531234752 0 0.32576759743036687 -0.34544500479448842 0 0.32576759743036687 -0.34544500479448842 0 0.32008489300350967 -0.34478001059398899 0 0.32350037713642671 -0.3535383953733186 0 0.32969677432389999 -0.34883746930945858 0 0.32576759743036687 -0.34544500479448842 0 0.32350037713642671 -0.3535383953733186 0 0.32576759743036687 -0.34544500479448842 0 0.32008489300350967 -0.34478001059398899 0 0.3230261242077439 -0.3426129045732173 0 0.32008489300350967 -0.34478001059398899 0 0.31455300750316167 -0.34989325112993808 0 0.32350037713642671 -0.3535383953733186 0 0.32008489300350967 -0.34478001059398899 0 0.31455300750316167 -0.34989325112993808 0 0.31278358272303802 -0.34129775444127147 0 0.31455300750316167 -0.34989325112993808 0 0.32350037713642671 -0.3535383953733186 0 0.31266700858965563 -0.36105898834543543 0 0.33264239376833749 -0.35548373211026962 0 0.32350037713642671 -0.3535383953733186 0 0.32473595581008968 -0.36877041147622941 0 0.30852465471842783 -0.38296478278532459 0 0.31266700858965563 -0.36105898834543543 0 0.32473595581008968 -0.36877041147622941 0 0.32350037713642671 -0.3535383953733186 0 0.31266700858965563 -0.36105898834543543 0 0.32473595581008968 -0.36877041147622941 0 0.34332234684577362 -0.29793808318023329 0 0.34206802946595682 -0.32786306660713371 0 0.32977293544345387 -0.30596193421111573 0 0.34206802946595682 -0.32786306660713371 0 0.32081511337912821 -0.31891284763754968 0 0.34206802946595682 -0.32786306660713371 0 0.32602109842812482 -0.32927153728442071 0 0.32081511337912821 -0.31891284763754968 0 0.34206802946595682 -0.32786306660713371 0 0.32081511337912821 -0.31891284763754968 0 0.34206802946595682 -0.32786306660713371 0 0.34162477060798069 -0.33843815246039383 0 0.33801441914131958 -0.33597980122333287 0 0.34206802946595682 -0.32786306660713371 0 0.34162477060798069 -0.33843815246039383 0 0.34206802946595682 -0.32786306660713371 0 0.33503975802439162 -0.33352730776002742 0 0.32602109842812482 -0.32927153728442071 0 0.34206802946595682 -0.32786306660713371 0 0.33801441914131958 -0.33597980122333287 0 0.33503975802439162 -0.33352730776002742 0 0.34146637893605181 -0.3422169952266676 0 0.34162477060798069 -0.33843815246039383 0 0.33664845261102122 -0.34065682884787418 0 0.34146637893605181 -0.3422169952266676 0 0.34162477060798069 -0.33843815246039383 0 0.34162477060798069 -0.33843815246039383 0 0.33801441914131958 -0.33597980122333287 0 0.33664845261102122 -0.34065682884787418 0 0.34162477060798069 -0.33843815246039383 0 0.33664845261102122 -0.34065682884787418 0 0.33801441914131958 -0.33597980122333287 0 0.33664845261102122 -0.34065682884787418 0 0.334556636173299 -0.33621284741772872 0 0.33484083241944268 -0.34588391539316982 0 0.34146637893605181 -0.3422169952266676 0 0.33664845261102122 -0.34065682884787418 0 0.34146637893605181 -0.3422169952266676 0 0.33664845261102122 -0.34065682884787418 0 0.33080291213000951 -0.34437854531234752 0 0.33664845261102122 -0.34065682884787418 0 0.32753883147517121 -0.34023469067202677 0 0.33664845261102122 -0.34065682884787418 0 0.334556636173299 -0.33621284741772872 0 0.32852391491646382 -0.33468745183968091 0 0.33484083241944268 -0.34588391539316982 0 0.33080291213000951 -0.34437854531234752 0 0.33664845261102122 -0.34065682884787418 0 0.33503975802439162 -0.33352730776002742 0 0.32852391491646382 -0.33468745183968091 0 0.32602109842812482 -0.32927153728442071 0 0.334556636173299 -0.33621284741772872 0 0.33503975802439162 -0.33352730776002742 0 0.32852391491646382 -0.33468745183968091 0 0.33801441914131958 -0.33597980122333287 0 0.334556636173299 -0.33621284741772872 0 0.33503975802439162 -0.33352730776002742 0 0.32753883147517121 -0.34023469067202677 0 0.31871317492192791 -0.33999191223236508 0 0.30992165968220392 -0.33200201743577268 0 0.32852391491646382 -0.33468745183968091 0 0.32602109842812482 -0.32927153728442071 0 0.30992165968220392 -0.33200201743577268 0 0.33664845261102122 -0.34065682884787418 0 0.32852391491646382 -0.33468745183968091 0 0.30992165968220392 -0.33200201743577268 0 0.33664845261102122 -0.34065682884787418 0 0.32753883147517121 -0.34023469067202677 0 0.30992165968220392 -0.33200201743577268 0 0.32602109842812482 -0.32927153728442071 0 0.31516553794356478 -0.32688419612254632 0 0.30992165968220392 -0.33200201743577268 0 0.33664845261102122 -0.34065682884787418 0 0.30992165968220392 -0.33200201743577268 0 0.32753883147517121 -0.34023469067202677 0 0.3230261242077439 -0.3426129045732173 0 0.31871317492192791 -0.33999191223236508 0 0.33080291213000951 -0.34437854531234752 0 0.32576759743036687 -0.34544500479448842 0 0.32753883147517121 -0.34023469067202677 0 0.32576759743036687 -0.34544500479448842 0 0.32753883147517121 -0.34023469067202677 0 0.3230261242077439 -0.3426129045732173 0 0.32008489300350967 -0.34478001059398899 0 0.3230261242077439 -0.3426129045732173 0 0.31871317492192791 -0.33999191223236508 0 0.31871317492192791 -0.33999191223236508 0 0.31278358272303802 -0.34129775444127147 0 0.30992165968220392 -0.33200201743577268 0 0.32008489300350967 -0.34478001059398899 0 0.31871317492192791 -0.33999191223236508 0 0.31278358272303802 -0.34129775444127147 0 0.32602109842812482 -0.32927153728442071 0 0.31516553794356478 -0.32688419612254632 0 0.32081511337912821 -0.31891284763754968 0 0.31516553794356478 -0.32688419612254632 0 0.32081511337912821 -0.31891284763754968 0 0.29956219729229971 -0.30996262866796498 0 0.31516553794356478 -0.32688419612254632 0 0.30992165968220392 -0.33200201743577268 0 0.29956219729229971 -0.30996262866796498 0 0.30992165968220392 -0.33200201743577268 0 0.28319486675338662 -0.32334720602367162 0 0.29956219729229971 -0.30996262866796498 0 0.32081511337912821 -0.31891284763754968 0 0.29956219729229971 -0.30996262866796498 0 0.31516553794356478 -0.32688419612254632 0 0.29956219729229971 -0.30996262866796498 0 0.31278358272303802 -0.34129775444127147 0 0.30544777269898171 -0.33968681455295602 0 0.30372917606317851 -0.34879110689567611 0 0.31278358272303802 -0.34129775444127147 0 0.30992165968220392 -0.33200201743577268 0 0.30544777269898171 -0.33968681455295602 0 0.30992165968220392 -0.33200201743577268 0 0.30544777269898171 -0.33968681455295602 0 0.29535667232750618 -0.33665637943910393 0 0.30544777269898171 -0.33968681455295602 0 0.29535667232750618 -0.33665637943910393 0 0.30372917606317851 -0.34879110689567611 0 0.30992165968220392 -0.33200201743577268 0 0.29535667232750618 -0.33665637943910393 0 0.28319486675338662 -0.32334720602367162 0 0.29535667232750618 -0.33665637943910393 0 0.28811986741475609 -0.34954264064797458 0 0.28056009198101312 -0.33712721632873971 0 0.29535667232750618 -0.33665637943910393 0 0.28319486675338662 -0.32334720602367162 0 0.28056009198101312 -0.33712721632873971 0 0.30992165968220392 -0.33200201743577268 0 0.28319486675338662 -0.32334720602367162 0 0.30852465471842783 -0.38296478278532459 0 0.31266700858965563 -0.36105898834543543 0 0.29576167506738288 -0.36584798696867898 0 0.31266700858965563 -0.36105898834543543 0 0.30372917606317851 -0.34879110689567611 0 0.29576167506738288 -0.36584798696867898 0 0.31455300750316167 -0.34989325112993808 0 0.31266700858965563 -0.36105898834543543 0 0.30372917606317851 -0.34879110689567611 0 0.31455300750316167 -0.34989325112993808 0 0.31278358272303802 -0.34129775444127147 0 0.30372917606317851 -0.34879110689567611 0 0.30372917606317851 -0.34879110689567611 0 0.28811986741475609 -0.34954264064797458 0 0.29576167506738288 -0.36584798696867898 0 0.29535667232750618 -0.33665637943910393 0 0.30372917606317851 -0.34879110689567611 0 0.28811986741475609 -0.34954264064797458 0 0.28811986741475609 -0.34954264064797458 0 0.29576167506738288 -0.36584798696867898 0 0.27628411724202862 -0.36524783617958329 0 0.28524522637625171 -0.38748256695808048 0 0.29576167506738288 -0.36584798696867898 0 0.27628411724202862 -0.36524783617958329 0 0.27628411724202862 -0.36524783617958329 0 0.26970242523906313 -0.3463930650348116 0 0.25620327224306561 -0.36049072758523892 0 0.28811986741475609 -0.34954264064797458 0 0.27628411724202862 -0.36524783617958329 0 0.26970242523906313 -0.3463930650348116 0 0.28811986741475609 -0.34954264064797458 0 0.26970242523906313 -0.3463930650348116 0 0.28056009198101312 -0.33712721632873971 0 0.26970242523906313 -0.3463930650348116 0 0.25620327224306561 -0.36049072758523892 0 0.25110761996098008 -0.33756133299550262 0 0.26194523537769671 -0.38343407302417171 0 0.27628411724202862 -0.36524783617958329 0 0.25620327224306561 -0.36049072758523892 0 0.26194523537769671 -0.38343407302417171 0 0.25620327224306561 -0.36049072758523892 0 0.2380746425401753 -0.37739124482652259 0 0.28319486675338662 -0.32334720602367162 0 0.25646807382456938 -0.31469239461157061 0 0.28319486675338662 -0.32334720602367162 0 0.25646807382456938 -0.31469239461157061 0 0.26668910057358802 -0.30550764638795852 0 0.28319486675338662 -0.32334720602367162 0 0.26642662817035351 -0.32969679049813649 0 0.25646807382456938 -0.31469239461157061 0 0.26970242523906313 -0.3463930650348116 0 0.26642662817035351 -0.32969679049813649 0 0.28056009198101312 -0.33712721632873971 0 0.28319486675338662 -0.32334720602367162 0 0.26642662817035351 -0.32969679049813649 0 0.28056009198101312 -0.33712721632873971 0 0.26970242523906313 -0.3463930650348116 0 0.26642662817035351 -0.32969679049813649 0 0.25110761996098008 -0.33756133299550262 0 0.26642662817035351 -0.32969679049813649 0 0.25110761996098008 -0.33756133299550262 0 0.25646807382456938 -0.31469239461157061 0 0.26020915296869068 -0.2933899210744732 0 0.26668910057358802 -0.30550764638795852 0 0.24613976577650579 -0.30323365481969039 0 0.25646807382456938 -0.31469239461157061 0 0.26668910057358802 -0.30550764638795852 0 0.24613976577650579 -0.30323365481969039 0 0.26020915296869068 -0.2933899210744732 0 0.25058364390229548 -0.28023087545190861 0 0.26295470628353768 -0.27026240406269297 0 0.26020915296869068 -0.2933899210744732 0 0.25058364390229548 -0.28023087545190861 0 0.24053263080688631 -0.28510356727772701 0 0.26020915296869068 -0.2933899210744732 0 0.24053263080688631 -0.28510356727772701 0 0.26020915296869068 -0.2933899210744732 0 0.28125845178791892 -0.29011251636532881 0 0.26295470628353768 -0.27026240406269297 0 0.26020915296869068 -0.2933899210744732 0 0.27988567513049512 -0.30167627487121951 0 0.28125845178791892 -0.29011251636532881 0 0.26020915296869068 -0.2933899210744732 0 0.26668910057358802 -0.30550764638795852 0 0.27988567513049512 -0.30167627487121951 0 0.26020915296869068 -0.2933899210744732 0 0.27988567513049512 -0.30167627487121951 0 0.28319486675338662 -0.32334720602367162 0 0.26668910057358802 -0.30550764638795852 0 0.27988567513049512 -0.30167627487121951 0 0.27988567513049512 -0.30167627487121951 0 0.29956219729229971 -0.30996262866796498 0 0.28125845178791892 -0.29011251636532881 0 0.29956219729229971 -0.30996262866796498 0 0.27988567513049512 -0.30167627487121951 0 0.28125845178791892 -0.29011251636532881 0 0.29956219729229971 -0.30996262866796498 0 0.28319486675338662 -0.32334720602367162 0 0.27988567513049512 -0.30167627487121951 0 0.29956219729229971 -0.30996262866796498 0 0.28125845178791892 -0.29011251636532881 0 0.30351741442094582 -0.28364787667668517 0 0.29956219729229971 -0.30996262866796498 0 0.30351741442094582 -0.28364787667668517 0 0.30893165249025939 -0.29458973757352408 0 0.29956219729229971 -0.30996262866796498 0 0.315203972569992 -0.28599406388836862 0 0.30351741442094582 -0.28364787667668517 0 0.30893165249025939 -0.29458973757352408 0 0.31744302567780058 -0.29875438106107682 0 0.30893165249025939 -0.29458973757352408 0 0.29956219729229971 -0.30996262866796498 0 0.31140457280844042 -0.24710474912070499 0 0.31565659849655159 -0.26881006701694032 0 0.29718577407036301 -0.25519814195989071 0 0.31565659849655159 -0.26881006701694032 0 0.29718577407036301 -0.25519814195989071 0 0.28930565239004458 -0.26953623553981648 0 0.31565659849655159 -0.26881006701694032 0 0.28930565239004458 -0.26953623553981648 0 0.31565659849655159 -0.26881006701694032 0 0.30351741442094582 -0.28364787667668517 0 0.28930565239004458 -0.26953623553981648 0 0.315203972569992 -0.28599406388836862 0 0.31616400359283131 -0.27140021809428472 0 0.30351741442094582 -0.28364787667668517 0 0.31616400359283131 -0.27140021809428472 0 0.31565659849655159 -0.26881006701694032 0 0.30351741442094582 -0.28364787667668517 0 0.28125845178791892 -0.29011251636532881 0 0.30351741442094582 -0.28364787667668517 0 0.28930565239004458 -0.26953623553981648 0 0.29234931722919649 -0.23956849287787771 0 0.29718577407036301 -0.25519814195989071 0 0.28009493911397709 -0.25531812806766069 0 0.29718577407036301 -0.25519814195989071 0 0.28930565239004458 -0.26953623553981648 0 0.28009493911397709 -0.25531812806766069 0 0.28009493911397709 -0.25531812806766069 0 0.26295470628353768 -0.27026240406269297 0 0.26515279713901752 -0.25474276698909742 0 0.28930565239004458 -0.26953623553981648 0 0.28009493911397709 -0.25531812806766069 0 0.26295470628353768 -0.27026240406269297 0 0.27362138757170362 -0.2426007269765893 0 0.28009493911397709 -0.25531812806766069 0 0.26515279713901752 -0.25474276698909742 0 0.28930565239004458 -0.26953623553981648 0 0.26295470628353768 -0.27026240406269297 0 0.28125845178791892 -0.29011251636532881 0 0.28930565239004458 -0.26953623553981648 0 0.26295470628353768 -0.27026240406269297 0 0.28125845178791892 -0.29011251636532881 0 0.26295470628353768 -0.27026240406269297 0 0.26295470628353768 -0.27026240406269297 0 0.25920525151110962 -0.26619618175379239 0 0.2333624491378041 -0.27107789530058801 0 0.26295470628353768 -0.27026240406269297 0 0.25920525151110962 -0.26619618175379239 0 0.26515279713901752 -0.25474276698909742 0 0.25909559454287789 -0.26033526294480458 0 0.25575058308532189 -0.25269357128633052 0 0.26295470628353768 -0.27026240406269297 0 0.25920525151110962 -0.26619618175379239 0 0.25909559454287789 -0.26033526294480458 0 0.26295470628353768 -0.27026240406269297 0 0.26515279713901752 -0.25474276698909742 0 0.25909559454287789 -0.26033526294480458 0 0.25920525151110962 -0.26619618175379239 0 0.25909559454287789 -0.26033526294480458 0 0.2525593813984649 -0.26013433662011259 0 0.2525593813984649 -0.26013433662011259 0 0.25575058308532189 -0.25269357128633052 0 0.2462907050713771 -0.25204034373521428 0 0.25909559454287789 -0.26033526294480458 0 0.2525593813984649 -0.26013433662011259 0 0.25575058308532189 -0.25269357128633052 0 0.2525593813984649 -0.26013433662011259 0 0.2372713891187809 -0.25677075628574592 0 0.2333624491378041 -0.27107789530058801 0 0.2525593813984649 -0.26013433662011259 0 0.2462907050713771 -0.25204034373521428 0 0.2372713891187809 -0.25677075628574592 0 0.2525593813984649 -0.26013433662011259 0 0.2372713891187809 -0.25677075628574592 0 0.2462907050713771 -0.25204034373521428 0 0.2372713891187809 -0.25677075628574592 0 0.2374752251495614 -0.24157268794541539 0 0.26295470628353768 -0.27026240406269297 0 0.2333624491378041 -0.27107789530058801 0 0.25058364390229548 -0.28023087545190861 0 0.2333624491378041 -0.27107789530058801 0 0.24053263080688631 -0.28510356727772701 0 0.25920525151110962 -0.26619618175379239 0 0.2525593813984649 -0.26013433662011259 0 0.2333624491378041 -0.27107789530058801 0 0.25058364390229548 -0.28023087545190861 0 0.26295470628353768 -0.27026240406269297 0 0.2333624491378041 -0.27107789530058801 0 0.2333624491378041 -0.27107789530058801 0 0.22391874229476511 -0.2824004848955064 0 0.24053263080688631 -0.28510356727772701 0 0.2333624491378041 -0.27107789530058801 0 0.22198339683909701 -0.25340717595137879 0 0.22391874229476511 -0.2824004848955064 0 0.22198339683909701 -0.25340717595137879 0 0.21277476220729311 -0.27908963951381288 0 0.22391874229476511 -0.2824004848955064 0 0.22198339683909701 -0.25340717595137879 0 0.22391874229476511 -0.2824004848955064 0 0.2372713891187809 -0.25677075628574592 0 0.2333624491378041 -0.27107789530058801 0 0.22198339683909701 -0.25340717595137879 0 0.2372713891187809 -0.25677075628574592 0 0.22198339683909701 -0.25340717595137879 0 0.2374752251495614 -0.24157268794541539 0 0.2372713891187809 -0.25677075628574592 0 0.22198339683909701 -0.25340717595137879 0 0.22198339683909701 -0.25340717595137879 0 0.19767743283581299 -0.26201501502554969 0 0.19815896102696709 -0.24816545406213189 0 0.22198339683909701 -0.25340717595137879 0 0.19815896102696709 -0.24816545406213189 0 0.22198339683909701 -0.25340717595137879 0 0.2070014623020448 -0.26844420161526761 0 0.19767743283581299 -0.26201501502554969 0 0.22198339683909701 -0.25340717595137879 0 0.21277476220729311 -0.27908963951381288 0 0.2070014623020448 -0.26844420161526761 0 0.21277476220729311 -0.27908963951381288 0 0.19627752834655959 -0.27465633278028612 0 0.20552852767052071 -0.28818040814850709 0 0.21277476220729311 -0.27908963951381288 0 0.2070014623020448 -0.26844420161526761 0 0.19627752834655959 -0.27465633278028612 0 0.2070014623020448 -0.26844420161526761 0 0.19627752834655959 -0.27465633278028612 0 0.19767743283581299 -0.26201501502554969 0 0.19627752834655959 -0.27465633278028612 0 0.19767743283581299 -0.26201501502554969 0 0.1861358052291735 -0.26379397041404468 0 0.19767743283581299 -0.26201501502554969 0 0.1861358052291735 -0.26379397041404468 0 0.19815896102696709 -0.24816545406213189 0 0.1861358052291735 -0.26379397041404468 0 0.18066177981631051 -0.25348299893649828 0 0.19815896102696709 -0.24816545406213189 0 0.20129939135720101 -0.31175464383988888 0 0.20552852767052071 -0.28818040814850709 0 0.1861316223780578 -0.30340045511113362 0 0.20552852767052071 -0.28818040814850709 0 0.18615950714984131 -0.28714944863913389 0 0.1861316223780578 -0.30340045511113362 0 0.19627752834655959 -0.27465633278028612 0 0.20552852767052071 -0.28818040814850709 0 0.18615950714984131 -0.28714944863913389 0 0.21277476220729311 -0.27908963951381288 0 0.20552852767052071 -0.28818040814850709 0 0.22391874229476511 -0.2824004848955064 0 0.20552852767052071 -0.28818040814850709 0 0.21283890344555609 -0.30228465628523993 0 0.22391874229476511 -0.2824004848955064 0 0.20129939135720101 -0.31175464383988888 0 0.20552852767052071 -0.28818040814850709 0 0.21283890344555609 -0.30228465628523993 0 0.225854087750432 -0.31139379383963389 0 0.22391874229476511 -0.2824004848955064 0 0.21283890344555609 -0.30228465628523993 0 0.225854087750432 -0.31139379383963389 0 0.22391874229476511 -0.2824004848955064 0 0.225854087750432 -0.31139379383963389 0 0.22391874229476511 -0.2824004848955064 0 0.24053263080688631 -0.28510356727772701 0 0.26020915296869068 -0.2933899210744732 0 0.24053263080688631 -0.28510356727772701 0 0.24613976577650579 -0.30323365481969039 0 0.225854087750432 -0.31139379383963389 0 0.24053263080688631 -0.28510356727772701 0 0.24613976577650579 -0.30323365481969039 0 0.225854087750432 -0.31139379383963389 0 0.24613976577650579 -0.30323365481969039 0 0.24147179610371719 -0.32145365581003182 0 0.25110761996098008 -0.33756133299550262 0 0.25646807382456938 -0.31469239461157061 0 0.24147179610371719 -0.32145365581003182 0 0.25646807382456938 -0.31469239461157061 0 0.24613976577650579 -0.30323365481969039 0 0.24147179610371719 -0.32145365581003182 0 0.25110761996098008 -0.33756133299550262 0 0.24147179610371719 -0.32145365581003182 0 0.2277894332060989 -0.3403871027837615 0 0.225854087750432 -0.31139379383963389 0 0.24147179610371719 -0.32145365581003182 0 0.2277894332060989 -0.3403871027837615 0 0.225854087750432 -0.31139379383963389 0 0.2277894332060989 -0.3403871027837615 0 0.2131017443993804 -0.32550716011161479 0 0.225854087750432 -0.31139379383963389 0 0.2277894332060989 -0.3403871027837615 0 0.25620327224306561 -0.36049072758523892 0 0.23939100935974761 -0.35412122659527612 0 0.2380746425401753 -0.37739124482652259 0 0.25110761996098008 -0.33756133299550262 0 0.2277894332060989 -0.3403871027837615 0 0.23939100935974761 -0.35412122659527612 0 0.25620327224306561 -0.36049072758523892 0 0.25110761996098008 -0.33756133299550262 0 0.23939100935974761 -0.35412122659527612 0 0.2277894332060989 -0.3403871027837615 0 0.23939100935974761 -0.35412122659527612 0 0.22160146260088931 -0.35672021721344238 0 0.2277894332060989 -0.3403871027837615 0 0.22160146260088931 -0.35672021721344238 0 0.21393580002607371 -0.34141846605291087 0 0.23939100935974761 -0.35412122659527612 0 0.22160146260088931 -0.35672021721344238 0 0.2380746425401753 -0.37739124482652259 0 0.22160146260088931 -0.35672021721344238 0 0.21646245367279571 -0.38358476595235552 0 0.22160146260088931 -0.35672021721344238 0 0.2380746425401753 -0.37739124482652259 0 0.21646245367279571 -0.38358476595235552 0 0.22160146260088931 -0.35672021721344238 0 0.19836301469614079 -0.36402790855933592 0 0.2025217842010896 -0.37807387373583923 0 0.22160146260088931 -0.35672021721344238 0 0.21646245367279571 -0.38358476595235552 0 0.2025217842010896 -0.37807387373583923 0 0.22160146260088931 -0.35672021721344238 0 0.20535211274276649 -0.35018034328080122 0 0.21393580002607371 -0.34141846605291087 0 0.22160146260088931 -0.35672021721344238 0 0.20535211274276649 -0.35018034328080122 0 0.19836301469614079 -0.36402790855933592 0 0.20535211274276649 -0.35018034328080122 0 0.19180082998577391 -0.35029167033112268 0 0.20100079568597551 -0.33875735092892167 0 0.19180082998577391 -0.35029167033112268 0 0.19836301469614079 -0.36402790855933592 0 0.18636698824462991 -0.36225910140511608 0 0.19180082998577391 -0.35029167033112268 0 0.18636698824462991 -0.36225910140511608 0 0.18448777755487131 -0.35210036546502188 0 0.20535211274276649 -0.35018034328080122 0 0.19180082998577391 -0.35029167033112268 0 0.19836301469614079 -0.36402790855933592 0 0.19836301469614079 -0.36402790855933592 0 0.19083927531350181 -0.37426462870353422 0 0.18636698824462991 -0.36225910140511608 0 0.19836301469614079 -0.36402790855933592 0 0.19083927531350181 -0.37426462870353422 0 0.2025217842010896 -0.37807387373583923 0 0.20129939135720101 -0.31175464383988888 0 0.21283890344555609 -0.30228465628523993 0 0.2131017443993804 -0.32550716011161479 0 0.21283890344555609 -0.30228465628523993 0 0.225854087750432 -0.31139379383963389 0 0.2131017443993804 -0.32550716011161479 0 0.2277894332060989 -0.3403871027837615 0 0.2131017443993804 -0.32550716011161479 0 0.21393580002607371 -0.34141846605291087 0 0.2131017443993804 -0.32550716011161479 0 0.21393580002607371 -0.34141846605291087 0 0.20100079568597551 -0.33875735092892167 0 0.20535211274276649 -0.35018034328080122 0 0.21393580002607371 -0.34141846605291087 0 0.20100079568597551 -0.33875735092892167 0 0.19180082998577391 -0.35029167033112268 0 0.20100079568597551 -0.33875735092892167 0 0.1840044286915227 -0.33601373309634508 0 0.20100079568597551 -0.33875735092892167 0 0.19352690233448341 -0.32516644492614982 0 0.1840044286915227 -0.33601373309634508 0 0.2131017443993804 -0.32550716011161479 0 0.20100079568597551 -0.33875735092892167 0 0.19352690233448341 -0.32516644492614982 0 0.20129939135720101 -0.31175464383988888 0 0.2131017443993804 -0.32550716011161479 0 0.19352690233448341 -0.32516644492614982 0 0.20129939135720101 -0.31175464383988888 0 0.19352690233448341 -0.32516644492614982 0 0.1861316223780578 -0.30340045511113362 0 0.19352690233448341 -0.32516644492614982 0 0.17526094699071121 -0.32121364916979261 0 0.1840044286915227 -0.33601373309634508 0 0.19352690233448341 -0.32516644492614982 0 0.17526094699071121 -0.32121364916979261 0 0.1861316223780578 -0.30340045511113362 0 0.17526094699071121 -0.32121364916979261 0 0.1840044286915227 -0.33601373309634508 0 0.17670370261134591 -0.35101137430815987 0 0.17526094699071121 -0.32121364916979261 0 0.16632300769682529 -0.33914532989683449 0 0.17670370261134591 -0.35101137430815987 0 0.17526094699071121 -0.32121364916979261 0 0.17670370261134591 -0.35101137430815987 0 0.16632300769682529 -0.33914532989683449 0 0.15635532043033851 -0.32762317205032648 0 0.15384528835215919 -0.34888323103730828 0 0.17526094699071121 -0.32121364916979261 0 0.16632300769682529 -0.33914532989683449 0 0.15635532043033851 -0.32762317205032648 0 0.17526094699071121 -0.32121364916979261 0 0.15635532043033851 -0.32762317205032648 0 0.16613015085753399 -0.29794196337136208 0 0.19083927531350181 -0.37426462870353422 0 0.18636698824462991 -0.36225910140511608 0 0.17814645823198061 -0.38080909944652741 0 0.17670370261134591 -0.35101137430815987 0 0.1695008882053643 -0.3539014675276998 0 0.17814645823198061 -0.38080909944652741 0 0.17670370261134591 -0.35101137430815987 0 0.17814645823198061 -0.38080909944652741 0 0.18636698824462991 -0.36225910140511608 0 0.17670370261134591 -0.35101137430815987 0 0.17814645823198061 -0.38080909944652741 0 0.18636698824462991 -0.36225910140511608 0 0.18448777755487131 -0.35210036546502188 0 0.17670370261134591 -0.35101137430815987 0 0.18448777755487131 -0.35210036546502188 0 0.18424918471087839 -0.34735428580016242 0 0.17670370261134591 -0.35101137430815987 0 0.19180082998577391 -0.35029167033112268 0 0.1840044286915227 -0.33601373309634508 0 0.18424918471087839 -0.34735428580016242 0 0.1840044286915227 -0.33601373309634508 0 0.18424918471087839 -0.34735428580016242 0 0.17670370261134591 -0.35101137430815987 0 0.19180082998577391 -0.35029167033112268 0 0.18448777755487131 -0.35210036546502188 0 0.18424918471087839 -0.34735428580016242 0 0.16632300769682529 -0.33914532989683449 0 0.1695008882053643 -0.3539014675276998 0 0.15384528835215919 -0.34888323103730828 0 0.1695008882053643 -0.3539014675276998 0 0.15622266046030589 -0.36560529067035252 0 0.15384528835215919 -0.34888323103730828 0 0.16632300769682529 -0.33914532989683449 0 0.17670370261134591 -0.35101137430815987 0 0.1695008882053643 -0.3539014675276998 0 0.1695008882053643 -0.3539014675276998 0 0.15622266046030589 -0.36560529067035252 0 0.1662516937484437 -0.37945746017663878 0 0.1695008882053643 -0.3539014675276998 0 0.17814645823198061 -0.38080909944652741 0 0.1662516937484437 -0.37945746017663878 0 0.1695008882053643 -0.3539014675276998 0 0.1662516937484437 -0.37945746017663878 0 0.15622266046030589 -0.36560529067035252 0 0.15384528835215919 -0.34888323103730828 0 0.13913284643621729 -0.36987147755796063 0 0.15622266046030589 -0.36560529067035252 0 0.13913284643621729 -0.36987147755796063 0 0.15122325216971341 -0.38057118911269922 0 0.15384528835215919 -0.34888323103730828 0 0.13913284643621729 -0.36987147755796063 0 0.1385684583736729 -0.34280877879487409 0 0.1385684583736729 -0.34280877879487409 0 0.1245186505824013 -0.36113750934922573 0 0.1203073559828662 -0.34481831064573482 0 0.13913284643621729 -0.36987147755796063 0 0.1385684583736729 -0.34280877879487409 0 0.13913284643621729 -0.36987147755796063 0 0.1385684583736729 -0.34280877879487409 0 0.1245186505824013 -0.36113750934922573 0 0.13913284643621729 -0.36987147755796063 0 0.12672469353237761 -0.38193719477194499 0 0.1245186505824013 -0.36113750934922573 0 0.15635532043033851 -0.32762317205032648 0 0.13800407031112841 -0.31574608003178772 0 0.16613015085753399 -0.29794196337136208 0 0.15635532043033851 -0.32762317205032648 0 0.15384528835215919 -0.34888323103730828 0 0.1385684583736729 -0.34280877879487409 0 0.15635532043033851 -0.32762317205032648 0 0.1385684583736729 -0.34280877879487409 0 0.13800407031112841 -0.31574608003178772 0 0.1385684583736729 -0.34280877879487409 0 0.13800407031112841 -0.31574608003178772 0 0.1385684583736729 -0.34280877879487409 0 0.1252730154641265 -0.33501756179834041 0 0.127277047630593 -0.32368123984794023 0 0.1385684583736729 -0.34280877879487409 0 0.1252730154641265 -0.33501756179834041 0 0.1203073559828662 -0.34481831064573482 0 0.13800407031112841 -0.31574608003178772 0 0.127277047630593 -0.32368123984794023 0 0.1207194796176513 -0.31206082339016011 0 0.1385684583736729 -0.34280877879487409 0 0.13800407031112841 -0.31574608003178772 0 0.127277047630593 -0.32368123984794023 0 0.13800407031112841 -0.31574608003178772 0 0.13743968224858391 -0.28868338126870119 0 0.1207194796176513 -0.31206082339016011 0 0.13800407031112841 -0.31574608003178772 0 0.13743968224858391 -0.28868338126870119 0 0.13800407031112841 -0.31574608003178772 0 0.13743968224858391 -0.28868338126870119 0 0.16613015085753399 -0.29794196337136208 0 0.13743968224858391 -0.28868338126870119 0 0.16013622185265231 -0.27370264407204231 0 0.16613015085753399 -0.29794196337136208 0 0.13743968224858391 -0.28868338126870119 0 0.13687529418603939 -0.26162068250561471 0 0.13743968224858391 -0.28868338126870119 0 0.13687529418603939 -0.26162068250561471 0 0.12122917553908071 -0.27280048239714111 0 0.13687529418603939 -0.26162068250561471 0 0.15867772839633809 -0.25707915377424612 0 0.15532271566916761 -0.23874085795770611 0 0.13687529418603939 -0.26162068250561471 0 0.16013622185265231 -0.27370264407204231 0 0.15867772839633809 -0.25707915377424612 0 0.13743968224858391 -0.28868338126870119 0 0.13687529418603939 -0.26162068250561471 0 0.16013622185265231 -0.27370264407204231 0 0.16013622185265231 -0.27370264407204231 0 0.17163424862532001 -0.26348395238230132 0 0.17866520103123101 -0.27392164610568698 0 0.16013622185265231 -0.27370264407204231 0 0.15867772839633809 -0.25707915377424612 0 0.17163424862532001 -0.26348395238230132 0 0.15867772839633809 -0.25707915377424612 0 0.17163424862532001 -0.26348395238230132 0 0.17304535898525439 -0.24904788565112909 0 0.17163424862532001 -0.26348395238230132 0 0.18066177981631051 -0.25348299893649828 0 0.17304535898525439 -0.24904788565112909 0 0.17163424862532001 -0.26348395238230132 0 0.1861358052291735 -0.26379397041404468 0 0.18066177981631051 -0.25348299893649828 0 0.19627752834655959 -0.27465633278028612 0 0.17866520103123101 -0.27392164610568698 0 0.18615950714984131 -0.28714944863913389 0 0.19627752834655959 -0.27465633278028612 0 0.1861358052291735 -0.26379397041404468 0 0.17866520103123101 -0.27392164610568698 0 0.17163424862532001 -0.26348395238230132 0 0.1861358052291735 -0.26379397041404468 0 0.17866520103123101 -0.27392164610568698 0 0.17866520103123101 -0.27392164610568698 0 0.18615950714984131 -0.28714944863913389 0 0.16613015085753399 -0.29794196337136208 0 0.18615950714984131 -0.28714944863913389 0 0.1861316223780578 -0.30340045511113362 0 0.16613015085753399 -0.29794196337136208 0 0.17526094699071121 -0.32121364916979261 0 0.1861316223780578 -0.30340045511113362 0 0.16613015085753399 -0.29794196337136208 0 0.16013622185265231 -0.27370264407204231 0 0.17866520103123101 -0.27392164610568698 0 0.16613015085753399 -0.29794196337136208 0 0.19650118937966099 -0.48458767462136337 0 0.18247472509388471 -0.47020227486163019 0 0.1839174807145193 -0.49999999999999789 0 0.19650118937966099 -0.48458767462136337 0 0.2054847406710314 -0.5 0 0.1839174807145193 -0.49999999999999789 0 0.19650118937966099 -0.48458767462136337 0 0.1995265252191368 -0.47051219141525807 0 0.18247472509388471 -0.47020227486163019 0 0.19650118937966099 -0.48458767462136337 0 0.1995265252191368 -0.47051219141525807 0 0.21142085222808771 -0.48158275099342862 0 0.1995265252191368 -0.47051219141525807 0 0.21142085222808771 -0.48158275099342862 0 0.21140626781342409 -0.46122374827882839 0 0.21142085222808771 -0.48158275099342862 0 0.23068219321441441 -0.47630316546961982 0 0.21140626781342409 -0.46122374827882839 0 0.19650118937966099 -0.48458767462136337 0 0.21142085222808771 -0.48158275099342862 0 0.2054847406710314 -0.5 0 0.21142085222808771 -0.48158275099342862 0 0.2054847406710314 -0.5 0 0.22705200062754341 -0.49999999999999972 0 0.21142085222808771 -0.48158275099342862 0 0.22705200062754341 -0.49999999999999972 0 0.23068219321441441 -0.47630316546961982 0 0.22705200062754341 -0.49999999999999972 0 0.24310759435645521 -0.48732129405658853 0 0.23068219321441441 -0.47630316546961982 0 0.22705200062754341 -0.49999999999999972 0 0.23068219321441441 -0.47630316546961982 0 0.25573491640979129 -0.5 0 0.22705200062754341 -0.49999999999999972 0 0.24310759435645521 -0.48732129405658853 0 0.24310759435645521 -0.48732129405658853 0 0.24452211955108941 -0.47321082899062988 0 0.23068219321441441 -0.47630316546961982 0 0.23068219321441441 -0.47630316546961982 0 0.23431238580128549 -0.45260633093924002 0 0.23068219321441441 -0.47630316546961982 0 0.23431238580128549 -0.45260633093924002 0 0.21140626781342409 -0.46122374827882839 0 0.24452211955108941 -0.47321082899062988 0 0.23068219321441441 -0.47630316546961982 0 0.23431238580128549 -0.45260633093924002 0 0.25055382002994903 -0.45112655962101422 0 0.24452211955108941 -0.47321082899062988 0 0.23431238580128549 -0.45260633093924002 0 0.25055382002994903 -0.45112655962101422 0 0.23431238580128549 -0.45260633093924002 0 0.24845486683426421 -0.43056678600332871 0 0.23431238580128549 -0.45260633093924002 0 0.2061844358166085 -0.43731386343018219 0 0.22816721351006641 -0.42382217308135922 0 0.23431238580128549 -0.45260633093924002 0 0.21140626781342409 -0.46122374827882839 0 0.2061844358166085 -0.43731386343018219 0 0.21140626781342409 -0.46122374827882839 0 0.1958295915806266 -0.45496450832104018 0 0.2061844358166085 -0.43731386343018219 0 0.1995265252191368 -0.47051219141525807 0 0.1958295915806266 -0.45496450832104018 0 0.18247472509388471 -0.47020227486163019 0 0.1995265252191368 -0.47051219141525807 0 0.21140626781342409 -0.46122374827882839 0 0.1958295915806266 -0.45496450832104018 0 0.1958295915806266 -0.45496450832104018 0 0.2061844358166085 -0.43731386343018219 0 0.18103196947325001 -0.44040454972326271 0 0.19189840580791451 -0.42494462472696731 0 0.2061844358166085 -0.43731386343018219 0 0.18103196947325001 -0.44040454972326271 0 0.19189840580791451 -0.42494462472696731 0 0.1954291475964339 -0.41062193775622902 0 0.2113234447447021 -0.41044931469126889 0 0.19189840580791451 -0.42494462472696731 0 0.1954291475964339 -0.41062193775622902 0 0.17958921385261531 -0.41060682458489489 0 0.19189840580791451 -0.42494462472696731 0 0.2113234447447021 -0.41044931469126889 0 0.2061844358166085 -0.43731386343018219 0 0.2113234447447021 -0.41044931469126889 0 0.2061844358166085 -0.43731386343018219 0 0.22816721351006641 -0.42382217308135922 0 0.2113234447447021 -0.41044931469126889 0 0.2061844358166085 -0.43731386343018219 0 0.23431238580128549 -0.45260633093924002 0 0.22816721351006641 -0.42382217308135922 0 0.24845486683426421 -0.43056678600332871 0 0.22816721351006641 -0.42382217308135922 0 0.24845486683426421 -0.43056678600332871 0 0.24730388124056729 -0.40448370284608931 0 0.22816721351006641 -0.42382217308135922 0 0.22802948983690591 -0.39972126622214238 0 0.24730388124056729 -0.40448370284608931 0 0.2113234447447021 -0.41044931469126889 0 0.22816721351006641 -0.42382217308135922 0 0.22802948983690591 -0.39972126622214238 0 0.22802948983690591 -0.39972126622214238 0 0.24730388124056729 -0.40448370284608931 0 0.2380746425401753 -0.37739124482652259 0 0.26194523537769671 -0.38343407302417171 0 0.24730388124056729 -0.40448370284608931 0 0.2380746425401753 -0.37739124482652259 0 0.22802948983690591 -0.39972126622214238 0 0.2380746425401753 -0.37739124482652259 0 0.21646245367279571 -0.38358476595235552 0 0.21646245367279571 -0.38358476595235552 0 0.19890552598050351 -0.3964869870217847 0 0.2025217842010896 -0.37807387373583923 0 0.2113234447447021 -0.41044931469126889 0 0.22802948983690591 -0.39972126622214238 0 0.21646245367279571 -0.38358476595235552 0 0.2113234447447021 -0.41044931469126889 0 0.21646245367279571 -0.38358476595235552 0 0.2113234447447021 -0.41044931469126889 0 0.21646245367279571 -0.38358476595235552 0 0.19890552598050351 -0.3964869870217847 0 0.1954291475964339 -0.41062193775622902 0 0.2113234447447021 -0.41044931469126889 0 0.19890552598050351 -0.3964869870217847 0 0.1954291475964339 -0.41062193775622902 0 0.19890552598050351 -0.3964869870217847 0 0.17958921385261531 -0.41060682458489489 0 0.19890552598050351 -0.3964869870217847 0 0.19000045151593811 -0.3880482826985161 0 0.17958921385261531 -0.41060682458489489 0 0.19890552598050351 -0.3964869870217847 0 0.19000045151593811 -0.3880482826985161 0 0.2025217842010896 -0.37807387373583923 0 0.19083927531350181 -0.37426462870353422 0 0.19000045151593811 -0.3880482826985161 0 0.2025217842010896 -0.37807387373583923 0 0.19083927531350181 -0.37426462870353422 0 0.19000045151593811 -0.3880482826985161 0 0.17814645823198061 -0.38080909944652741 0 0.17814645823198061 -0.38080909944652741 0 0.17958921385261531 -0.41060682458489489 0 0.19000045151593811 -0.3880482826985161 0 0.17814645823198061 -0.38080909944652741 0 0.17958921385261531 -0.41060682458489489 0 0.17814645823198061 -0.38080909944652741 0 0.17073561596382039 -0.39301209499015272 0 0.17958921385261531 -0.41060682458489489 0 0.16300249929152311 -0.40501345282557782 0 0.1662516937484437 -0.37945746017663878 0 0.1548118257048379 -0.39098754083749682 0 0.17073561596382039 -0.39301209499015272 0 0.16300249929152311 -0.40501345282557782 0 0.1662516937484437 -0.37945746017663878 0 0.17073561596382039 -0.39301209499015272 0 0.16300249929152311 -0.40501345282557782 0 0.17958921385261531 -0.41060682458489489 0 0.16300249929152311 -0.40501345282557782 0 0.1662516937484437 -0.37945746017663878 0 0.1662516937484437 -0.37945746017663878 0 0.15122325216971341 -0.38057118911269922 0 0.1548118257048379 -0.39098754083749682 0 0.17814645823198061 -0.38080909944652741 0 0.17073561596382039 -0.39301209499015272 0 0.1662516937484437 -0.37945746017663878 0 0.15622266046030589 -0.36560529067035252 0 0.1662516937484437 -0.37945746017663878 0 0.15122325216971341 -0.38057118911269922 0 0.15122325216971341 -0.38057118911269922 0 0.13969723449876181 -0.39693417632104711 0 0.1548118257048379 -0.39098754083749682 0 0.13913284643621729 -0.36987147755796063 0 0.15122325216971341 -0.38057118911269922 0 0.13969723449876181 -0.39693417632104711 0 0.13913284643621729 -0.36987147755796063 0 0.12672469353237761 -0.38193719477194499 0 0.13969723449876181 -0.39693417632104711 0 0.13913284643621729 -0.36987147755796063 0 0.13969723449876181 -0.39693417632104711 0 0.12672469353237761 -0.38193719477194499 0 0.13969723449876181 -0.39693417632104711 0 0.1219351525082772 -0.40864131998943182 0 0.16300249929152311 -0.40501345282557782 0 0.13969723449876181 -0.39693417632104711 0 0.1524997256598466 -0.41582351463554701 0 0.16300249929152311 -0.40501345282557782 0 0.13969723449876181 -0.39693417632104711 0 0.1548118257048379 -0.39098754083749682 0 0.13969723449876181 -0.39693417632104711 0 0.1524997256598466 -0.41582351463554701 0 0.14026162256130631 -0.42399687508413381 0 0.13969723449876181 -0.39693417632104711 0 0.14026162256130631 -0.42399687508413381 0 0.13969723449876181 -0.39693417632104711 0 0.14026162256130631 -0.42399687508413381 0 0.1219351525082772 -0.40864131998943182 0 0.1272554141007321 -0.42571201066291808 0 0.14026162256130631 -0.42399687508413381 0 0.1219351525082772 -0.40864131998943182 0 0.13018508541287829 -0.43658956786597553 0 0.14026162256130631 -0.42399687508413381 0 0.14082601062385081 -0.45105957384722029 0 0.13018508541287829 -0.43658956786597553 0 0.1272554141007321 -0.42571201066291808 0 0.14026162256130631 -0.42399687508413381 0 0.1524997256598466 -0.41582351463554701 0 0.14026162256130631 -0.42399687508413381 0 0.15975330483460251 -0.43056944547451692 0 0.14026162256130631 -0.42399687508413381 0 0.15975330483460251 -0.43056944547451692 0 0.14082601062385081 -0.45105957384722029 0 0.16300249929152311 -0.40501345282557782 0 0.15975330483460251 -0.43056944547451692 0 0.17958921385261531 -0.41060682458489489 0 0.16300249929152311 -0.40501345282557782 0 0.15975330483460251 -0.43056944547451692 0 0.16300249929152311 -0.40501345282557782 0 0.1524997256598466 -0.41582351463554701 0 0.15975330483460251 -0.43056944547451692 0 0.15975330483460251 -0.43056944547451692 0 0.17958921385261531 -0.41060682458489489 0 0.18103196947325001 -0.44040454972326271 0 0.17958921385261531 -0.41060682458489489 0 0.18103196947325001 -0.44040454972326271 0 0.19189840580791451 -0.42494462472696731 0 0.17958921385261531 -0.41060682458489489 0 0.18103196947325001 -0.44040454972326271 0 0.18103196947325001 -0.44040454972326271 0 0.16491961284223791 -0.45249038001545161 0 0.18247472509388471 -0.47020227486163019 0 0.18103196947325001 -0.44040454972326271 0 0.18247472509388471 -0.47020227486163019 0 0.1958295915806266 -0.45496450832104018 0 0.18103196947325001 -0.44040454972326271 0 0.18247472509388471 -0.47020227486163019 0 0.16491961284223791 -0.45249038001545161 0 0.1605120541856016 -0.47021605617062739 0 0.18247472509388471 -0.47020227486163019 0 0.15975330483460251 -0.43056944547451692 0 0.18103196947325001 -0.44040454972326271 0 0.16491961284223791 -0.45249038001545161 0 0.15975330483460251 -0.43056944547451692 0 0.16491961284223791 -0.45249038001545161 0 0.14082601062385081 -0.45105957384722029 0 0.14026162256130631 -0.42399687508413381 0 0.14082601062385081 -0.45105957384722029 0 0.14082601062385081 -0.45105957384722029 0 0.12543676829432579 -0.44683393452868708 0 0.12531186358948529 -0.45757018679138572 0 0.13018508541287829 -0.43658956786597553 0 0.14082601062385081 -0.45105957384722029 0 0.12543676829432579 -0.44683393452868708 0 0.14082601062385081 -0.45105957384722029 0 0.12842365125323091 -0.46593607888014599 0 0.13328939848609819 -0.47119455711627289 0 0.14082601062385081 -0.45105957384722029 0 0.14139039868639619 -0.47812227261030682 0 0.13328939848609819 -0.47119455711627289 0 0.12842365125323091 -0.46593607888014599 0 0.12531186358948529 -0.45757018679138572 0 0.1232316263288145 -0.46410889533344052 0 0.12842365125323091 -0.46593607888014599 0 0.1245497287119053 -0.47085317529077592 0 0.12311265484265969 -0.46777846846391841 0 0.14082601062385081 -0.45105957384722029 0 0.12842365125323091 -0.46593607888014599 0 0.12531186358948529 -0.45757018679138572 0 0.16491961284223791 -0.45249038001545161 0 0.14082601062385081 -0.45105957384722029 0 0.1605120541856016 -0.47021605617062739 0 0.14082601062385081 -0.45105957384722029 0 0.14139039868639619 -0.47812227261030682 0 0.14082601062385081 -0.45105957384722029 0 0.14139039868639619 -0.47812227261030682 0 0.1605120541856016 -0.47021605617062739 0 0.14139039868639619 -0.47812227261030682 0 0.15939735020609169 -0.48906113630515408 0 0.1605120541856016 -0.47021605617062739 0 0.14139039868639619 -0.47812227261030682 0 0.15939735020609169 -0.48906113630515408 0 0.14139039868639619 -0.47812227261030682 0 0.13328939848609819 -0.47119455711627289 0 0.13520794413867351 -0.47916570768291911 0 0.14139039868639619 -0.47812227261030682 0 0.13520794413867351 -0.47916570768291911 0 0.13309005864575499 -0.48654881223837643 0 0.13328939848609819 -0.47119455711627289 0 0.13520794413867351 -0.47916570768291911 0 0.1282166063692238 -0.47963436787526348 0 0.13520794413867351 -0.47916570768291911 0 0.1282166063692238 -0.47963436787526348 0 0.13309005864575499 -0.48654881223837643 0 0.12842365125323091 -0.46593607888014599 0 0.1275076222339897 -0.47406719287555171 0 0.1245497287119053 -0.47085317529077592 0 0.12842365125323091 -0.46593607888014599 0 0.13328939848609819 -0.47119455711627289 0 0.1275076222339897 -0.47406719287555171 0 0.13328939848609819 -0.47119455711627289 0 0.1282166063692238 -0.47963436787526348 0 0.1275076222339897 -0.47406719287555171 0 0.1282166063692238 -0.47963436787526348 0 0.1275076222339897 -0.47406719287555171 0 0.12271037357175291 -0.47562361121234281 0 0.14139039868639619 -0.47812227261030682 0 0.13309005864575499 -0.48654881223837643 0 0.1417493920694651 -0.49533619053082339 0 0.1325088383252874 -0.49999999999999689 0 0.11946717228548211 -0.4870343347309507 0 0.1325088383252874 -0.49999999999999689 0 0.13309005864575499 -0.48654881223837643 0 0.11946717228548211 -0.4870343347309507 0 0.1282166063692238 -0.47963436787526348 0 0.13309005864575499 -0.48654881223837643 0 0.11946717228548211 -0.4870343347309507 0 0.1325088383252874 -0.49999999999999689 0 0.13309005864575499 -0.48654881223837643 0 0.1417493920694651 -0.49533619053082339 0 0.1325088383252874 -0.49999999999999689 0 0.1417493920694651 -0.49533619053082339 0 0.15495657002553739 -0.5 0 0.14139039868639619 -0.47812227261030682 0 0.14937342774687271 -0.49062989986157102 0 0.15939735020609169 -0.48906113630515408 0 0.14139039868639619 -0.47812227261030682 0 0.1417493920694651 -0.49533619053082339 0 0.14139039868639619 -0.47812227261030682 0 0.1417493920694651 -0.49533619053082339 0 0.14937342774687271 -0.49062989986157102 0 0.1417493920694651 -0.49533619053082339 0 0.14937342774687271 -0.49062989986157102 0 0.15495657002553739 -0.5 0 0.14937342774687271 -0.49062989986157102 0 0.15495657002553739 -0.5 0 0.15939735020609169 -0.48906113630515408 0 0.15939735020609169 -0.48906113630515408 0 0.17467337585270831 -0.48420504396041608 0 0.1774043017257875 -0.50000000000000111 0 0.15939735020609169 -0.48906113630515408 0 0.1774043017257875 -0.50000000000000111 0 0.15495657002553739 -0.5 0 0.15939735020609169 -0.48906113630515408 0 0.1774043017257875 -0.50000000000000111 0 0.15939735020609169 -0.48906113630515408 0 0.1605120541856016 -0.47021605617062739 0 0.17467337585270831 -0.48420504396041608 0 0.1605120541856016 -0.47021605617062739 0 0.17467337585270831 -0.48420504396041608 0 0.18247472509388471 -0.47020227486163019 0 0.18247472509388471 -0.47020227486163019 0 0.1839174807145193 -0.49999999999999789 0 0.17467337585270831 -0.48420504396041608 0 0.18247472509388471 -0.47020227486163019 0 0.1839174807145193 -0.49999999999999789 0 0.17467337585270831 -0.48420504396041608 0 0.1839174807145193 -0.49999999999999789 0 0.1774043017257875 -0.50000000000000111 0 0.065949985054517032 -0.48884997455687013 0 0.080677891680827868 -0.48404188118506331 0 0.084758324792090334 -0.49999999999999989 0 0.065949985054517032 -0.48884997455687013 0 0.084758324792090334 -0.49999999999999989 0 0.055728539092515517 -0.5 0 0.065949985054517032 -0.48884997455687013 0 0.069113753880103546 -0.47032146630200872 0 0.080677891680827868 -0.48404188118506331 0 0.065949985054517032 -0.48884997455687013 0 0.069113753880103546 -0.47032146630200872 0 0.057596711449277201 -0.48334309492942701 0 0.069113753880103546 -0.47032146630200872 0 0.080677891680827868 -0.48404188118506331 0 0.088790870678748121 -0.47481427013272492 0 0.069113753880103546 -0.47032146630200872 0 0.088790870678748121 -0.47481427013272492 0 0.09506323621333454 -0.46277261346061632 0 0.080677891680827868 -0.48404188118506331 0 0.088790870678748121 -0.47481427013272492 0 0.094776523998680279 -0.48622369493371298 0 0.080677891680827868 -0.48404188118506331 0 0.084758324792090334 -0.49999999999999989 0 0.094776523998680279 -0.48622369493371298 0 0.084758324792090334 -0.49999999999999989 0 0.10099043700106421 -0.499999999999999 0 0.094776523998680279 -0.48622369493371298 0 0.084758324792090334 -0.49999999999999989 0 0.094776523998680279 -0.48622369493371298 0 0.10099043700106421 -0.499999999999999 0 0.1064255062456735 -0.47406866946190801 0 0.10099043700106421 -0.499999999999999 0 0.094776523998680279 -0.48622369493371298 0 0.1064255062456735 -0.47406866946190801 0 0.10099043700106421 -0.499999999999999 0 0.11946717228548211 -0.4870343347309507 0 0.1064255062456735 -0.47406866946190801 0 0.1325088383252874 -0.49999999999999689 0 0.1167496376631757 -0.5 0 0.11946717228548211 -0.4870343347309507 0 0.10099043700106421 -0.499999999999999 0 0.1167496376631757 -0.5 0 0.11946717228548211 -0.4870343347309507 0 0.12074084002908721 -0.47045370359981148 0 0.12271037357175291 -0.47562361121234281 0 0.11625567037499381 -0.47238364776222469 0 0.12074084002908721 -0.47045370359981148 0 0.11625567037499381 -0.47238364776222469 0 0.1192823524431306 -0.4663394170250621 0 0.12074084002908721 -0.47045370359981148 0 0.1245497287119053 -0.47085317529077592 0 0.12271037357175291 -0.47562361121234281 0 0.12074084002908721 -0.47045370359981148 0 0.1245497287119053 -0.47085317529077592 0 0.12311265484265969 -0.46777846846391841 0 0.1275076222339897 -0.47406719287555171 0 0.1245497287119053 -0.47085317529077592 0 0.12271037357175291 -0.47562361121234281 0 0.1282166063692238 -0.47963436787526348 0 0.11946717228548211 -0.4870343347309507 0 0.12271037357175291 -0.47562361121234281 0 0.11946717228548211 -0.4870343347309507 0 0.12271037357175291 -0.47562361121234281 0 0.11625567037499381 -0.47238364776222469 0 0.11946717228548211 -0.4870343347309507 0 0.1064255062456735 -0.47406866946190801 0 0.11946717228548211 -0.4870343347309507 0 0.11625567037499381 -0.47238364776222469 0 0.1064255062456735 -0.47406866946190801 0 0.11625567037499381 -0.47238364776222469 0 0.1064255062456735 -0.47406866946190801 0 0.11129693947086181 -0.46795476393154728 0 0.1064255062456735 -0.47406866946190801 0 0.10479472320527 -0.47244738986742602 0 0.1075632658294263 -0.46864028970971422 0 0.1064255062456735 -0.47406866946190801 0 0.1075632658294263 -0.46864028970971422 0 0.11129693947086181 -0.46795476393154728 0 0.088790870678748121 -0.47481427013272492 0 0.094776523998680279 -0.48622369493371298 0 0.10479472320527 -0.47244738986742602 0 0.1064255062456735 -0.47406866946190801 0 0.1075632658294263 -0.46864028970971422 0 0.088790870678748121 -0.47481427013272492 0 0.10479472320527 -0.47244738986742602 0 0.09506323621333454 -0.46277261346061632 0 0.10479472320527 -0.47244738986742602 0 0.1075632658294263 -0.46864028970971422 0 0.1064255062456735 -0.47406866946190801 0 0.10479472320527 -0.47244738986742602 0 0.094776523998680279 -0.48622369493371298 0 0.1064255062456735 -0.47406866946190801 0 0.10479472320527 -0.47244738986742602 0 0.094776523998680279 -0.48622369493371298 0 0.10479472320527 -0.47244738986742602 0 0.10479472320527 -0.47244738986742602 0 0.09506323621333454 -0.46277261346061632 0 0.1060131744550812 -0.45411466011360518 0 0.1075632658294263 -0.46864028970971422 0 0.11260152047704799 -0.44460220652757759 0 0.09506323621333454 -0.46277261346061632 0 0.10011436795704159 -0.45274002486564408 0 0.091519926973447546 -0.44626784630584138 0 0.09506323621333454 -0.46277261346061632 0 0.10386028492466159 -0.46021350167150438 0 0.09506323621333454 -0.46277261346061632 0 0.10386028492466159 -0.46021350167150438 0 0.10011436795704159 -0.45274002486564408 0 0.10386028492466159 -0.46021350167150438 0 0.1060131744550812 -0.45411466011360518 0 0.10011436795704159 -0.45274002486564408 0 0.10386028492466159 -0.46021350167150438 0 0.1060131744550812 -0.45411466011360518 0 0.1075632658294263 -0.46864028970971422 0 0.10479472320527 -0.47244738986742602 0 0.09506323621333454 -0.46277261346061632 0 0.1075632658294263 -0.46864028970971422 0 0.09506323621333454 -0.46277261346061632 0 0.10386028492466159 -0.46021350167150438 0 0.1075632658294263 -0.46864028970971422 0 0.1075632658294263 -0.46864028970971422 0 0.1123560704600764 -0.46204957042440498 0 0.11260152047704799 -0.44460220652757759 0 0.1075632658294263 -0.46864028970971422 0 0.1123560704600764 -0.46204957042440498 0 0.1075632658294263 -0.46864028970971422 0 0.11129693947086181 -0.46795476393154728 0 0.1123560704600764 -0.46204957042440498 0 0.1075632658294263 -0.46864028970971422 0 0.11260152047704799 -0.44460220652757759 0 0.11129693947086181 -0.46795476393154728 0 0.1123560704600764 -0.46204957042440498 0 0.11129693947086181 -0.46795476393154728 0 0.1149697984784732 -0.46556593525158491 0 0.1123560704600764 -0.46204957042440498 0 0.11625567037499381 -0.47238364776222469 0 0.1149697984784732 -0.46556593525158491 0 0.1192823524431306 -0.4663394170250621 0 0.11625567037499381 -0.47238364776222469 0 0.11129693947086181 -0.46795476393154728 0 0.1149697984784732 -0.46556593525158491 0 0.1149697984784732 -0.46556593525158491 0 0.1123560704600764 -0.46204957042440498 0 0.118705430672609 -0.46205297743075813 0 0.1123560704600764 -0.46204957042440498 0 0.11635977570981471 -0.45654396370023359 0 0.118705430672609 -0.46205297743075813 0 0.1123560704600764 -0.46204957042440498 0 0.11635977570981471 -0.45654396370023359 0 0.12531186358948529 -0.45757018679138572 0 0.11635977570981471 -0.45654396370023359 0 0.118705430672609 -0.46205297743075813 0 0.12543676829432579 -0.44683393452868708 0 0.12531186358948529 -0.45757018679138572 0 0.11635977570981471 -0.45654396370023359 0 0.12531186358948529 -0.45757018679138572 0 0.1232316263288145 -0.46410889533344052 0 0.118705430672609 -0.46205297743075813 0 0.1232316263288145 -0.46410889533344052 0 0.12311265484265969 -0.46777846846391841 0 0.1192823524431306 -0.4663394170250621 0 0.12842365125323091 -0.46593607888014599 0 0.1232316263288145 -0.46410889533344052 0 0.12311265484265969 -0.46777846846391841 0 0.12074084002908721 -0.47045370359981148 0 0.12311265484265969 -0.46777846846391841 0 0.1192823524431306 -0.4663394170250621 0 0.1149697984784732 -0.46556593525158491 0 0.1192823524431306 -0.4663394170250621 0 0.118705430672609 -0.46205297743075813 0 0.1232316263288145 -0.46410889533344052 0 0.1192823524431306 -0.4663394170250621 0 0.118705430672609 -0.46205297743075813 0 0.1123560704600764 -0.46204957042440498 0 0.11714561148417681 -0.43534544520691831 0 0.1123560704600764 -0.46204957042440498 0 0.11260152047704799 -0.44460220652757759 0 0.11714561148417681 -0.43534544520691831 0 0.1123560704600764 -0.46204957042440498 0 0.11635977570981471 -0.45654396370023359 0 0.11714561148417681 -0.43534544520691831 0 0.12543676829432579 -0.44683393452868708 0 0.11635977570981471 -0.45654396370023359 0 0.11714561148417681 -0.43534544520691831 0 0.13018508541287829 -0.43658956786597553 0 0.12543676829432579 -0.44683393452868708 0 0.11714561148417681 -0.43534544520691831 0 0.10592643308722841 -0.44437727779358549 0 0.083881602994700072 -0.43088647549478237 0 0.10592643308722841 -0.44437727779358549 0 0.091519926973447546 -0.44626784630584138 0 0.083881602994700072 -0.43088647549478237 0 0.11260152047704799 -0.44460220652757759 0 0.10592643308722841 -0.44437727779358549 0 0.1086116799951807 -0.43095684568344572 0 0.1060131744550812 -0.45411466011360518 0 0.10592643308722841 -0.44437727779358549 0 0.10011436795704159 -0.45274002486564408 0 0.1060131744550812 -0.45411466011360518 0 0.11260152047704799 -0.44460220652757759 0 0.10592643308722841 -0.44437727779358549 0 0.10592643308722841 -0.44437727779358549 0 0.10011436795704159 -0.45274002486564408 0 0.091519926973447546 -0.44626784630584138 0 0.09506323621333454 -0.46277261346061632 0 0.073976492589610171 -0.44180875358221461 0 0.09506323621333454 -0.46277261346061632 0 0.091519926973447546 -0.44626784630584138 0 0.073976492589610171 -0.44180875358221461 0 0.091519926973447546 -0.44626784630584138 0 0.073976492589610171 -0.44180875358221461 0 0.083881602994700072 -0.43088647549478237 0 0.069113753880103546 -0.47032146630200872 0 0.09506323621333454 -0.46277261346061632 0 0.09506323621333454 -0.46277261346061632 0 0.075948319170580939 -0.45709497223106438 0 0.073976492589610171 -0.44180875358221461 0 0.069113753880103546 -0.47032146630200872 0 0.09506323621333454 -0.46277261346061632 0 0.075948319170580939 -0.45709497223106438 0 0.069113753880103546 -0.47032146630200872 0 0.075948319170580939 -0.45709497223106438 0 0.064267892493667544 -0.45245405090636609 0 0.064267892493667544 -0.45245405090636609 0 0.073976492589610171 -0.44180875358221461 0 0.061221704008603092 -0.43412854505433712 0 0.075948319170580939 -0.45709497223106438 0 0.064267892493667544 -0.45245405090636609 0 0.073976492589610171 -0.44180875358221461 0 0.083881602994700072 -0.43088647549478237 0 0.061836772902171017 -0.41739567319598042 0 0.061221704008603092 -0.43412854505433712 0 0.073976492589610171 -0.44180875358221461 0 0.083881602994700072 -0.43088647549478237 0 0.061221704008603092 -0.43412854505433712 0 0.083881602994700072 -0.43088647549478237 0 0.061836772902171017 -0.41739567319598042 0 0.087852613914545186 -0.40334306140395609 0 0.070156507476487037 -0.39917662383738439 0 0.061836772902171017 -0.41739567319598042 0 0.087852613914545186 -0.40334306140395609 0 0.061836772902171017 -0.41739567319598042 0 0.090204007114443943 -0.4177400312392191 0 0.087852613914545186 -0.40334306140395609 0 0.061836772902171017 -0.41739567319598042 0 0.090204007114443943 -0.4177400312392191 0 0.083881602994700072 -0.43088647549478237 0 0.061836772902171017 -0.41739567319598042 0 0.090204007114443943 -0.4177400312392191 0 0.083881602994700072 -0.43088647549478237 0 0.10022705322515101 -0.42809075962971732 0 0.10592643308722841 -0.44437727779358549 0 0.083881602994700072 -0.43088647549478237 0 0.10022705322515101 -0.42809075962971732 0 0.10592643308722841 -0.44437727779358549 0 0.10022705322515101 -0.42809075962971732 0 0.1086116799951807 -0.43095684568344572 0 0.10022705322515101 -0.42809075962971732 0 0.1086116799951807 -0.43095684568344572 0 0.10561771621597441 -0.41891116251106192 0 0.11260152047704799 -0.44460220652757759 0 0.11714561148417681 -0.43534544520691831 0 0.11763977512467 -0.42056412334544119 0 0.11714561148417681 -0.43534544520691831 0 0.1219351525082772 -0.40864131998943182 0 0.11260152047704799 -0.44460220652757759 0 0.11763977512467 -0.42056412334544119 0 0.11260152047704799 -0.44460220652757759 0 0.1086116799951807 -0.43095684568344572 0 0.11763977512467 -0.42056412334544119 0 0.1272554141007321 -0.42571201066291808 0 0.11714561148417681 -0.43534544520691831 0 0.1219351525082772 -0.40864131998943182 0 0.1086116799951807 -0.43095684568344572 0 0.11763977512467 -0.42056412334544119 0 0.10561771621597441 -0.41891116251106192 0 0.13018508541287829 -0.43658956786597553 0 0.1272554141007321 -0.42571201066291808 0 0.11714561148417681 -0.43534544520691831 0 0.1219351525082772 -0.40864131998943182 0 0.11763977512467 -0.42056412334544119 0 0.1226780297722921 -0.39652604016330478 0 0.11763977512467 -0.42056412334544119 0 0.1063857367604352 -0.40565829933023112 0 0.1226780297722921 -0.39652604016330478 0 0.11714561148417681 -0.43534544520691831 0 0.1219351525082772 -0.40864131998943182 0 0.11763977512467 -0.42056412334544119 0 0.11763977512467 -0.42056412334544119 0 0.1226780297722921 -0.39652604016330478 0 0.11763977512467 -0.42056412334544119 0 0.10561771621597441 -0.41891116251106192 0 0.1063857367604352 -0.40565829933023112 0 0.090204007114443943 -0.4177400312392191 0 0.1063857367604352 -0.40565829933023112 0 0.087852613914545186 -0.40334306140395609 0 0.090204007114443943 -0.4177400312392191 0 0.10561771621597441 -0.41891116251106192 0 0.1063857367604352 -0.40565829933023112 0 0.090204007114443943 -0.4177400312392191 0 0.10022705322515101 -0.42809075962971732 0 0.10561771621597441 -0.41891116251106192 0 0.1063857367604352 -0.40565829933023112 0 0.11269819459067421 -0.38831450138448881 0 0.097085641119374302 -0.38571424072610178 0 0.1063857367604352 -0.40565829933023112 0 0.097085641119374302 -0.38571424072610178 0 0.087852613914545186 -0.40334306140395609 0 0.12672469353237761 -0.38193719477194499 0 0.1219351525082772 -0.40864131998943182 0 0.1063857367604352 -0.40565829933023112 0 0.1226780297722921 -0.39652604016330478 0 0.11269819459067421 -0.38831450138448881 0 0.12672469353237761 -0.38193719477194499 0 0.1219351525082772 -0.40864131998943182 0 0.1226780297722921 -0.39652604016330478 0 0.12672469353237761 -0.38193719477194499 0 0.11269819459067421 -0.38831450138448881 0 0.1080928822255358 -0.3703790814713866 0 0.12672469353237761 -0.38193719477194499 0 0.1226780297722921 -0.39652604016330478 0 0.11269819459067421 -0.38831450138448881 0 0.11269819459067421 -0.38831450138448881 0 0.097085641119374302 -0.38571424072610178 0 0.1080928822255358 -0.3703790814713866 0 0.097085641119374302 -0.38571424072610178 0 0.078524092076429908 -0.38558307009035819 0 0.085574671404253372 -0.36606529366265911 0 0.097085641119374302 -0.38571424072610178 0 0.078524092076429908 -0.38558307009035819 0 0.087852613914545186 -0.40334306140395609 0 0.078524092076429908 -0.38558307009035819 0 0.087852613914545186 -0.40334306140395609 0 0.070156507476487037 -0.39917662383738439 0 0.078524092076429908 -0.38558307009035819 0 0.070156507476487037 -0.39917662383738439 0 0.064141871653705745 -0.38905297891460661 0 0.070156507476487037 -0.39917662383738439 0 0.058427186835583247 -0.40050833558202109 0 0.061836772902171017 -0.41739567319598042 0 0.070156507476487037 -0.39917662383738439 0 0.064141871653705745 -0.38905297891460661 0 0.058427186835583247 -0.40050833558202109 0 0.078524092076429908 -0.38558307009035819 0 0.064141871653705745 -0.38905297891460661 0 0.064781398010314309 -0.37536455347105108 0 0.078524092076429908 -0.38558307009035819 0 0.064781398010314309 -0.37536455347105108 0 0.085574671404253372 -0.36606529366265911 0 0.064781398010314309 -0.37536455347105108 0 0.05115882120843647 -0.38571757356542352 0 0.043890455581289831 -0.3709268115488259 0 0.05115882120843647 -0.38571757356542352 0 0.043890455581289831 -0.3709268115488259 0 0.064141871653705745 -0.38905297891460661 0 0.064781398010314309 -0.37536455347105108 0 0.05115882120843647 -0.38571757356542352 0 0.064141871653705745 -0.38905297891460661 0 0.05115882120843647 -0.38571757356542352 0 0.058427186835583247 -0.40050833558202109 0 0.05115882120843647 -0.38571757356542352 0 0.058427186835583247 -0.40050833558202109 0 0.05115882120843647 -0.38571757356542352 0 0.058427186835583247 -0.40050833558202109 0 0.039291666751458072 -0.38953557003537942 0 0.058427186835583247 -0.40050833558202109 0 0.03861507037192409 -0.403184658796582 0 0.039291666751458072 -0.38953557003537942 0 0.039291666751458072 -0.38953557003537942 0 0.030780854092194759 -0.38031894893150719 0 0.043890455581289831 -0.3709268115488259 0 0.05115882120843647 -0.38571757356542352 0 0.039291666751458072 -0.38953557003537942 0 0.043890455581289831 -0.3709268115488259 0 0.030780854092194759 -0.38031894893150719 0 0.043890455581289831 -0.3709268115488259 0 0.030780854092194759 -0.38031894893150719 0 0.0132535835722172 -0.37610527220974688 0 0.01539336784167648 -0.38897364439718468 0 0.039291666751458072 -0.38953557003537942 0 0.030780854092194759 -0.38031894893150719 0 0.01539336784167648 -0.38897364439718468 0 0.030780854092194759 -0.38031894893150719 0 0.0132535835722172 -0.37610527220974688 0 0.022072978528308879 -0.36937310690127451 0 -0.0078283346885702904 -0.37476262999778609 0 -0.0023576536845698339 -0.39611583857600319 0 0.01539336784167648 -0.38897364439718468 0 -0.0078283346885702904 -0.37476262999778609 0 0.01539336784167648 -0.38897364439718468 0 -0.0078283346885702904 -0.37476262999778609 0 0.0132535835722172 -0.37610527220974688 0 0.01539336784167648 -0.38897364439718468 0 -0.0023576536845698339 -0.39611583857600319 0 -0.0081630895937607941 -0.41129335178386173 0 0.01158543002224671 -0.40754374071996963 0 -0.0023576536845698339 -0.39611583857600319 0 0.01539336784167648 -0.38897364439718468 0 0.01158543002224671 -0.40754374071996963 0 0.03861507037192409 -0.403184658796582 0 0.039291666751458072 -0.38953557003537942 0 0.01539336784167648 -0.38897364439718468 0 0.03861507037192409 -0.403184658796582 0 0.01539336784167648 -0.38897364439718468 0 0.026736383496206509 -0.41290648431754168 0 0.01539336784167648 -0.38897364439718468 0 0.026736383496206509 -0.41290648431754168 0 0.01158543002224671 -0.40754374071996963 0 0.03861507037192409 -0.403184658796582 0 0.01539336784167648 -0.38897364439718468 0 0.026736383496206509 -0.41290648431754168 0 0.01158543002224671 -0.40754374071996963 0 0.01747615232015888 -0.42514842909431222 0 0.026736383496206509 -0.41290648431754168 0 0.01747615232015888 -0.42514842909431222 0 0.02768083642208749 -0.42593076319487821 0 0.01158543002224671 -0.40754374071996963 0 0.0026957591361241309 -0.41958824334712869 0 0.01747615232015888 -0.42514842909431222 0 -0.0081630895937607941 -0.41129335178386173 0 0.01158543002224671 -0.40754374071996963 0 0.0026957591361241309 -0.41958824334712869 0 0.0026957591361241309 -0.41958824334712869 0 0.003851027954898749 -0.43172418954792041 0 0.01747615232015888 -0.42514842909431222 0 0.003851027954898749 -0.43172418954792041 0 0.01410030331848921 -0.43483725365991388 0 0.01747615232015888 -0.42514842909431222 0 0.003851027954898749 -0.43172418954792041 0 0.01410030331848921 -0.43483725365991388 0 0.011432193992105429 -0.44462200732167467 0 0.01747615232015888 -0.42514842909431222 0 0.023728282280598981 -0.43798020184644493 0 0.01410030331848921 -0.43483725365991388 0 0.01747615232015888 -0.42514842909431222 0 0.023728282280598981 -0.43798020184644493 0 0.01747615232015888 -0.42514842909431222 0 0.02768083642208749 -0.42593076319487821 0 0.023728282280598981 -0.43798020184644493 0 0.026736383496206509 -0.41290648431754168 0 0.02768083642208749 -0.42593076319487821 0 0.042782527591385587 -0.42768793752121392 0 0.042782527591385587 -0.42768793752121392 0 0.023728282280598981 -0.43798020184644493 0 0.02768083642208749 -0.42593076319487821 0 0.042782527591385587 -0.42768793752121392 0 0.023728282280598981 -0.43798020184644493 0 0.042782527591385587 -0.42768793752121392 0 0.038339333849137569 -0.44224603439757942 0 0.023728282280598981 -0.43798020184644493 0 0.03861507037192409 -0.403184658796582 0 0.026736383496206509 -0.41290648431754168 0 0.042782527591385587 -0.42768793752121392 0 0.03861507037192409 -0.403184658796582 0 0.042782527591385587 -0.42768793752121392 0 0.061836772902171017 -0.41739567319598042 0 0.03861507037192409 -0.403184658796582 0 0.061836772902171017 -0.41739567319598042 0 0.058427186835583247 -0.40050833558202109 0 0.03861507037192409 -0.403184658796582 0 0.061836772902171017 -0.41739567319598042 0 0.042782527591385587 -0.42768793752121392 0 0.061836772902171017 -0.41739567319598042 0 0.061221704008603092 -0.43412854505433712 0 0.042782527591385587 -0.42768793752121392 0 0.061836772902171017 -0.41739567319598042 0 0.042782527591385587 -0.42768793752121392 0 0.061221704008603092 -0.43412854505433712 0 0.052693917870023622 -0.44730825455084611 0 0.064267892493667544 -0.45245405090636609 0 0.061221704008603092 -0.43412854505433712 0 0.052693917870023622 -0.44730825455084611 0 0.069113753880103546 -0.47032146630200872 0 0.064267892493667544 -0.45245405090636609 0 0.052594011880735161 -0.46258963849414558 0 0.064267892493667544 -0.45245405090636609 0 0.052693917870023622 -0.44730825455084611 0 0.052594011880735161 -0.46258963849414558 0 0.033446276913734967 -0.45792526049492271 0 0.024747075647264399 -0.46972246297684461 0 0.043164271546872197 -0.4778703191434 0 0.052693917870023622 -0.44730825455084611 0 0.052594011880735161 -0.46258963849414558 0 0.033446276913734967 -0.45792526049492271 0 0.052594011880735161 -0.46258963849414558 0 0.033446276913734967 -0.45792526049492271 0 0.043164271546872197 -0.4778703191434 0 0.033446276913734967 -0.45792526049492271 0 0.043164271546872197 -0.4778703191434 0 0.042782527591385587 -0.42768793752121392 0 0.052693917870023622 -0.44730825455084611 0 0.038339333849137569 -0.44224603439757942 0 0.033446276913734967 -0.45792526049492271 0 0.038339333849137569 -0.44224603439757942 0 0.023728282280598981 -0.43798020184644493 0 0.052693917870023622 -0.44730825455084611 0 0.033446276913734967 -0.45792526049492271 0 0.038339333849137569 -0.44224603439757942 0 0.023728282280598981 -0.43798020184644493 0 0.011432193992105429 -0.44462200732167467 0 0.01779212199045099 -0.45571080357091009 0 0.033446276913734967 -0.45792526049492271 0 0.023728282280598981 -0.43798020184644493 0 0.033446276913734967 -0.45792526049492271 0 0.023728282280598981 -0.43798020184644493 0 0.01779212199045099 -0.45571080357091009 0 0.023728282280598981 -0.43798020184644493 0 0.011432193992105429 -0.44462200732167467 0 0.01410030331848921 -0.43483725365991388 0 0.023728282280598981 -0.43798020184644493 0 0.011432193992105429 -0.44462200732167467 0 -0.01027783979290609 -0.4450418277695869 0 0.011432193992105429 -0.44462200732167467 0 0.0031349746952128348 -0.45732154608844711 0 -0.01027783979290609 -0.4450418277695869 0 0.003851027954898749 -0.43172418954792041 0 0.011432193992105429 -0.44462200732167467 0 0.011432193992105429 -0.44462200732167467 0 0.0031349746952128348 -0.45732154608844711 0 0.01779212199045099 -0.45571080357091009 0 -0.00094907817261298132 -0.47112804672216879 0 0.0031349746952128348 -0.45732154608844711 0 0.01026392841378935 -0.46669334269712659 0 0.0031349746952128348 -0.45732154608844711 0 0.01026392841378935 -0.46669334269712659 0 0.01779212199045099 -0.45571080357091009 0 0.01026392841378935 -0.46669334269712659 0 0.01779212199045099 -0.45571080357091009 0 0.024747075647264399 -0.46972246297684461 0 0.033446276913734967 -0.45792526049492271 0 0.01779212199045099 -0.45571080357091009 0 0.024747075647264399 -0.46972246297684461 0 0.024747075647264399 -0.46972246297684461 0 0.019392481307258409 -0.48478566889839131 0 0.043164271546872197 -0.4778703191434 0 0.01026392841378935 -0.46669334269712659 0 0.024747075647264399 -0.46972246297684461 0 0.019392481307258409 -0.48478566889839131 0 0.01026392841378935 -0.46669334269712659 0 0.0053352152350804568 -0.4807791696356124 0 0.019392481307258409 -0.48478566889839131 0 -0.0043176495648967151 -0.48070428616945038 0 -0.00094907817261298132 -0.47112804672216879 0 0.0053352152350804568 -0.4807791696356124 0 -0.00094907817261298132 -0.47112804672216879 0 0.01026392841378935 -0.46669334269712659 0 0.0053352152350804568 -0.4807791696356124 0 -0.0023310323066341181 -0.5 0 -0.0043793089323552817 -0.49170101865338262 0 0.019392481307258409 -0.48478566889839131 0 -0.0043793089323552817 -0.49170101865338262 0 0.019392481307258409 -0.48478566889839131 0 -0.0043793089323552817 -0.49170101865338262 0 0.0053352152350804568 -0.4807791696356124 0 0.019392481307258409 -0.48478566889839131 0 -0.0023310323066341181 -0.5 0 0.019392481307258409 -0.48478566889839131 0 0.026698753392940699 -0.5 0 0.019392481307258409 -0.48478566889839131 0 0.026698753392940699 -0.5 0 0.035353585390671842 -0.48974665193930511 0 0.035353585390671842 -0.48974665193930511 0 0.043164271546872197 -0.4778703191434 0 0.052158835315616027 -0.49633061971542908 0 0.026698753392940699 -0.5 0 0.055728539092515517 -0.5 0 0.052158835315616027 -0.49633061971542908 0 0.026698753392940699 -0.5 0 0.035353585390671842 -0.48974665193930511 0 0.052158835315616027 -0.49633061971542908 0 0.019392481307258409 -0.48478566889839131 0 0.035353585390671842 -0.48974665193930511 0 0.043164271546872197 -0.4778703191434 0 0.019392481307258409 -0.48478566889839131 0 0.043164271546872197 -0.4778703191434 0 0.069113753880103546 -0.47032146630200872 0 0.052594011880735161 -0.46258963849414558 0 0.043164271546872197 -0.4778703191434 0 0.069113753880103546 -0.47032146630200872 0 0.043164271546872197 -0.4778703191434 0 0.057596711449277201 -0.48334309492942701 0 0.069113753880103546 -0.47032146630200872 0 0.043164271546872197 -0.4778703191434 0 0.043164271546872197 -0.4778703191434 0 0.057596711449277201 -0.48334309492942701 0 0.052158835315616027 -0.49633061971542908 0 0.065949985054517032 -0.48884997455687013 0 0.057596711449277201 -0.48334309492942701 0 0.052158835315616027 -0.49633061971542908 0 0.043164271546872197 -0.4778703191434 0 0.052158835315616027 -0.49633061971542908 0 0.065949985054517032 -0.48884997455687013 0 0.055728539092515517 -0.5 0 0.052158835315616027 -0.49633061971542908 0 0.091646396761647708 -0.28947790237370968 0 0.07071546022358817 -0.28620470259943642 0 0.079999995207784586 -0.26983589460815821 0 0.091646396761647708 -0.28947790237370968 0 0.072783535289555654 -0.30157633939854622 0 0.07071546022358817 -0.28620470259943642 0 0.091646396761647708 -0.28947790237370968 0 0.087363613427391865 -0.30807629250996549 0 0.072783535289555654 -0.30157633939854622 0 0.072783535289555654 -0.30157633939854622 0 0.073259594084162577 -0.32259772896999273 0 0.056038135353808333 -0.31320409925325249 0 0.087363613427391865 -0.30807629250996549 0 0.072783535289555654 -0.30157633939854622 0 0.073259594084162577 -0.32259772896999273 0 0.072783535289555654 -0.30157633939854622 0 0.07071546022358817 -0.28620470259943642 0 0.04944647540011983 -0.29680206833493911 0 0.07071546022358817 -0.28620470259943642 0 0.079999995207784586 -0.26983589460815821 0 0.059700898458833078 -0.27333130828182889 0 0.06835359365392131 -0.25019388684260668 0 0.079999995207784586 -0.26983589460815821 0 0.08421140423371333 -0.243891226620808 0 0.06835359365392131 -0.25019388684260668 0 0.079999995207784586 -0.26983589460815821 0 0.06835359365392131 -0.25019388684260668 0 0.079999995207784586 -0.26983589460815821 0 0.059700898458833078 -0.27333130828182889 0 0.079999995207784586 -0.26983589460815821 0 0.097662046653794854 -0.25561444261418242 0 0.08421140423371333 -0.243891226620808 0 0.079999995207784586 -0.26983589460815821 0 0.1034904733698796 -0.27103876000237981 0 0.097662046653794854 -0.25561444261418242 0 0.091646396761647708 -0.28947790237370968 0 0.079999995207784586 -0.26983589460815821 0 0.091646396761647708 -0.28947790237370968 0 0.079999995207784586 -0.26983589460815821 0 0.1034904733698796 -0.27103876000237981 0 0.1034904733698796 -0.27103876000237981 0 0.097662046653794854 -0.25561444261418242 0 0.1147239364606354 -0.25215539330366038 0 0.13687529418603939 -0.26162068250561471 0 0.1147239364606354 -0.25215539330366038 0 0.1223190960555403 -0.2394332616338683 0 0.1034904733698796 -0.27103876000237981 0 0.1147239364606354 -0.25215539330366038 0 0.12122917553908071 -0.27280048239714111 0 0.13687529418603939 -0.26162068250561471 0 0.1147239364606354 -0.25215539330366038 0 0.12122917553908071 -0.27280048239714111 0 0.1034904733698796 -0.27103876000237981 0 0.12122917553908071 -0.27280048239714111 0 0.11361649143026541 -0.29050419490534962 0 0.13743968224858391 -0.28868338126870119 0 0.12122917553908071 -0.27280048239714111 0 0.11361649143026541 -0.29050419490534962 0 0.091646396761647708 -0.28947790237370968 0 0.11361649143026541 -0.29050419490534962 0 0.10329279831551071 -0.3091199101392611 0 0.091646396761647708 -0.28947790237370968 0 0.1034904733698796 -0.27103876000237981 0 0.11361649143026541 -0.29050419490534962 0 0.091646396761647708 -0.28947790237370968 0 0.10329279831551071 -0.3091199101392611 0 0.091646396761647708 -0.28947790237370968 0 0.087363613427391865 -0.30807629250996549 0 0.10329279831551071 -0.3091199101392611 0 0.11361649143026541 -0.29050419490534962 0 0.10329279831551071 -0.3091199101392611 0 0.1207194796176513 -0.31206082339016011 0 0.13743968224858391 -0.28868338126870119 0 0.11361649143026541 -0.29050419490534962 0 0.1207194796176513 -0.31206082339016011 0 0.10329279831551071 -0.3091199101392611 0 0.11030782598785099 -0.32334328523235578 0 0.1149391998693738 -0.32876191790481257 0 0.10329279831551071 -0.3091199101392611 0 0.1207194796176513 -0.31206082339016011 0 0.1149391998693738 -0.32876191790481257 0 0.127277047630593 -0.32368123984794023 0 0.1207194796176513 -0.31206082339016011 0 0.1149391998693738 -0.32876191790481257 0 0.1252730154641265 -0.33501756179834041 0 0.127277047630593 -0.32368123984794023 0 0.1149391998693738 -0.32876191790481257 0 0.11030782598785099 -0.32334328523235578 0 0.1149391998693738 -0.32876191790481257 0 0.1071562875265276 -0.34088406714172798 0 0.1252730154641265 -0.33501756179834041 0 0.1149391998693738 -0.32876191790481257 0 0.1203073559828662 -0.34481831064573482 0 0.1149391998693738 -0.32876191790481257 0 0.1071562875265276 -0.34088406714172798 0 0.1203073559828662 -0.34481831064573482 0 0.11030782598785099 -0.32334328523235578 0 0.1071562875265276 -0.34088406714172798 0 0.088168702518997374 -0.33920446067117932 0 0.11030782598785099 -0.32334328523235578 0 0.088168702518997374 -0.33920446067117932 0 0.11030782598785099 -0.32334328523235578 0 0.092685396428672781 -0.32103820683708328 0 0.088168702518997374 -0.33920446067117932 0 0.10329279831551071 -0.3091199101392611 0 0.11030782598785099 -0.32334328523235578 0 0.092685396428672781 -0.32103820683708328 0 0.087363613427391865 -0.30807629250996549 0 0.10329279831551071 -0.3091199101392611 0 0.092685396428672781 -0.32103820683708328 0 0.10329279831551071 -0.3091199101392611 0 0.1149391998693738 -0.32876191790481257 0 0.1245186505824013 -0.36113750934922573 0 0.111761677400382 -0.35565256239397869 0 0.1080928822255358 -0.3703790814713866 0 0.12672469353237761 -0.38193719477194499 0 0.1245186505824013 -0.36113750934922573 0 0.1080928822255358 -0.3703790814713866 0 0.1245186505824013 -0.36113750934922573 0 0.111761677400382 -0.35565256239397869 0 0.1203073559828662 -0.34481831064573482 0 0.1071562875265276 -0.34088406714172798 0 0.111761677400382 -0.35565256239397869 0 0.1203073559828662 -0.34481831064573482 0 0.1071562875265276 -0.34088406714172798 0 0.09828664694928807 -0.35383226801130691 0 0.088168702518997374 -0.33920446067117932 0 0.1071562875265276 -0.34088406714172798 0 0.111761677400382 -0.35565256239397869 0 0.09828664694928807 -0.35383226801130691 0 0.097085641119374302 -0.38571424072610178 0 0.1080928822255358 -0.3703790814713866 0 0.085574671404253372 -0.36606529366265911 0 0.111761677400382 -0.35565256239397869 0 0.09828664694928807 -0.35383226801130691 0 0.1080928822255358 -0.3703790814713866 0 0.09828664694928807 -0.35383226801130691 0 0.1080928822255358 -0.3703790814713866 0 0.085574671404253372 -0.36606529366265911 0 0.085574671404253372 -0.36606529366265911 0 0.066029579050143783 -0.35506563611000291 0 0.088168702518997374 -0.33920446067117932 0 0.09828664694928807 -0.35383226801130691 0 0.085574671404253372 -0.36606529366265911 0 0.088168702518997374 -0.33920446067117932 0 0.066029579050143783 -0.35506563611000291 0 0.088168702518997374 -0.33920446067117932 0 0.064781398010314309 -0.37536455347105108 0 0.085574671404253372 -0.36606529366265911 0 0.066029579050143783 -0.35506563611000291 0 0.066029579050143783 -0.35506563611000291 0 0.088168702518997374 -0.33920446067117932 0 0.073259594084162577 -0.32259772896999273 0 0.066029579050143783 -0.35506563611000291 0 0.073259594084162577 -0.32259772896999273 0 0.048222299164917798 -0.333319266554439 0 0.092685396428672781 -0.32103820683708328 0 0.088168702518997374 -0.33920446067117932 0 0.073259594084162577 -0.32259772896999273 0 0.087363613427391865 -0.30807629250996549 0 0.092685396428672781 -0.32103820683708328 0 0.073259594084162577 -0.32259772896999273 0 0.073259594084162577 -0.32259772896999273 0 0.056038135353808333 -0.31320409925325249 0 0.048222299164917798 -0.333319266554439 0 0.056038135353808333 -0.31320409925325249 0 0.048222299164917798 -0.333319266554439 0 0.036478772830285791 -0.31172509300834528 0 0.048222299164917798 -0.333319266554439 0 0.033610930591278822 -0.35000849021355163 0 0.023331405601267931 -0.32909016887827719 0 0.048222299164917798 -0.333319266554439 0 0.023331405601267931 -0.32909016887827719 0 0.036478772830285791 -0.31172509300834528 0 0.066029579050143783 -0.35506563611000291 0 0.048355778033110031 -0.35315995845717169 0 0.043890455581289831 -0.3709268115488259 0 0.066029579050143783 -0.35506563611000291 0 0.043890455581289831 -0.3709268115488259 0 0.064781398010314309 -0.37536455347105108 0 0.066029579050143783 -0.35506563611000291 0 0.043890455581289831 -0.3709268115488259 0 0.066029579050143783 -0.35506563611000291 0 0.048222299164917798 -0.333319266554439 0 0.048355778033110031 -0.35315995845717169 0 0.048222299164917798 -0.333319266554439 0 0.048355778033110031 -0.35315995845717169 0 0.033610930591278822 -0.35000849021355163 0 0.048355778033110031 -0.35315995845717169 0 0.033610930591278822 -0.35000849021355163 0 0.043890455581289831 -0.3709268115488259 0 0.033610930591278822 -0.35000849021355163 0 0.03286340713970079 -0.36889202113574671 0 0.043890455581289831 -0.3709268115488259 0 0.033610930591278822 -0.35000849021355163 0 0.043890455581289831 -0.3709268115488259 0 0.030780854092194759 -0.38031894893150719 0 0.03286340713970079 -0.36889202113574671 0 0.043890455581289831 -0.3709268115488259 0 0.033610930591278822 -0.35000849021355163 0 0.03286340713970079 -0.36889202113574671 0 0.022072978528308879 -0.36937310690127451 0 0.030780854092194759 -0.38031894893150719 0 0.03286340713970079 -0.36889202113574671 0 0.022072978528308879 -0.36937310690127451 0 0.033610930591278822 -0.35000849021355163 0 0.022072978528308879 -0.36937310690127451 0 0.014393680356963701 -0.35536411395587292 0 0.033610930591278822 -0.35000849021355163 0 0.014393680356963701 -0.35536411395587292 0 0.0105762414372169 -0.3395135522035268 0 -0.00014080085946228561 -0.35082738964002957 0 0.014393680356963701 -0.35536411395587292 0 0.0105762414372169 -0.3395135522035268 0 -0.00014080085946228561 -0.35082738964002957 0 0.014393680356963701 -0.35536411395587292 0 0.0058490520874761691 -0.36709803082098191 0 0.022072978528308879 -0.36937310690127451 0 0.014393680356963701 -0.35536411395587292 0 0.0058490520874761691 -0.36709803082098191 0 0.022072978528308879 -0.36937310690127451 0 0.0058490520874761691 -0.36709803082098191 0 0.0132535835722172 -0.37610527220974688 0 0.022072978528308879 -0.36937310690127451 0 0.0058490520874761691 -0.36709803082098191 0 -0.0078283346885702904 -0.37476262999778609 0 0.0132535835722172 -0.37610527220974688 0 0.0058490520874761691 -0.36709803082098191 0 0.023331405601267931 -0.32909016887827719 0 0.013051880611257029 -0.30817184754300292 0 0.023331405601267931 -0.32909016887827719 0 0.013051880611257029 -0.30817184754300292 0 0.036478772830285791 -0.31172509300834528 0 0.033610930591278822 -0.35000849021355163 0 0.023331405601267931 -0.32909016887827719 0 0.0105762414372169 -0.3395135522035268 0 0.033610930591278822 -0.35000849021355163 0 0.023331405601267931 -0.32909016887827719 0 0.023331405601267931 -0.32909016887827719 0 0.0105762414372169 -0.3395135522035268 0 3.5896068887442723e-05 -0.32803491845883598 0 -0.00014080085946228561 -0.35082738964002957 0 0.0105762414372169 -0.3395135522035268 0 3.5896068887442723e-05 -0.32803491845883598 0 -0.0063780240591087903 -0.31078717533589839 0 3.5896068887442723e-05 -0.32803491845883598 0 0.013051880611257029 -0.30817184754300292 0 0.023331405601267931 -0.32909016887827719 0 3.5896068887442723e-05 -0.32803491845883598 0 0.013051880611257029 -0.30817184754300292 0 0.013051880611257029 -0.30817184754300292 0 0.0027723556212477219 -0.28725352620772771 0 0.0027723556212477219 -0.28725352620772771 0 0.026109415510684009 -0.29202779727133188 0 -0.0017476628817073611 -0.27805551369469472 0 0.0027723556212477219 -0.28725352620772771 0 0.01602201902671789 -0.28191194131808539 0 0.013051880611257029 -0.30817184754300292 0 0.0027723556212477219 -0.28725352620772771 0 0.026109415510684009 -0.29202779727133188 0 0.0027723556212477219 -0.28725352620772771 0 0.026109415510684009 -0.29202779727133188 0 0.01602201902671789 -0.28191194131808539 0 -0.0074917523477661804 -0.29461577546968681 0 0.013051880611257029 -0.30817184754300292 0 0.0027723556212477219 -0.28725352620772771 0 -0.0017476628817073611 -0.27805551369469472 0 0.0027723556212477219 -0.28725352620772771 0 0.026109415510684009 -0.29202779727133188 0 0.01602201902671789 -0.28191194131808539 0 0.036314123194761641 -0.27872041929058161 0 0.013051880611257029 -0.30817184754300292 0 0.026109415510684009 -0.29202779727133188 0 0.036478772830285791 -0.31172509300834528 0 0.026109415510684009 -0.29202779727133188 0 0.036478772830285791 -0.31172509300834528 0 0.04944647540011983 -0.29680206833493911 0 0.026109415510684009 -0.29202779727133188 0 0.04944647540011983 -0.29680206833493911 0 0.036314123194761641 -0.27872041929058161 0 0.026109415510684009 -0.29202779727133188 0 0.04944647540011983 -0.29680206833493911 0 0.04944647540011983 -0.29680206833493911 0 0.059700898458833078 -0.27333130828182889 0 0.036314123194761641 -0.27872041929058161 0 0.07071546022358817 -0.28620470259943642 0 0.04944647540011983 -0.29680206833493911 0 0.059700898458833078 -0.27333130828182889 0 0.072783535289555654 -0.30157633939854622 0 0.04944647540011983 -0.29680206833493911 0 0.056038135353808333 -0.31320409925325249 0 0.036478772830285791 -0.31172509300834528 0 0.04944647540011983 -0.29680206833493911 0 0.072783535289555654 -0.30157633939854622 0 0.056038135353808333 -0.31320409925325249 0 0.04944647540011983 -0.29680206833493911 0 0.06835359365392131 -0.25019388684260668 0 0.044986508142045613 -0.25948109579330381 0 0.047362788675733028 -0.24199119006041811 0 0.06835359365392131 -0.25019388684260668 0 0.059700898458833078 -0.27333130828182889 0 0.044986508142045613 -0.25948109579330381 0 0.06835359365392131 -0.25019388684260668 0 0.044986508142045613 -0.25948109579330381 0 0.059700898458833078 -0.27333130828182889 0 0.036314123194761641 -0.27872041929058161 0 0.044986508142045613 -0.25948109579330381 0 0.036314123194761641 -0.27872041929058161 0 0.044986508142045613 -0.25948109579330381 0 0.02161942263016943 -0.26876830474400021 0 0.044986508142045613 -0.25948109579330381 0 0.02161942263016943 -0.26876830474400021 0 0.044986508142045613 -0.25948109579330381 0 0.029973277209287209 -0.25054958921230208 0 0.02161942263016943 -0.26876830474400021 0 0.044986508142045613 -0.25948109579330381 0 0.029973277209287209 -0.25054958921230208 0 0.047362788675733028 -0.24199119006041811 0 0.029973277209287209 -0.25054958921230208 0 0.015960739131678031 -0.25406337006458851 0 0.02161942263016943 -0.26876830474400021 0 0.01602201902671789 -0.28191194131808539 0 0.036314123194761641 -0.27872041929058161 0 0.02161942263016943 -0.26876830474400021 0 -0.0017476628817073611 -0.27805551369469472 0 0.01602201902671789 -0.28191194131808539 0 0.02161942263016943 -0.26876830474400021 0 -0.0017476628817073611 -0.27805551369469472 0 0.02161942263016943 -0.26876830474400021 0 -0.0017476628817073611 -0.27805551369469472 0 0.02161942263016943 -0.26876830474400021 0 0.0057386521092319797 -0.26220041049146298 0 0.015960739131678031 -0.25406337006458851 0 0.02161942263016943 -0.26876830474400021 0 0.0057386521092319797 -0.26220041049146298 0 0.015960739131678031 -0.25406337006458851 0 0.0057386521092319797 -0.26220041049146298 0 0.0025328853753160741 -0.24958102673793139 0 0.0010854142569982001 -0.23807309260292489 0 0.010575476039053681 -0.22730954243123891 0 0.017210747296828609 -0.24036453645492739 0 0.0010854142569982001 -0.23807309260292489 0 0.0025328853753160741 -0.24958102673793139 0 0.017210747296828609 -0.24036453645492739 0 0.015960739131678031 -0.25406337006458851 0 0.0025328853753160741 -0.24958102673793139 0 0.017210747296828609 -0.24036453645492739 0 -0.0061584899570064598 -0.22962027277065361 0 0.0010854142569982001 -0.23807309260292489 0 0.010575476039053681 -0.22730954243123891 0 -0.0061584899570064598 -0.22962027277065361 0 0.010575476039053681 -0.22730954243123891 0 0.0064165675551885711 -0.21575046092143421 0 -0.0061584899570064598 -0.22962027277065361 0 0.0064165675551885711 -0.21575046092143421 0 0.010575476039053681 -0.22730954243123891 0 0.0064165675551885711 -0.21575046092143421 0 0.021509429760601551 -0.21557394742371069 0 0.010575476039053681 -0.22730954243123891 0 0.0064165675551885711 -0.21575046092143421 0 0.010575476039053681 -0.22730954243123891 0 0.02225812238200572 -0.22838936745028471 0 0.017210747296828609 -0.24036453645492739 0 0.010575476039053681 -0.22730954243123891 0 0.02225812238200572 -0.22838936745028471 0 0.021509429760601551 -0.21557394742371069 0 0.02225812238200572 -0.22838936745028471 0 0.029479073121619459 -0.22118232130399371 0 0.021509429760601551 -0.21557394742371069 0 0.02225812238200572 -0.22838936745028471 0 0.029479073121619459 -0.22118232130399371 0 0.031866256870133697 -0.23515517363185631 0 0.029973277209287209 -0.25054958921230208 0 0.017210747296828609 -0.24036453645492739 0 0.031866256870133697 -0.23515517363185631 0 0.02225812238200572 -0.22838936745028471 0 0.017210747296828609 -0.24036453645492739 0 0.031866256870133697 -0.23515517363185631 0 0.029973277209287209 -0.25054958921230208 0 0.015960739131678031 -0.25406337006458851 0 0.017210747296828609 -0.24036453645492739 0 -0.0015622250741301779 -0.1935745667631632 0 0.01896638504685547 -0.20190848785827681 0 0.0091962193441852118 -0.18107109871456811 0 -0.0015622250741301779 -0.1935745667631632 0 0.0064165675551885711 -0.21575046092143421 0 0.01896638504685547 -0.20190848785827681 0 -0.0015622250741301779 -0.1935745667631632 0 0.0064165675551885711 -0.21575046092143421 0 0.0064165675551885711 -0.21575046092143421 0 0.01896638504685547 -0.20190848785827681 0 0.0064165675551885711 -0.21575046092143421 0 0.021509429760601551 -0.21557394742371069 0 0.01896638504685547 -0.20190848785827681 0 0.029479073121619459 -0.22118232130399371 0 0.021509429760601551 -0.21557394742371069 0 0.033558692489570878 -0.21195100443687931 0 0.021509429760601551 -0.21557394742371069 0 0.029251690937081031 -0.20258635003767089 0 0.033558692489570878 -0.21195100443687931 0 0.021509429760601551 -0.21557394742371069 0 0.01896638504685547 -0.20190848785827681 0 0.029251690937081031 -0.20258635003767089 0 0.01896638504685547 -0.20190848785827681 0 0.031516202538524517 -0.1880665147951214 0 0.0091962193441852118 -0.18107109871456811 0 0.01896638504685547 -0.20190848785827681 0 0.029251690937081031 -0.20258635003767089 0 0.031516202538524517 -0.1880665147951214 0 0.01896638504685547 -0.20190848785827681 0 0.031516202538524517 -0.1880665147951214 0 0.043838458457815248 -0.18986676967386279 0 0.039506267971797952 -0.20154200132731501 0 0.055741541871671067 -0.19352675789948551 0 0.043838458457815248 -0.18986676967386279 0 0.031516202538524517 -0.1880665147951214 0 0.039506267971797952 -0.20154200132731501 0 0.031516202538524517 -0.1880665147951214 0 0.039506267971797952 -0.20154200132731501 0 0.029251690937081031 -0.20258635003767089 0 0.031516202538524517 -0.1880665147951214 0 0.039506267971797952 -0.20154200132731501 0 0.039506267971797952 -0.20154200132731501 0 0.033558692489570878 -0.21195100443687931 0 0.047496333405074677 -0.2150174878595065 0 0.039506267971797952 -0.20154200132731501 0 0.047496333405074677 -0.2150174878595065 0 0.029251690937081031 -0.20258635003767089 0 0.039506267971797952 -0.20154200132731501 0 0.033558692489570878 -0.21195100443687931 0 0.033558692489570878 -0.21195100443687931 0 0.047496333405074677 -0.2150174878595065 0 0.033558692489570878 -0.21195100443687931 0 0.047496333405074677 -0.2150174878595065 0 0.039554961726260877 -0.22474601638733641 0 0.039506267971797952 -0.20154200132731501 0 0.047496333405074677 -0.2150174878595065 0 0.05523956109653505 -0.20714630445374671 0 0.047496333405074677 -0.2150174878595065 0 0.05523956109653505 -0.20714630445374671 0 0.064206587222380762 -0.21869398638814641 0 0.047496333405074677 -0.2150174878595065 0 0.064206587222380762 -0.21869398638814641 0 0.039506267971797952 -0.20154200132731501 0 0.05523956109653505 -0.20714630445374671 0 0.055741541871671067 -0.19352675789948551 0 0.05523956109653505 -0.20714630445374671 0 0.055741541871671067 -0.19352675789948551 0 0.069247075011750078 -0.20695128879428309 0 0.055741541871671067 -0.19352675789948551 0 0.069247075011750078 -0.20695128879428309 0 0.029973277209287209 -0.25054958921230208 0 0.031866256870133697 -0.23515517363185631 0 0.047362788675733028 -0.24199119006041811 0 0.031866256870133697 -0.23515517363185631 0 0.039554961726260877 -0.22474601638733641 0 0.047362788675733028 -0.24199119006041811 0 0.029479073121619459 -0.22118232130399371 0 0.031866256870133697 -0.23515517363185631 0 0.039554961726260877 -0.22474601638733641 0 0.029479073121619459 -0.22118232130399371 0 0.033558692489570878 -0.21195100443687931 0 0.039554961726260877 -0.22474601638733641 0 0.047496333405074677 -0.2150174878595065 0 0.05536207860111314 -0.2282833045590259 0 0.064206587222380762 -0.21869398638814641 0 0.05536207860111314 -0.2282833045590259 0 0.063311866646695691 -0.24149928944984211 0 0.064206587222380762 -0.21869398638814641 0 0.039554961726260877 -0.22474601638733641 0 0.05536207860111314 -0.2282833045590259 0 0.047362788675733028 -0.24199119006041811 0 0.047496333405074677 -0.2150174878595065 0 0.039554961726260877 -0.22474601638733641 0 0.05536207860111314 -0.2282833045590259 0 0.047496333405074677 -0.2150174878595065 0 0.05536207860111314 -0.2282833045590259 0 0.05536207860111314 -0.2282833045590259 0 0.063311866646695691 -0.24149928944984211 0 0.06835359365392131 -0.25019388684260668 0 0.047362788675733028 -0.24199119006041811 0 0.063311866646695691 -0.24149928944984211 0 0.05536207860111314 -0.2282833045590259 0 0.047362788675733028 -0.24199119006041811 0 0.063311866646695691 -0.24149928944984211 0 0.06835359365392131 -0.25019388684260668 0 0.08421140423371333 -0.243891226620808 0 0.06835359365392131 -0.25019388684260668 0 0.063311866646695691 -0.24149928944984211 0 0.063311866646695691 -0.24149928944984211 0 0.074219814037010917 -0.24224782663387789 0 0.081086434463253185 -0.23335707181355411 0 0.06835359365392131 -0.25019388684260668 0 0.063311866646695691 -0.24149928944984211 0 0.074219814037010917 -0.24224782663387789 0 0.06835359365392131 -0.25019388684260668 0 0.074219814037010917 -0.24224782663387789 0 0.08421140423371333 -0.243891226620808 0 0.08421140423371333 -0.243891226620808 0 0.081086434463253185 -0.23335707181355411 0 0.10006921481350529 -0.2375885663990091 0 0.08421140423371333 -0.243891226620808 0 0.10006921481350529 -0.2375885663990091 0 0.074219814037010917 -0.24224782663387789 0 0.08421140423371333 -0.243891226620808 0 0.081086434463253185 -0.23335707181355411 0 0.081086434463253185 -0.23335707181355411 0 0.085851572697872774 -0.2234561975504171 0 0.10006921481350529 -0.2375885663990091 0 0.085851572697872774 -0.2234561975504171 0 0.08275260815182911 -0.2203758196890806 0 0.098293187803831117 -0.21887499219370271 0 0.085851572697872774 -0.2234561975504171 0 0.10006921481350529 -0.2375885663990091 0 0.081086434463253185 -0.23335707181355411 0 0.085851572697872774 -0.2234561975504171 0 0.080916841039686133 -0.2223704849167896 0 0.085851572697872774 -0.2234561975504171 0 0.080916841039686133 -0.2223704849167896 0 0.085851572697872774 -0.2234561975504171 0 0.08275260815182911 -0.2203758196890806 0 0.080916841039686133 -0.2223704849167896 0 0.085851572697872774 -0.2234561975504171 0 0.08275260815182911 -0.2203758196890806 0 0.08275260815182911 -0.2203758196890806 0 0.080916841039686133 -0.2223704849167896 0 0.063311866646695691 -0.24149928944984211 0 0.080916841039686133 -0.2223704849167896 0 0.063311866646695691 -0.24149928944984211 0 0.080916841039686133 -0.2223704849167896 0 0.064206587222380762 -0.21869398638814641 0 0.080916841039686133 -0.2223704849167896 0 0.064206587222380762 -0.21869398638814641 0 0.063311866646695691 -0.24149928944984211 0 0.081086434463253185 -0.23335707181355411 0 0.080916841039686133 -0.2223704849167896 0 0.080916841039686133 -0.2223704849167896 0 0.064206587222380762 -0.21869398638814641 0 0.069247075011750078 -0.20695128879428309 0 0.05523956109653505 -0.20714630445374671 0 0.064206587222380762 -0.21869398638814641 0 0.069247075011750078 -0.20695128879428309 0 0.08275260815182911 -0.2203758196890806 0 0.069247075011750078 -0.20695128879428309 0 0.08275260815182911 -0.2203758196890806 0 0.080916841039686133 -0.2223704849167896 0 0.069247075011750078 -0.20695128879428309 0 0.055741541871671067 -0.19352675789948551 0 0.069247075011750078 -0.20695128879428309 0 0.070887819862862286 -0.1914088031202833 0 0.069247075011750078 -0.20695128879428309 0 0.070887819862862286 -0.1914088031202833 0 0.082832551139222166 -0.19914513048671481 0 0.070887819862862286 -0.1914088031202833 0 0.082832551139222166 -0.19914513048671481 0 0.081821336385090343 -0.18186245165470949 0 0.082832551139222166 -0.19914513048671481 0 0.097084301305641635 -0.20480362112478781 0 0.095405874932467813 -0.18887779734800569 0 0.082832551139222166 -0.19914513048671481 0 0.095405874932467813 -0.18887779734800569 0 0.081821336385090343 -0.18186245165470949 0 0.08275260815182911 -0.2203758196890806 0 0.082832551139222166 -0.19914513048671481 0 0.097084301305641635 -0.20480362112478781 0 0.08275260815182911 -0.2203758196890806 0 0.069247075011750078 -0.20695128879428309 0 0.082832551139222166 -0.19914513048671481 0 0.08275260815182911 -0.2203758196890806 0 0.097084301305641635 -0.20480362112478781 0 0.098293187803831117 -0.21887499219370271 0 0.08275260815182911 -0.2203758196890806 0 0.097084301305641635 -0.20480362112478781 0 0.097084301305641635 -0.20480362112478781 0 0.1146962174531268 -0.21673223195775559 0 0.098293187803831117 -0.21887499219370271 0 0.097084301305641635 -0.20480362112478781 0 0.095405874932467813 -0.18887779734800569 0 0.11141599445945349 -0.1892314225604943 0 0.097084301305641635 -0.20480362112478781 0 0.11141599445945349 -0.1892314225604943 0 0.097084301305641635 -0.20480362112478781 0 0.1210323504124224 -0.2015702574875764 0 0.11141599445945349 -0.1892314225604943 0 0.1210323504124224 -0.2015702574875764 0 0.11141599445945349 -0.1892314225604943 0 0.13523084618428721 -0.18276855246186111 0 0.1210323504124224 -0.2015702574875764 0 0.1146962174531268 -0.21673223195775559 0 0.13583218450739579 -0.2116030352811932 0 0.097084301305641635 -0.20480362112478781 0 0.1210323504124224 -0.2015702574875764 0 0.1146962174531268 -0.21673223195775559 0 0.1110812394106853 -0.22900709064647229 0 0.12594488917549271 -0.2231145762792166 0 0.1363109061234978 -0.23455798374252809 0 0.1110812394106853 -0.22900709064647229 0 0.1223190960555403 -0.2394332616338683 0 0.1363109061234978 -0.23455798374252809 0 0.1110812394106853 -0.22900709064647229 0 0.1363109061234978 -0.23455798374252809 0 0.1146962174531268 -0.21673223195775559 0 0.1110812394106853 -0.22900709064647229 0 0.12594488917549271 -0.2231145762792166 0 0.1110812394106853 -0.22900709064647229 0 0.1223190960555403 -0.2394332616338683 0 0.1084330749156753 -0.23426436422737831 0 0.1147239364606354 -0.25215539330366038 0 0.1223190960555403 -0.2394332616338683 0 0.1084330749156753 -0.23426436422737831 0 0.097662046653794854 -0.25561444261418242 0 0.1147239364606354 -0.25215539330366038 0 0.10006921481350529 -0.2375885663990091 0 0.1147239364606354 -0.25215539330366038 0 0.10006921481350529 -0.2375885663990091 0 0.1084330749156753 -0.23426436422737831 0 0.097662046653794854 -0.25561444261418242 0 0.08421140423371333 -0.243891226620808 0 0.10006921481350529 -0.2375885663990091 0 0.10006921481350529 -0.2375885663990091 0 0.1084330749156753 -0.23426436422737831 0 0.1147239364606354 -0.25215539330366038 0 0.10006921481350529 -0.2375885663990091 0 0.085851572697872774 -0.2234561975504171 0 0.1110812394106853 -0.22900709064647229 0 0.1146962174531268 -0.21673223195775559 0 0.1110812394106853 -0.22900709064647229 0 0.098293187803831117 -0.21887499219370271 0 0.085851572697872774 -0.2234561975504171 0 0.1110812394106853 -0.22900709064647229 0 0.098293187803831117 -0.21887499219370271 0 0.085851572697872774 -0.2234561975504171 0 0.1110812394106853 -0.22900709064647229 0 0.10006921481350529 -0.2375885663990091 0 0.1110812394106853 -0.22900709064647229 0 0.10006921481350529 -0.2375885663990091 0 0.1084330749156753 -0.23426436422737831 0 0.1040552578412003 -0.15282191894301261 0 0.1005807427949069 -0.13366374688330029 0 0.11727103389215909 -0.1361484369810822 0 0.1005807427949069 -0.13366374688330029 0 0.11727103389215909 -0.1361484369810822 0 0.1051359327507693 -0.1227177542784853 0 0.1040552578412003 -0.15282191894301261 0 0.1005807427949069 -0.13366374688330029 0 0.082362828069140165 -0.1319846138898183 0 0.11727103389215909 -0.1361484369810822 0 0.1154331983948798 -0.1174886032934183 0 0.13404900744611239 -0.12609877526333699 0 0.11727103389215909 -0.1361484369810822 0 0.1051359327507693 -0.1227177542784853 0 0.1154331983948798 -0.1174886032934183 0 0.1040552578412003 -0.15282191894301261 0 0.11727103389215909 -0.1361484369810822 0 0.1232701832726428 -0.15427141090171109 0 0.11727103389215909 -0.1361484369810822 0 0.1232701832726428 -0.15427141090171109 0 0.13444198148756639 -0.1449420832838656 0 0.1040552578412003 -0.15282191894301261 0 0.12574768761326591 -0.17365922399620121 0 0.1040552578412003 -0.15282191894301261 0 0.1002282447692335 -0.17458527697826651 0 0.12574768761326591 -0.17365922399620121 0 0.1040552578412003 -0.15282191894301261 0 0.1232701832726428 -0.15427141090171109 0 0.12574768761326591 -0.17365922399620121 0 0.11141599445945349 -0.1892314225604943 0 0.1002282447692335 -0.17458527697826651 0 0.12574768761326591 -0.17365922399620121 0 0.11141599445945349 -0.1892314225604943 0 0.12574768761326591 -0.17365922399620121 0 0.13523084618428721 -0.18276855246186111 0 0.11141599445945349 -0.1892314225604943 0 0.12574768761326591 -0.17365922399620121 0 0.095405874932467813 -0.18887779734800569 0 0.11141599445945349 -0.1892314225604943 0 0.1002282447692335 -0.17458527697826651 0 0.1040552578412003 -0.15282191894301261 0 0.1002282447692335 -0.17458527697826651 0 0.08311303581058499 -0.16124853818171381 0 0.095405874932467813 -0.18887779734800569 0 0.1002282447692335 -0.17458527697826651 0 0.081821336385090343 -0.18186245165470949 0 0.1002282447692335 -0.17458527697826651 0 0.08311303581058499 -0.16124853818171381 0 0.081821336385090343 -0.18186245165470949 0 0.08311303581058499 -0.16124853818171381 0 0.081821336385090343 -0.18186245165470949 0 0.066780308608768796 -0.17493307235476979 0 0.070887819862862286 -0.1914088031202833 0 0.081821336385090343 -0.18186245165470949 0 0.066780308608768796 -0.17493307235476979 0 0.055741541871671067 -0.19352675789948551 0 0.070887819862862286 -0.1914088031202833 0 0.066780308608768796 -0.17493307235476979 0 0.08311303581058499 -0.16124853818171381 0 0.066780308608768796 -0.17493307235476979 0 0.065413952892267702 -0.150678580858252 0 0.065413952892267702 -0.150678580858252 0 0.082362828069140165 -0.1319846138898183 0 0.08311303581058499 -0.16124853818171381 0 0.065413952892267702 -0.150678580858252 0 0.082362828069140165 -0.1319846138898183 0 0.1040552578412003 -0.15282191894301261 0 0.08311303581058499 -0.16124853818171381 0 0.082362828069140165 -0.1319846138898183 0 0.1040552578412003 -0.15282191894301261 0 0.082362828069140165 -0.1319846138898183 0 0.1005807427949069 -0.13366374688330029 0 0.082362828069140165 -0.1319846138898183 0 0.095577299328253623 -0.1174095529111252 0 0.082362828069140165 -0.1319846138898183 0 0.070308403876621794 -0.13238109852993221 0 0.069837722907261313 -0.1199532536492431 0 0.065413952892267702 -0.150678580858252 0 0.082362828069140165 -0.1319846138898183 0 0.070308403876621794 -0.13238109852993221 0 0.082362828069140165 -0.1319846138898183 0 0.069837722907261313 -0.1199532536492431 0 0.065413952892267702 -0.150678580858252 0 0.070308403876621794 -0.13238109852993221 0 0.06118566078759103 -0.13005342953014129 0 0.070308403876621794 -0.13238109852993221 0 0.06118566078759103 -0.13005342953014129 0 0.069837722907261313 -0.1199532536492431 0 0.065413952892267702 -0.150678580858252 0 0.06118566078759103 -0.13005342953014129 0 0.053245925046226952 -0.14076102386291889 0 0.06118566078759103 -0.13005342953014129 0 0.049352038069647858 -0.1295439288512826 0 0.048525659269531229 -0.11802361343548989 0 0.049352038069647858 -0.1295439288512826 0 0.053245925046226952 -0.14076102386291889 0 0.041700188437408421 -0.13409859591225329 0 0.06118566078759103 -0.13005342953014129 0 0.049352038069647858 -0.1295439288512826 0 0.053245925046226952 -0.14076102386291889 0 0.065413952892267702 -0.150678580858252 0 0.053245925046226952 -0.14076102386291889 0 0.048465077715394989 -0.16937254782668559 0 0.053245925046226952 -0.14076102386291889 0 0.040505841312838547 -0.14468304457988079 0 0.048465077715394989 -0.16937254782668559 0 0.040505841312838547 -0.14468304457988079 0 0.03393783807298914 -0.14093707321474161 0 0.030230252537669321 -0.1566253376229266 0 0.040505841312838547 -0.14468304457988079 0 0.030230252537669321 -0.1566253376229266 0 0.040505841312838547 -0.14468304457988079 0 0.03393783807298914 -0.14093707321474161 0 0.041700188437408421 -0.13409859591225329 0 0.03393783807298914 -0.14093707321474161 0 0.041700188437408421 -0.13409859591225329 0 0.024480650806643651 -0.1375151559245551 0 0.041700188437408421 -0.13409859591225329 0 0.042102756807481732 -0.1247829815156095 0 0.031290738437872938 -0.1201921761368282 0 0.049352038069647858 -0.1295439288512826 0 0.041700188437408421 -0.13409859591225329 0 0.042102756807481732 -0.1247829815156095 0 0.053245925046226952 -0.14076102386291889 0 0.040505841312838547 -0.14468304457988079 0 0.041700188437408421 -0.13409859591225329 0 0.055741541871671067 -0.19352675789948551 0 0.066780308608768796 -0.17493307235476979 0 0.048465077715394989 -0.16937254782668559 0 0.043838458457815248 -0.18986676967386279 0 0.055741541871671067 -0.19352675789948551 0 0.048465077715394989 -0.16937254782668559 0 0.066780308608768796 -0.17493307235476979 0 0.065413952892267702 -0.150678580858252 0 0.048465077715394989 -0.16937254782668559 0 0.065413952892267702 -0.150678580858252 0 0.048465077715394989 -0.16937254782668559 0 0.040505841312838547 -0.14468304457988079 0 0.048465077715394989 -0.16937254782668559 0 0.030230252537669321 -0.1566253376229266 0 0.048465077715394989 -0.16937254782668559 0 0.033338822752702377 -0.1705348433046637 0 0.030230252537669321 -0.1566253376229266 0 0.043838458457815248 -0.18986676967386279 0 0.031516202538524517 -0.1880665147951214 0 0.048465077715394989 -0.16937254782668559 0 0.031516202538524517 -0.1880665147951214 0 0.048465077715394989 -0.16937254782668559 0 0.031516202538524517 -0.1880665147951214 0 0.048465077715394989 -0.16937254782668559 0 0.033338822752702377 -0.1705348433046637 0 0.031516202538524517 -0.1880665147951214 0 0.033338822752702377 -0.1705348433046637 0 0.01995466376250531 -0.16856763066597699 0 0.031516202538524517 -0.1880665147951214 0 0.01995466376250531 -0.16856763066597699 0 0.031516202538524517 -0.1880665147951214 0 0.01995466376250531 -0.16856763066597699 0 0.0091962193441852118 -0.18107109871456811 0 0.01995466376250531 -0.16856763066597699 0 0.030230252537669321 -0.1566253376229266 0 0.008868239412810253 -0.14987004135808221 0 0.033338822752702377 -0.1705348433046637 0 0.01995466376250531 -0.16856763066597699 0 0.030230252537669321 -0.1566253376229266 0 0.01995466376250531 -0.16856763066597699 0 0.030230252537669321 -0.1566253376229266 0 -0.0025999653858941639 -0.16131422913783491 0 0.0067086063528142403 -0.16809244781376179 0 0.008868239412810253 -0.14987004135808221 0 0.01995466376250531 -0.16856763066597699 0 0.008868239412810253 -0.14987004135808221 0 0.01995466376250531 -0.16856763066597699 0 0.0067086063528142403 -0.16809244781376179 0 0.008868239412810253 -0.14987004135808221 0 -0.0084927016390539001 -0.17431231470194719 0 0.0067086063528142403 -0.16809244781376179 0 0.0091962193441852118 -0.18107109871456811 0 0.01995466376250531 -0.16856763066597699 0 0.0091962193441852118 -0.18107109871456811 0 0.01995466376250531 -0.16856763066597699 0 0.0067086063528142403 -0.16809244781376179 0 0.0091962193441852118 -0.18107109871456811 0 -0.0015622250741301779 -0.1935745667631632 0 0.0091962193441852118 -0.18107109871456811 0 0.041700188437408421 -0.13409859591225329 0 0.014197789575412951 -0.12328672932727321 0 0.031290738437872938 -0.1201921761368282 0 0.041700188437408421 -0.13409859591225329 0 0.024480650806643651 -0.1375151559245551 0 0.014197789575412951 -0.12328672932727321 0 0.041700188437408421 -0.13409859591225329 0 0.014197789575412951 -0.12328672932727321 0 0.024480650806643651 -0.1375151559245551 0 0.011332123714495041 -0.13546109466502479 0 0.014197789575412951 -0.12328672932727321 0 0.03393783807298914 -0.14093707321474161 0 0.030230252537669321 -0.1566253376229266 0 0.024480650806643651 -0.1375151559245551 0 0.030230252537669321 -0.1566253376229266 0 0.024480650806643651 -0.1375151559245551 0 0.008868239412810253 -0.14987004135808221 0 0.024480650806643651 -0.1375151559245551 0 0.008868239412810253 -0.14987004135808221 0 0.011332123714495041 -0.13546109466502479 0 -0.00221818493688669 -0.13117245205018849 0 -0.0031786103040098569 -0.14705450477373769 0 0.008868239412810253 -0.14987004135808221 0 -0.0031786103040098569 -0.14705450477373769 0 -0.0025999653858941639 -0.16131422913783491 0 0.008868239412810253 -0.14987004135808221 0 -0.00221818493688669 -0.13117245205018849 0 0.008868239412810253 -0.14987004135808221 0 -0.00221818493688669 -0.13117245205018849 0 0.011332123714495041 -0.13546109466502479 0 0.014197789575412951 -0.12328672932727321 0 -0.00221818493688669 -0.13117245205018849 0 0.008868239412810253 -0.14987004135808221 0 0.011332123714495041 -0.13546109466502479 0 -0.013304609286582791 -0.1124748627422944 0 0.014197789575412951 -0.12328672932727321 0 0.014197789575412951 -0.12328672932727321 0 0.020945276257035669 -0.1055296092587116 0 0.0046245275045138064 -0.1076828264142336 0 -0.013304609286582791 -0.1124748627422944 0 0.014197789575412951 -0.12328672932727321 0 0.0046245275045138064 -0.1076828264142336 0 0.014197789575412951 -0.12328672932727321 0 0.020945276257035669 -0.1055296092587116 0 0.031290738437872938 -0.1201921761368282 0 0.020945276257035669 -0.1055296092587116 0 0.031290738437872938 -0.1201921761368282 0 0.040241467446851142 -0.1026788937802551 0 0.020945276257035669 -0.1055296092587116 0 0.028115865357471449 -0.087896533900266943 0 0.040241467446851142 -0.1026788937802551 0 0.020945276257035669 -0.1055296092587116 0 0.0072012692200917657 -0.09144049599341271 0 0.028115865357471449 -0.087896533900266943 0 -0.0070294542012635762 -0.10327829347153671 0 0.0046245275045138064 -0.1076828264142336 0 0.0072012692200917657 -0.09144049599341271 0 0.020945276257035669 -0.1055296092587116 0 0.0046245275045138064 -0.1076828264142336 0 0.0072012692200917657 -0.09144049599341271 0 0.0072012692200917657 -0.09144049599341271 0 0.0054575408194632406 -0.073720759659108445 0 0.018511759797904249 -0.077210571545524964 0 -0.0056293594721457006 -0.082036805430144924 0 0.0072012692200917657 -0.09144049599341271 0 0.0054575408194632406 -0.073720759659108445 0 0.0054575408194632406 -0.073720759659108445 0 0.018354718881549058 -0.065167425818499949 0 0.003426744450576454 -0.054815297075420773 0 -0.0072319765520409062 -0.068818796064575097 0 0.0054575408194632406 -0.073720759659108445 0 0.003426744450576454 -0.054815297075420773 0 0.0054575408194632406 -0.073720759659108445 0 0.018354718881549058 -0.065167425818499949 0 0.018511759797904249 -0.077210571545524964 0 0.018511759797904249 -0.077210571545524964 0 0.028115865357471449 -0.087896533900266943 0 0.033429404710945708 -0.067827642356336801 0 0.018354718881549058 -0.065167425818499949 0 0.018511759797904249 -0.077210571545524964 0 0.033429404710945708 -0.067827642356336801 0 0.0072012692200917657 -0.09144049599341271 0 0.018511759797904249 -0.077210571545524964 0 0.028115865357471449 -0.087896533900266943 0 0.028115865357471449 -0.087896533900266943 0 0.044094628308957058 -0.087651847290754856 0 0.040241467446851142 -0.1026788937802551 0 0.028115865357471449 -0.087896533900266943 0 0.044094628308957058 -0.087651847290754856 0 0.033429404710945708 -0.067827642356336801 0 0.044094628308957058 -0.087651847290754856 0 0.033429404710945708 -0.067827642356336801 0 0.052580487019044733 -0.06457445167855122 0 0.052580487019044733 -0.06457445167855122 0 0.057640786708643768 -0.07951032993234286 0 0.068682665651441266 -0.069637891440837665 0 0.044094628308957058 -0.087651847290754856 0 0.052580487019044733 -0.06457445167855122 0 0.057640786708643768 -0.07951032993234286 0 0.044094628308957058 -0.087651847290754856 0 0.057640786708643768 -0.07951032993234286 0 0.064045145718632748 -0.088800152685812248 0 0.056223070490067702 -0.1049071233711502 0 0.048525659269531229 -0.11802361343548989 0 0.040241467446851142 -0.1026788937802551 0 0.044094628308957058 -0.087651847290754856 0 0.056223070490067702 -0.1049071233711502 0 0.064045145718632748 -0.088800152685812248 0 0.06118566078759103 -0.13005342953014129 0 0.056223070490067702 -0.1049071233711502 0 0.048525659269531229 -0.11802361343548989 0 0.048525659269531229 -0.11802361343548989 0 0.042102756807481732 -0.1247829815156095 0 0.031290738437872938 -0.1201921761368282 0 0.048525659269531229 -0.11802361343548989 0 0.031290738437872938 -0.1201921761368282 0 0.040241467446851142 -0.1026788937802551 0 0.049352038069647858 -0.1295439288512826 0 0.048525659269531229 -0.11802361343548989 0 0.042102756807481732 -0.1247829815156095 0 0.044094628308957058 -0.087651847290754856 0 0.056223070490067702 -0.1049071233711502 0 0.040241467446851142 -0.1026788937802551 0 0.020415517075116841 0.0076517724901667356 0 0.020207185183206099 -0.010785841930981459 0 0.039787151186370009 -0.0039594854922263374 0 0.020207185183206099 -0.010785841930981459 0 0.0047038114401232534 -0.001040937293712483 0 0.0026421611525163911 -0.019923693291100199 0 0.020415517075116841 0.0076517724901667356 0 0.020207185183206099 -0.010785841930981459 0 0.0047038114401232534 -0.001040937293712483 0 0.020207185183206099 -0.010785841930981459 0 0.0026421611525163911 -0.019923693291100199 0 0.018057611388834851 -0.030223969914345401 0 0.0026421611525163911 -0.019923693291100199 0 0.018057611388834851 -0.030223969914345401 0 0.001114662024295677 -0.034644724797188199 0 0.018057611388834851 -0.030223969914345401 0 0.03214982838215158 -0.036550164909951742 0 0.03396684481877061 -0.021771474300517551 0 0.020207185183206099 -0.010785841930981459 0 0.018057611388834851 -0.030223969914345401 0 0.03396684481877061 -0.021771474300517551 0 0.018057611388834851 -0.030223969914345401 0 0.010882918392325341 -0.043546784918672053 0 0.022583515379492949 -0.04946345385366932 0 0.018057611388834851 -0.030223969914345401 0 0.022583515379492949 -0.04946345385366932 0 0.03214982838215158 -0.036550164909951742 0 0.010882918392325341 -0.043546784918672053 0 0.001114662024295677 -0.034644724797188199 0 0.003426744450576454 -0.054815297075420773 0 0.018057611388834851 -0.030223969914345401 0 0.010882918392325341 -0.043546784918672053 0 0.001114662024295677 -0.034644724797188199 0 0.018354718881549058 -0.065167425818499949 0 0.003426744450576454 -0.054815297075420773 0 0.022583515379492949 -0.04946345385366932 0 0.010882918392325341 -0.043546784918672053 0 0.003426744450576454 -0.054815297075420773 0 0.022583515379492949 -0.04946345385366932 0 0.018354718881549058 -0.065167425818499949 0 0.033429404710945708 -0.067827642356336801 0 0.022583515379492949 -0.04946345385366932 0 0.033429404710945708 -0.067827642356336801 0 0.022583515379492949 -0.04946345385366932 0 0.040434423972952403 -0.049093231793294147 0 0.033429404710945708 -0.067827642356336801 0 0.052580487019044733 -0.06457445167855122 0 0.040434423972952403 -0.049093231793294147 0 0.052580487019044733 -0.06457445167855122 0 0.040434423972952403 -0.049093231793294147 0 0.05544232884238081 -0.044875881875575382 0 0.052580487019044733 -0.06457445167855122 0 0.05544232884238081 -0.044875881875575382 0 0.068339170937992105 -0.053424337060716878 0 0.040434423972952403 -0.049093231793294147 0 0.05544232884238081 -0.044875881875575382 0 0.045706746350707102 -0.032198694687932281 0 0.05544232884238081 -0.044875881875575382 0 0.045706746350707102 -0.032198694687932281 0 0.061157621829282929 -0.025231604425866621 0 0.040434423972952403 -0.049093231793294147 0 0.045706746350707102 -0.032198694687932281 0 0.03214982838215158 -0.036550164909951742 0 0.022583515379492949 -0.04946345385366932 0 0.040434423972952403 -0.049093231793294147 0 0.03214982838215158 -0.036550164909951742 0 0.045706746350707102 -0.032198694687932281 0 0.03214982838215158 -0.036550164909951742 0 0.03396684481877061 -0.021771474300517551 0 0.045706746350707102 -0.032198694687932281 0 0.03396684481877061 -0.021771474300517551 0 0.047710046720236987 -0.018368172826886429 0 0.061157621829282929 -0.025231604425866621 0 0.047710046720236987 -0.018368172826886429 0 0.057931869416054299 -0.0086796052278893948 0 0.045706746350707102 -0.032198694687932281 0 0.061157621829282929 -0.025231604425866621 0 0.047710046720236987 -0.018368172826886429 0 0.053306813386582982 0.0056008818424343951 0 0.057931869416054299 -0.0086796052278893948 0 0.039787151186370009 -0.0039594854922263374 0 0.047710046720236987 -0.018368172826886429 0 0.057931869416054299 -0.0086796052278893948 0 0.039787151186370009 -0.0039594854922263374 0 0.053306813386582982 0.0056008818424343951 0 0.065940651683257009 0.0024831850618150888 0 0.057931869416054299 -0.0086796052278893948 0 0.020207185183206099 -0.010785841930981459 0 0.03396684481877061 -0.021771474300517551 0 0.039787151186370009 -0.0039594854922263374 0 0.03396684481877061 -0.021771474300517551 0 0.047710046720236987 -0.018368172826886429 0 0.039787151186370009 -0.0039594854922263374 0 0.07992851590561921 0.0082161523869754144 0 0.085319843464057188 -0.007629982329875426 0 0.074177093133044117 -0.010507922444979889 0 0.07992851590561921 0.0082161523869754144 0 0.085319843464057188 -0.007629982329875426 0 0.09649789417263642 -0.0037639840011086311 0 0.093491186985964037 -0.01472799792969565 0 0.085319843464057188 -0.007629982329875426 0 0.09649789417263642 -0.0037639840011086311 0 0.093491186985964037 -0.01472799792969565 0 0.085319843464057188 -0.007629982329875426 0 0.083581835824733053 -0.016535058395947159 0 0.085319843464057188 -0.007629982329875426 0 0.074177093133044117 -0.010507922444979889 0 0.083581835824733053 -0.016535058395947159 0 0.061157621829282929 -0.025231604425866621 0 0.057931869416054299 -0.0086796052278893948 0 0.074177093133044117 -0.010507922444979889 0 0.065940651683257009 0.0024831850618150888 0 0.057931869416054299 -0.0086796052278893948 0 0.074177093133044117 -0.010507922444979889 0 0.061157621829282929 -0.025231604425866621 0 0.077044537184394621 -0.024954964190685061 0 0.071280738265345076 -0.03811759874850193 0 0.061157621829282929 -0.025231604425866621 0 0.074177093133044117 -0.010507922444979889 0 0.077044537184394621 -0.024954964190685061 0 0.077044537184394621 -0.024954964190685061 0 0.087876518356205288 -0.024854425084499782 0 0.083696735197635597 -0.035074751153617953 0 0.077044537184394621 -0.024954964190685061 0 0.083581835824733053 -0.016535058395947159 0 0.087876518356205288 -0.024854425084499782 0 0.074177093133044117 -0.010507922444979889 0 0.077044537184394621 -0.024954964190685061 0 0.083581835824733053 -0.016535058395947159 0 0.093491186985964037 -0.01472799792969565 0 0.083581835824733053 -0.016535058395947159 0 0.087876518356205288 -0.024854425084499782 0 0.093491186985964037 -0.01472799792969565 0 0.087876518356205288 -0.024854425084499782 0 0.096892307268332672 -0.02266252034611416 0 0.087876518356205288 -0.024854425084499782 0 0.093921030959280866 -0.033511072873054298 0 0.096892307268332672 -0.02266252034611416 0 0.087876518356205288 -0.024854425084499782 0 0.083696735197635597 -0.035074751153617953 0 0.093921030959280866 -0.033511072873054298 0 0.088828324516270887 -0.041348533459236683 0 0.095977453204919599 -0.050472192210401508 0 0.093921030959280866 -0.033511072873054298 0 0.088828324516270887 -0.041348533459236683 0 0.083696735197635597 -0.035074751153617953 0 0.093921030959280866 -0.033511072873054298 0 0.088828324516270887 -0.041348533459236683 0 0.081718078703247488 -0.046336117599872988 0 0.095977453204919599 -0.050472192210401508 0 0.088828324516270887 -0.041348533459236683 0 0.081718078703247488 -0.046336117599872988 0 0.083696735197635597 -0.035074751153617953 0 0.081718078703247488 -0.046336117599872988 0 0.083696735197635597 -0.035074751153617953 0 0.071280738265345076 -0.03811759874850193 0 0.05544232884238081 -0.044875881875575382 0 0.061157621829282929 -0.025231604425866621 0 0.071280738265345076 -0.03811759874850193 0 0.05544232884238081 -0.044875881875575382 0 0.071280738265345076 -0.03811759874850193 0 0.068339170937992105 -0.053424337060716878 0 0.077044537184394621 -0.024954964190685061 0 0.083696735197635597 -0.035074751153617953 0 0.071280738265345076 -0.03811759874850193 0 0.081718078703247488 -0.046336117599872988 0 0.071280738265345076 -0.03811759874850193 0 0.068339170937992105 -0.053424337060716878 0 0.081718078703247488 -0.046336117599872988 0 0.068339170937992105 -0.053424337060716878 0 0.079819511512682115 -0.059373961925762081 0 0.068339170937992105 -0.053424337060716878 0 0.079819511512682115 -0.059373961925762081 0 0.068682665651441266 -0.069637891440837665 0 0.079819511512682115 -0.059373961925762081 0 0.095977453204919599 -0.050472192210401508 0 0.084380189065810102 -0.076999271316981366 0 0.081718078703247488 -0.046336117599872988 0 0.079819511512682115 -0.059373961925762081 0 0.095977453204919599 -0.050472192210401508 0 0.095977453204919599 -0.050472192210401508 0 0.1084893608633546 -0.054995312108922077 0 0.1003826539890946 -0.069656067773248523 0 0.095977453204919599 -0.050472192210401508 0 0.1084893608633546 -0.054995312108922077 0 0.10497618281608501 -0.042163163930312997 0 0.1084893608633546 -0.054995312108922077 0 0.12021542192502691 -0.05736310542253667 0 0.11225492598618329 -0.067700646346746801 0 0.12021542192502691 -0.05736310542253667 0 0.1181844865236701 -0.045884275653046647 0 0.1350650896680477 -0.050994701792827862 0 0.1084893608633546 -0.054995312108922077 0 0.12021542192502691 -0.05736310542253667 0 0.1181844865236701 -0.045884275653046647 0 0.1084893608633546 -0.054995312108922077 0 0.1181844865236701 -0.045884275653046647 0 0.10497618281608501 -0.042163163930312997 0 0.1181844865236701 -0.045884275653046647 0 0.1169603374125384 -0.034526050343312617 0 0.10497618281608501 -0.042163163930312997 0 0.10497618281608501 -0.042163163930312997 0 0.1139069069496291 -0.021464697665753471 0 0.1169603374125384 -0.034526050343312617 0 0.10497618281608501 -0.042163163930312997 0 0.1139069069496291 -0.021464697665753471 0 0.1181844865236701 -0.045884275653046647 0 0.1169603374125384 -0.034526050343312617 0 0.1283586559847627 -0.040725310836502493 0 0.095977453204919599 -0.050472192210401508 0 0.10497618281608501 -0.042163163930312997 0 0.1075747173440291 -0.023945113103821601 0 0.095977453204919599 -0.050472192210401508 0 0.093921030959280866 -0.033511072873054298 0 0.1075747173440291 -0.023945113103821601 0 0.095977453204919599 -0.050472192210401508 0 0.1075747173440291 -0.023945113103821601 0 0.10497618281608501 -0.042163163930312997 0 0.1075747173440291 -0.023945113103821601 0 0.1139069069496291 -0.021464697665753471 0 0.093921030959280866 -0.033511072873054298 0 0.096892307268332672 -0.02266252034611416 0 0.1075747173440291 -0.023945113103821601 0 0.093491186985964037 -0.01472799792969565 0 0.096892307268332672 -0.02266252034611416 0 0.10169828607787421 -0.015923098960230999 0 0.096892307268332672 -0.02266252034611416 0 0.10169828607787421 -0.015923098960230999 0 0.1075747173440291 -0.023945113103821601 0 0.10169828607787421 -0.015923098960230999 0 0.1075747173440291 -0.023945113103821601 0 0.1082483433893755 -0.0084409933366877514 0 0.1169603374125384 -0.034526050343312617 0 0.1213672368215104 -0.025634276355807499 0 0.12969235634276979 -0.031284000123743903 0 0.1169603374125384 -0.034526050343312617 0 0.1213672368215104 -0.025634276355807499 0 0.1139069069496291 -0.021464697665753471 0 0.1213672368215104 -0.025634276355807499 0 0.1139069069496291 -0.021464697665753471 0 0.12490934658110441 -0.01526235729042 0 0.11917198148314 0.002581966002757949 0 0.1075747173440291 -0.023945113103821601 0 0.1139069069496291 -0.021464697665753471 0 0.11917198148314 0.002581966002757949 0 0.1139069069496291 -0.021464697665753471 0 0.1228376310831711 -0.00076623140119310329 0 0.11917198148314 0.002581966002757949 0 0.1075747173440291 -0.023945113103821601 0 0.1082483433893755 -0.0084409933366877514 0 0.1139069069496291 -0.021464697665753471 0 0.12490934658110441 -0.01526235729042 0 0.1228376310831711 -0.00076623140119310329 0 0.1139069069496291 -0.021464697665753471 0 0.1228376310831711 -0.00076623140119310329 0 0.11917198148314 0.002581966002757949 0 0.1075747173440291 -0.023945113103821601 0 0.11917198148314 0.002581966002757949 0 0.1105415625726717 -0.0014271332550589229 0 0.1082483433893755 -0.0084409933366877514 0 0.1078625722471533 0.0022823866337398822 0 0.1105415625726717 -0.0014271332550589229 0 0.1039166904039584 -0.0028966343462391718 0 0.1039166904039584 -0.0028966343462391718 0 0.1082483433893755 -0.0084409933366877514 0 0.10154047648190589 -0.00941290969201335 0 0.1105415625726717 -0.0014271332550589229 0 0.1039166904039584 -0.0028966343462391718 0 0.1082483433893755 -0.0084409933366877514 0 0.10169828607787421 -0.015923098960230999 0 0.1082483433893755 -0.0084409933366877514 0 0.10154047648190589 -0.00941290969201335 0 0.093491186985964037 -0.01472799792969565 0 0.10154047648190589 -0.00941290969201335 0 0.09649789417263642 -0.0037639840011086311 0 0.093491186985964037 -0.01472799792969565 0 0.10169828607787421 -0.015923098960230999 0 0.10154047648190589 -0.00941290969201335 0 0.1039166904039584 -0.0028966343462391718 0 0.10154047648190589 -0.00941290969201335 0 0.09649789417263642 -0.0037639840011086311 0 0.088046088292129038 -0.10430519341125349 0 0.072782924926700548 -0.1035263504235614 0 0.088717560391344957 -0.092993146067331611 0 0.088046088292129038 -0.10430519341125349 0 0.080670658246847674 -0.112136361820053 0 0.072782924926700548 -0.1035263504235614 0 0.088046088292129038 -0.10430519341125349 0 0.088717560391344957 -0.092993146067331611 0 0.100171096126226 -0.096028489315426471 0 0.088046088292129038 -0.10430519341125349 0 0.089116900718008318 -0.11226838151764811 0 0.096817389343646892 -0.1088784313235004 0 0.088046088292129038 -0.10430519341125349 0 0.089116900718008318 -0.11226838151764811 0 0.080670658246847674 -0.112136361820053 0 0.089116900718008318 -0.11226838151764811 0 0.082844213492092533 -0.1195429602861619 0 0.095577299328253623 -0.1174095529111252 0 0.082362828069140165 -0.1319846138898183 0 0.082844213492092533 -0.1195429602861619 0 0.095577299328253623 -0.1174095529111252 0 0.082362828069140165 -0.1319846138898183 0 0.095577299328253623 -0.1174095529111252 0 0.082362828069140165 -0.1319846138898183 0 0.082844213492092533 -0.1195429602861619 0 0.069837722907261313 -0.1199532536492431 0 0.089116900718008318 -0.11226838151764811 0 0.082844213492092533 -0.1195429602861619 0 0.080670658246847674 -0.112136361820053 0 0.080670658246847674 -0.112136361820053 0 0.069837722907261313 -0.1199532536492431 0 0.072782924926700548 -0.1035263504235614 0 0.06118566078759103 -0.13005342953014129 0 0.072782924926700548 -0.1035263504235614 0 0.06118566078759103 -0.13005342953014129 0 0.069837722907261313 -0.1199532536492431 0 0.072782924926700548 -0.1035263504235614 0 0.06118566078759103 -0.13005342953014129 0 0.056223070490067702 -0.1049071233711502 0 0.072782924926700548 -0.1035263504235614 0 0.082844213492092533 -0.1195429602861619 0 0.080670658246847674 -0.112136361820053 0 0.069837722907261313 -0.1199532536492431 0 0.056223070490067702 -0.1049071233711502 0 0.072782924926700548 -0.1035263504235614 0 0.064045145718632748 -0.088800152685812248 0 0.057640786708643768 -0.07951032993234286 0 0.064045145718632748 -0.088800152685812248 0 0.068682665651441266 -0.069637891440837665 0 0.064045145718632748 -0.088800152685812248 0 0.068682665651441266 -0.069637891440837665 0 0.084380189065810102 -0.076999271316981366 0 0.072782924926700548 -0.1035263504235614 0 0.064045145718632748 -0.088800152685812248 0 0.084380189065810102 -0.076999271316981366 0 0.052580487019044733 -0.06457445167855122 0 0.068339170937992105 -0.053424337060716878 0 0.068682665651441266 -0.069637891440837665 0 0.079819511512682115 -0.059373961925762081 0 0.068682665651441266 -0.069637891440837665 0 0.084380189065810102 -0.076999271316981366 0 0.095977453204919599 -0.050472192210401508 0 0.084380189065810102 -0.076999271316981366 0 0.1003826539890946 -0.069656067773248523 0 0.095977453204919599 -0.050472192210401508 0 0.084380189065810102 -0.076999271316981366 0 0.084380189065810102 -0.076999271316981366 0 0.095693843046354268 -0.0841642264331387 0 0.1003826539890946 -0.069656067773248523 0 0.072782924926700548 -0.1035263504235614 0 0.084380189065810102 -0.076999271316981366 0 0.072782924926700548 -0.1035263504235614 0 0.084380189065810102 -0.076999271316981366 0 0.088717560391344957 -0.092993146067331611 0 0.084380189065810102 -0.076999271316981366 0 0.088717560391344957 -0.092993146067331611 0 0.095693843046354268 -0.0841642264331387 0 0.088717560391344957 -0.092993146067331611 0 0.095693843046354268 -0.0841642264331387 0 0.100171096126226 -0.096028489315426471 0 0.095693843046354268 -0.0841642264331387 0 0.1061825878765964 -0.082065358753895937 0 0.100171096126226 -0.096028489315426471 0 0.095693843046354268 -0.0841642264331387 0 0.1061825878765964 -0.082065358753895937 0 0.1003826539890946 -0.069656067773248523 0 0.1061825878765964 -0.082065358753895937 0 0.1152940355071756 -0.093458773729521216 0 0.100171096126226 -0.096028489315426471 0 0.1061825878765964 -0.082065358753895937 0 0.1003826539890946 -0.069656067773248523 0 0.11225492598618329 -0.067700646346746801 0 0.1084893608633546 -0.054995312108922077 0 0.1003826539890946 -0.069656067773248523 0 0.11225492598618329 -0.067700646346746801 0 0.1061825878765964 -0.082065358753895937 0 0.11225492598618329 -0.067700646346746801 0 0.1171317857577618 -0.078667044940758796 0 0.1171317857577618 -0.078667044940758796 0 0.12857779857738699 -0.078718698725873171 0 0.12708324658387871 -0.067240591211139955 0 0.11225492598618329 -0.067700646346746801 0 0.1171317857577618 -0.078667044940758796 0 0.12708324658387871 -0.067240591211139955 0 0.12021542192502691 -0.05736310542253667 0 0.11225492598618329 -0.067700646346746801 0 0.12708324658387871 -0.067240591211139955 0 0.1061825878765964 -0.082065358753895937 0 0.1152940355071756 -0.093458773729521216 0 0.1171317857577618 -0.078667044940758796 0 0.1171317857577618 -0.078667044940758796 0 0.1286838548293292 -0.09135300801218077 0 0.12857779857738699 -0.078718698725873171 0 0.1152940355071756 -0.093458773729521216 0 0.1171317857577618 -0.078667044940758796 0 0.1286838548293292 -0.09135300801218077 0 0.1152940355071756 -0.093458773729521216 0 0.1230450488982011 -0.098166020395255585 0 0.1286838548293292 -0.09135300801218077 0 0.1152940355071756 -0.093458773729521216 0 0.1230450488982011 -0.098166020395255585 0 0.1196469902177196 -0.1061558951397697 0 0.1230450488982011 -0.098166020395255585 0 0.1196469902177196 -0.1061558951397697 0 0.12917406780106669 -0.1036793655145172 0 0.1196469902177196 -0.1061558951397697 0 0.1094725419179296 -0.1044020385603272 0 0.1154331983948798 -0.1174886032934183 0 0.1152940355071756 -0.093458773729521216 0 0.1196469902177196 -0.1061558951397697 0 0.1094725419179296 -0.1044020385603272 0 0.1152940355071756 -0.093458773729521216 0 0.1094725419179296 -0.1044020385603272 0 0.100171096126226 -0.096028489315426471 0 0.1094725419179296 -0.1044020385603272 0 0.096817389343646892 -0.1088784313235004 0 0.100171096126226 -0.096028489315426471 0 0.088046088292129038 -0.10430519341125349 0 0.096817389343646892 -0.1088784313235004 0 0.100171096126226 -0.096028489315426471 0 0.096817389343646892 -0.1088784313235004 0 0.1051359327507693 -0.1227177542784853 0 0.1154331983948798 -0.1174886032934183 0 0.096817389343646892 -0.1088784313235004 0 0.1154331983948798 -0.1174886032934183 0 0.1005807427949069 -0.13366374688330029 0 0.095577299328253623 -0.1174095529111252 0 0.1051359327507693 -0.1227177542784853 0 0.1094725419179296 -0.1044020385603272 0 0.096817389343646892 -0.1088784313235004 0 0.1154331983948798 -0.1174886032934183 0 0.089116900718008318 -0.11226838151764811 0 0.096817389343646892 -0.1088784313235004 0 0.095577299328253623 -0.1174095529111252 0 0.096817389343646892 -0.1088784313235004 0 0.095577299328253623 -0.1174095529111252 0 0.1051359327507693 -0.1227177542784853 0 0.1154331983948798 -0.1174886032934183 0 0.13404900744611239 -0.12609877526333699 0 0.1196469902177196 -0.1061558951397697 0 0.1154331983948798 -0.1174886032934183 0 0.12686113813069899 -0.1114359576666621 0 0.1154331983948798 -0.1174886032934183 0 0.12686113813069899 -0.1114359576666621 0 0.13390982127973511 -0.11942472678041111 0 0.1154331983948798 -0.1174886032934183 0 0.13390982127973511 -0.11942472678041111 0 0.13404900744611239 -0.12609877526333699 0 0.12686113813069899 -0.1114359576666621 0 0.13614161296009411 -0.11043119760519431 0 0.13390982127973511 -0.11942472678041111 0 0.13614161296009411 -0.11043119760519431 0 0.14023431030656019 -0.11642081500581559 0 0.13390982127973511 -0.11942472678041111 0 0.13614161296009411 -0.11043119760519431 0 0.14023431030656019 -0.11642081500581559 0 0.14347338005148061 -0.1082488085161593 0 0.13773130733042549 -0.12113088311922759 0 0.1427320902892944 -0.12257921542734659 0 0.13404900744611239 -0.12609877526333699 0 0.13390982127973511 -0.11942472678041111 0 0.13773130733042549 -0.12113088311922759 0 0.13404900744611239 -0.12609877526333699 0 0.13390982127973511 -0.11942472678041111 0 0.13404900744611239 -0.12609877526333699 0 0.14023431030656019 -0.11642081500581559 0 0.13773130733042549 -0.12113088311922759 0 0.1427320902892944 -0.12257921542734659 0 0.14023431030656019 -0.11642081500581559 0 0.13390982127973511 -0.11942472678041111 0 0.13773130733042549 -0.12113088311922759 0 0.1427320902892944 -0.12257921542734659 0 0.15192118682329561 -0.12273271218809589 0 0.1490682445489844 -0.1279194233146575 0 0.1427320902892944 -0.12257921542734659 0 0.1474293378639818 -0.11515719203513899 0 0.15192118682329561 -0.12273271218809589 0 0.14023431030656019 -0.11642081500581559 0 0.1427320902892944 -0.12257921542734659 0 0.1474293378639818 -0.11515719203513899 0 0.1474293378639818 -0.11515719203513899 0 0.15201290161170181 -0.107226104105896 0 0.14347338005148061 -0.1082488085161593 0 0.14023431030656019 -0.11642081500581559 0 0.1474293378639818 -0.11515719203513899 0 0.14347338005148061 -0.1082488085161593 0 0.1474293378639818 -0.11515719203513899 0 0.15419764536576119 -0.1149677746217292 0 0.15201290161170181 -0.107226104105896 0 0.15419764536576119 -0.1149677746217292 0 0.15201290161170181 -0.107226104105896 0 0.1590985184781393 -0.1107939778183322 0 0.15419764536576119 -0.1149677746217292 0 0.15192118682329561 -0.12273271218809589 0 0.1605262820516872 -0.11892888696118289 0 0.1474293378639818 -0.11515719203513899 0 0.15419764536576119 -0.1149677746217292 0 0.15192118682329561 -0.12273271218809589 0 0.153855148049276 -0.097460838801678593 0 0.15201290161170181 -0.107226104105896 0 0.1462355681673109 -0.099255024001954253 0 0.153855148049276 -0.097460838801678593 0 0.1462355681673109 -0.099255024001954253 0 0.1490737095502995 -0.088653392770718792 0 0.153855148049276 -0.097460838801678593 0 0.15201290161170181 -0.107226104105896 0 0.16008969536972259 -0.10263897543636979 0 0.14347338005148061 -0.1082488085161593 0 0.1462355681673109 -0.099255024001954253 0 0.13800617896953651 -0.1013117005447786 0 0.15201290161170181 -0.107226104105896 0 0.14347338005148061 -0.1082488085161593 0 0.1462355681673109 -0.099255024001954253 0 0.1462355681673109 -0.099255024001954253 0 0.13800617896953651 -0.1013117005447786 0 0.14099209077157121 -0.092629299272494275 0 0.13800617896953651 -0.1013117005447786 0 0.1286838548293292 -0.09135300801218077 0 0.14099209077157121 -0.092629299272494275 0 0.13614161296009411 -0.11043119760519431 0 0.13800617896953651 -0.1013117005447786 0 0.12917406780106669 -0.1036793655145172 0 0.13614161296009411 -0.11043119760519431 0 0.14347338005148061 -0.1082488085161593 0 0.13800617896953651 -0.1013117005447786 0 0.1196469902177196 -0.1061558951397697 0 0.12686113813069899 -0.1114359576666621 0 0.12917406780106669 -0.1036793655145172 0 0.12686113813069899 -0.1114359576666621 0 0.13614161296009411 -0.11043119760519431 0 0.12917406780106669 -0.1036793655145172 0 0.1230450488982011 -0.098166020395255585 0 0.12917406780106669 -0.1036793655145172 0 0.1286838548293292 -0.09135300801218077 0 0.13800617896953651 -0.1013117005447786 0 0.12917406780106669 -0.1036793655145172 0 0.1286838548293292 -0.09135300801218077 0 0.1286838548293292 -0.09135300801218077 0 0.12857779857738699 -0.078718698725873171 0 0.13748132505412469 -0.08396770010957226 0 0.13748132505412469 -0.08396770010957226 0 0.1367334774756912 -0.073531819827653083 0 0.14538989296775451 -0.078880163337803719 0 0.12857779857738699 -0.078718698725873171 0 0.13748132505412469 -0.08396770010957226 0 0.1367334774756912 -0.073531819827653083 0 0.1286838548293292 -0.09135300801218077 0 0.13748132505412469 -0.08396770010957226 0 0.14099209077157121 -0.092629299272494275 0 0.12857779857738699 -0.078718698725873171 0 0.12708324658387871 -0.067240591211139955 0 0.1367334774756912 -0.073531819827653083 0 0.12708324658387871 -0.067240591211139955 0 0.1367334774756912 -0.073531819827653083 0 0.14110971147140131 -0.064913967020147179 0 0.1367334774756912 -0.073531819827653083 0 0.14110971147140131 -0.064913967020147179 0 0.14964674351361701 -0.070099729323911744 0 0.14110971147140131 -0.064913967020147179 0 0.14964674351361701 -0.070099729323911744 0 0.15194569281242609 -0.056105127932606663 0 0.1367334774756912 -0.073531819827653083 0 0.14964674351361701 -0.070099729323911744 0 0.14538989296775451 -0.078880163337803719 0 0.14964674351361701 -0.070099729323911744 0 0.14538989296775451 -0.078880163337803719 0 0.15822082836811369 -0.079982126599630443 0 0.14964674351361701 -0.070099729323911744 0 0.15822082836811369 -0.079982126599630443 0 0.1603896916223197 -0.069044426588861466 0 0.14964674351361701 -0.070099729323911744 0 0.1603896916223197 -0.069044426588861466 0 0.15194569281242609 -0.056105127932606663 0 0.13748132505412469 -0.08396770010957226 0 0.14099209077157121 -0.092629299272494275 0 0.1490737095502995 -0.088653392770718792 0 0.1462355681673109 -0.099255024001954253 0 0.14099209077157121 -0.092629299272494275 0 0.1490737095502995 -0.088653392770718792 0 0.13748132505412469 -0.08396770010957226 0 0.14538989296775451 -0.078880163337803719 0 0.1490737095502995 -0.088653392770718792 0 0.14538989296775451 -0.078880163337803719 0 0.1490737095502995 -0.088653392770718792 0 0.15822082836811369 -0.079982126599630443 0 0.153855148049276 -0.097460838801678593 0 0.1490737095502995 -0.088653392770718792 0 0.1594354292934542 -0.091737259282716963 0 0.1490737095502995 -0.088653392770718792 0 0.1594354292934542 -0.091737259282716963 0 0.15822082836811369 -0.079982126599630443 0 0.1594354292934542 -0.091737259282716963 0 0.15822082836811369 -0.079982126599630443 0 0.1684140015429216 -0.087293140772549349 0 0.15822082836811369 -0.079982126599630443 0 0.1684140015429216 -0.087293140772549349 0 0.1694423915093585 -0.075846288749261012 0 0.1684140015429216 -0.087293140772549349 0 0.1776016981043757 -0.094466756631608209 0 0.16825903644140999 -0.098606158866582916 0 0.1594354292934542 -0.091737259282716963 0 0.1684140015429216 -0.087293140772549349 0 0.16825903644140999 -0.098606158866582916 0 0.15822082836811369 -0.079982126599630443 0 0.1603896916223197 -0.069044426588861466 0 0.1694423915093585 -0.075846288749261012 0 0.1603896916223197 -0.069044426588861466 0 0.1694423915093585 -0.075846288749261012 0 0.17187576892014289 -0.062138750134232333 0 0.17971720707086189 -0.073145871694163048 0 0.17187576892014289 -0.062138750134232333 0 0.19180584502786041 -0.068172372335855602 0 0.17187576892014289 -0.062138750134232333 0 0.19180584502786041 -0.068172372335855602 0 0.1694423915093585 -0.075846288749261012 0 0.17971720707086189 -0.073145871694163048 0 0.17187576892014289 -0.062138750134232333 0 0.1694423915093585 -0.075846288749261012 0 0.17971720707086189 -0.073145871694163048 0 0.17803685153179119 -0.083473416706129469 0 0.17971720707086189 -0.073145871694163048 0 0.18645595400882431 -0.078186102724248294 0 0.19180584502786041 -0.068172372335855602 0 0.1684140015429216 -0.087293140772549349 0 0.17803685153179119 -0.083473416706129469 0 0.1776016981043757 -0.094466756631608209 0 0.1684140015429216 -0.087293140772549349 0 0.1694423915093585 -0.075846288749261012 0 0.17803685153179119 -0.083473416706129469 0 0.17803685153179119 -0.083473416706129469 0 0.18645595400882431 -0.078186102724248294 0 0.18748362772352481 -0.090285751384613616 0 0.17971720707086189 -0.073145871694163048 0 0.17803685153179119 -0.083473416706129469 0 0.18645595400882431 -0.078186102724248294 0 0.17803685153179119 -0.083473416706129469 0 0.18748362772352481 -0.090285751384613616 0 0.1776016981043757 -0.094466756631608209 0 0.1776016981043757 -0.094466756631608209 0 0.1757785255420414 -0.1036637588673371 0 0.18737718651252391 -0.1018645954104864 0 0.18748362772352481 -0.090285751384613616 0 0.1776016981043757 -0.094466756631608209 0 0.18737718651252391 -0.1018645954104864 0 0.1776016981043757 -0.094466756631608209 0 0.1757785255420414 -0.1036637588673371 0 0.16825903644140999 -0.098606158866582916 0 0.1757785255420414 -0.1036637588673371 0 0.17797479248166551 -0.1125427820454727 0 0.16787713834435419 -0.11000951374301229 0 0.1757785255420414 -0.1036637588673371 0 0.18737718651252391 -0.1018645954104864 0 0.17797479248166551 -0.1125427820454727 0 0.18737718651252391 -0.1018645954104864 0 0.18701697985041221 -0.11880972375357141 0 0.17797479248166551 -0.1125427820454727 0 0.18701697985041221 -0.11880972375357141 0 0.173543926957343 -0.1211375462363173 0 0.17990838590865871 -0.12844737664361131 0 0.18701697985041221 -0.11880972375357141 0 0.173543926957343 -0.1211375462363173 0 0.17797479248166551 -0.1125427820454727 0 0.173543926957343 -0.1211375462363173 0 0.17797479248166551 -0.1125427820454727 0 0.16787713834435419 -0.11000951374301229 0 0.173543926957343 -0.1211375462363173 0 0.16787713834435419 -0.11000951374301229 0 0.1605262820516872 -0.11892888696118289 0 0.173543926957343 -0.1211375462363173 0 0.1605262820516872 -0.11892888696118289 0 0.1641162962428066 -0.126449221113482 0 0.15192118682329561 -0.12273271218809589 0 0.1605262820516872 -0.11892888696118289 0 0.1587247560068413 -0.12564209046719049 0 0.1605262820516872 -0.11892888696118289 0 0.1587247560068413 -0.12564209046719049 0 0.1641162962428066 -0.126449221113482 0 0.15419764536576119 -0.1149677746217292 0 0.1605262820516872 -0.11892888696118289 0 0.1590985184781393 -0.1107939778183322 0 0.16787713834435419 -0.11000951374301229 0 0.1605262820516872 -0.11892888696118289 0 0.1590985184781393 -0.1107939778183322 0 0.15201290161170181 -0.107226104105896 0 0.1590985184781393 -0.1107939778183322 0 0.16008969536972259 -0.10263897543636979 0 0.16787713834435419 -0.11000951374301229 0 0.1590985184781393 -0.1107939778183322 0 0.16008969536972259 -0.10263897543636979 0 0.1594354292934542 -0.091737259282716963 0 0.16008969536972259 -0.10263897543636979 0 0.16825903644140999 -0.098606158866582916 0 0.153855148049276 -0.097460838801678593 0 0.1594354292934542 -0.091737259282716963 0 0.16008969536972259 -0.10263897543636979 0 0.1757785255420414 -0.1036637588673371 0 0.16787713834435419 -0.11000951374301229 0 0.16825903644140999 -0.098606158866582916 0 0.16787713834435419 -0.11000951374301229 0 0.16008969536972259 -0.10263897543636979 0 0.16825903644140999 -0.098606158866582916 0 0.1552076984021574 -0.0047487866015848753 0 0.1380919344669613 -0.01469948322874493 0 0.1606476670511833 -0.017066892083396779 0 0.14127976741107601 0.00215554095495248 0 0.1552076984021574 -0.0047487866015848753 0 0.1380919344669613 -0.01469948322874493 0 0.14127976741107601 0.00215554095495248 0 0.1228376310831711 -0.00076623140119310329 0 0.1380919344669613 -0.01469948322874493 0 0.1228376310831711 -0.00076623140119310329 0 0.1380919344669613 -0.01469948322874493 0 0.12490934658110441 -0.01526235729042 0 0.1228376310831711 -0.00076623140119310329 0 0.1380919344669613 -0.01469948322874493 0 0.1380919344669613 -0.01469948322874493 0 0.1415761600091012 -0.038003691908970592 0 0.12969235634276979 -0.031284000123743903 0 0.1213672368215104 -0.025634276355807499 0 0.12490934658110441 -0.01526235729042 0 0.12969235634276979 -0.031284000123743903 0 0.12490934658110441 -0.01526235729042 0 0.1380919344669613 -0.01469948322874493 0 0.12969235634276979 -0.031284000123743903 0 0.1380919344669613 -0.01469948322874493 0 0.15334623785075199 -0.02863273505629621 0 0.1415761600091012 -0.038003691908970592 0 0.1380919344669613 -0.01469948322874493 0 0.15334623785075199 -0.02863273505629621 0 0.1606476670511833 -0.017066892083396779 0 0.1380919344669613 -0.01469948322874493 0 0.15334623785075199 -0.02863273505629621 0 0.15437572795414581 -0.042117567211766717 0 0.1415761600091012 -0.038003691908970592 0 0.15194569281242609 -0.056105127932606663 0 0.15334623785075199 -0.02863273505629621 0 0.15437572795414581 -0.042117567211766717 0 0.1415761600091012 -0.038003691908970592 0 0.1181844865236701 -0.045884275653046647 0 0.1283586559847627 -0.040725310836502493 0 0.1350650896680477 -0.050994701792827862 0 0.1415761600091012 -0.038003691908970592 0 0.12969235634276979 -0.031284000123743903 0 0.1283586559847627 -0.040725310836502493 0 0.1169603374125384 -0.034526050343312617 0 0.12969235634276979 -0.031284000123743903 0 0.1283586559847627 -0.040725310836502493 0 0.1415761600091012 -0.038003691908970592 0 0.1283586559847627 -0.040725310836502493 0 0.1350650896680477 -0.050994701792827862 0 0.1181844865236701 -0.045884275653046647 0 0.1350650896680477 -0.050994701792827862 0 0.12021542192502691 -0.05736310542253667 0 0.12708324658387871 -0.067240591211139955 0 0.1350650896680477 -0.050994701792827862 0 0.12708324658387871 -0.067240591211139955 0 0.14110971147140131 -0.064913967020147179 0 0.1350650896680477 -0.050994701792827862 0 0.14110971147140131 -0.064913967020147179 0 0.15194569281242609 -0.056105127932606663 0 0.1415761600091012 -0.038003691908970592 0 0.1350650896680477 -0.050994701792827862 0 0.15194569281242609 -0.056105127932606663 0 0.1350650896680477 -0.050994701792827862 0 0.15194569281242609 -0.056105127932606663 0 0.14110971147140131 -0.064913967020147179 0 0.1350650896680477 -0.050994701792827862 0 0.15194569281242609 -0.056105127932606663 0 0.15194569281242609 -0.056105127932606663 0 0.16860054123454279 -0.042565986883847551 0 0.15437572795414581 -0.042117567211766717 0 0.15194569281242609 -0.056105127932606663 0 0.16860054123454279 -0.042565986883847551 0 0.1603896916223197 -0.069044426588861466 0 0.15194569281242609 -0.056105127932606663 0 0.17187576892014289 -0.062138750134232333 0 0.15194569281242609 -0.056105127932606663 0 0.165016394264413 -0.053661354003145263 0 0.17187576892014289 -0.062138750134232333 0 0.15194569281242609 -0.056105127932606663 0 0.165016394264413 -0.053661354003145263 0 0.16860054123454279 -0.042565986883847551 0 0.15194569281242609 -0.056105127932606663 0 0.17187576892014289 -0.062138750134232333 0 0.165016394264413 -0.053661354003145263 0 0.17187576892014289 -0.062138750134232333 0 0.18345715790010181 -0.056135992415964377 0 0.165016394264413 -0.053661354003145263 0 0.18345715790010181 -0.056135992415964377 0 0.16860054123454279 -0.042565986883847551 0 0.17187576892014289 -0.062138750134232333 0 0.18345715790010181 -0.056135992415964377 0 0.19180584502786041 -0.068172372335855602 0 0.18345715790010181 -0.056135992415964377 0 0.17385144243116649 -0.043269821226828903 0 0.18595588634396351 -0.043176695624854357 0 0.18345715790010181 -0.056135992415964377 0 0.17385144243116649 -0.043269821226828903 0 0.16860054123454279 -0.042565986883847551 0 0.18345715790010181 -0.056135992415964377 0 0.16860054123454279 -0.042565986883847551 0 0.18595588634396351 -0.043176695624854357 0 0.1782733089797521 -0.034702753096601993 0 0.1941468740000297 -0.021798736782002521 0 0.17385144243116649 -0.043269821226828903 0 0.18595588634396351 -0.043176695624854357 0 0.1782733089797521 -0.034702753096601993 0 0.17385144243116649 -0.043269821226828903 0 0.1782733089797521 -0.034702753096601993 0 0.16860054123454279 -0.042565986883847551 0 0.1782733089797521 -0.034702753096601993 0 0.16860054123454279 -0.042565986883847551 0 0.17385144243116649 -0.043269821226828903 0 0.1782733089797521 -0.034702753096601993 0 0.1782733089797521 -0.034702753096601993 0 0.16860054123454279 -0.042565986883847551 0 0.1670526359884773 -0.02836254214418232 0 0.15334623785075199 -0.02863273505629621 0 0.16860054123454279 -0.042565986883847551 0 0.1670526359884773 -0.02836254214418232 0 0.15334623785075199 -0.02863273505629621 0 0.15437572795414581 -0.042117567211766717 0 0.16860054123454279 -0.042565986883847551 0 0.15334623785075199 -0.02863273505629621 0 0.16860054123454279 -0.042565986883847551 0 0.15334623785075199 -0.02863273505629621 0 0.1606476670511833 -0.017066892083396779 0 0.1670526359884773 -0.02836254214418232 0 0.1606476670511833 -0.017066892083396779 0 0.1670526359884773 -0.02836254214418232 0 0.1743954248261565 -0.018844343600769399 0 0.1782733089797521 -0.034702753096601993 0 0.1743954248261565 -0.018844343600769399 0 0.1918659379284415 -0.0083679514935210662 0 0.1782733089797521 -0.034702753096601993 0 0.1670526359884773 -0.02836254214418232 0 0.1743954248261565 -0.018844343600769399 0 0.1782733089797521 -0.034702753096601993 0 0.1918659379284415 -0.0083679514935210662 0 0.1782733089797521 -0.034702753096601993 0 0.1941468740000297 -0.021798736782002521 0 0.1743954248261565 -0.018844343600769399 0 0.17983697574181159 -0.0080573062328258595 0 0.1918659379284415 -0.0083679514935210662 0 0.1743954248261565 -0.018844343600769399 0 0.17983697574181159 -0.0080573062328258595 0 0.17056947168728639 -0.0076341498549102596 0 0.17983697574181159 -0.0080573062328258595 0 0.18580903226614379 -0.0011502469314075439 0 0.17786282304025339 -0.001583287003114023 0 0.17983697574181159 -0.0080573062328258595 0 0.18580903226614379 -0.0011502469314075439 0 0.1918659379284415 -0.0083679514935210662 0 0.17983697574181159 -0.0080573062328258595 0 0.17786282304025339 -0.001583287003114023 0 0.17056947168728639 -0.0076341498549102596 0 0.17227434920368959 0.00081991249798677823 0 0.17786282304025339 -0.001583287003114023 0 0.17056947168728639 -0.0076341498549102596 0 0.17227434920368959 0.00081991249798677823 0 0.16550177429739321 0.001625335581948511 0 0.17056947168728639 -0.0076341498549102596 0 0.1606476670511833 -0.017066892083396779 0 0.1743954248261565 -0.018844343600769399 0 0.17056947168728639 -0.0076341498549102596 0 0.1552076984021574 -0.0047487866015848753 0 0.1606476670511833 -0.017066892083396779 0 0.17056947168728639 -0.0076341498549102596 0 0.15830422717032419 0.0026668804518291322 0 0.16550177429739321 0.001625335581948511 0 0.1552076984021574 -0.0047487866015848753 0 0.16550177429739321 0.001625335581948511 0 0.1552076984021574 -0.0047487866015848753 0 0.17056947168728639 -0.0076341498549102596 0 0.21653748859829491 -0.0035968485671754561 0 0.20239897911060981 -0.0049616950454924097 0 0.1941468740000297 -0.021798736782002521 0 0.21653748859829491 -0.0035968485671754561 0 0.1941468740000297 -0.021798736782002521 0 0.20955206102217341 -0.019021580532265901 0 0.21653748859829491 -0.0035968485671754561 0 0.20955206102217341 -0.019021580532265901 0 0.22864161374710179 -0.024239001361894639 0 0.21653748859829491 -0.0035968485671754561 0 0.1941468740000297 -0.021798736782002521 0 0.20938161325362409 0.0025060029461209908 0 0.21653748859829491 -0.0035968485671754561 0 0.20239897911060981 -0.0049616950454924097 0 0.19981118715584381 0.0070254328827108366 0 0.20239897911060981 -0.0049616950454924097 0 0.1918659379284415 -0.0083679514935210662 0 0.19981118715584381 0.0070254328827108366 0 0.1918659379284415 -0.0083679514935210662 0 0.20239897911060981 -0.0049616950454924097 0 0.1918659379284415 -0.0083679514935210662 0 0.1941468740000297 -0.021798736782002521 0 0.1894192936343001 0.0060385698470956234 0 0.18580903226614379 -0.0011502469314075439 0 0.1918659379284415 -0.0083679514935210662 0 0.1894192936343001 0.0060385698470956234 0 0.1918659379284415 -0.0083679514935210662 0 0.1918659379284415 -0.0083679514935210662 0 0.1941468740000297 -0.021798736782002521 0 0.1782733089797521 -0.034702753096601993 0 0.1918659379284415 -0.0083679514935210662 0 0.1941468740000297 -0.021798736782002521 0 0.1941468740000297 -0.021798736782002521 0 0.2031559883210855 -0.029985938475911671 0 0.20955206102217341 -0.019021580532265901 0 0.20955206102217341 -0.019021580532265901 0 0.21066165658577479 -0.033085676709690801 0 0.22864161374710179 -0.024239001361894639 0 0.2031559883210855 -0.029985938475911671 0 0.20955206102217341 -0.019021580532265901 0 0.21066165658577479 -0.033085676709690801 0 0.21864271396698939 -0.038649087319523719 0 0.21066165658577479 -0.033085676709690801 0 0.21034122995680221 -0.050048420551560682 0 0.21066165658577479 -0.033085676709690801 0 0.1982633616763636 -0.046037759879686967 0 0.21034122995680221 -0.050048420551560682 0 0.2031559883210855 -0.029985938475911671 0 0.21066165658577479 -0.033085676709690801 0 0.1982633616763636 -0.046037759879686967 0 0.21864271396698939 -0.038649087319523719 0 0.21034122995680221 -0.050048420551560682 0 0.21819242210762169 -0.050823402618315167 0 0.1941468740000297 -0.021798736782002521 0 0.2031559883210855 -0.029985938475911671 0 0.1982633616763636 -0.046037759879686967 0 0.18595588634396351 -0.043176695624854357 0 0.1941468740000297 -0.021798736782002521 0 0.1982633616763636 -0.046037759879686967 0 0.1941468740000297 -0.021798736782002521 0 0.1982633616763636 -0.046037759879686967 0 0.1982633616763636 -0.046037759879686967 0 0.19180584502786041 -0.068172372335855602 0 0.20237984935269879 -0.070276782977371152 0 0.1982633616763636 -0.046037759879686967 0 0.20237984935269879 -0.070276782977371152 0 0.18345715790010181 -0.056135992415964377 0 0.1982633616763636 -0.046037759879686967 0 0.19180584502786041 -0.068172372335855602 0 0.18345715790010181 -0.056135992415964377 0 0.18595588634396351 -0.043176695624854357 0 0.1982633616763636 -0.046037759879686967 0 0.21034122995680221 -0.050048420551560682 0 0.21390737605136481 -0.061417813804776289 0 0.20237984935269879 -0.070276782977371152 0 0.1982633616763636 -0.046037759879686967 0 0.21034122995680221 -0.050048420551560682 0 0.20237984935269879 -0.070276782977371152 0 0.21034122995680221 -0.050048420551560682 0 0.21819242210762169 -0.050823402618315167 0 0.21390737605136481 -0.061417813804776289 0 0.2255736282180465 -0.056882305063223393 0 0.23627526009844421 -0.049694667024589079 0 0.23165324526163639 -0.065502610206523884 0 0.21390737605136481 -0.061417813804776289 0 0.2255736282180465 -0.056882305063223393 0 0.2221192681341374 -0.068345353637844553 0 0.21819242210762169 -0.050823402618315167 0 0.21390737605136481 -0.061417813804776289 0 0.2255736282180465 -0.056882305063223393 0 0.21819242210762169 -0.050823402618315167 0 0.2255736282180465 -0.056882305063223393 0 0.22546512762764079 -0.044057692677509197 0 0.2255736282180465 -0.056882305063223393 0 0.23627526009844421 -0.049694667024589079 0 0.22546512762764079 -0.044057692677509197 0 0.24617004458672351 -0.058202332164817121 0 0.23627526009844421 -0.049694667024589079 0 0.24390890644978661 -0.075150332687283522 0 0.23627526009844421 -0.049694667024589079 0 0.24390890644978661 -0.075150332687283522 0 0.25164978009717781 -0.053061021673298493 0 0.24617004458672351 -0.058202332164817121 0 0.24422464309495209 -0.046986837608536558 0 0.24617004458672351 -0.058202332164817121 0 0.24422464309495209 -0.046986837608536558 0 0.23627526009844421 -0.049694667024589079 0 0.25164978009717781 -0.053061021673298493 0 0.2539732262079259 -0.044675773385505282 0 0.24422464309495209 -0.046986837608536558 0 0.24422464309495209 -0.046986837608536558 0 0.23627526009844421 -0.049694667024589079 0 0.24524507923365879 -0.0330622213940093 0 0.25845033672230949 -0.02738613623275089 0 0.24422464309495209 -0.046986837608536558 0 0.24524507923365879 -0.0330622213940093 0 0.23627526009844421 -0.049694667024589079 0 0.24524507923365879 -0.0330622213940093 0 0.22864161374710179 -0.024239001361894639 0 0.21864271396698939 -0.038649087319523719 0 0.21066165658577479 -0.033085676709690801 0 0.22864161374710179 -0.024239001361894639 0 0.23627526009844421 -0.049694667024589079 0 0.22864161374710179 -0.024239001361894639 0 0.21864271396698939 -0.038649087319523719 0 0.22546512762764079 -0.044057692677509197 0 0.22864161374710179 -0.024239001361894639 0 0.23627526009844421 -0.049694667024589079 0 0.22546512762764079 -0.044057692677509197 0 0.22864161374710179 -0.024239001361894639 0 0.21864271396698939 -0.038649087319523719 0 0.21819242210762169 -0.050823402618315167 0 0.22546512762764079 -0.044057692677509197 0 0.22864161374710179 -0.024239001361894639 0 0.24437070500465241 -0.019757014484825589 0 0.23246643938152739 -0.0092251246746631842 0 0.24524507923365879 -0.0330622213940093 0 0.22864161374710179 -0.024239001361894639 0 0.24437070500465241 -0.019757014484825589 0 0.25013504981522988 -0.025019616072594848 0 0.24524507923365879 -0.0330622213940093 0 0.24437070500465241 -0.019757014484825589 0 0.25247407830029878 -0.019873092178793648 0 0.25006914023697918 -0.01208141302270524 0 0.24437070500465241 -0.019757014484825589 0 0.25013504981522988 -0.025019616072594848 0 0.25247407830029878 -0.019873092178793648 0 0.24437070500465241 -0.019757014484825589 0 0.24437070500465241 -0.019757014484825589 0 0.242989310538931 -0.0092135161021761666 0 0.23246643938152739 -0.0092251246746631842 0 0.25006914023697918 -0.01208141302270524 0 0.242989310538931 -0.0092135161021761666 0 0.2479891295484222 -0.0022684572774312019 0 0.25006914023697918 -0.01208141302270524 0 0.24437070500465241 -0.019757014484825589 0 0.242989310538931 -0.0092135161021761666 0 0.2429424487767215 0.0026164120279975069 0 0.2479891295484222 -0.0022684572774312019 0 0.24005113852307369 -0.0027355710512556022 0 0.242989310538931 -0.0092135161021761666 0 0.2479891295484222 -0.0022684572774312019 0 0.24005113852307369 -0.0027355710512556022 0 0.23517440673197429 0.0051848507458196356 0 0.24005113852307369 -0.0027355710512556022 0 0.23246643938152739 -0.0092251246746631842 0 0.242989310538931 -0.0092135161021761666 0 0.24005113852307369 -0.0027355710512556022 0 0.23246643938152739 -0.0092251246746631842 0 0.22100796739575951 0.001216664300799794 0 0.22864161374710179 -0.024239001361894639 0 0.23246643938152739 -0.0092251246746631842 0 0.23517440673197429 0.0051848507458196356 0 0.22100796739575951 0.001216664300799794 0 0.23246643938152739 -0.0092251246746631842 0 0.22100796739575951 0.001216664300799794 0 0.21653748859829491 -0.0035968485671754561 0 0.22864161374710179 -0.024239001361894639 0 0.22100796739575951 0.001216664300799794 0 0.22864161374710179 -0.024239001361894639 0 0.206496337029034 -0.094515806075055359 0 0.21061282470536921 -0.1187548291727395 0 0.206496337029034 -0.094515806075055359 0 0.22623965631488491 -0.089683688039789988 0 0.22333782165884589 -0.10574313483481231 0 0.206496337029034 -0.094515806075055359 0 0.21061282470536921 -0.1187548291727395 0 0.22333782165884589 -0.10574313483481231 0 0.18737718651252391 -0.1018645954104864 0 0.18701697985041221 -0.11880972375357141 0 0.21061282470536921 -0.1187548291727395 0 0.18701697985041221 -0.11880972375357141 0 0.21061282470536921 -0.1187548291727395 0 0.19260125287660149 -0.13207131947283501 0 0.18748362772352481 -0.090285751384613616 0 0.18737718651252391 -0.1018645954104864 0 0.206496337029034 -0.094515806075055359 0 0.18737718651252391 -0.1018645954104864 0 0.206496337029034 -0.094515806075055359 0 0.21061282470536921 -0.1187548291727395 0 0.18748362772352481 -0.090285751384613616 0 0.206496337029034 -0.094515806075055359 0 0.19448955746265811 -0.082220240722777116 0 0.206496337029034 -0.094515806075055359 0 0.19448955746265811 -0.082220240722777116 0 0.20237984935269879 -0.070276782977371152 0 0.18645595400882431 -0.078186102724248294 0 0.18748362772352481 -0.090285751384613616 0 0.19448955746265811 -0.082220240722777116 0 0.18645595400882431 -0.078186102724248294 0 0.19448955746265811 -0.082220240722777116 0 0.19180584502786041 -0.068172372335855602 0 0.19448955746265811 -0.082220240722777116 0 0.19180584502786041 -0.068172372335855602 0 0.20237984935269879 -0.070276782977371152 0 0.21390737605136481 -0.061417813804776289 0 0.20237984935269879 -0.070276782977371152 0 0.21248527081093549 -0.070330245212121473 0 0.20237984935269879 -0.070276782977371152 0 0.21248527081093549 -0.070330245212121473 0 0.2145783618208984 -0.079628257083024359 0 0.21248527081093549 -0.070330245212121473 0 0.2145783618208984 -0.079628257083024359 0 0.2221192681341374 -0.068345353637844553 0 0.21390737605136481 -0.061417813804776289 0 0.21248527081093549 -0.070330245212121473 0 0.2221192681341374 -0.068345353637844553 0 0.206496337029034 -0.094515806075055359 0 0.20237984935269879 -0.070276782977371152 0 0.2145783618208984 -0.079628257083024359 0 0.206496337029034 -0.094515806075055359 0 0.2145783618208984 -0.079628257083024359 0 0.22623965631488491 -0.089683688039789988 0 0.206496337029034 -0.094515806075055359 0 0.20237984935269879 -0.070276782977371152 0 0.2145783618208984 -0.079628257083024359 0 0.22623965631488491 -0.089683688039789988 0 0.23038916340776741 -0.077440392619678861 0 0.22623965631488491 -0.089683688039789988 0 0.23038916340776741 -0.077440392619678861 0 0.23781669784438761 -0.088769324738514177 0 0.22623965631488491 -0.089683688039789988 0 0.23781669784438761 -0.088769324738514177 0 0.23714180950183539 -0.10160942858925499 0 0.2145783618208984 -0.079628257083024359 0 0.2221192681341374 -0.068345353637844553 0 0.23038916340776741 -0.077440392619678861 0 0.2255736282180465 -0.056882305063223393 0 0.2221192681341374 -0.068345353637844553 0 0.23165324526163639 -0.065502610206523884 0 0.2221192681341374 -0.068345353637844553 0 0.23038916340776741 -0.077440392619678861 0 0.23165324526163639 -0.065502610206523884 0 0.25256726729664603 -0.064532785491330763 0 0.24617004458672351 -0.058202332164817121 0 0.24390890644978661 -0.075150332687283522 0 0.23627526009844421 -0.049694667024589079 0 0.23165324526163639 -0.065502610206523884 0 0.24390890644978661 -0.075150332687283522 0 0.23038916340776741 -0.077440392619678861 0 0.23165324526163639 -0.065502610206523884 0 0.24390890644978661 -0.075150332687283522 0 0.25154255280112903 -0.1006059983499779 0 0.24390890644978661 -0.075150332687283522 0 0.25154255280112903 -0.1006059983499779 0 0.24390890644978661 -0.075150332687283522 0 0.23781669784438761 -0.088769324738514177 0 0.23038916340776741 -0.077440392619678861 0 0.24390890644978661 -0.075150332687283522 0 0.23781669784438761 -0.088769324738514177 0 0.25154255280112903 -0.1006059983499779 0 0.23714180950183539 -0.10160942858925499 0 0.24954668948061209 -0.11284283178631641 0 0.25154255280112903 -0.1006059983499779 0 0.23781669784438761 -0.088769324738514177 0 0.23714180950183539 -0.10160942858925499 0 0.23714180950183539 -0.10160942858925499 0 0.22333782165884589 -0.10574313483481231 0 0.23542538064511609 -0.1194854446592761 0 0.22623965631488491 -0.089683688039789988 0 0.23714180950183539 -0.10160942858925499 0 0.22333782165884589 -0.10574313483481231 0 0.21061282470536921 -0.1187548291727395 0 0.22333782165884589 -0.10574313483481231 0 0.23542538064511609 -0.1194854446592761 0 0.25741251913389712 -0.1305951081492244 0 0.23542538064511609 -0.1194854446592761 0 0.24954668948061209 -0.11284283178631641 0 0.23714180950183539 -0.10160942858925499 0 0.23542538064511609 -0.1194854446592761 0 0.24954668948061209 -0.11284283178631641 0 0.25741251913389712 -0.1305951081492244 0 0.25452239946831973 -0.14829655140993131 0 0.23191914561449989 -0.13726295483178369 0 0.25741251913389712 -0.1305951081492244 0 0.23542538064511609 -0.1194854446592761 0 0.23191914561449989 -0.13726295483178369 0 0.25452239946831973 -0.14829655140993131 0 0.23782434991563151 -0.15439369078169049 0 0.23191914561449989 -0.13726295483178369 0 0.23782434991563151 -0.15439369078169049 0 0.2147293123817042 -0.1429938522704238 0 0.23782434991563151 -0.15439369078169049 0 0.2147293123817042 -0.1429938522704238 0 0.21952864142792899 -0.1712536350637954 0 0.23782434991563151 -0.15439369078169049 0 0.23191914561449989 -0.13726295483178369 0 0.2147293123817042 -0.1429938522704238 0 0.21061282470536921 -0.1187548291727395 0 0.23542538064511609 -0.1194854446592761 0 0.23191914561449989 -0.13726295483178369 0 0.21061282470536921 -0.1187548291727395 0 0.23191914561449989 -0.13726295483178369 0 0.2147293123817042 -0.1429938522704238 0 0.2147293123817042 -0.1429938522704238 0 0.19260125287660149 -0.13207131947283501 0 0.21061282470536921 -0.1187548291727395 0 0.2147293123817042 -0.1429938522704238 0 0.19260125287660149 -0.13207131947283501 0 0.21061282470536921 -0.1187548291727395 0 0.2147293123817042 -0.1429938522704238 0 0.2147293123817042 -0.1429938522704238 0 0.20548350855114439 -0.15623176612928341 0 0.19677556980284089 -0.14597147697610061 0 0.20548350855114439 -0.15623176612928341 0 0.19677556980284089 -0.14597147697610061 0 0.19325106823209409 -0.153061144976989 0 0.19677556980284089 -0.14597147697610061 0 0.19325106823209409 -0.153061144976989 0 0.18786488322971459 -0.15098965934649999 0 0.19325106823209409 -0.153061144976989 0 0.18786488322971459 -0.15098965934649999 0 0.1842505296355367 -0.15589311325690541 0 0.19677556980284089 -0.14597147697610061 0 0.18786488322971459 -0.15098965934649999 0 0.188659048266132 -0.1418371739210742 0 0.2147293123817042 -0.1429938522704238 0 0.19677556980284089 -0.14597147697610061 0 0.19260125287660149 -0.13207131947283501 0 0.19677556980284089 -0.14597147697610061 0 0.188659048266132 -0.1418371739210742 0 0.19260125287660149 -0.13207131947283501 0 0.18830323417204939 -0.1765657128700695 0 0.20313295091115369 -0.1678787213591082 0 0.20600005448239761 -0.18645800734220749 0 0.18830323417204939 -0.1765657128700695 0 0.20600005448239761 -0.18645800734220749 0 0.1956377870383576 -0.1970896374814364 0 0.19325106823209409 -0.153061144976989 0 0.18830323417204939 -0.1765657128700695 0 0.19325106823209409 -0.153061144976989 0 0.18830323417204939 -0.1765657128700695 0 0.20313295091115369 -0.1678787213591082 0 0.19325106823209409 -0.153061144976989 0 0.18830323417204939 -0.1765657128700695 0 0.18144082188941271 -0.16389154531309821 0 0.20548350855114439 -0.15623176612928341 0 0.19325106823209409 -0.153061144976989 0 0.20313295091115369 -0.1678787213591082 0 0.20548350855114439 -0.15623176612928341 0 0.20313295091115369 -0.1678787213591082 0 0.21952864142792899 -0.1712536350637954 0 0.2147293123817042 -0.1429938522704238 0 0.21952864142792899 -0.1712536350637954 0 0.2147293123817042 -0.1429938522704238 0 0.20548350855114439 -0.15623176612928341 0 0.21952864142792899 -0.1712536350637954 0 0.20600005448239761 -0.18645800734220749 0 0.21952864142792899 -0.1712536350637954 0 0.22432797047415351 -0.19951341785716731 0 0.20313295091115369 -0.1678787213591082 0 0.20600005448239761 -0.18645800734220749 0 0.21952864142792899 -0.1712536350637954 0 0.21952864142792899 -0.1712536350637954 0 0.2437278363918948 -0.18195096812212239 0 0.22432797047415351 -0.19951341785716731 0 0.21952864142792899 -0.1712536350637954 0 0.22432797047415351 -0.19951341785716731 0 0.23782434991563151 -0.15439369078169049 0 0.21952864142792899 -0.1712536350637954 0 0.2437278363918948 -0.18195096812212239 0 0.260919387449559 -0.16579352929295721 0 0.23782434991563151 -0.15439369078169049 0 0.260919387449559 -0.16579352929295721 0 0.23782434991563151 -0.15439369078169049 0 0.2437278363918948 -0.18195096812212239 0 0.2437278363918948 -0.18195096812212239 0 0.24314545538918961 -0.20571013864437751 0 0.22432797047415351 -0.19951341785716731 0 0.2593871514889205 -0.19799184377322379 0 0.2437278363918948 -0.18195096812212239 0 0.24314545538918961 -0.20571013864437751 0 0.22432797047415351 -0.19951341785716731 0 0.2342802842193491 -0.2219117808856606 0 0.21564630723174069 -0.21833189921059021 0 0.24314545538918961 -0.20571013864437751 0 0.22432797047415351 -0.19951341785716731 0 0.2342802842193491 -0.2219117808856606 0 0.2462907050713771 -0.25204034373521428 0 0.2499607574480687 -0.24385609709525671 0 0.2374752251495614 -0.24157268794541539 0 0.25134951441318748 -0.22920843539767929 0 0.2499607574480687 -0.24385609709525671 0 0.2374752251495614 -0.24157268794541539 0 0.25134951441318748 -0.22920843539767929 0 0.24314545538918961 -0.20571013864437751 0 0.2342802842193491 -0.2219117808856606 0 0.25134951441318748 -0.22920843539767929 0 0.2374752251495614 -0.24157268794541539 0 0.2342802842193491 -0.2219117808856606 0 0.2374752251495614 -0.24157268794541539 0 0.22060620183210919 -0.232775489656291 0 0.2342802842193491 -0.2219117808856606 0 0.22060620183210919 -0.232775489656291 0 0.2342802842193491 -0.2219117808856606 0 0.21564630723174069 -0.21833189921059021 0 0.22198339683909701 -0.25340717595137879 0 0.2374752251495614 -0.24157268794541539 0 0.22060620183210919 -0.232775489656291 0 0.22198339683909701 -0.25340717595137879 0 0.22060620183210919 -0.232775489656291 0 0.22198339683909701 -0.25340717595137879 0 0.22060620183210919 -0.232775489656291 0 0.20573671357227499 -0.23448295905173899 0 0.22198339683909701 -0.25340717595137879 0 0.20573671357227499 -0.23448295905173899 0 0.19815896102696709 -0.24816545406213189 0 0.22060620183210919 -0.232775489656291 0 0.20573671357227499 -0.23448295905173899 0 0.21564630723174069 -0.21833189921059021 0 0.20573671357227499 -0.23448295905173899 0 0.19801089506944891 -0.22061097325298201 0 0.21564630723174069 -0.21833189921059021 0 0.20573671357227499 -0.23448295905173899 0 0.19801089506944891 -0.22061097325298201 0 0.18862314846194941 -0.23474346369713109 0 0.19801089506944891 -0.22061097325298201 0 0.18862314846194941 -0.23474346369713109 0 0.17884496266341901 -0.22149700646801701 0 0.20573671357227499 -0.23448295905173899 0 0.18862314846194941 -0.23474346369713109 0 0.19815896102696709 -0.24816545406213189 0 0.20600005448239761 -0.18645800734220749 0 0.22432797047415351 -0.19951341785716731 0 0.20571207111442141 -0.20503903284801611 0 0.22432797047415351 -0.19951341785716731 0 0.21564630723174069 -0.21833189921059021 0 0.20571207111442141 -0.20503903284801611 0 0.19801089506944891 -0.22061097325298201 0 0.21564630723174069 -0.21833189921059021 0 0.20571207111442141 -0.20503903284801611 0 0.19801089506944891 -0.22061097325298201 0 0.19227081910603411 -0.2100117569492751 0 0.17884496266341901 -0.22149700646801701 0 0.20571207111442141 -0.20503903284801611 0 0.19227081910603411 -0.2100117569492751 0 0.1956377870383576 -0.1970896374814364 0 0.19801089506944891 -0.22061097325298201 0 0.20571207111442141 -0.20503903284801611 0 0.19227081910603411 -0.2100117569492751 0 0.18830323417204939 -0.1765657128700695 0 0.1956377870383576 -0.1970896374814364 0 0.18335540011200491 -0.20007028076315 0 0.19227081910603411 -0.2100117569492751 0 0.1956377870383576 -0.1970896374814364 0 0.18335540011200491 -0.20007028076315 0 0.1956377870383576 -0.1970896374814364 0 0.18335540011200491 -0.20007028076315 0 0.20600005448239761 -0.18645800734220749 0 0.20571207111442141 -0.20503903284801611 0 0.1956377870383576 -0.1970896374814364 0 0.18830323417204939 -0.1765657128700695 0 0.18335540011200491 -0.20007028076315 0 0.18335540011200491 -0.20007028076315 0 0.16873688803845349 -0.19227854821165941 0 0.17543185729929969 -0.18273889272689711 0 0.19227081910603411 -0.2100117569492751 0 0.18335540011200491 -0.20007028076315 0 0.17884496266341901 -0.22149700646801701 0 0.18335540011200491 -0.20007028076315 0 0.17884496266341901 -0.22149700646801701 0 0.18335540011200491 -0.20007028076315 0 0.16621660047528611 -0.21253283526692829 0 0.17884496266341901 -0.22149700646801701 0 0.16621660047528611 -0.21253283526692829 0 0.1593158439583067 -0.2059041094785751 0 0.15302060169630469 -0.2217977003443504 0 0.18335540011200491 -0.20007028076315 0 0.16621660047528611 -0.21253283526692829 0 0.1593158439583067 -0.2059041094785751 0 0.16621660047528611 -0.21253283526692829 0 0.1593158439583067 -0.2059041094785751 0 0.1593158439583067 -0.2059041094785751 0 0.15759932706250929 -0.18907488386135229 0 0.16873688803845349 -0.19227854821165941 0 0.18335540011200491 -0.20007028076315 0 0.1593158439583067 -0.2059041094785751 0 0.18335540011200491 -0.20007028076315 0 0.1593158439583067 -0.2059041094785751 0 0.16873688803845349 -0.19227854821165941 0 0.18066177981631051 -0.25348299893649828 0 0.19815896102696709 -0.24816545406213189 0 0.17433452521483719 -0.24292373217288479 0 0.19815896102696709 -0.24816545406213189 0 0.17433452521483719 -0.24292373217288479 0 0.18862314846194941 -0.23474346369713109 0 0.19815896102696709 -0.24816545406213189 0 0.17433452521483719 -0.24292373217288479 0 0.18066177981631051 -0.25348299893649828 0 0.17304535898525439 -0.24904788565112909 0 0.17433452521483719 -0.24292373217288479 0 0.17304535898525439 -0.24904788565112909 0 0.17433452521483719 -0.24292373217288479 0 0.18862314846194941 -0.23474346369713109 0 0.17433452521483719 -0.24292373217288479 0 0.17884496266341901 -0.22149700646801701 0 0.17433452521483719 -0.24292373217288479 0 0.17884496266341901 -0.22149700646801701 0 0.17433452521483719 -0.24292373217288479 0 0.17884496266341901 -0.22149700646801701 0 0.16512535944417561 -0.22744738033917331 0 0.16512535944417561 -0.22744738033917331 0 0.15532271566916761 -0.23874085795770611 0 0.15302060169630469 -0.2217977003443504 0 0.16621660047528611 -0.21253283526692829 0 0.17884496266341901 -0.22149700646801701 0 0.16512535944417561 -0.22744738033917331 0 0.16621660047528611 -0.21253283526692829 0 0.16512535944417561 -0.22744738033917331 0 0.15302060169630469 -0.2217977003443504 0 0.17304535898525439 -0.24904788565112909 0 0.17433452521483719 -0.24292373217288479 0 0.15532271566916761 -0.23874085795770611 0 0.15867772839633809 -0.25707915377424612 0 0.17304535898525439 -0.24904788565112909 0 0.15532271566916761 -0.23874085795770611 0 0.17433452521483719 -0.24292373217288479 0 0.16512535944417561 -0.22744738033917331 0 0.15532271566916761 -0.23874085795770611 0 0.17433452521483719 -0.24292373217288479 0 0.15532271566916761 -0.23874085795770611 0 0.15532271566916761 -0.23874085795770611 0 0.1363109061234978 -0.23455798374252809 0 0.13687529418603939 -0.26162068250561471 0 0.15532271566916761 -0.23874085795770611 0 0.1363109061234978 -0.23455798374252809 0 0.15532271566916761 -0.23874085795770611 0 0.15302060169630469 -0.2217977003443504 0 0.1363109061234978 -0.23455798374252809 0 0.15302060169630469 -0.2217977003443504 0 0.1363109061234978 -0.23455798374252809 0 0.13583218450739579 -0.2116030352811932 0 0.12594488917549271 -0.2231145762792166 0 0.1363109061234978 -0.23455798374252809 0 0.13583218450739579 -0.2116030352811932 0 0.1363109061234978 -0.23455798374252809 0 0.13583218450739579 -0.2116030352811932 0 0.13687529418603939 -0.26162068250561471 0 0.1363109061234978 -0.23455798374252809 0 0.13687529418603939 -0.26162068250561471 0 0.1223190960555403 -0.2394332616338683 0 0.1363109061234978 -0.23455798374252809 0 0.1593158439583067 -0.2059041094785751 0 0.15759932706250929 -0.18907488386135229 0 0.14727334507129489 -0.19433633097022029 0 0.14727334507129489 -0.19433633097022029 0 0.13523084618428721 -0.18276855246186111 0 0.1593158439583067 -0.2059041094785751 0 0.14727334507129489 -0.19433633097022029 0 0.1593158439583067 -0.2059041094785751 0 0.14727334507129489 -0.19433633097022029 0 0.13583218450739579 -0.2116030352811932 0 0.1593158439583067 -0.2059041094785751 0 0.13583218450739579 -0.2116030352811932 0 0.1593158439583067 -0.2059041094785751 0 0.15302060169630469 -0.2217977003443504 0 0.13583218450739579 -0.2116030352811932 0 0.1146962174531268 -0.21673223195775559 0 0.12594488917549271 -0.2231145762792166 0 0.13583218450739579 -0.2116030352811932 0 0.1146962174531268 -0.21673223195775559 0 0.13583218450739579 -0.2116030352811932 0 0.13583218450739579 -0.2116030352811932 0 0.13523084618428721 -0.18276855246186111 0 0.1210323504124224 -0.2015702574875764 0 0.13583218450739579 -0.2116030352811932 0 0.13523084618428721 -0.18276855246186111 0 0.14727334507129489 -0.19433633097022029 0 0.13583218450739579 -0.2116030352811932 0 0.13523084618428721 -0.18276855246186111 0 0.13523084618428721 -0.18276855246186111 0 0.13483495552902119 -0.16378539130439421 0 0.13523084618428721 -0.18276855246186111 0 0.14953284821028701 -0.17659781711855899 0 0.13483495552902119 -0.16378539130439421 0 0.12574768761326591 -0.17365922399620121 0 0.13523084618428721 -0.18276855246186111 0 0.13483495552902119 -0.16378539130439421 0 0.12574768761326591 -0.17365922399620121 0 0.13523084618428721 -0.18276855246186111 0 0.15759932706250929 -0.18907488386135229 0 0.14727334507129489 -0.19433633097022029 0 0.14953284821028701 -0.17659781711855899 0 0.14727334507129489 -0.19433633097022029 0 0.13523084618428721 -0.18276855246186111 0 0.14953284821028701 -0.17659781711855899 0 0.15759932706250929 -0.18907488386135229 0 0.14953284821028701 -0.17659781711855899 0 0.16056198994912749 -0.17787080610445691 0 0.14953284821028701 -0.17659781711855899 0 0.15118562361057611 -0.16212531631630639 0 0.13483495552902119 -0.16378539130439421 0 0.15118562361057611 -0.16212531631630639 0 0.13483495552902119 -0.16378539130439421 0 0.15272907190244081 -0.1550331303974728 0 0.15118562361057611 -0.16212531631630639 0 0.15272907190244081 -0.1550331303974728 0 0.15987479688754311 -0.1572750313981319 0 0.14953284821028701 -0.17659781711855899 0 0.15118562361057611 -0.16212531631630639 0 0.1601367247146048 -0.167216461388007 0 0.1232701832726428 -0.15427141090171109 0 0.12574768761326591 -0.17365922399620121 0 0.13483495552902119 -0.16378539130439421 0 0.12574768761326591 -0.17365922399620121 0 0.13483495552902119 -0.16378539130439421 0 0.13483495552902119 -0.16378539130439421 0 0.13444198148756639 -0.1449420832838656 0 0.14315652521050079 -0.14523933820255211 0 0.1232701832726428 -0.15427141090171109 0 0.13483495552902119 -0.16378539130439421 0 0.13444198148756639 -0.1449420832838656 0 0.13483495552902119 -0.16378539130439421 0 0.13444198148756639 -0.1449420832838656 0 0.13444198148756639 -0.1449420832838656 0 0.1434537453928684 -0.13532839273855221 0 0.14315652521050079 -0.14523933820255211 0 0.13444198148756639 -0.1449420832838656 0 0.13404900744611239 -0.12609877526333699 0 0.13444198148756639 -0.1449420832838656 0 0.13404900744611239 -0.12609877526333699 0 0.1434537453928684 -0.13532839273855221 0 0.11727103389215909 -0.1361484369810822 0 0.13444198148756639 -0.1449420832838656 0 0.13404900744611239 -0.12609877526333699 0 0.13404900744611239 -0.12609877526333699 0 0.1490682445489844 -0.1279194233146575 0 0.1609569453379138 -0.13854421730491809 0 0.13404900744611239 -0.12609877526333699 0 0.1609569453379138 -0.13854421730491809 0 0.13404900744611239 -0.12609877526333699 0 0.1434537453928684 -0.13532839273855221 0 0.1609569453379138 -0.13854421730491809 0 0.1434537453928684 -0.13532839273855221 0 0.14993504674019009 -0.14021612160814689 0 0.1609569453379138 -0.13854421730491809 0 0.1427320902892944 -0.12257921542734659 0 0.13404900744611239 -0.12609877526333699 0 0.1490682445489844 -0.1279194233146575 0 0.1434537453928684 -0.13532839273855221 0 0.14993504674019009 -0.14021612160814689 0 0.14315652521050079 -0.14523933820255211 0 0.14993504674019009 -0.14021612160814689 0 0.15469010670848909 -0.14221164189652771 0 0.1609569453379138 -0.13854421730491809 0 0.15568199284830581 -0.1296421963895899 0 0.1490682445489844 -0.1279194233146575 0 0.1609569453379138 -0.13854421730491809 0 0.15192118682329561 -0.12273271218809589 0 0.15568199284830581 -0.1296421963895899 0 0.1587247560068413 -0.12564209046719049 0 0.15192118682329561 -0.12273271218809589 0 0.15568199284830581 -0.1296421963895899 0 0.1490682445489844 -0.1279194233146575 0 0.13483495552902119 -0.16378539130439421 0 0.15469010670848909 -0.14221164189652771 0 0.13483495552902119 -0.16378539130439421 0 0.14315652521050079 -0.14523933820255211 0 0.15469010670848909 -0.14221164189652771 0 0.13483495552902119 -0.16378539130439421 0 0.15469010670848909 -0.14221164189652771 0 0.15272907190244081 -0.1550331303974728 0 0.14993504674019009 -0.14021612160814689 0 0.14315652521050079 -0.14523933820255211 0 0.15469010670848909 -0.14221164189652771 0 0.15272907190244081 -0.1550331303974728 0 0.16278769519534109 -0.1503194818261428 0 0.15987479688754311 -0.1572750313981319 0 0.16278769519534109 -0.1503194818261428 0 0.15987479688754311 -0.1572750313981319 0 0.16866771310860729 -0.15951236945753941 0 0.15469010670848909 -0.14221164189652771 0 0.15272907190244081 -0.1550331303974728 0 0.16278769519534109 -0.1503194818261428 0 0.15469010670848909 -0.14221164189652771 0 0.16278769519534109 -0.1503194818261428 0 0.1609569453379138 -0.13854421730491809 0 0.16278769519534109 -0.1503194818261428 0 0.1609569453379138 -0.13854421730491809 0 0.17433915911560069 -0.15342176620747169 0 0.16278769519534109 -0.1503194818261428 0 0.17433915911560069 -0.15342176620747169 0 0.16866771310860729 -0.15951236945753941 0 0.1609569453379138 -0.13854421730491809 0 0.16898528270356589 -0.1319020538664718 0 0.17739448715537109 -0.13831623988886119 0 0.1587247560068413 -0.12564209046719049 0 0.1613780220681113 -0.13045743568360191 0 0.1641162962428066 -0.126449221113482 0 0.15568199284830581 -0.1296421963895899 0 0.1587247560068413 -0.12564209046719049 0 0.1613780220681113 -0.13045743568360191 0 0.15568199284830581 -0.1296421963895899 0 0.1613780220681113 -0.13045743568360191 0 0.1609569453379138 -0.13854421730491809 0 0.1613780220681113 -0.13045743568360191 0 0.1609569453379138 -0.13854421730491809 0 0.16898528270356589 -0.1319020538664718 0 0.173543926957343 -0.1211375462363173 0 0.16898528270356589 -0.1319020538664718 0 0.1641162962428066 -0.126449221113482 0 0.1613780220681113 -0.13045743568360191 0 0.16898528270356589 -0.1319020538664718 0 0.1641162962428066 -0.126449221113482 0 0.173543926957343 -0.1211375462363173 0 0.16898528270356589 -0.1319020538664718 0 0.17990838590865871 -0.12844737664361131 0 0.16898528270356589 -0.1319020538664718 0 0.17739448715537109 -0.13831623988886119 0 0.17990838590865871 -0.12844737664361131 0 0.188659048266132 -0.1418371739210742 0 0.19260125287660149 -0.13207131947283501 0 0.17739448715537109 -0.13831623988886119 0 0.19260125287660149 -0.13207131947283501 0 0.17739448715537109 -0.13831623988886119 0 0.17990838590865871 -0.12844737664361131 0 0.18701697985041221 -0.11880972375357141 0 0.19260125287660149 -0.13207131947283501 0 0.17990838590865871 -0.12844737664361131 0 0.18786488322971459 -0.15098965934649999 0 0.1609569453379138 -0.13854421730491809 0 0.17433915911560069 -0.15342176620747169 0 0.18786488322971459 -0.15098965934649999 0 0.1609569453379138 -0.13854421730491809 0 0.18786488322971459 -0.15098965934649999 0 0.1609569453379138 -0.13854421730491809 0 0.17739448715537109 -0.13831623988886119 0 0.18786488322971459 -0.15098965934649999 0 0.188659048266132 -0.1418371739210742 0 0.17739448715537109 -0.13831623988886119 0 0.18786488322971459 -0.15098965934649999 0 0.17433915911560069 -0.15342176620747169 0 0.1842505296355367 -0.15589311325690541 0 0.17433915911560069 -0.15342176620747169 0 0.1842505296355367 -0.15589311325690541 0 0.18144082188941271 -0.16389154531309821 0 0.19325106823209409 -0.153061144976989 0 0.1842505296355367 -0.15589311325690541 0 0.18144082188941271 -0.16389154531309821 0 0.18830323417204939 -0.1765657128700695 0 0.18144082188941271 -0.16389154531309821 0 0.17072519494025609 -0.1704686386871877 0 0.17433915911560069 -0.15342176620747169 0 0.18144082188941271 -0.16389154531309821 0 0.16866771310860729 -0.15951236945753941 0 0.18144082188941271 -0.16389154531309821 0 0.16866771310860729 -0.15951236945753941 0 0.17072519494025609 -0.1704686386871877 0 0.18830323417204939 -0.1765657128700695 0 0.18335540011200491 -0.20007028076315 0 0.17543185729929969 -0.18273889272689711 0 0.18830323417204939 -0.1765657128700695 0 0.17543185729929969 -0.18273889272689711 0 0.17072519494025609 -0.1704686386871877 0 0.17543185729929969 -0.18273889272689711 0 0.16056198994912749 -0.17787080610445691 0 0.17072519494025609 -0.1704686386871877 0 0.16873688803845349 -0.19227854821165941 0 0.17543185729929969 -0.18273889272689711 0 0.16056198994912749 -0.17787080610445691 0 0.15759932706250929 -0.18907488386135229 0 0.16873688803845349 -0.19227854821165941 0 0.16056198994912749 -0.17787080610445691 0 0.14953284821028701 -0.17659781711855899 0 0.16056198994912749 -0.17787080610445691 0 0.1601367247146048 -0.167216461388007 0 0.16056198994912749 -0.17787080610445691 0 0.1601367247146048 -0.167216461388007 0 0.17072519494025609 -0.1704686386871877 0 0.1601367247146048 -0.167216461388007 0 0.15987479688754311 -0.1572750313981319 0 0.16866771310860729 -0.15951236945753941 0 0.15118562361057611 -0.16212531631630639 0 0.1601367247146048 -0.167216461388007 0 0.15987479688754311 -0.1572750313981319 0 0.1601367247146048 -0.167216461388007 0 0.16866771310860729 -0.15951236945753941 0 0.17072519494025609 -0.1704686386871877 0 
</DataArray>
</Points>
<Cells>
<DataArray type="UInt32" Name="connectivity" format="ascii">
0 1 2 3 4 5 6 7 8 9 10 11 12 13 14 15 16 17 18 19 20 21 22 23 24 25 26 27 28 29 30 31 32 33 34 35 36 37 38 39 40 41 42 43 44 45 46 47 48 49 50 51 52 53 54 55 56 57 58 59 60 61 62 63 64 65 66 67 68 69 70 71 72 73 74 75 76 77 78 79 80 81 82 83 84 85 86 87 88 89 90 91 92 93 94 95 96 97 98 99 100 101 102 103 104 105 106 107 108 109 110 111 112 113 114 115 116 117 118 119 120 121 122 123 124 125 126 127 128 129 130 131 132 133 134 135 136 137 138 139 140 141 142 143 144 145 146 147 148 149 150 151 152 153 154 155 156 157 158 159 160 161 162 163 164 165 166 167 168 169 170 171 172 173 174 175 176 177 178 179 180 181 182 183 184 185 186 187 188 189 190 191 192 193 194 195 196 197 198 199 200 201 202 203 204 205 206 207 208 209 210 211 212 213 214 215 216 217 218 219 220 221 222 223 224 225 226 227 228 229 230 231 232 233 234 235 236 237 238 239 240 241 242 243 244 245 246 247 248 249 250 251 252 253 254 255 256 257 258 259 260 261 262 263 264 265 266 267 268 269 270 271 272 273 274 275 276 277 278 279 280 281 282 283 284 285 286 287 288 289 290 291 292 293 294 295 296 297 298 299 300 301 302 303 304 305 306 307 308 309 310 311 312 313 314 315 316 317 318 319 320 321 322 323 324 325 326 327 328 329 330 331 332 333 334 335 336 337 338 339 340 341 342 343 344 345 346 347 348 349 350 351 352 353 354 355 356 357 358 359 360 361 362 363 364 365 366 367 368 369 370 371 372 373 374 375 376 377 378 379 380 381 382 383 384 385 386 387 388 389 390 391 392 393 394 395 396 397 398 399 400 401 402 403 404 405 406 407 408 409 410 411 412 413 414 415 416 417 418 419 420 421 422 423 424 425 426 427 428 429 430 431 432 433 434 435 436 437 438 439 440 441 442 443 444 445 446 447 448 449 450 451 452 453 454 455 456 457 458 459 460 461 462 463 464 465 466 467 468 469 470 471 472 473 474 475 476 477 478 479 480 481 482 483 484 485 486 487 488 489 490 491 492 493 494 495 496 497 498 499 500 501 502 503 504 505 506 507 508 509 510 511 512 513 514 515 516 517 518 519 520 521 522 523 524 525 526 527 528 529 530 531 532 533 534 535 536 537 538 539 540 541 542 543 544 545 546 547 548 549 550 551 552 553 554 555 556 557 558 559 560 561 562 563 564 565 566 567 568 569 570 571 572 573 574 575 576 577 578 579 580 581 582 583 584 585 586 587 588 589 590 591 592 593 594 595 596 597 598 599 600 601 602 603 604 605 606 607 608 609 610 611 612 613 614 615 616 617 618 619 620 621 622 623 624 625 626 627 628 629 630 631 632 633 634 635 636 637 638 639 640 641 642 643 644 645 646 647 648 649 650 651 652 653 654 655 656 657 658 659 660 661 662 663 664 665 666 667 668 669 670 671 672 673 674 675 676 677 678 679 680 681 682 683 684 685 686 687 688 689 690 691 692 693 694 695 696 697 698 699 700 701 702 703 704 705 706 707 708 709 710 711 712 713 714 715 716 717 718 719 720 721 722 723 724 725 726 727 728 729 730 731 732 733 734 735 736 737 738 739 740 741 742 743 744 745 746 747 748 749 750 751 752 753 754 755 756 757 758 759 760 761 762 763 764 765 766 767 768 769 770 771 772 773 774 775 776 777 778 779 780 781 782 783 784 785 786 787 788 789 790 791 792 793 794 795 796 797 798 799 800 801 802 803 804 805 806 807 808 809 810 811 812 813 814 815 816 817 818 819 820 821 822 823 824 825 826 827 828 829 830 831 832 833 834 835 836 837 838 839 840 841 842 843 844 845 846 847 848 849 850 851 852 853 854 855 856 857 858 859 860 861 862 863 864 865 866 867 868 869 870 871 872 873 874 875 876 877 878 879 880 881 882 883 884 885 886 887 888 889 890 891 892 893 894 895 896 897 898 899 900 901 902 903 904 905 906 907 908 909 910 911 912 913 914 915 916 917 918 919 920 921 922 923 924 925 926 927 928 929 930 931 932 933 934 935 936 937 938 939 940 941 942 943 944 945 946 947 948 949 950 951 952 953 954 955 956 957 958 959 960 961 962 963 964 965 966 967 968 969 970 971 972 973 974 975 976 977 978 979 980 981 982 983 984 985 986 987 988 989 990 991 992 993 994 995 996 997 998 999 1000 1001 1002 1003 1004 1005 1006 1007 1008 1009 1010 1011 1012 1013 1014 1015 1016 1017 1018 1019 1020 1021 1022 1023 1024 1025 1026 1027 1028 1029 1030 1031 1032 1033 1034 1035 1036 1037 1038 1039 1040 1041 1042 1043 1044 1045 1046 1047 1048 1049 1050 1051 1052 1053 1054 1055 1056 1057 1058 1059 1060 1061 1062 1063 1064 1065 1066 1067 1068 1069 1070 1071 1072 1073 1074 1075 1076 1077 1078 1079 1080 1081 1082 1083 1084 1085 1086 1087 1088 1089 1090 1091 1092 1093 1094 1095 1096 1097 1098 1099 1100 1101 1102 1103 1104 1105 1106 1107 1108 1109 1110 1111 1112 1113 1114 1115 1116 1117 1118 1119 1120 1121 1122 1123 1124 1125 1126 1127 1128 1129 1130 1131 1132 1133 1134 1135 1136 1137 1138 1139 1140 1141 1142 1143 1144 1145 1146 1147 1148 1149 1150 1151 1152 1153 1154 1155 1156 1157 1158 1159 1160 1161 1162 1163 1164 1165 1166 1167 1168 1169 1170 1171 1172 1173 1174 1175 1176 1177 1178 1179 1180 1181 1182 1183 1184 1185 1186 1187 1188 1189 1190 1191 1192 1193 1194 1195 1196 1197 1198 1199 1200 1201 1202 1203 1204 1205 1206 1207 1208 1209 1210 1211 1212 1213 1214 1215 1216 1217 1218 1219 1220 1221 1222 1223 1224 1225 1226 1227 1228 1229 1230 1231 1232 1233 1234 1235 1236 1237 1238 1239 1240 1241 1242 1243 1244 1245 1246 1247 1248 1249 1250 1251 1252 1253 1254 1255 1256 1257 1258 1259 1260 1261 1262 1263 1264 1265 1266 1267 1268 1269 1270 1271 1272 1273 1274 1275 1276 1277 1278 1279 1280 1281 1282 1283 1284 1285 1286 1287 1288 1289 1290 1291 1292 1293 1294 1295 1296 1297 1298 1299 1300 1301 1302 1303 1304 1305 1306 1307 1308 1309 1310 1311 1312 1313 1314 1315 1316 1317 1318 1319 1320 1321 1322 1323 1324 1325 1326 1327 1328 1329 1330 1331 1332 1333 1334 1335 1336 1337 1338 1339 1340 1341 1342 1343 1344 1345 1346 1347 1348 1349 1350 1351 1352 1353 1354 1355 1356 1357 1358 1359 1360 1361 1362 1363 1364 1365 1366 1367 1368 1369 1370 1371 1372 1373 1374 1375 1376 1377 1378 1379 1380 1381 1382 1383 1384 1385 1386 1387 1388 1389 1390 1391 1392 1393 1394 1395 1396 1397 1398 1399 1400 1401 1402 1403 1404 1405 1406 1407 1408 1409 1410 1411 1412 1413 1414 1415 1416 1417 1418 1419 1420 1421 1422 1423 1424 1425 1426 1427 1428 1429 1430 1431 1432 1433 1434 1435 1436 1437 1438 1439 1440 1441 1442 1443 1444 1445 1446 1447 1448 1449 1450 1451 1452 1453 1454 1455 1456 1457 1458 1459 1460 1461 1462 1463 1464 1465 1466 1467 1468 1469 1470 1471 1472 1473 1474 1475 1476 1477 1478 1479 1480 1481 1482 1483 1484 1485 1486 1487 1488 1489 1490 1491 1492 1493 1494 1495 1496 1497 1498 1499 1500 1501 1502 1503 1504 1505 1506 1507 1508 1509 1510 1511 1512 1513 1514 1515 1516 1517 1518 1519 1520 1521 1522 1523 1524 1525 1526 1527 1528 1529 1530 1531 1532 1533 1534 1535 1536 1537 1538 1539 1540 1541 1542 1543 1544 1545 1546 1547 1548 1549 1550 1551 1552 1553 1554 1555 1556 1557 1558 1559 1560 1561 1562 1563 1564 1565 1566 1567 1568 1569 1570 1571 1572 1573 1574 1575 1576 1577 1578 1579 1580 1581 1582 1583 1584 1585 1586 1587 1588 1589 1590 1591 1592 1593 1594 1595 1596 1597 1598 1599 1600 1601 1602 1603 1604 1605 1606 1607 1608 1609 1610 1611 1612 1613 1614 1615 1616 1617 1618 1619 1620 1621 1622 1623 1624 1625 1626 1627 1628 1629 1630 1631 1632 1633 1634 1635 1636 1637 1638 1639 1640 1641 1642 1643 1644 1645 1646 1647 1648 1649 1650 1651 1652 1653 1654 1655 1656 1657 1658 1659 1660 1661 1662 1663 1664 1665 1666 1667 1668 1669 1670 1671 1672 1673 1674 1675 1676 1677 1678 1679 1680 1681 1682 1683 1684 1685 1686 1687 1688 1689 1690 1691 1692 1693 1694 1695 1696 1697 1698 1699 1700 1701 1702 1703 1704 1705 1706 1707 1708 1709 1710 1711 1712 1713 1714 1715 1716 1717 1718 1719 1720 1721 1722 1723 1724 1725 1726 1727 1728 1729 1730 1731 1732 1733 1734 1735 1736 1737 1738 1739 1740 1741 1742 1743 1744 1745 1746 1747 1748 1749 1750 1751 1752 1753 1754 1755 1756 1757 1758 1759 1760 1761 1762 1763 1764 1765 1766 1767 1768 1769 1770 1771 1772 1773 1774 1775 1776 1777 1778 1779 1780 1781 1782 1783 1784 1785 1786 1787 1788 1789 1790 1791 1792 1793 1794 1795 1796 1797 1798 1799 1800 1801 1802 1803 1804 1805 1806 1807 1808 1809 1810 1811 1812 1813 1814 1815 1816 1817 1818 1819 1820 1821 1822 1823 1824 1825 1826 1827 1828 1829 1830 1831 1832 1833 1834 1835 1836 1837 1838 1839 1840 1841 1842 1843 1844 1845 1846 1847 1848 1849 1850 1851 1852 1853 1854 1855 1856 1857 1858 1859 1860 1861 1862 1863 1864 1865 1866 1867 1868 1869 1870 1871 1872 1873 1874 1875 1876 1877 1878 1879 1880 1881 1882 1883 1884 1885 1886 1887 1888 1889 1890 1891 1892 1893 1894 1895 1896 1897 1898 1899 1900 1901 1902 1903 1904 1905 1906 1907 1908 1909 1910 1911 1912 1913 1914 1915 1916 1917 1918 1919 1920 1921 1922 1923 1924 1925 1926 1927 1928 1929 1930 1931 1932 1933 1934 1935 1936 1937 1938 1939 1940 1941 1942 1943 1944 1945 1946 1947 1948 1949 1950 1951 1952 1953 1954 1955 1956 1957 1958 1959 1960 1961 1962 1963 1964 1965 1966 1967 1968 1969 1970 1971 1972 1973 1974 1975 1976 1977 1978 1979 1980 1981 1982 1983 1984 1985 1986 1987 1988 1989 1990 1991 1992 1993 1994 1995 1996 1997 1998 1999 2000 2001 2002 2003 2004 2005 2006 2007 2008 2009 2010 2011 2012 2013 2014 2015 2016 2017 2018 2019 2020 2021 2022 2023 2024 2025 2026 2027 2028 2029 2030 2031 2032 2033 2034 2035 2036 2037 2038 2039 2040 2041 2042 2043 2044 2045 2046 2047 2048 2049 2050 2051 2052 2053 2054 2055 2056 2057 2058 2059 2060 2061 2062 2063 2064 2065 2066 2067 2068 2069 2070 2071 2072 2073 2074 2075 2076 2077 2078 2079 2080 2081 2082 2083 2084 2085 2086 2087 2088 2089 2090 2091 2092 2093 2094 2095 2096 2097 2098 2099 2100 2101 2102 2103 2104 2105 2106 2107 2108 2109 2110 2111 2112 2113 2114 2115 2116 2117 2118 2119 2120 2121 2122 2123 2124 2125 2126 2127 2128 2129 2130 2131 2132 2133 2134 2135 2136 2137 2138 2139 2140 2141 2142 2143 2144 2145 2146 2147 2148 2149 2150 2151 2152 2153 2154 2155 2156 2157 2158 2159 2160 2161 2162 2163 2164 2165 2166 2167 2168 2169 2170 2171 2172 2173 2174 2175 2176 2177 2178 2179 2180 2181 2182 2183 2184 2185 2186 2187 2188 2189 2190 2191 2192 2193 2194 2195 2196 2197 2198 2199 2200 2201 2202 2203 2204 2205 2206 2207 2208 2209 2210 2211 2212 2213 2214 2215 2216 2217 2218 2219 2220 2221 2222 2223 2224 2225 2226 2227 2228 2229 2230 2231 2232 2233 2234 2235 2236 2237 2238 2239 2240 2241 2242 2243 2244 2245 2246 2247 2248 2249 2250 2251 2252 2253 2254 2255 2256 2257 2258 2259 2260 2261 2262 2263 2264 2265 2266 2267 2268 2269 2270 2271 2272 2273 2274 2275 2276 2277 2278 2279 2280 2281 2282 2283 2284 2285 2286 2287 2288 2289 2290 2291 2292 2293 2294 2295 2296 2297 2298 2299 2300 2301 2302 2303 2304 2305 2306 2307 2308 2309 2310 2311 2312 2313 2314 2315 2316 2317 2318 2319 2320 2321 2322 2323 2324 2325 2326 2327 2328 2329 2330 2331 2332 2333 2334 2335 2336 2337 2338 2339 2340 2341 2342 2343 2344 2345 2346 2347 2348 2349 2350 2351 2352 2353 2354 2355 2356 2357 2358 2359 2360 2361 2362 2363 2364 2365 2366 2367 2368 2369 2370 2371 2372 2373 2374 2375 2376 2377 2378 2379 2380 2381 2382 2383 2384 2385 2386 2387 2388 2389 2390 2391 2392 2393 2394 2395 2396 2397 2398 2399 2400 2401 2402 2403 2404 2405 2406 2407 2408 2409 2410 2411 2412 2413 2414 2415 2416 2417 2418 2419 2420 2421 2422 2423 2424 2425 2426 2427 2428 2429 2430 2431 2432 2433 2434 2435 2436 2437 2438 2439 2440 2441 2442 2443 2444 2445 2446 2447 2448 2449 2450 2451 2452 2453 2454 2455 2456 2457 2458 2459 2460 2461 2462 2463 2464 2465 2466 2467 2468 2469 2470 2471 2472 2473 2474 2475 2476 2477 2478 2479 2480 2481 2482 2483 2484 2485 2486 2487 2488 2489 2490 2491 2492 2493 2494 2495 2496 2497 2498 2499 2500 2501 2502 2503 2504 2505 2506 2507 2508 2509 2510 2511 2512 2513 2514 2515 2516 2517 2518 2519 2520 2521 2522 2523 2524 2525 2526 2527 2528 2529 2530 2531 2532 2533 2534 2535 2536 2537 2538 2539 2540 2541 2542 2543 2544 2545 2546 2547 2548 2549 2550 2551 2552 2553 2554 2555 2556 2557 2558 2559 2560 2561 2562 2563 2564 2565 2566 2567 2568 2569 2570 2571 2572 2573 2574 2575 2576 2577 2578 2579 2580 2581 2582 2583 2584 2585 2586 2587 2588 2589 2590 2591 2592 2593 2594 2595 2596 2597 2598 2599 2600 2601 2602 2603 2604 2605 2606 2607 2608 2609 2610 2611 2612 2613 2614 2615 2616 2617 2618 2619 2620 2621 2622 2623 2624 2625 2626 2627 2628 2629 2630 2631 2632 2633 2634 2635 2636 2637 2638 2639 2640 2641 2642 2643 2644 2645 2646 2647 2648 2649 2650 2651 2652 2653 2654 2655 2656 2657 2658 2659 2660 2661 2662 2663 2664 2665 2666 2667 2668 2669 2670 2671 2672 2673 2674 2675 2676 2677 2678 2679 2680 2681 2682 2683 2684 2685 2686 2687 2688 2689 2690 2691 2692 2693 2694 2695 2696 2697 2698 2699 2700 2701 2702 2703 2704 2705 2706 2707 2708 2709 2710 2711 2712 2713 2714 2715 2716 2717 2718 2719 2720 2721 2722 2723 2724 2725 2726 2727 2728 2729 2730 2731 2732 2733 2734 2735 2736 2737 2738 2739 2740 2741 2742 2743 2744 2745 2746 2747 2748 2749 2750 2751 2752 2753 2754 2755 2756 2757 2758 2759 2760 2761 2762 2763 2764 2765 2766 2767 2768 2769 2770 2771 2772 2773 2774 2775 2776 2777 2778 2779 2780 2781 2782 2783 2784 2785 2786 2787 2788 2789 2790 2791 2792 2793 2794 2795 2796 2797 2798 2799 2800 2801 2802 2803 2804 2805 2806 2807 2808 2809 2810 2811 2812 2813 2814 2815 2816 2817 2818 2819 2820 2821 2822 2823 2824 2825 2826 2827 2828 2829 2830 2831 2832 2833 2834 2835 2836 2837 2838 2839 2840 2841 2842 2843 2844 2845 2846 2847 2848 2849 2850 2851 2852 2853 2854 2855 2856 2857 2858 2859 2860 2861 2862 2863 2864 2865 2866 2867 2868 2869 2870 2871 2872 2873 2874 2875 2876 2877 2878 2879 2880 2881 2882 2883 2884 2885 2886 2887 2888 2889 2890 2891 2892 2893 2894 2895 2896 2897 2898 2899 2900 2901 2902 2903 2904 2905 2906 2907 2908 2909 2910 2911 2912 2913 2914 2915 2916 2917 2918 2919 2920 2921 2922 2923 2924 2925 2926 2927 2928 2929 2930 2931 2932 2933 2934 2935 2936 2937 2938 2939 2940 2941 2942 2943 2944 2945 2946 2947 2948 2949 2950 2951 2952 2953 2954 2955 2956 2957 2958 2959 2960 2961 2962 2963 2964 2965 2966 2967 2968 2969 2970 2971 2972 2973 2974 2975 2976 2977 2978 2979 2980 2981 2982 2983 2984 2985 2986 2987 2988 2989 2990 2991 2992 2993 2994 2995 2996 2997 2998 2999 3000 3001 3002 3003 3004 3005 3006 3007 3008 3009 3010 3011 3012 3013 3014 3015 3016 3017 3018 3019 3020 3021 3022 3023 3024 3025 3026 3027 3028 3029 3030 3031 3032 3033 3034 3035 3036 3037 3038 3039 3040 3041 3042 3043 3044 3045 3046 3047 3048 3049 3050 3051 3052 3053 3054 3055 3056 3057 3058 3059 3060 3061 3062 3063 3064 3065 3066 3067 3068 3069 3070 3071 3072 3073 3074 3075 3076 3077 3078 3079 3080 3081 3082 3083 3084 3085 3086 3087 3088 3089 3090 3091 3092 3093 3094 3095 3096 3097 3098 3099 3100 3101 3102 3103 3104 3105 3106 3107 3108 3109 3110 3111 3112 3113 3114 3115 3116 3117 3118 3119 3120 3121 3122 3123 3124 3125 3126 3127 3128 3129 3130 3131 3132 3133 3134 3135 3136 3137 3138 3139 3140 3141 3142 3143 3144 3145 3146 3147 3148 3149 3150 3151 3152 3153 3154 3155 3156 3157 3158 3159 3160 3161 3162 3163 3164 3165 3166 3167 3168 3169 3170 3171 3172 3173 3174 3175 3176 3177 3178 3179 3180 3181 3182 3183 3184 3185 3186 3187 3188 3189 3190 3191 3192 3193 3194 3195 3196 3197 3198 3199 3200 3201 3202 3203 3204 3205 3206 3207 3208 3209 3210 3211 3212 3213 3214 3215 3216 3217 3218 3219 3220 3221 3222 3223 3224 3225 3226 3227 3228 3229 3230 3231 3232 3233 3234 3235 3236 3237 3238 3239 3240 3241 3242 3243 3244 3245 3246 3247 3248 3249 3250 3251 3252 3253 3254 3255 3256 3257 3258 3259 3260 3261 3262 3263 3264 3265 3266 3267 3268 3269 3270 3271 3272 3273 3274 3275 3276 3277 3278 3279 3280 3281 3282 3283 3284 3285 3286 3287 3288 3289 3290 3291 3292 3293 3294 3295 3296 3297 3298 3299 3300 3301 3302 3303 3304 3305 3306 3307 3308 3309 3310 3311 3312 3313 3314 3315 3316 3317 3318 3319 3320 3321 3322 3323 3324 3325 3326 3327 3328 3329 3330 3331 3332 3333 3334 3335 3336 3337 3338 3339 3340 3341 3342 3343 3344 3345 3346 3347 3348 3349 3350 3351 3352 3353 3354 3355 3356 3357 3358 3359 3360 3361 3362 3363 3364 3365 3366 3367 3368 3369 3370 3371 3372 3373 3374 3375 3376 3377 3378 3379 3380 3381 3382 3383 3384 3385 3386 3387 3388 3389 3390 3391 3392 3393 3394 3395 3396 3397 3398 3399 3400 3401 3402 3403 3404 3405 3406 3407 3408 3409 3410 3411 3412 3413 3414 3415 3416 3417 3418 3419 3420 3421 3422 3423 3424 3425 3426 3427 3428 3429 3430 3431 3432 3433 3434 3435 3436 3437 3438 3439 3440 3441 3442 3443 3444 3445 3446 3447 3448 3449 3450 3451 3452 3453 3454 3455 3456 3457 3458 3459 3460 3461 3462 3463 3464 3465 3466 3467 3468 3469 3470 3471 3472 3473 3474 3475 3476 3477 3478 3479 3480 3481 3482 3483 3484 3485 3486 3487 3488 3489 3490 3491 3492 3493 3494 3495 3496 3497 3498 3499 3500 3501 3502 3503 3504 3505 3506 3507 3508 3509 3510 3511 3512 3513 3514 3515 3516 3517 3518 3519 3520 3521 3522 3523 3524 3525 3526 3527 3528 3529 3530 3531 3532 3533 3534 3535 3536 3537 3538 3539 3540 3541 3542 3543 3544 3545 3546 3547 3548 3549 3550 3551 3552 3553 3554 3555 3556 3557 3558 3559 3560 3561 3562 3563 3564 3565 3566 3567 3568 3569 3570 3571 3572 3573 3574 3575 3576 3577 3578 3579 3580 3581 3582 3583 3584 3585 3586 3587 3588 3589 3590 3591 3592 3593 3594 3595 3596 3597 3598 3599 3600 3601 3602 3603 3604 3605 3606 3607 3608 3609 3610 3611 3612 3613 3614 3615 3616 3617 3618 3619 3620 3621 3622 3623 3624 3625 3626 3627 3628 3629 3630 3631 3632 3633 3634 3635 3636 3637 3638 3639 3640 3641 3642 3643 3644 3645 3646 3647 3648 3649 3650 3651 3652 3653 3654 3655 3656 3657 3658 3659 3660 3661 3662 3663 3664 3665 3666 3667 3668 3669 3670 3671 3672 3673 3674 3675 3676 3677 3678 3679 3680 3681 3682 3683 3684 3685 3686 3687 3688 3689 3690 3691 3692 3693 3694 3695 3696 3697 3698 3699 3700 3701 3702 3703 3704 3705 3706 3707 3708 3709 3710 3711 3712 3713 3714 3715 3716 3717 3718 3719 3720 3721 3722 3723 3724 3725 3726 3727 3728 3729 3730 3731 3732 3733 3734 3735 3736 3737 3738 3739 3740 3741 3742 3743 3744 3745 3746 3747 3748 3749 3750 3751 3752 3753 3754 3755 3756 3757 3758 3759 3760 3761 3762 3763 3764 3765 3766 3767 3768 3769 3770 3771 3772 3773 3774 3775 3776 3777 3778 3779 3780 3781 3782 3783 3784 3785 3786 3787 3788 3789 3790 3791 3792 3793 3794 3795 3796 3797 3798 3799 3800 3801 3802 3803 3804 3805 3806 3807 3808 3809 3810 3811 3812 3813 3814 3815 3816 3817 3818 3819 3820 3821 3822 3823 3824 3825 3826 3827 3828 3829 3830 3831 3832 3833 3834 3835 3836 3837 3838 3839 3840 3841 3842 3843 3844 3845 3846 3847 3848 3849 3850 3851 3852 3853 3854 3855 3856 3857 3858 3859 3860 3861 3862 3863 3864 3865 3866 3867 3868 3869 3870 3871 3872 3873 3874 3875 3876 3877 3878 3879 3880 3881 3882 3883 3884 3885 3886 3887 3888 3889 3890 3891 3892 3893 3894 3895 3896 3897 3898 3899 3900 3901 3902 3903 3904 3905 3906 3907 3908 3909 3910 3911 3912 3913 3914 3915 3916 3917 3918 3919 3920 3921 3922 3923 3924 3925 3926 3927 3928 3929 3930 3931 3932 3933 3934 3935 3936 3937 3938 3939 3940 3941 3942 3943 3944 3945 3946 3947 3948 3949 3950 3951 3952 3953 3954 3955 3956 3957 3958 3959 3960 3961 3962 3963 3964 3965 3966 3967 3968 3969 3970 3971 3972 3973 3974 3975 3976 3977 3978 3979 3980 3981 3982 3983 3984 3985 3986 3987 3988 3989 3990 3991 3992 3993 3994 3995 3996 3997 3998 3999 4000 4001 4002 4003 4004 4005 4006 4007 4008 4009 4010 4011 4012 4013 4014 4015 4016 4017 4018 4019 4020 4021 4022 4023 4024 4025 4026 4027 4028 4029 4030 4031 4032 4033 4034 4035 4036 4037 4038 4039 4040 4041 4042 4043 4044 4045 4046 4047 4048 4049 4050 4051 4052 4053 4054 4055 4056 4057 4058 4059 4060 4061 4062 4063 4064 4065 4066 4067 4068 4069 4070 4071 4072 4073 4074 4075 4076 4077 4078 4079 4080 4081 4082 4083 4084 4085 4086 4087 4088 4089 4090 4091 4092 4093 4094 4095 4096 4097 4098 4099 4100 4101 4102 4103 4104 4105 4106 4107 4108 4109 4110 4111 4112 4113 4114 4115 4116 4117 4118 4119 4120 4121 4122 4123 4124 4125 4126 4127 4128 4129 4130 4131 4132 4133 4134 4135 4136 4137 4138 4139 4140 4141 4142 4143 4144 4145 4146 4147 4148 4149 4150 4151 4152 4153 4154 4155 4156 4157 4158 4159 4160 4161 4162 4163 4164 4165 4166 4167 4168 4169 4170 4171 4172 4173 4174 4175 4176 4177 4178 4179 4180 4181 4182 4183 4184 4185 4186 4187 4188 4189 4190 4191 4192 4193 4194 4195 4196 4197 4198 4199 4200 4201 4202 4203 4204 4205 4206 4207 4208 4209 4210 4211 4212 4213 4214 4215 4216 4217 4218 4219 4220 4221 4222 4223 4224 4225 4226 4227 4228 4229 4230 4231 4232 4233 4234 4235 4236 4237 4238 4239 4240 4241 4242 4243 4244 4245 4246 4247 4248 4249 4250 4251 4252 4253 4254 4255 4256 4257 4258 4259 4260 4261 4262 4263 4264 4265 4266 4267 4268 4269 4270 4271 4272 4273 4274 4275 4276 4277 4278 4279 4280 4281 4282 4283 4284 4285 4286 4287 4288 4289 4290 4291 4292 4293 4294 4295 4296 4297 4298 4299 4300 4301 4302 4303 4304 4305 4306 4307 4308 4309 4310 4311 4312 4313 4314 4315 4316 4317 4318 4319 4320 4321 4322 4323 4324 4325 4326 4327 4328 4329 4330 4331 4332 4333 4334 4335 4336 4337 4338 4339 4340 4341 4342 4343 4344 4345 4346 4347 4348 4349 4350 4351 4352 4353 4354 4355 4356 4357 4358 4359 4360 4361 4362 4363 4364 4365 4366 4367 4368 4369 4370 4371 4372 4373 4374 4375 4376 4377 4378 4379 4380 4381 4382 4383 4384 4385 4386 4387 4388 4389 4390 4391 4392 4393 4394 4395 4396 4397 4398 4399 4400 4401 4402 4403 4404 4405 4406 4407 4408 4409 4410 4411 4412 4413 4414 4415 4416 4417 4418 4419 4420 4421 4422 4423 4424 4425 4426 4427 4428 4429 4430 4431 4432 4433 4434 4435 4436 4437 4438 4439 4440 4441 4442 4443 4444 4445 4446 4447 4448 4449 4450 4451 4452 4453 4454 4455 4456 4457 4458 4459 4460 4461 4462 4463 4464 4465 4466 4467 4468 4469 4470 4471 4472 4473 4474 4475 4476 4477 4478 4479 4480 4481 4482 4483 4484 4485 4486 4487 4488 4489 4490 4491 4492 4493 4494 4495 4496 4497 4498 4499 4500 4501 4502 4503 4504 4505 4506 4507 4508 4509 4510 4511 4512 4513 4514 4515 4516 4517 4518 4519 4520 4521 4522 4523 4524 4525 4526 4527 4528 4529 4530 4531 4532 4533 4534 4535 4536 4537 4538 4539 4540 4541 4542 4543 4544 4545 4546 4547 4548 4549 4550 4551 4552 4553 4554 4555 4556 4557 4558 4559 4560 4561 4562 4563 4564 4565 4566 4567 4568 4569 4570 4571 4572 4573 4574 4575 4576 4577 4578 4579 4580 4581 4582 4583 4584 4585 4586 4587 4588 4589 4590 4591 4592 4593 4594 4595 4596 4597 4598 4599 4600 4601 4602 4603 4604 4605 4606 4607 4608 4609 4610 4611 4612 4613 4614 4615 4616 4617 4618 4619 4620 4621 4622 4623 4624 4625 4626 4627 4628 4629 4630 4631 4632 4633 4634 4635 4636 4637 4638 4639 4640 4641 4642 4643 4644 4645 4646 4647 4648 4649 4650 4651 4652 4653 4654 4655 4656 4657 4658 4659 4660 4661 4662 4663 4664 4665 4666 4667 4668 4669 4670 4671 4672 4673 4674 4675 4676 4677 4678 4679 4680 4681 4682 4683 4684 4685 4686 4687 4688 4689 4690 4691 4692 4693 4694 4695 4696 4697 4698 4699 4700 4701 4702 4703 4704 4705 4706 4707 4708 4709 4710 4711 4712 4713 4714 4715 4716 4717 4718 4719 4720 4721 4722 4723 4724 4725 4726 4727 4728 4729 4730 4731 4732 4733 4734 4735 4736 4737 4738 4739 4740 4741 4742 4743 4744 4745 4746 4747 4748 4749 4750 4751 4752 4753 4754 4755 4756 4757 4758 4759 4760 4761 4762 4763 4764 4765 4766 4767 4768 4769 4770 4771 4772 4773 4774 4775 4776 4777 4778 4779 4780 4781 4782 4783 4784 4785 4786 4787 4788 4789 4790 4791 4792 4793 4794 4795 4796 4797 4798 4799 4800 4801 4802 4803 4804 4805 4806 4807 4808 4809 4810 4811 4812 4813 4814 4815 4816 4817 4818 4819 4820 4821 4822 4823 4824 4825 4826 4827 4828 4829 4830 4831 4832 4833 4834 4835 4836 4837 4838 4839 4840 4841 4842 4843 4844 4845 4846 4847 4848 4849 4850 4851 4852 4853 4854 4855 4856 4857 4858 4859 4860 4861 4862 4863 4864 4865 4866 4867 4868 4869 4870 4871 4872 4873 4874 4875 4876 4877 4878 4879 4880 4881 4882 4883 4884 4885 4886 4887 4888 4889 4890 4891 4892 4893 4894 4895 4896 4897 4898 4899 4900 4901 4902 4903 4904 4905 4906 4907 4908 4909 4910 4911 4912 4913 4914 4915 4916 4917 4918 4919 4920 4921 4922 4923 4924 4925 4926 4927 4928 4929 4930 4931 4932 4933 4934 4935 4936 4937 4938 4939 4940 4941 4942 4943 4944 4945 4946 4947 4948 4949 4950 4951 4952 4953 4954 4955 4956 4957 4958 4959 4960 4961 4962 4963 4964 4965 4966 4967 4968 4969 4970 4971 4972 4973 4974 4975 4976 4977 4978 4979 4980 4981 4982 4983 4984 4985 4986 4987 4988 4989 4990 4991 4992 4993 4994 4995 4996 4997 4998 4999 5000 5001 5002 5003 5004 5005 5006 5007 5008 5009 5010 5011 5012 5013 5014 5015 5016 5017 5018 5019 5020 5021 5022 5023 5024 5025 5026 5027 5028 5029 5030 5031 5032 5033 5034 5035 5036 5037 5038 5039 5040 5041 5042 5043 5044 5045 5046 5047 5048 5049 5050 5051 5052 5053 5054 5055 5056 5057 5058 5059 5060 5061 5062 5063 5064 5065 5066 5067 5068 5069 5070 5071 5072 5073 5074 5075 5076 5077 5078 5079 5080 5081 5082 5083 5084 5085 5086 5087 5088 5089 5090 5091 5092 5093 5094 5095 5096 5097 5098 5099 5100 5101 5102 5103 5104 5105 5106 5107 5108 5109 5110 5111 5112 5113 5114 5115 5116 5117 5118 5119 5120 5121 5122 5123 5124 5125 5126 5127 5128 5129 5130 5131 5132 5133 5134 5135 5136 5137 5138 5139 5140 5141 5142 5143 5144 5145 5146 5147 5148 5149 5150 5151 5152 5153 5154 5155 5156 5157 5158 5159 5160 5161 5162 5163 5164 5165 5166 5167 5168 5169 5170 5171 5172 5173 5174 5175 5176 5177 5178 5179 5180 5181 5182 5183 5184 5185 5186 5187 5188 5189 5190 5191 5192 5193 5194 5195 5196 5197 5198 5199 5200 5201 5202 5203 5204 5205 5206 5207 5208 5209 5210 5211 5212 5213 5214 5215 5216 5217 5218 5219 5220 5221 5222 5223 5224 5225 5226 5227 5228 5229 5230 5231 5232 5233 5234 5235 5236 5237 5238 5239 5240 5241 5242 5243 5244 5245 5246 5247 5248 5249 5250 5251 5252 5253 5254 5255 5256 5257 5258 5259 5260 5261 5262 5263 5264 5265 5266 5267 5268 5269 5270 5271 5272 5273 5274 5275 5276 5277 5278 5279 5280 5281 5282 5283 5284 5285 5286 5287 5288 5289 5290 5291 5292 5293 5294 5295 5296 5297 5298 5299 5300 5301 5302 5303 5304 5305 5306 5307 5308 5309 5310 5311 5312 5313 5314 5315 5316 5317 5318 5319 5320 5321 5322 5323 5324 5325 5326 5327 5328 5329 5330 5331 5332 5333 5334 5335 5336 5337 5338 5339 5340 5341 5342 5343 5344 5345 5346 5347 5348 5349 5350 5351 5352 5353 5354 5355 5356 5357 5358 5359 5360 5361 5362 5363 5364 5365 5366 5367 5368 5369 5370 5371 5372 5373 5374 5375 5376 5377 5378 5379 5380 5381 5382 5383 5384 5385 5386 5387 5388 5389 5390 5391 5392 5393 5394 5395 5396 5397 5398 5399 5400 5401 5402 5403 5404 5405 5406 5407 5408 5409 5410 5411 5412 5413 5414 5415 5416 5417 5418 5419 5420 5421 5422 5423 5424 5425 5426 5427 5428 5429 5430 5431 5432 5433 5434 5435 5436 5437 5438 5439 5440 5441 5442 5443 5444 5445 5446 5447 5448 5449 5450 5451 5452 5453 5454 5455 5456 5457 5458 5459 5460 5461 5462 5463 5464 5465 5466 5467 5468 5469 5470 5471 5472 5473 5474 5475 5476 5477 5478 5479 5480 5481 5482 5483 5484 5485 5486 5487 5488 5489 5490 5491 5492 5493 5494 5495 5496 5497 5498 5499 5500 5501 5502 5503 5504 5505 5506 5507 5508 5509 5510 5511 5512 5513 5514 5515 5516 5517 5518 5519 5520 5521 5522 5523 5524 5525 5526 5527 5528 5529 5530 5531 5532 5533 5534 5535 5536 5537 5538 5539 5540 5541 5542 5543 5544 5545 5546 5547 5548 5549 5550 5551 5552 5553 5554 5555 5556 5557 5558 5559 5560 5561 5562 5563 5564 5565 5566 5567 5568 5569 5570 5571 5572 5573 5574 5575 5576 5577 5578 5579 5580 5581 5582 5583 5584 5585 5586 5587 5588 5589 5590 5591 5592 5593 5594 5595 5596 5597 5598 5599 5600 5601 5602 5603 5604 5605 5606 5607 5608 5609 5610 5611 5612 5613 5614 5615 5616 5617 5618 5619 5620 5621 5622 5623 5624 5625 5626 5627 5628 5629 5630 5631 5632 5633 5634 5635 5636 5637 5638 5639 5640 5641 5642 5643 5644 5645 5646 5647 5648 5649 5650 5651 5652 5653 5654 5655 5656 5657 5658 5659 5660 5661 5662 5663 5664 5665 5666 5667 5668 5669 5670 5671 5672 5673 5674 5675 5676 5677 5678 5679 5680 5681 5682 5683 5684 5685 5686 5687 5688 5689 5690 5691 5692 5693 5694 5695 5696 5697 5698 5699 5700 5701 5702 5703 5704 5705 5706 5707 5708 5709 5710 5711 5712 5713 5714 5715 5716 5717 5718 5719 5720 5721 5722 5723 5724 5725 5726 5727 5728 5729 5730 5731 5732 5733 5734 5735 5736 5737 5738 5739 5740 5741 5742 5743 5744 5745 5746 5747 5748 5749 5750 5751 5752 5753 5754 5755 5756 5757 5758 5759 5760 5761 5762 5763 5764 5765 5766 5767 5768 5769 5770 5771 5772 5773 5774 5775 5776 5777 5778 5779 5780 5781 5782 5783 5784 5785 5786 5787 5788 5789 5790 5791 5792 5793 5794 5795 5796 5797 5798 5799 5800 5801 5802 5803 5804 5805 5806 5807 5808 5809 5810 5811 5812 5813 5814 5815 5816 5817 5818 5819 5820 5821 5822 5823 5824 5825 5826 5827 5828 5829 5830 5831 5832 5833 5834 5835 5836 5837 5838 5839 5840 5841 5842 5843 5844 5845 5846 5847 5848 5849 5850 5851 5852 5853 5854 5855 5856 5857 5858 5859 5860 5861 5862 5863 5864 5865 5866 5867 5868 5869 5870 5871 5872 5873 5874 5875 5876 5877 5878 5879 5880 5881 5882 5883 5884 5885 5886 5887 5888 5889 5890 5891 5892 5893 5894 5895 5896 5897 5898 5899 5900 5901 5902 5903 5904 5905 5906 5907 5908 5909 5910 5911 5912 5913 5914 5915 5916 5917 5918 5919 5920 5921 5922 5923 5924 5925 5926 5927 5928 5929 5930 5931 5932 5933 5934 5935 5936 5937 5938 5939 5940 5941 5942 5943 5944 5945 5946 5947 5948 5949 5950 5951 5952 5953 5954 5955 5956 5957 5958 5959 5960 5961 5962 5963 5964 5965 5966 5967 5968 5969 5970 5971 5972 5973 5974 5975 5976 5977 5978 5979 5980 5981 5982 5983 5984 5985 5986 5987 5988 5989 5990 5991 5992 5993 5994 5995 5996 5997 5998 5999 6000 6001 6002 6003 6004 6005 6006 6007 6008 6009 6010 6011 6012 6013 6014 6015 6016 6017 6018 6019 6020 6021 6022 6023 6024 6025 6026 6027 6028 6029 6030 6031 6032 6033 6034 6035 6036 6037 6038 6039 6040 6041 6042 6043 6044 6045 6046 6047 6048 6049 6050 6051 6052 6053 6054 6055 6056 6057 6058 6059 6060 6061 6062 6063 6064 6065 6066 6067 6068 6069 6070 6071 6072 6073 6074 6075 6076 6077 6078 6079 6080 6081 6082 6083 6084 6085 6086 6087 6088 6089 6090 6091 6092 6093 6094 6095 6096 6097 6098 6099 6100 6101 6102 6103 6104 6105 6106 6107 6108 6109 6110 6111 6112 6113 6114 6115 6116 6117 6118 6119 6120 6121 6122 6123 6124 6125 6126 6127 6128 6129 6130 6131 6132 6133 6134 6135 6136 6137 6138 6139 6140 6141 6142 6143 6144 6145 6146 6147 6148 6149 6150 6151 6152 6153 6154 6155 6156 6157 6158 6159 6160 6161 6162 6163 6164 6165 6166 6167 6168 6169 6170 6171 6172 6173 6174 6175 6176 6177 6178 6179 6180 6181 6182 6183 6184 6185 6186 6187 6188 6189 6190 6191 6192 6193 6194 6195 6196 6197 6198 6199 6200 6201 6202 6203 6204 6205 6206 6207 6208 6209 6210 6211 6212 6213 6214 6215 6216 6217 6218 6219 6220 6221 6222 6223 6224 6225 6226 6227 6228 6229 6230 6231 6232 6233 6234 6235 6236 6237 6238 6239 6240 6241 6242 6243 6244 6245 6246 6247 6248 6249 6250 6251 6252 6253 6254 6255 6256 6257 6258 6259 6260 6261 6262 6263 6264 6265 6266 6267 6268 6269 6270 6271 6272 6273 6274 6275 6276 6277 6278 6279 6280 6281 6282 6283 6284 6285 6286 6287 6288 6289 6290 6291 6292 6293 6294 6295 6296 6297 6298 6299 6300 6301 6302 6303 6304 6305 6306 6307 6308 6309 6310 6311 6312 6313 6314 6315 6316 6317 6318 6319 6320 6321 6322 6323 6324 6325 6326 6327 6328 6329 6330 6331 6332 6333 6334 6335 6336 6337 6338 6339 6340 6341 6342 6343 6344 6345 6346 6347 6348 6349 6350 6351 6352 6353 6354 6355 6356 6357 6358 6359 6360 6361 6362 6363 6364 6365 6366 6367 6368 6369 6370 6371 6372 6373 6374 6375 6376 6377 6378 6379 6380 6381 6382 6383 6384 6385 6386 6387 6388 6389 6390 6391 6392 6393 6394 6395 6396 6397 6398 6399 6400 6401 6402 6403 6404 6405 6406 6407 6408 6409 6410 6411 6412 6413 6414 6415 6416 6417 6418 6419 6420 6421 6422 6423 6424 6425 6426 6427 6428 6429 6430 6431 6432 6433 6434 6435 6436 6437 6438 6439 6440 6441 6442 6443 6444 6445 6446 6447 6448 6449 6450 6451 6452 6453 6454 6455 6456 6457 6458 6459 6460 6461 6462 6463 6464 6465 6466 6467 6468 6469 6470 6471 6472 6473 6474 6475 6476 6477 6478 6479 6480 6481 6482 6483 6484 6485 6486 6487 6488 6489 6490 6491 6492 6493 6494 6495 6496 6497 6498 6499 6500 6501 6502 6503 6504 6505 6506 6507 6508 6509 6510 6511 6512 6513 6514 6515 6516 6517 6518 6519 6520 6521 6522 6523 6524 6525 6526 6527 6528 6529 6530 6531 6532 6533 6534 6535 6536 6537 6538 6539 6540 6541 6542 6543 6544 6545 6546 6547 6548 6549 6550 6551 6552 6553 6554 6555 6556 6557 6558 6559 6560 6561 6562 6563 6564 6565 6566 6567 6568 6569 6570 6571 6572 6573 6574 6575 6576 6577 6578 6579 6580 6581 6582 6583 6584 6585 6586 6587 6588 6589 6590 6591 6592 6593 6594 6595 6596 6597 6598 6599 6600 6601 6602 6603 6604 6605 6606 6607 6608 6609 6610 6611 6612 6613 6614 6615 6616 6617 6618 6619 6620 6621 6622 6623 6624 6625 6626 6627 6628 6629 6630 6631 6632 6633 6634 6635 6636 6637 6638 6639 6640 6641 6642 6643 6644 6645 6646 6647 6648 6649 6650 6651 6652 6653 6654 6655 6656 6657 6658 6659 6660 6661 6662 6663 6664 6665 6666 6667 6668 6669 6670 6671 6672 6673 6674 6675 6676 6677 6678 6679 6680 6681 6682 6683 6684 6685 6686 6687 6688 6689 6690 6691 6692 6693 6694 6695 6696 6697 6698 6699 6700 6701 6702 6703 6704 6705 6706 6707 6708 6709 6710 6711 6712 6713 6714 6715 6716 6717 6718 6719 6720 6721 6722 6723 6724 6725 6726 6727 6728 6729 6730 6731 6732 6733 6734 6735 6736 6737 6738 6739 6740 6741 6742 6743 6744 6745 6746 6747 6748 6749 6750 6751 6752 6753 6754 6755 6756 6757 6758 6759 6760 6761 6762 6763 6764 6765 6766 6767 6768 6769 6770 6771 6772 6773 6774 6775 6776 6777 6778 6779 6780 6781 6782 6783 6784 6785 6786 6787 6788 6789 6790 6791 6792 6793 6794 6795 6796 6797 6798 6799 6800 6801 6802 6803 6804 6805 6806 6807 6808 6809 6810 6811 6812 6813 6814 6815 6816 6817 6818 6819 6820 6821 6822 6823 6824 6825 6826 6827 6828 6829 6830 6831 6832 6833 6834 6835 6836 6837 6838 6839 6840 6841 6842 6843 6844 6845 6846 6847 6848 6849 6850 6851 6852 6853 6854 6855 6856 6857 6858 6859 6860 6861 6862 6863 6864 6865 6866 6867 6868 6869 6870 6871 6872 6873 6874 6875 6876 6877 6878 6879 6880 6881 6882 6883 6884 6885 6886 6887 6888 6889 6890 6891 6892 6893 6894 6895 6896 6897 6898 6899 6900 6901 6902 6903 6904 6905 6906 6907 6908 6909 6910 6911 6912 6913 6914 6915 6916 6917 6918 6919 6920 6921 6922 6923 6924 6925 6926 6927 6928 6929 6930 6931 6932 6933 6934 6935 6936 6937 6938 6939 6940 6941 6942 6943 6944 6945 6946 6947 6948 6949 6950 6951 6952 6953 6954 6955 6956 6957 6958 6959 6960 6961 6962 6963 6964 6965 6966 6967 6968 6969 6970 6971 6972 6973 6974 6975 6976 6977 6978 6979 6980 6981 6982 6983 6984 6985 6986 6987 6988 6989 6990 6991 6992 6993 6994 6995 6996 6997 6998 6999 7000 7001 7002 7003 7004 7005 7006 7007 7008 7009 7010 7011 7012 7013 7014 7015 7016 7017 7018 7019 7020 7021 7022 7023 7024 7025 7026 7027 7028 7029 7030 7031 7032 7033 7034 7035 7036 7037 7038 7039 7040 7041 7042 7043 7044 7045 7046 7047 7048 7049 7050 7051 7052 7053 7054 7055 7056 7057 7058 7059 7060 7061 7062 7063 7064 7065 7066 7067 7068 7069 7070 7071 7072 7073 7074 7075 7076 7077 7078 7079 7080 7081 7082 7083 7084 7085 7086 7087 7088 7089 7090 7091 7092 7093 7094 7095 7096 7097 7098 7099 7100 7101 7102 7103 7104 7105 7106 7107 7108 7109 7110 7111 7112 7113 7114 7115 7116 7117 7118 7119 7120 7121 7122 7123 7124 7125 7126 7127 7128 7129 7130 7131 7132 7133 7134 7135 7136 7137 7138 7139 7140 7141 7142 7143 7144 7145 7146 7147 7148 7149 7150 7151 7152 7153 7154 7155 7156 7157 7158 7159 7160 7161 7162 7163 7164 7165 7166 7167 7168 7169 7170 7171 7172 7173 7174 7175 7176 7177 7178 7179 7180 7181 7182 7183 7184 7185 7186 7187 7188 7189 7190 7191 7192 7193 7194 7195 7196 7197 7198 7199 7200 7201 7202 7203 7204 7205 7206 7207 7208 7209 7210 7211 7212 7213 7214 7215 7216 7217 7218 7219 7220 7221 7222 7223 7224 7225 7226 7227 7228 7229 7230 7231 7232 7233 7234 7235 7236 7237 7238 7239 7240 7241 7242 7243 7244 7245 7246 7247 7248 7249 7250 7251 7252 7253 7254 7255 7256 7257 7258 7259 7260 7261 7262 7263 7264 7265 7266 7267 7268 7269 7270 7271 7272 7273 7274 7275 7276 7277 7278 7279 7280 7281 7282 7283 7284 7285 7286 7287 7288 7289 7290 7291 7292 7293 7294 7295 7296 7297 7298 7299 7300 7301 7302 7303 7304 7305 7306 7307 7308 7309 7310 7311 7312 7313 7314 7315 7316 7317 7318 7319 7320 7321 7322 7323 7324 7325 7326 7327 7328 7329 7330 7331 7332 7333 7334 7335 7336 7337 7338 7339 7340 7341 7342 7343 7344 7345 7346 7347 7348 7349 7350 7351 7352 7353 7354 7355 7356 7357 7358 7359 7360 7361 7362 7363 7364 7365 7366 7367 7368 7369 7370 7371 7372 7373 7374 7375 7376 7377 7378 7379 7380 7381 7382 7383 7384 7385 7386 7387 7388 7389 7390 7391 7392 7393 7394 7395 7396 7397 7398 7399 7400 7401 7402 7403 7404 7405 7406 7407 7408 7409 7410 7411 7412 7413 7414 7415 7416 7417 7418 7419 7420 7421 7422 7423 7424 7425 7426 7427 7428 7429 7430 7431 7432 7433 7434 7435 7436 7437 7438 7439 7440 7441 7442 7443 7444 7445 7446 7447 7448 7449 7450 7451 7452 7453 7454 7455 7456 7457 7458 7459 7460 7461 7462 7463 7464 7465 7466 7467 7468 7469 7470 7471 7472 7473 7474 7475 7476 7477 7478 7479 7480 7481 7482 7483 7484 7485 7486 7487 7488 7489 7490 7491 7492 7493 7494 7495 7496 7497 7498 7499 7500 7501 7502 7503 7504 7505 7506 7507 7508 7509 7510 7511 7512 7513 7514 7515 7516 7517 7518 7519 7520 7521 7522 7523 7524 7525 7526 7527 7528 7529 7530 7531 7532 7533 7534 7535 7536 7537 7538 7539 7540 7541 7542 7543 7544 7545 7546 7547 7548 7549 7550 7551 7552 7553 7554 7555 7556 7557 7558 7559 7560 7561 7562 7563 7564 7565 7566 7567 7568 7569 7570 7571 7572 7573 7574 7575 7576 7577 7578 7579 7580 7581 7582 7583 7584 7585 7586 7587 7588 7589 7590 7591 7592 7593 7594 7595 7596 7597 7598 7599 7600 7601 7602 7603 7604 7605 7606 7607 7608 7609 7610 7611 7612 7613 7614 7615 7616 7617 7618 7619 7620 7621 7622 7623 7624 7625 7626 7627 7628 7629 7630 7631 7632 7633 7634 7635 7636 7637 7638 7639 7640 7641 7642 7643 7644 7645 7646 7647 7648 7649 7650 7651 7652 7653 7654 7655 7656 7657 7658 7659 7660 7661 7662 7663 7664 7665 7666 7667 7668 7669 7670 7671 7672 7673 7674 7675 7676 7677 7678 7679 7680 7681 7682 7683 7684 7685 7686 7687 7688 7689 7690 7691 7692 7693 7694 7695 7696 7697 7698 7699 7700 7701 7702 7703 7704 7705 7706 7707 7708 7709 7710 7711 7712 7713 7714 7715 7716 7717 7718 7719 7720 7721 7722 7723 7724 7725 7726 7727 7728 7729 7730 7731 7732 7733 7734 7735 7736 7737 7738 7739 7740 7741 7742 7743 7744 7745 7746 7747 7748 7749 7750 7751 7752 7753 7754 7755 7756 7757 7758 7759 7760 7761 7762 7763 7764 7765 7766 7767 7768 7769 7770 7771 7772 7773 7774 7775 7776 7777 7778 7779 7780 7781 7782 7783 7784 7785 7786 7787 7788 7789 7790 7791 7792 7793 7794 7795 7796 7797 7798 7799 7800 7801 7802 7803 7804 7805 7806 7807 7808 7809 7810 7811 7812 7813 7814 7815 7816 7817 7818 7819 7820 7821 7822 7823 7824 7825 7826 7827 7828 7829 7830 7831 7832 7833 7834 7835 7836 7837 7838 7839 7840 7841 7842 7843 7844 7845 7846 7847 7848 7849 7850 7851 7852 7853 7854 7855 7856 7857 7858 7859 7860 7861 7862 7863 7864 7865 7866 7867 7868 7869 7870 7871 7872 7873 7874 7875 7876 7877 7878 7879 7880 7881 7882 7883 7884 7885 7886 7887 7888 7889 7890 7891 7892 7893 7894 7895 7896 7897 7898 7899 7900 7901 7902 7903 7904 7905 7906 7907 7908 7909 7910 7911 7912 7913 7914 7915 7916 7917 7918 7919 7920 7921 7922 7923 7924 7925 7926 7927 7928 7929 7930 7931 7932 7933 7934 7935 7936 7937 7938 7939 7940 7941 7942 7943 7944 7945 7946 7947 7948 7949 7950 7951 7952 7953 7954 7955 7956 7957 7958 7959 7960 7961 7962 7963 7964 7965 7966 7967 7968 7969 7970 7971 7972 7973 7974 7975 7976 7977 7978 7979 7980 7981 7982 7983 7984 7985 7986 7987 7988 7989 7990 7991 7992 7993 7994 7995 7996 7997 7998 7999 8000 8001 8002 8003 8004 8005 8006 8007 8008 8009 8010 8011 8012 8013 8014 8015 8016 8017 8018 8019 8020 8021 8022 8023 8024 8025 8026 8027 8028 8029 8030 8031 8032 8033 8034 8035 8036 8037 8038 8039 8040 8041 8042 8043 8044 8045 8046 8047 8048 8049 8050 8051 8052 8053 8054 8055 8056 8057 8058 8059 8060 8061 8062 8063 8064 8065 8066 8067 8068 8069 8070 8071 8072 8073 8074 8075 8076 8077 8078 8079 8080 8081 8082 8083 8084 8085 8086 8087 8088 8089 8090 8091 8092 8093 8094 8095 8096 8097 8098 8099 8100 8101 8102 8103 8104 8105 8106 8107 8108 8109 8110 8111 8112 8113 8114 8115 8116 8117 8118 8119 8120 8121 8122 8123 8124 8125 8126 8127 8128 8129 8130 8131 8132 8133 8134 8135 8136 8137 8138 8139 8140 8141 8142 8143 8144 8145 8146 8147 8148 8149 8150 8151 8152 8153 8154 8155 8156 8157 8158 8159 8160 8161 8162 8163 8164 8165 8166 8167 8168 8169 8170 8171 8172 8173 8174 8175 8176 8177 8178 8179 8180 8181 8182 8183 8184 8185 8186 8187 8188 8189 8190 8191 8192 8193 8194 8195 8196 8197 8198 8199 8200 8201 8202 8203 8204 8205 8206 8207 8208 8209 8210 8211 8212 8213 8214 8215 8216 8217 8218 8219 8220 8221 8222 8223 8224 8225 8226 8227 8228 8229 8230 8231 8232 8233 8234 8235 8236 8237 8238 8239 8240 8241 8242 8243 8244 8245 8246 8247 8248 8249 8250 8251 8252 8253 8254 8255 8256 8257 8258 8259 8260 8261 8262 8263 8264 8265 8266 8267 8268 8269 8270 8271 8272 8273 8274 8275 8276 8277 8278 8279 8280 8281 8282 8283 8284 8285 8286 8287 8288 8289 8290 8291 8292 8293 8294 8295 8296 8297 8298 8299 8300 8301 8302 8303 8304 8305 8306 8307 8308 8309 8310 8311 8312 8313 8314 8315 8316 8317 8318 8319 8320 8321 8322 8323 8324 8325 8326 8327 8328 8329 8330 8331 8332 8333 8334 8335 8336 8337 8338 8339 8340 8341 8342 8343 8344 8345 8346 8347 8348 8349 8350 8351 8352 8353 8354 8355 8356 8357 8358 8359 8360 8361 8362 8363 8364 8365 8366 8367 8368 8369 8370 8371 8372 8373 8374 8375 8376 8377 8378 8379 8380 8381 8382 8383 8384 8385 8386 8387 8388 8389 8390 8391 8392 8393 8394 8395 8396 8397 8398 8399 8400 8401 8402 8403 8404 8405 8406 8407 8408 8409 8410 8411 8412 8413 8414 8415 8416 8417 8418 8419 8420 8421 8422 8423 8424 8425 8426 8427 8428 8429 8430 8431 8432 8433 8434 8435 8436 8437 8438 8439 8440 8441 8442 8443 8444 8445 8446 8447 8448 8449 8450 8451 8452 8453 8454 8455 8456 8457 8458 8459 8460 8461 8462 8463 8464 8465 8466 8467 8468 8469 8470 8471 8472 8473 8474 8475 8476 8477 8478 8479 8480 8481 8482 8483 8484 8485 8486 8487 8488 8489 8490 8491 8492 8493 8494 8495 8496 8497 8498 8499 8500 8501 8502 8503 8504 8505 8506 8507 8508 8509 8510 8511 8512 8513 8514 8515 8516 8517 8518 8519 8520 8521 8522 8523 8524 8525 8526 8527 8528 8529 8530 8531 8532 8533 8534 8535 8536 8537 8538 8539 8540 8541 8542 8543 8544 8545 8546 8547 8548 8549 8550 8551 8552 8553 8554 8555 8556 8557 8558 8559 8560 8561 8562 8563 8564 8565 8566 8567 8568 8569 8570 8571 8572 8573 8574 8575 8576 8577 8578 8579 8580 8581 8582 8583 8584 8585 8586 8587 8588 8589 8590 8591 8592 8593 8594 8595 8596 8597 8598 8599 8600 8601 8602 8603 8604 8605 8606 8607 8608 8609 8610 8611 8612 8613 8614 8615 8616 8617 8618 8619 8620 8621 8622 8623 8624 8625 8626 8627 8628 8629 8630 8631 8632 8633 8634 8635 8636 8637 8638 8639 8640 8641 8642 8643 8644 8645 8646 8647 8648 8649 8650 8651 8652 8653 8654 8655 8656 8657 8658 8659 8660 8661 8662 8663 8664 8665 8666 8667 8668 8669 8670 8671 8672 8673 8674 8675 8676 8677 8678 8679 8680 8681 8682 8683 8684 8685 8686 8687 8688 8689 8690 8691 8692 8693 8694 8695 8696 8697 8698 8699 8700 8701 8702 8703 8704 8705 8706 8707 8708 8709 8710 8711 8712 8713 8714 8715 8716 8717 8718 8719 8720 8721 8722 8723 8724 8725 8726 8727 8728 8729 8730 8731 8732 8733 8734 8735 8736 8737 8738 8739 8740 8741 8742 8743 8744 8745 8746 8747 8748 8749 8750 8751 8752 8753 8754 8755 8756 8757 8758 8759 8760 8761 8762 8763 8764 8765 8766 8767 8768 8769 8770 8771 8772 8773 8774 8775 8776 8777 8778 8779 8780 8781 8782 8783 8784 8785 8786 8787 8788 8789 8790 8791 8792 8793 8794 8795 8796 8797 8798 8799 8800 8801 8802 8803 8804 8805 8806 8807 8808 8809 8810 8811 8812 8813 8814 8815 8816 8817 8818 8819 8820 8821 8822 8823 8824 8825 8826 8827 8828 8829 8830 8831 8832 8833 8834 8835 8836 8837 8838 8839 8840 8841 8842 8843 8844 8845 8846 8847 8848 8849 8850 8851 8852 8853 8854 8855 8856 8857 8858 8859 8860 8861 8862 8863 8864 8865 8866 8867 8868 8869 8870 8871 8872 8873 8874 8875 8876 8877 8878 8879 8880 8881 8882 8883 8884 8885 8886 8887 8888 8889 8890 8891 8892 8893 8894 8895 8896 8897 8898 8899 8900 8901 8902 8903 8904 8905 8906 8907 8908 8909 8910 8911 8912 8913 8914 8915 8916 8917 8918 8919 8920 8921 8922 8923 8924 8925 8926 8927 8928 8929 8930 8931 8932 8933 8934 8935 8936 8937 8938 8939 8940 8941 8942 8943 8944 8945 8946 8947 8948 8949 8950 8951 8952 8953 8954 8955 8956 8957 8958 8959 8960 8961 8962 8963 8964 8965 8966 8967 8968 8969 8970 8971 8972 8973 8974 8975 8976 8977 8978 8979 8980 8981 8982 8983 8984 8985 8986 8987 8988 8989 8990 8991 8992 8993 8994 8995 8996 8997 8998 8999 9000 9001 9002 9003 9004 9005 9006 9007 9008 9009 9010 9011 9012 9013 9014 9015 9016 9017 9018 9019 9020 9021 9022 9023 9024 9025 9026 9027 9028 9029 9030 9031 9032 9033 9034 9035 9036 9037 9038 9039 9040 9041 9042 9043 9044 9045 9046 9047 9048 9049 9050 9051 9052 9053 9054 9055 9056 9057 9058 9059 9060 9061 9062 9063 9064 9065 9066 9067 9068 9069 9070 9071 9072 9073 9074 9075 9076 9077 9078 9079 9080 9081 9082 9083 9084 9085 9086 9087 9088 9089 9090 9091 9092 9093 9094 9095 9096 9097 9098 9099 9100 9101 9102 9103 9104 9105 9106 9107 9108 9109 9110 9111 9112 9113 9114 9115 9116 9117 9118 9119 9120 9121 9122 9123 9124 9125 9126 9127 9128 9129 9130 9131 9132 9133 9134 9135 9136 9137 9138 9139 9140 9141 9142 9143 9144 9145 9146 9147 9148 9149 9150 9151 9152 9153 9154 9155 9156 9157 9158 9159 9160 9161 9162 9163 9164 9165 9166 9167 9168 9169 9170 9171 9172 9173 9174 9175 9176 9177 9178 9179 9180 9181 9182 9183 9184 9185 9186 9187 9188 9189 9190 9191 9192 9193 9194 9195 9196 9197 9198 9199 9200 9201 9202 9203 9204 9205 9206 9207 9208 9209 9210 9211 9212 9213 9214 9215 9216 9217 9218 9219 9220 9221 9222 9223 9224 9225 9226 9227 9228 9229 9230 9231 9232 9233 9234 9235 9236 9237 9238 9239 9240 9241 9242 9243 9244 9245 9246 9247 9248 9249 9250 9251 9252 9253 9254 9255 9256 9257 9258 9259 9260 9261 9262 9263 9264 9265 9266 9267 9268 9269 9270 9271 9272 9273 9274 9275 9276 9277 9278 9279 9280 9281 9282 9283 9284 9285 9286 9287 9288 9289 9290 9291 9292 9293 9294 9295 9296 9297 9298 9299 9300 9301 9302 9303 9304 9305 9306 9307 9308 9309 9310 9311 9312 9313 9314 9315 9316 9317 9318 9319 9320 9321 9322 9323 9324 9325 9326 9327 9328 9329 9330 9331 9332 9333 9334 9335 9336 9337 9338 9339 9340 9341 9342 9343 9344 9345 9346 9347 9348 9349 9350 9351 9352 9353 9354 9355 9356 9357 9358 9359 9360 9361 9362 9363 9364 9365 9366 9367 9368 9369 9370 9371 9372 9373 9374 9375 9376 9377 9378 9379 9380 9381 9382 9383 9384 9385 9386 9387 9388 9389 9390 9391 9392 9393 9394 9395 9396 9397 9398 9399 9400 9401 9402 9403 9404 9405 9406 9407 9408 9409 9410 9411 9412 9413 9414 9415 9416 9417 9418 9419 9420 9421 9422 9423 9424 9425 9426 9427 9428 9429 9430 9431 9432 9433 9434 9435 9436 9437 9438 9439 9440 9441 9442 9443 9444 9445 9446 9447 9448 9449 9450 9451 9452 9453 9454 9455 9456 9457 9458 9459 9460 9461 9462 9463 9464 9465 9466 9467 9468 9469 9470 9471 9472 9473 9474 9475 9476 9477 9478 9479 9480 9481 9482 9483 9484 9485 9486 9487 9488 9489 9490 9491 9492 9493 9494 9495 9496 9497 9498 9499 9500 9501 9502 9503 9504 9505 9506 9507 9508 9509 9510 9511 9512 9513 9514 9515 9516 9517 9518 9519 9520 9521 9522 9523 9524 9525 9526 9527 9528 9529 9530 9531 9532 9533 9534 9535 9536 9537 9538 9539 9540 9541 9542 9543 9544 9545 9546 9547 9548 9549 9550 9551 9552 9553 9554 9555 9556 9557 9558 9559 9560 9561 9562 9563 9564 9565 9566 9567 9568 9569 9570 9571 9572 9573 9574 9575 9576 9577 9578 9579 9580 9581 9582 9583 9584 9585 9586 9587 9588 9589 9590 9591 9592 9593 9594 9595 9596 9597 9598 9599 9600 9601 9602 9603 9604 9605 9606 9607 9608 9609 9610 9611 9612 9613 9614 9615 9616 9617 9618 9619 9620 9621 9622 9623 9624 9625 9626 9627 9628 9629 9630 9631 9632 9633 9634 9635 9636 9637 9638 9639 9640 9641 9642 9643 9644 9645 9646 9647 9648 9649 9650 9651 9652 9653 9654 9655 9656 9657 9658 9659 9660 9661 9662 9663 9664 9665 9666 9667 9668 9669 9670 9671 9672 9673 9674 9675 9676 9677 9678 9679 9680 9681 9682 9683 9684 9685 9686 9687 9688 9689 9690 9691 9692 9693 9694 9695 9696 9697 9698 9699 9700 9701 9702 9703 9704 9705 9706 9707 9708 9709 9710 9711 9712 9713 9714 9715 9716 9717 9718 9719 9720 9721 9722 9723 9724 9725 9726 9727 9728 9729 9730 9731 9732 9733 9734 9735 9736 9737 9738 9739 9740 9741 9742 9743 9744 9745 9746 9747 9748 9749 9750 9751 9752 9753 9754 9755 9756 9757 9758 9759 9760 9761 9762 9763 9764 9765 9766 9767 9768 9769 9770 9771 9772 9773 9774 9775 9776 9777 9778 9779 9780 9781 9782 9783 9784 9785 9786 9787 9788 9789 9790 9791 9792 9793 9794 9795 9796 9797 9798 9799 9800 9801 9802 9803 9804 9805 9806 9807 9808 9809 9810 9811 9812 9813 9814 9815 9816 9817 9818 9819 9820 9821 9822 9823 9824 9825 9826 9827 9828 9829 9830 9831 9832 9833 9834 9835 9836 9837 9838 9839 9840 9841 9842 9843 9844 9845 9846 9847 9848 9849 9850 9851 9852 9853 9854 9855 9856 9857 9858 9859 9860 9861 9862 9863 9864 9865 9866 9867 9868 9869 9870 9871 9872 9873 9874 9875 9876 9877 9878 9879 9880 9881 9882 9883 9884 9885 9886 9887 9888 9889 9890 9891 9892 9893 9894 9895 9896 9897 9898 9899 9900 9901 9902 9903 9904 9905 9906 9907 9908 9909 9910 9911 9912 9913 9914 9915 9916 9917 9918 9919 9920 9921 9922 9923 9924 9925 9926 9927 9928 9929 9930 9931 9932 9933 9934 9935 9936 9937 9938 9939 9940 9941 9942 9943 9944 9945 9946 9947 9948 9949 9950 9951 9952 9953 9954 9955 9956 9957 9958 9959 9960 9961 9962 9963 9964 9965 9966 9967 9968 9969 9970 9971 9972 9973 9974 9975 9976 9977 9978 9979 9980 9981 9982 9983 9984 9985 9986 9987 9988 9989 9990 9991 9992 9993 9994 9995 9996 9997 9998 9999 10000 10001 10002 10003 10004 10005 10006 10007 10008 10009 10010 10011 10012 10013 10014 10015 10016 10017 10018 10019 10020 10021 10022 10023 10024 10025 10026 10027 10028 10029 10030 10031 10032 10033 10034 10035 10036 10037 10038 10039 10040 10041 10042 10043 10044 10045 10046 10047 10048 10049 10050 10051 10052 10053 10054 10055 10056 10057 10058 10059 10060 10061 10062 10063 10064 10065 10066 10067 10068 10069 10070 10071 10072 10073 10074 10075 10076 10077 10078 10079 10080 10081 10082 10083 10084 10085 10086 10087 10088 10089 10090 10091 10092 10093 10094 10095 10096 10097 10098 10099 10100 10101 10102 10103 10104 10105 10106 10107 10108 10109 10110 10111 10112 10113 10114 10115 10116 10117 10118 10119 10120 10121 10122 10123 10124 10125 10126 10127 10128 10129 10130 10131 10132 10133 10134 10135 10136 10137 10138 10139 10140 10141 10142 10143 10144 10145 10146 10147 10148 10149 10150 10151 10152 10153 10154 10155 10156 10157 10158 10159 10160 10161 10162 10163 10164 10165 10166 10167 10168 10169 10170 10171 10172 10173 10174 10175 10176 10177 10178 10179 10180 10181 10182 10183 10184 10185 10186 10187 10188 10189 10190 10191 10192 10193 10194 10195 10196 10197 10198 10199 10200 10201 10202 10203 10204 10205 10206 10207 10208 10209 10210 10211 10212 10213 10214 10215 10216 10217 10218 10219 10220 10221 10222 10223 10224 10225 10226 10227 10228 10229 10230 10231 10232 10233 10234 10235 10236 10237 10238 10239 10240 10241 10242 10243 10244 10245 10246 10247 10248 10249 10250 10251 10252 10253 10254 10255 10256 10257 10258 10259 10260 10261 10262 10263 10264 10265 10266 10267 10268 10269 10270 10271 10272 10273 10274 10275 10276 10277 10278 10279 10280 10281 10282 10283 10284 10285 10286 10287 10288 10289 10290 10291 10292 10293 10294 10295 10296 10297 10298 10299 10300 10301 10302 10303 10304 10305 10306 10307 10308 10309 10310 10311 10312 10313 10314 10315 10316 10317 10318 10319 10320 10321 10322 10323 10324 10325 10326 10327 10328 10329 10330 10331 10332 10333 10334 10335 10336 10337 10338 10339 10340 10341 10342 10343 10344 10345 10346 10347 10348 10349 10350 10351 10352 10353 10354 10355 10356 10357 10358 10359 10360 10361 10362 10363 10364 10365 10366 10367 10368 10369 10370 10371 10372 10373 10374 10375 10376 10377 10378 10379 10380 10381 10382 10383 10384 10385 10386 10387 10388 10389 10390 10391 10392 10393 10394 10395 10396 10397 10398 10399 10400 10401 10402 10403 10404 10405 10406 10407 10408 10409 10410 10411 10412 10413 10414 10415 10416 10417 10418 10419 10420 10421 10422 10423 10424 10425 10426 10427 10428 10429 10430 10431 10432 10433 10434 10435 10436 10437 10438 10439 10440 10441 10442 10443 10444 10445 10446 10447 10448 10449 10450 10451 10452 10453 10454 10455 10456 10457 10458 10459 10460 10461 10462 10463 10464 10465 10466 10467 10468 10469 10470 10471 10472 10473 10474 10475 10476 10477 10478 10479 10480 10481 10482 10483 10484 10485 10486 10487 10488 10489 10490 10491 10492 10493 10494 10495 10496 10497 10498 10499 10500 10501 10502 10503 10504 10505 10506 10507 10508 10509 10510 10511 10512 10513 10514 10515 10516 10517 10518 10519 10520 10521 10522 10523 10524 10525 10526 10527 10528 10529 10530 10531 10532 10533 10534 10535 10536 10537 10538 10539 10540 10541 10542 10543 10544 10545 10546 10547 10548 10549 10550 10551 10552 10553 10554 10555 10556 10557 10558 10559 10560 10561 10562 10563 10564 10565 10566 10567 10568 10569 10570 10571 10572 10573 10574 10575 10576 10577 10578 10579 10580 10581 10582 10583 10584 10585 10586 10587 10588 10589 10590 10591 10592 10593 10594 10595 10596 10597 10598 10599 10600 10601 10602 10603 10604 10605 10606 10607 10608 10609 10610 10611 10612 10613 10614 10615 10616 10617 10618 10619 10620 10621 10622 10623 10624 10625 10626 10627 10628 10629 10630 10631 10632 10633 10634 10635 10636 10637 10638 10639 10640 10641 10642 10643 10644 10645 10646 10647 10648 10649 10650 10651 10652 10653 10654 10655 10656 10657 10658 10659 10660 10661 10662 10663 10664 10665 10666 10667 10668 10669 10670 10671 10672 10673 10674 10675 10676 10677 10678 10679 10680 10681 10682 10683 10684 10685 10686 10687 10688 10689 10690 10691 10692 10693 10694 10695 10696 10697 10698 10699 10700 10701 10702 10703 10704 10705 10706 10707 10708 10709 10710 10711 10712 10713 10714 10715 10716 10717 10718 10719 10720 10721 10722 10723 10724 10725 10726 10727 10728 10729 10730 10731 10732 10733 10734 10735 10736 10737 10738 10739 10740 10741 10742 10743 10744 10745 10746 10747 10748 10749 10750 10751 10752 10753 10754 10755 10756 10757 10758 10759 10760 10761 10762 10763 10764 10765 10766 10767 10768 10769 10770 10771 10772 10773 10774 10775 10776 10777 10778 10779 10780 10781 10782 10783 10784 10785 10786 10787 10788 10789 10790 10791 10792 10793 10794 10795 10796 10797 10798 10799 10800 10801 10802 10803 10804 10805 10806 10807 10808 10809 10810 10811 10812 10813 10814 10815 10816 10817 10818 10819 10820 10821 10822 10823 10824 10825 10826 10827 10828 10829 10830 10831 10832 10833 10834 10835 10836 10837 10838 10839 10840 10841 10842 10843 10844 10845 10846 10847 10848 10849 10850 10851 10852 10853 10854 10855 10856 10857 10858 10859 10860 10861 10862 10863 10864 10865 10866 10867 10868 10869 10870 10871 10872 10873 10874 10875 10876 10877 10878 10879 10880 10881 10882 10883 10884 10885 10886 10887 10888 10889 10890 10891 10892 10893 10894 10895 10896 10897 10898 10899 10900 10901 10902 10903 10904 10905 10906 10907 10908 10909 10910 10911 10912 10913 10914 10915 10916 10917 10918 10919 10920 10921 10922 10923 10924 10925 10926 10927 10928 10929 10930 10931 10932 10933 10934 10935 10936 10937 10938 10939 10940 10941 10942 10943 10944 10945 10946 10947 10948 10949 10950 10951 10952 10953 10954 10955 10956 10957 10958 10959 10960 10961 10962 10963 10964 10965 10966 10967 10968 10969 10970 10971 10972 10973 10974 10975 10976 10977 10978 10979 10980 10981 10982 10983 10984 10985 10986 10987 10988 10989 10990 10991 10992 10993 10994 10995 10996 10997 10998 10999 11000 11001 11002 11003 11004 11005 11006 11007 11008 11009 11010 11011 11012 11013 11014 11015 11016 11017 11018 11019 11020 11021 11022 11023 11024 11025 11026 11027 11028 11029 11030 11031 11032 11033 11034 11035 11036 11037 11038 11039 11040 11041 11042 11043 11044 11045 11046 11047 11048 11049 11050 11051 11052 11053 11054 11055 11056 11057 11058 11059 11060 11061 11062 11063 11064 11065 11066 11067 11068 11069 11070 11071 11072 11073 11074 11075 11076 11077 11078 11079 11080 11081 11082 11083 11084 11085 11086 11087 11088 11089 11090 11091 11092 11093 11094 11095 11096 11097 11098 11099 11100 11101 11102 11103 11104 11105 11106 11107 11108 11109 11110 11111 11112 11113 11114 11115 11116 11117 11118 11119 11120 11121 11122 11123 11124 11125 11126 11127 11128 11129 11130 11131 11132 11133 11134 11135 11136 11137 11138 11139 11140 11141 11142 11143 11144 11145 11146 11147 11148 11149 11150 11151 11152 11153 11154 11155 11156 11157 11158 11159 11160 11161 11162 11163 11164 11165 11166 11167 11168 11169 11170 11171 11172 11173 11174 11175 11176 11177 11178 11179 11180 11181 11182 11183 11184 11185 11186 11187 11188 11189 11190 11191 11192 11193 11194 11195 11196 11197 11198 11199 11200 11201 11202 11203 11204 11205 11206 11207 11208 11209 11210 11211 11212 11213 11214 11215 11216 11217 11218 11219 11220 11221 11222 11223 11224 11225 11226 11227 11228 11229 11230 11231 11232 11233 11234 11235 11236 11237 11238 11239 11240 11241 11242 11243 11244 11245 11246 11247 11248 11249 11250 11251 11252 11253 11254 11255 11256 11257 11258 11259 11260 11261 11262 11263 11264 11265 11266 11267 11268 11269 11270 11271 11272 11273 11274 11275 11276 11277 11278 11279 11280 11281 11282 11283 11284 11285 11286 11287 11288 11289 11290 11291 11292 11293 11294 11295 11296 11297 11298 11299 11300 11301 11302 11303 11304 11305 11306 11307 11308 11309 11310 11311 11312 11313 11314 11315 11316 11317 11318 11319 11320 11321 11322 11323 11324 11325 11326 11327 11328 11329 11330 11331 11332 11333 11334 11335 11336 11337 11338 11339 11340 11341 11342 11343 11344 11345 11346 11347 11348 11349 11350 11351 11352 11353 11354 11355 11356 11357 11358 11359 11360 11361 11362 11363 11364 11365 11366 11367 11368 11369 11370 11371 11372 11373 11374 11375 11376 11377 11378 11379 11380 11381 11382 11383 11384 11385 11386 11387 11388 11389 11390 11391 11392 11393 11394 11395 11396 11397 11398 11399 11400 11401 11402 11403 11404 11405 11406 11407 11408 11409 11410 11411 11412 11413 11414 11415 11416 11417 11418 11419 11420 11421 11422 11423 11424 11425 11426 11427 11428 11429 11430 11431 11432 11433 11434 11435 11436 11437 11438 11439 11440 11441 11442 11443 11444 11445 11446 11447 11448 11449 11450 11451 11452 11453 11454 11455 11456 11457 11458 11459 11460 11461 11462 11463 11464 11465 11466 11467 11468 11469 11470 11471 11472 11473 11474 11475 11476 11477 11478 11479 11480 11481 11482 11483 11484 11485 11486 11487 11488 11489 11490 11491 11492 11493 11494 11495 11496 11497 11498 11499 11500 11501 11502 11503 11504 11505 11506 11507 11508 11509 11510 11511 11512 11513 11514 11515 11516 11517 11518 11519 11520 11521 11522 11523 11524 11525 11526 11527 11528 11529 11530 11531 11532 11533 11534 11535 11536 11537 11538 11539 11540 11541 11542 11543 11544 11545 11546 11547 11548 11549 11550 11551 11552 11553 11554 11555 11556 11557 11558 11559 11560 11561 11562 11563 11564 11565 11566 11567 11568 11569 11570 11571 11572 11573 11574 11575 11576 11577 11578 11579 11580 11581 11582 11583 11584 11585 11586 11587 11588 11589 11590 11591 11592 11593 11594 11595 11596 11597 11598 11599 11600 11601 11602 11603 11604 11605 11606 11607 11608 11609 11610 11611 11612 11613 11614 11615 11616 11617 11618 11619 11620 11621 11622 11623 11624 11625 11626 11627 11628 11629 11630 11631 11632 11633 11634 11635 11636 11637 11638 11639 11640 11641 11642 11643 11644 11645 11646 11647 11648 11649 11650 11651 11652 11653 11654 11655 11656 11657 11658 11659 11660 11661 11662 11663 11664 11665 11666 11667 11668 11669 11670 11671 11672 11673 11674 11675 11676 11677 11678 11679 11680 11681 11682 11683 11684 11685 11686 11687 11688 11689 11690 11691 11692 11693 11694 11695 11696 11697 11698 11699 11700 11701 11702 11703 11704 11705 11706 11707 11708 11709 11710 11711 11712 11713 11714 11715 11716 11717 11718 11719 11720 11721 11722 11723 11724 11725 11726 11727 11728 11729 11730 11731 11732 11733 11734 11735 11736 11737 11738 11739 11740 11741 11742 11743 11744 11745 11746 11747 11748 11749 11750 11751 11752 11753 11754 11755 11756 11757 11758 11759 11760 11761 11762 11763 11764 11765 11766 11767 11768 11769 11770 11771 11772 11773 11774 11775 11776 11777 11778 11779 11780 11781 11782 11783 11784 11785 11786 11787 11788 11789 11790 11791 11792 11793 11794 11795 11796 11797 11798 11799 11800 11801 11802 11803 11804 11805 11806 11807 11808 11809 11810 11811 11812 11813 11814 11815 11816 11817 11818 11819 11820 11821 11822 11823 11824 11825 11826 11827 11828 11829 11830 11831 11832 11833 11834 11835 11836 11837 11838 11839 11840 11841 11842 11843 11844 11845 11846 11847 11848 11849 11850 11851 11852 11853 11854 11855 11856 11857 11858 11859 11860 11861 11862 11863 11864 11865 11866 11867 11868 11869 11870 11871 11872 11873 11874 11875 11876 11877 11878 11879 11880 11881 11882 11883 11884 11885 11886 11887 11888 11889 11890 11891 11892 11893 11894 11895 11896 11897 11898 11899 11900 11901 11902 11903 11904 11905 11906 11907 11908 11909 11910 11911 11912 11913 11914 11915 11916 11917 11918 11919 11920 11921 11922 11923 11924 11925 11926 11927 11928 11929 11930 11931 11932 11933 11934 11935 11936 11937 11938 11939 11940 11941 11942 11943 11944 11945 11946 11947 11948 11949 11950 11951 11952 11953 11954 11955 11956 11957 11958 11959 11960 11961 11962 11963 11964 11965 11966 11967 11968 11969 11970 11971 11972 11973 11974 11975 11976 11977 11978 11979 11980 11981 11982 11983 11984 11985 11986 11987 11988 11989 11990 11991 11992 11993 11994 11995 11996 11997 11998 11999 12000 12001 12002 12003 12004 12005 12006 12007 12008 12009 12010 12011 12012 12013 12014 12015 12016 12017 12018 12019 12020 12021 12022 12023 12024 12025 12026 12027 12028 12029 12030 12031 12032 12033 12034 12035 12036 12037 12038 12039 12040 12041 12042 12043 12044 12045 12046 12047 12048 12049 12050 12051 12052 12053 12054 12055 12056 12057 12058 12059 12060 12061 12062 12063 12064 12065 12066 12067 12068 12069 12070 12071 12072 12073 12074 12075 12076 12077 12078 12079 12080 12081 12082 12083 12084 12085 12086 12087 12088 12089 12090 12091 12092 12093 12094 12095 12096 12097 12098 12099 12100 12101 12102 12103 12104 12105 12106 12107 12108 12109 12110 12111 12112 12113 12114 12115 12116 12117 12118 12119 12120 12121 12122 12123 12124 12125 12126 12127 12128 12129 12130 12131 12132 12133 12134 12135 12136 12137 12138 12139 12140 12141 12142 12143 12144 12145 12146 12147 12148 12149 12150 12151 12152 12153 12154 12155 12156 12157 12158 12159 12160 12161 12162 12163 12164 12165 12166 12167 12168 12169 12170 12171 12172 12173 12174 12175 12176 12177 12178 12179 12180 12181 12182 12183 12184 12185 12186 12187 12188 12189 12190 12191 12192 12193 12194 12195 12196 12197 12198 12199 12200 12201 12202 12203 12204 12205 12206 12207 12208 12209 12210 12211 12212 12213 12214 12215 12216 12217 12218 12219 12220 12221 12222 12223 12224 12225 12226 12227 12228 12229 12230 12231 12232 12233 12234 12235 12236 12237 12238 12239 12240 12241 12242 12243 12244 12245 12246 12247 12248 12249 12250 12251 12252 12253 12254 12255 12256 12257 12258 12259 12260 12261 12262 12263 12264 12265 12266 12267 12268 12269 12270 12271 12272 12273 12274 12275 12276 12277 12278 12279 12280 12281 12282 12283 12284 12285 12286 12287 12288 12289 12290 12291 12292 12293 12294 12295 12296 12297 12298 12299 12300 12301 12302 12303 12304 12305 12306 12307 12308 12309 12310 12311 12312 12313 12314 12315 12316 12317 12318 12319 12320 12321 12322 12323 12324 12325 12326 12327 12328 12329 12330 12331 12332 12333 12334 12335 12336 12337 12338 12339 12340 12341 12342 12343 12344 12345 12346 12347 12348 12349 12350 12351 12352 12353 12354 12355 12356 12357 12358 12359 12360 12361 12362 12363 12364 12365 12366 12367 12368 12369 12370 12371 12372 12373 12374 12375 12376 12377 12378 12379 12380 12381 12382 12383 12384 12385 12386 12387 12388 12389 12390 12391 12392 12393 12394 12395 12396 12397 12398 12399 12400 12401 12402 12403 12404 12405 12406 12407 12408 12409 12410 12411 12412 12413 12414 12415 12416 12417 12418 12419 12420 12421 12422 12423 12424 12425 12426 12427 12428 12429 12430 12431 12432 12433 12434 12435 12436 12437 12438 12439 12440 12441 12442 12443 12444 12445 12446 12447 12448 12449 12450 12451 12452 12453 12454 12455 12456 12457 12458 12459 12460 12461 12462 12463 12464 12465 12466 12467 12468 12469 12470 12471 12472 12473 12474 12475 12476 12477 12478 12479 12480 12481 12482 12483 12484 12485 12486 12487 12488 12489 12490 12491 12492 12493 12494 12495 12496 12497 12498 12499 12500 12501 12502 12503 12504 12505 12506 12507 12508 12509 12510 12511 12512 12513 12514 12515 12516 12517 12518 12519 12520 12521 12522 12523 12524 12525 12526 12527 12528 12529 12530 12531 12532 12533 12534 12535 12536 12537 12538 12539 12540 12541 12542 12543 12544 12545 12546 12547 12548 12549 12550 12551 12552 12553 12554 12555 12556 12557 12558 12559 12560 12561 12562 12563 12564 12565 12566 12567 12568 12569 12570 12571 12572 12573 12574 12575 12576 12577 12578 12579 12580 12581 12582 12583 12584 12585 12586 12587 12588 12589 12590 12591 12592 12593 12594 12595 12596 12597 12598 12599 12600 12601 12602 12603 12604 12605 12606 12607 12608 12609 12610 12611 12612 12613 12614 12615 12616 12617 12618 12619 12620 12621 12622 12623 12624 12625 12626 12627 12628 12629 12630 12631 12632 12633 12634 12635 12636 12637 12638 12639 12640 12641 12642 12643 12644 12645 12646 12647 12648 12649 12650 12651 12652 12653 12654 12655 12656 12657 12658 12659 12660 12661 12662 12663 12664 12665 12666 12667 12668 12669 12670 12671 12672 12673 12674 12675 12676 12677 12678 12679 12680 12681 12682 12683 12684 12685 12686 12687 12688 12689 12690 12691 12692 12693 12694 12695 12696 12697 12698 12699 12700 12701 12702 12703 12704 12705 12706 12707 12708 12709 12710 12711 12712 12713 12714 12715 12716 12717 12718 12719 12720 12721 12722 12723 12724 12725 12726 12727 12728 12729 12730 12731 12732 12733 12734 12735 12736 12737 12738 12739 12740 12741 12742 12743 12744 12745 12746 12747 12748 12749 12750 12751 12752 12753 12754 12755 12756 12757 12758 12759 12760 12761 12762 12763 12764 12765 12766 12767 12768 12769 12770 12771 12772 12773 12774 12775 12776 12777 12778 12779 12780 12781 12782 12783 12784 12785 12786 12787 12788 12789 12790 12791 12792 12793 12794 12795 12796 12797 12798 12799 12800 12801 12802 12803 12804 12805 12806 12807 12808 12809 12810 12811 12812 12813 12814 12815 12816 12817 12818 12819 12820 12821 12822 12823 12824 12825 12826 12827 12828 12829 12830 12831 12832 12833 12834 12835 12836 12837 12838 12839 12840 12841 12842 12843 12844 12845 12846 12847 12848 12849 12850 12851 12852 12853 12854 12855 12856 12857 12858 12859 12860 12861 12862 12863 12864 12865 12866 12867 12868 12869 12870 12871 12872 12873 12874 12875 12876 12877 12878 12879 12880 12881 12882 12883 12884 12885 12886 12887 12888 12889 12890 12891 12892 12893 12894 12895 12896 12897 12898 12899 12900 12901 12902 12903 12904 12905 12906 12907 12908 12909 12910 12911 12912 12913 12914 12915 12916 12917 12918 12919 12920 12921 12922 12923 12924 12925 12926 12927 12928 12929 12930 12931 12932 12933 12934 12935 12936 12937 12938 12939 12940 12941 12942 12943 12944 12945 12946 12947 12948 12949 12950 12951 12952 12953 12954 12955 12956 12957 12958 12959 12960 12961 12962 12963 12964 12965 12966 12967 12968 12969 12970 12971 12972 12973 12974 12975 12976 12977 12978 12979 12980 12981 12982 12983 12984 12985 12986 12987 12988 12989 12990 12991 12992 12993 12994 12995 12996 12997 12998 12999 13000 13001 13002 13003 13004 13005 13006 13007 13008 13009 13010 13011 13012 13013 13014 13015 13016 13017 13018 13019 13020 13021 13022 13023 13024 13025 13026 13027 13028 13029 13030 13031 13032 13033 13034 13035 13036 13037 13038 13039 13040 13041 13042 13043 13044 13045 13046 13047 13048 13049 13050 13051 13052 13053 13054 13055 13056 13057 13058 13059 13060 13061 13062 13063 13064 13065 13066 13067 13068 13069 13070 13071 13072 13073 13074 13075 13076 13077 13078 13079 13080 13081 13082 13083 13084 13085 13086 13087 13088 13089 13090 13091 13092 13093 13094 13095 13096 13097 13098 13099 13100 13101 13102 13103 13104 13105 13106 13107 13108 13109 13110 13111 13112 13113 13114 13115 13116 13117 13118 13119 13120 13121 13122 13123 13124 13125 13126 13127 13128 13129 13130 13131 13132 13133 13134 13135 13136 13137 13138 13139 13140 13141 13142 13143 13144 13145 13146 13147 13148 13149 13150 13151 13152 13153 13154 13155 13156 13157 13158 13159 13160 13161 13162 13163 13164 13165 13166 13167 13168 13169 13170 13171 13172 13173 13174 13175 13176 13177 13178 13179 13180 13181 13182 13183 13184 13185 13186 13187 13188 13189 13190 13191 13192 13193 13194 13195 13196 13197 13198 13199 13200 13201 13202 13203 13204 13205 13206 13207 13208 13209 13210 13211 13212 13213 13214 13215 13216 13217 13218 13219 13220 13221 13222 13223 13224 13225 13226 13227 13228 13229 13230 13231 13232 13233 13234 13235 13236 13237 13238 13239 13240 13241 13242 13243 13244 13245 13246 13247 13248 13249 13250 13251 13252 13253 13254 13255 13256 13257 13258 13259 13260 13261 13262 13263 13264 13265 13266 13267 13268 13269 13270 13271 13272 13273 13274 13275 13276 13277 13278 13279 13280 13281 13282 13283 13284 13285 13286 13287 13288 13289 13290 13291 13292 13293 13294 13295 13296 13297 13298 13299 13300 13301 13302 13303 13304 13305 13306 13307 13308 13309 13310 13311 13312 13313 13314 13315 13316 13317 13318 13319 13320 13321 13322 13323 13324 13325 13326 13327 13328 13329 13330 13331 13332 13333 13334 13335 13336 13337 13338 13339 13340 13341 13342 13343 13344 13345 13346 13347 13348 13349 13350 13351 13352 13353 13354 13355 13356 13357 13358 13359 13360 13361 13362 13363 13364 13365 13366 13367 13368 13369 13370 13371 13372 13373 13374 13375 13376 13377 13378 13379 13380 13381 13382 13383 13384 13385 13386 13387 13388 13389 13390 13391 13392 13393 13394 13395 13396 13397 13398 13399 13400 13401 13402 13403 13404 13405 13406 13407 13408 13409 13410 13411 13412 13413 13414 13415 13416 13417 13418 13419 13420 13421 13422 13423 13424 13425 13426 13427 13428 13429 13430 13431 13432 13433 13434 13435 13436 13437 13438 13439 13440 13441 13442 13443 13444 13445 13446 13447 13448 13449 13450 13451 13452 13453 13454 13455 13456 13457 13458 13459 13460 13461 13462 13463 13464 13465 13466 13467 13468 13469 13470 13471 13472 13473 13474 13475 13476 13477 13478 13479 13480 13481 13482 13483 13484 13485 13486 13487 13488 13489 13490 13491 13492 13493 13494 13495 13496 13497 13498 13499 13500 13501 13502 13503 13504 13505 13506 13507 13508 13509 13510 13511 13512 13513 13514 13515 13516 13517 13518 13519 13520 13521 13522 13523 13524 13525 13526 13527 13528 13529 13530 13531 13532 13533 13534 13535 13536 13537 13538 13539 13540 13541 13542 13543 13544 13545 13546 13547 13548 13549 13550 13551 13552 13553 13554 13555 13556 13557 13558 13559 13560 13561 13562 13563 13564 13565 13566 13567 13568 13569 13570 13571 13572 13573 13574 13575 13576 13577 13578 13579 13580 13581 13582 13583 13584 13585 13586 13587 13588 13589 13590 13591 13592 13593 13594 13595 13596 13597 13598 13599 13600 13601 13602 13603 13604 13605 13606 13607 13608 13609 13610 13611 13612 13613 13614 13615 13616 13617 13618 13619 13620 13621 13622 13623 13624 13625 13626 13627 13628 13629 13630 13631 13632 13633 13634 13635 13636 13637 13638 13639 13640 13641 13642 13643 13644 13645 13646 13647 13648 13649 13650 13651 13652 13653 13654 13655 13656 13657 13658 13659 13660 13661 13662 13663 13664 13665 13666 13667 13668 13669 13670 13671 13672 13673 13674 13675 13676 13677 13678 13679 13680 13681 13682 13683 13684 13685 13686 13687 13688 13689 13690 13691 13692 13693 13694 13695 13696 13697 13698 13699 13700 13701 13702 13703 13704 13705 13706 13707 13708 13709 13710 13711 13712 13713 13714 13715 13716 13717 13718 13719 13720 13721 13722 13723 13724 13725 13726 13727 13728 13729 13730 13731 13732 13733 13734 13735 13736 13737 13738 13739 13740 13741 13742 13743 13744 13745 13746 13747 13748 13749 13750 13751 13752 13753 13754 13755 13756 13757 13758 13759 13760 13761 13762 13763 13764 13765 13766 13767 13768 13769 13770 13771 13772 13773 13774 13775 13776 13777 13778 13779 13780 13781 13782 13783 13784 13785 13786 13787 13788 13789 13790 13791 13792 13793 13794 13795 13796 13797 13798 13799 13800 13801 13802 13803 13804 13805 13806 13807 13808 13809 13810 13811 13812 13813 13814 13815 13816 13817 13818 13819 13820 13821 13822 13823 13824 13825 13826 13827 13828 13829 13830 13831 13832 13833 13834 13835 13836 13837 13838 13839 13840 13841 13842 13843 13844 13845 13846 13847 13848 13849 13850 13851 13852 13853 13854 13855 13856 13857 13858 13859 13860 13861 13862 13863 13864 13865 13866 13867 13868 13869 13870 13871 13872 13873 13874 13875 13876 13877 13878 13879 13880 13881 13882 13883 13884 13885 13886 13887 13888 13889 13890 13891 13892 13893 13894 13895 13896 13897 13898 13899 13900 13901 13902 13903 13904 13905 13906 13907 13908 13909 13910 13911 13912 13913 13914 13915 13916 13917 13918 13919 13920 13921 13922 13923 13924 13925 13926 13927 13928 13929 13930 13931 13932 13933 13934 13935 13936 13937 13938 13939 13940 13941 13942 13943 13944 13945 13946 13947 13948 13949 13950 13951 13952 13953 13954 13955 13956 13957 13958 13959 13960 13961 13962 13963 13964 13965 13966 13967 13968 13969 13970 13971 13972 13973 13974 13975 13976 13977 13978 13979 13980 13981 13982 13983 13984 13985 13986 13987 13988 13989 13990 13991 13992 13993 13994 13995 13996 13997 13998 13999 14000 14001 14002 14003 14004 14005 14006 14007 14008 14009 14010 14011 14012 14013 14014 14015 14016 14017 14018 14019 14020 14021 14022 14023 14024 14025 14026 14027 14028 14029 14030 14031 14032 14033 14034 14035 14036 14037 14038 14039 14040 14041 14042 14043 14044 14045 14046 14047 14048 14049 14050 14051 14052 14053 14054 14055 14056 14057 14058 14059 14060 14061 14062 14063 14064 14065 14066 14067 14068 14069 14070 14071 14072 14073 14074 14075 14076 14077 14078 14079 14080 14081 14082 14083 14084 14085 14086 14087 14088 14089 14090 14091 14092 14093 14094 14095 14096 14097 14098 14099 14100 14101 14102 14103 14104 14105 14106 14107 14108 14109 14110 14111 14112 14113 14114 14115 14116 14117 14118 14119 14120 14121 14122 14123 14124 14125 14126 14127 14128 14129 14130 14131 14132 14133 14134 14135 14136 14137 14138 14139 14140 14141 14142 14143 14144 14145 14146 14147 14148 14149 14150 14151 14152 14153 14154 14155 14156 14157 14158 14159 14160 14161 14162 14163 14164 14165 14166 14167 14168 14169 14170 14171 14172 14173 14174 14175 14176 14177 14178 14179 14180 14181 14182 14183 14184 14185 14186 14187 14188 14189 14190 14191 14192 14193 14194 14195 14196 14197 14198 14199 14200 14201 14202 14203 14204 14205 14206 14207 14208 14209 14210 14211 14212 14213 14214 14215 14216 14217 14218 14219 14220 14221 14222 14223 14224 14225 14226 14227 14228 14229 14230 14231 14232 14233 14234 14235 14236 14237 14238 14239 14240 14241 14242 14243 14244 14245 14246 14247 14248 14249 14250 14251 14252 14253 14254 14255 14256 14257 14258 14259 14260 14261 14262 14263 14264 14265 14266 14267 14268 14269 14270 14271 14272 14273 14274 14275 14276 14277 14278 14279 14280 14281 14282 14283 14284 14285 14286 14287 14288 14289 14290 14291 14292 14293 14294 14295 14296 14297 14298 14299 14300 14301 14302 14303 14304 14305 14306 14307 14308 14309 14310 14311 14312 14313 14314 14315 14316 14317 14318 14319 14320 14321 14322 14323 14324 14325 14326 14327 14328 14329 14330 14331 14332 14333 14334 14335 14336 14337 14338 14339 14340 14341 14342 14343 14344 14345 14346 14347 14348 14349 14350 14351 14352 14353 14354 14355 14356 14357 14358 14359 14360 14361 14362 14363 14364 14365 14366 14367 14368 14369 14370 14371 14372 14373 14374 14375 14376 14377 14378 14379 14380 14381 14382 14383 14384 14385 14386 14387 14388 14389 14390 14391 14392 14393 14394 14395 14396 14397 14398 14399 14400 14401 14402 14403 14404 14405 14406 14407 14408 14409 14410 14411 14412 14413 14414 14415 14416 14417 14418 14419 14420 14421 14422 14423 14424 14425 14426 14427 14428 14429 14430 14431 14432 14433 14434 14435 14436 14437 14438 14439 14440 14441 14442 14443 14444 14445 14446 14447 14448 14449 14450 14451 14452 14453 14454 14455 14456 14457 14458 14459 14460 14461 14462 14463 14464 14465 14466 14467 14468 14469 14470 14471 14472 14473 14474 14475 14476 14477 14478 14479 14480 14481 14482 14483 14484 14485 14486 14487 14488 14489 14490 14491 14492 14493 14494 14495 14496 14497 14498 14499 14500 14501 14502 14503 14504 14505 14506 14507 14508 14509 14510 14511 14512 14513 14514 14515 14516 14517 14518 14519 14520 14521 14522 14523 14524 14525 14526 14527 14528 14529 14530 14531 14532 14533 14534 14535 14536 14537 14538 14539 14540 14541 14542 14543 14544 14545 14546 14547 14548 14549 14550 14551 14552 14553 14554 14555 14556 14557 14558 14559 14560 14561 14562 14563 14564 14565 14566 14567 14568 14569 14570 14571 14572 14573 14574 14575 14576 14577 14578 14579 14580 14581 14582 14583 14584 14585 14586 14587 14588 14589 14590 14591 14592 14593 14594 14595 14596 14597 14598 14599 14600 14601 14602 14603 14604 14605 14606 14607 14608 14609 14610 14611 14612 14613 14614 14615 14616 14617 14618 14619 14620 14621 14622 14623 14624 14625 14626 14627 14628 14629 14630 14631 14632 14633 14634 14635 14636 14637 14638 14639 14640 14641 14642 14643 14644 14645 14646 14647 14648 14649 14650 14651 14652 14653 14654 14655 14656 14657 14658 14659 14660 14661 14662 14663 14664 14665 14666 14667 14668 14669 14670 14671 14672 14673 14674 14675 14676 14677 14678 14679 14680 14681 14682 14683 14684 14685 14686 14687 14688 14689 14690 14691 14692 14693 14694 14695 14696 14697 14698 14699 14700 14701 14702 14703 14704 14705 14706 14707 14708 14709 14710 14711 14712 14713 14714 14715 14716 14717 14718 14719 14720 14721 14722 14723 14724 14725 14726 14727 14728 14729 14730 14731 14732 14733 14734 14735 14736 14737 14738 14739 14740 14741 14742 14743 14744 14745 14746 14747 14748 14749 14750 14751 14752 14753 14754 14755 14756 14757 14758 14759 14760 14761 14762 14763 14764 14765 14766 14767 14768 14769 14770 14771 14772 14773 14774 14775 14776 14777 14778 14779 14780 14781 14782 14783 14784 14785 14786 14787 14788 14789 14790 14791 14792 14793 14794 14795 14796 14797 14798 14799 14800 14801 14802 14803 14804 14805 14806 14807 14808 14809 14810 14811 14812 14813 14814 14815 14816 14817 14818 14819 14820 14821 14822 14823 14824 14825 14826 14827 14828 14829 14830 14831 14832 14833 14834 14835 14836 14837 14838 14839 14840 14841 14842 14843 14844 14845 14846 14847 14848 14849 14850 14851 14852 14853 14854 14855 14856 14857 14858 14859 14860 14861 14862 14863 14864 14865 14866 14867 14868 14869 14870 14871 14872 14873 14874 14875 14876 14877 14878 14879 14880 14881 14882 14883 14884 14885 14886 14887 14888 14889 14890 14891 14892 14893 14894 14895 14896 14897 14898 14899 14900 14901 14902 14903 14904 14905 14906 14907 14908 14909 14910 14911 14912 14913 14914 14915 14916 14917 14918 14919 14920 14921 14922 14923 14924 14925 14926 14927 14928 14929 14930 14931 14932 14933 14934 14935 14936 14937 14938 14939 14940 14941 14942 14943 14944 14945 14946 14947 14948 14949 14950 14951 14952 14953 14954 14955 14956 14957 14958 14959 14960 14961 14962 14963 14964 14965 14966 14967 14968 14969 14970 14971 14972 14973 14974 14975 14976 14977 14978 14979 14980 14981 14982 14983 14984 14985 14986 14987 14988 14989 14990 14991 14992 14993 14994 14995 14996 14997 14998 14999 15000 15001 15002 15003 15004 15005 15006 15007 15008 15009 15010 15011 15012 15013 15014 15015 15016 15017 15018 15019 15020 15021 15022 15023 15024 15025 15026 15027 15028 15029 15030 15031 15032 15033 15034 15035 15036 15037 15038 15039 15040 15041 15042 15043 15044 15045 15046 15047 15048 15049 15050 15051 15052 15053 15054 15055 15056 15057 15058 15059 15060 15061 15062 15063 15064 15065 15066 15067 15068 15069 15070 15071 15072 15073 15074 15075 15076 15077 15078 15079 15080 15081 15082 15083 15084 15085 15086 15087 15088 15089 15090 15091 15092 15093 15094 15095 15096 15097 15098 15099 15100 15101 15102 15103 15104 15105 15106 15107 15108 15109 15110 15111 15112 15113 15114 15115 15116 15117 15118 15119 15120 15121 15122 15123 15124 15125 15126 15127 15128 15129 15130 15131 15132 15133 15134 15135 15136 15137 15138 15139 15140 15141 15142 15143 15144 15145 15146 15147 15148 15149 15150 15151 15152 15153 15154 15155 15156 15157 15158 15159 15160 15161 15162 15163 15164 15165 15166 15167 15168 15169 15170 15171 15172 15173 15174 15175 15176 15177 15178 15179 15180 15181 15182 15183 15184 15185 15186 15187 15188 15189 15190 15191 15192 15193 15194 15195 15196 15197 15198 15199 15200 15201 15202 15203 15204 15205 15206 15207 15208 15209 15210 15211 15212 15213 15214 15215 15216 15217 15218 15219 15220 15221 15222 15223 15224 15225 15226 15227 15228 15229 15230 15231 15232 15233 15234 15235 15236 15237 15238 15239 15240 15241 15242 15243 15244 15245 15246 15247 15248 15249 15250 15251 15252 15253 15254 15255 15256 15257 15258 15259 15260 15261 15262 15263 15264 15265 15266 15267 15268 15269 15270 15271 15272 15273 15274 15275 15276 15277 15278 15279 15280 15281 15282 15283 15284 15285 15286 15287 15288 15289 15290 15291 15292 15293 15294 15295 15296 15297 15298 15299 15300 15301 15302 15303 15304 15305 15306 15307 15308 15309 15310 15311 15312 15313 15314 15315 15316 15317 15318 15319 15320 15321 15322 15323 15324 15325 15326 15327 15328 15329 15330 15331 15332 15333 15334 15335 15336 15337 15338 15339 15340 15341 15342 15343 15344 15345 15346 15347 15348 15349 15350 15351 15352 15353 15354 15355 15356 15357 15358 15359 15360 15361 15362 15363 15364 15365 15366 15367 15368 15369 15370 15371 15372 15373 15374 15375 15376 15377 15378 15379 15380 15381 15382 15383 15384 15385 15386 15387 15388 15389 15390 15391 15392 15393 15394 15395 15396 15397 15398 15399 15400 15401 15402 15403 15404 15405 15406 15407 15408 15409 15410 15411 15412 15413 15414 15415 15416 15417 15418 15419 15420 15421 15422 15423 15424 15425 15426 15427 15428 15429 15430 15431 15432 15433 15434 15435 15436 15437 15438 15439 15440 15441 15442 15443 15444 15445 15446 15447 15448 15449 15450 15451 15452 15453 15454 15455 15456 15457 15458 15459 15460 15461 15462 15463 15464 15465 15466 15467 15468 15469 15470 15471 15472 15473 15474 15475 15476 15477 15478 15479 15480 15481 15482 15483 15484 15485 15486 15487 15488 15489 15490 15491 15492 15493 15494 15495 15496 15497 15498 15499 15500 15501 15502 15503 15504 15505 15506 15507 15508 15509 15510 15511 15512 15513 15514 15515 15516 15517 15518 15519 15520 15521 15522 15523 15524 15525 15526 15527 15528 15529 15530 15531 15532 15533 15534 15535 15536 15537 15538 15539 15540 15541 15542 15543 15544 15545 15546 15547 15548 15549 15550 15551 15552 15553 15554 15555 15556 15557 15558 15559 15560 15561 15562 15563 15564 15565 15566 15567 15568 15569 15570 15571 15572 15573 15574 15575 15576 15577 15578 15579 15580 15581 15582 15583 15584 15585 15586 15587 15588 15589 15590 15591 15592 15593 15594 15595 15596 15597 15598 15599 15600 15601 15602 15603 15604 15605 15606 15607 15608 15609 15610 15611 15612 15613 15614 15615 15616 15617 15618 15619 15620 15621 15622 15623 15624 15625 15626 15627 15628 15629 15630 15631 15632 15633 15634 15635 15636 15637 15638 15639 15640 15641 15642 15643 15644 15645 15646 15647 15648 15649 15650 15651 15652 15653 15654 15655 15656 15657 15658 15659 15660 15661 15662 15663 15664 15665 15666 15667 15668 15669 15670 15671 15672 15673 15674 15675 15676 15677 15678 15679 15680 15681 15682 15683 15684 15685 15686 15687 15688 15689 15690 15691 15692 15693 15694 15695 15696 15697 15698 15699 15700 15701 15702 15703 15704 15705 15706 15707 15708 15709 15710 15711 15712 15713 15714 15715 15716 15717 15718 15719 15720 15721 15722 15723 15724 15725 15726 15727 15728 15729 15730 15731 15732 15733 15734 15735 15736 15737 15738 15739 15740 15741 15742 15743 15744 15745 15746 15747 15748 15749 15750 15751 15752 15753 15754 15755 15756 15757 15758 15759 15760 15761 15762 15763 15764 15765 15766 15767 15768 15769 15770 15771 15772 15773 15774 15775 15776 15777 15778 15779 15780 15781 15782 15783 15784 15785 15786 15787 15788 15789 15790 15791 15792 15793 15794 15795 15796 15797 15798 15799 15800 15801 15802 15803 15804 15805 15806 15807 15808 15809 15810 15811 15812 15813 15814 15815 15816 15817 15818 15819 15820 15821 15822 15823 15824 15825 15826 15827 15828 15829 15830 15831 15832 15833 15834 15835 15836 15837 15838 15839 15840 15841 15842 15843 15844 15845 15846 15847 15848 15849 15850 15851 15852 15853 15854 15855 15856 15857 15858 15859 15860 15861 15862 15863 15864 15865 15866 15867 15868 15869 15870 15871 15872 15873 15874 15875 15876 15877 15878 15879 15880 15881 15882 15883 15884 15885 15886 15887 15888 15889 15890 15891 15892 15893 15894 15895 15896 15897 15898 15899 15900 15901 15902 15903 15904 15905 15906 15907 15908 15909 15910 15911 15912 15913 15914 15915 15916 15917 15918 15919 15920 15921 15922 15923 15924 15925 15926 15927 15928 15929 15930 15931 15932 15933 15934 15935 15936 15937 15938 15939 15940 15941 15942 15943 15944 15945 15946 15947 15948 15949 15950 15951 15952 15953 15954 15955 15956 15957 15958 15959 15960 15961 15962 15963 15964 15965 15966 15967 15968 15969 15970 15971 15972 15973 15974 15975 15976 15977 15978 15979 15980 15981 15982 15983 15984 15985 15986 15987 15988 15989 15990 15991 15992 15993 15994 15995 15996 15997 15998 15999 16000 16001 16002 16003 16004 16005 16006 16007 16008 16009 16010 16011 16012 16013 16014 16015 16016 16017 16018 16019 16020 16021 16022 16023 16024 16025 16026 16027 16028 16029 16030 16031 16032 16033 16034 16035 16036 16037 16038 16039 16040 16041 16042 16043 16044 16045 16046 16047 16048 16049 16050 16051 16052 16053 16054 16055 16056 16057 16058 16059 16060 16061 16062 16063 16064 16065 16066 16067 16068 16069 16070 16071 16072 16073 16074 16075 16076 16077 16078 16079 16080 16081 16082 16083 16084 16085 16086 16087 16088 16089 16090 16091 16092 16093 16094 16095 16096 16097 16098 16099 16100 16101 16102 16103 16104 16105 16106 16107 16108 16109 16110 16111 16112 16113 16114 16115 16116 16117 16118 16119 16120 16121 16122 16123 16124 16125 16126 16127 16128 16129 16130 16131 16132 16133 16134 16135 16136 16137 16138 16139 16140 16141 16142 16143 16144 16145 16146 16147 16148 16149 16150 16151 16152 16153 16154 16155 16156 16157 16158 16159 16160 16161 16162 16163 16164 16165 16166 16167 16168 16169 16170 16171 16172 16173 16174 16175 16176 16177 16178 16179 16180 16181 16182 16183 16184 16185 16186 16187 16188 16189 16190 16191 16192 16193 16194 16195 16196 16197 16198 16199 16200 16201 16202 16203 16204 16205 16206 16207 16208 16209 16210 16211 16212 16213 16214 16215 16216 16217 16218 16219 16220 16221 16222 16223 16224 16225 16226 16227 16228 16229 16230 16231 16232 16233 16234 16235 16236 16237 16238 16239 16240 16241 16242 16243 16244 16245 16246 16247 16248 16249 16250 16251 16252 16253 16254 16255 16256 16257 16258 16259 16260 16261 16262 16263 16264 16265 16266 16267 16268 16269 16270 16271 16272 16273 16274 16275 16276 16277 16278 16279 16280 16281 16282 16283 16284 16285 16286 16287 16288 16289 16290 16291 16292 16293 16294 16295 16296 16297 16298 16299 16300 16301 16302 16303 16304 16305 16306 16307 16308 16309 16310 16311 16312 16313 16314 16315 16316 16317 16318 16319 16320 16321 16322 16323 16324 16325 16326 16327 16328 16329 16330 16331 16332 16333 16334 16335 16336 16337 16338 16339 16340 16341 16342 16343 16344 16345 16346 16347 16348 16349 16350 16351 16352 16353 16354 16355 16356 16357 16358 16359 16360 16361 16362 16363 16364 16365 16366 16367 16368 16369 16370 16371 16372 16373 16374 16375 16376 16377 16378 16379 16380 16381 16382 16383 16384 16385 16386 16387 16388 16389 16390 16391 16392 16393 16394 16395 16396 16397 16398 16399 16400 16401 16402 16403 16404 16405 16406 16407 16408 16409 16410 16411 16412 16413 16414 16415 16416 16417 16418 16419 16420 16421 16422 16423 16424 16425 16426 16427 16428 16429 16430 16431 16432 16433 16434 16435 16436 16437 16438 16439 16440 16441 16442 16443 16444 16445 16446 16447 16448 16449 16450 16451 16452 16453 16454 16455 16456 16457 16458 16459 16460 16461 16462 16463 16464 16465 16466 16467 16468 16469 16470 16471 16472 16473 16474 16475 16476 16477 16478 16479 16480 16481 16482 16483 16484 16485 16486 16487 16488 16489 16490 16491 16492 16493 16494 16495 16496 16497 16498 16499 16500 16501 16502 16503 16504 16505 16506 16507 16508 16509 16510 16511 16512 16513 16514 16515 16516 16517 16518 16519 16520 16521 16522 16523 16524 16525 16526 16527 16528 16529 16530 16531 16532 16533 16534 16535 16536 16537 16538 16539 16540 16541 16542 16543 16544 16545 16546 16547 16548 16549 16550 16551 16552 16553 16554 16555 16556 16557 16558 16559 16560 16561 16562 16563 16564 16565 16566 16567 16568 16569 16570 16571 16572 16573 16574 16575 16576 16577 16578 16579 16580 16581 16582 16583 16584 16585 16586 16587 16588 16589 16590 16591 16592 16593 16594 16595 16596 16597 16598 16599 16600 16601 16602 16603 16604 16605 16606 16607 16608 16609 16610 16611 16612 16613 16614 16615 16616 16617 16618 16619 16620 16621 16622 16623 16624 16625 16626 16627 16628 16629 16630 16631 16632 16633 16634 16635 16636 16637 16638 16639 16640 16641 16642 16643 16644 16645 16646 16647 16648 16649 16650 16651 16652 16653 16654 16655 16656 16657 16658 16659 16660 16661 16662 16663 16664 16665 16666 16667 16668 16669 16670 16671 16672 16673 16674 16675 16676 16677 16678 16679 16680 16681 16682 16683 16684 16685 16686 16687 16688 16689 16690 16691 16692 16693 16694 16695 16696 16697 16698 16699 16700 16701 16702 16703 16704 16705 16706 16707 16708 16709 16710 16711 16712 16713 16714 16715 16716 16717 16718 16719 16720 16721 16722 16723 16724 16725 16726 16727 16728 16729 16730 16731 16732 16733 16734 16735 16736 16737 16738 16739 16740 16741 16742 16743 16744 16745 16746 16747 16748 16749 16750 16751 16752 16753 16754 16755 16756 16757 16758 16759 16760 16761 16762 16763 16764 16765 16766 16767 16768 16769 16770 16771 16772 16773 16774 16775 16776 16777 16778 16779 16780 16781 16782 16783 16784 16785 16786 16787 16788 16789 16790 16791 16792 16793 16794 16795 16796 16797 16798 16799 16800 16801 16802 16803 16804 16805 16806 16807 16808 16809 16810 16811 16812 16813 16814 16815 16816 16817 16818 16819 16820 16821 16822 16823 16824 16825 16826 16827 16828 16829 16830 16831 16832 16833 16834 16835 16836 16837 16838 16839 16840 16841 16842 16843 16844 16845 16846 16847 16848 16849 16850 16851 16852 16853 16854 16855 16856 16857 16858 16859 16860 16861 16862 16863 16864 16865 16866 16867 16868 16869 16870 16871 16872 16873 16874 16875 16876 16877 16878 16879 16880 16881 16882 16883 16884 16885 16886 16887 16888 16889 16890 16891 16892 16893 16894 16895 16896 16897 16898 16899 16900 16901 16902 16903 16904 16905 16906 16907 16908 16909 16910 16911 16912 16913 16914 16915 16916 16917 16918 16919 16920 16921 16922 16923 16924 16925 16926 16927 16928 16929 16930 16931 16932 16933 16934 16935 16936 16937 16938 16939 16940 16941 16942 16943 16944 16945 16946 16947 16948 16949 16950 16951 16952 16953 16954 16955 16956 16957 16958 16959 16960 16961 16962 16963 16964 16965 16966 16967 16968 16969 16970 16971 16972 16973 16974 16975 16976 16977 16978 16979 16980 16981 16982 16983 16984 16985 16986 16987 16988 16989 16990 16991 16992 16993 16994 16995 16996 16997 16998 16999 17000 17001 17002 17003 17004 17005 17006 17007 17008 17009 17010 17011 17012 17013 17014 17015 17016 17017 17018 17019 17020 17021 17022 17023 17024 17025 17026 17027 17028 17029 17030 17031 17032 17033 17034 17035 17036 17037 17038 17039 17040 17041 17042 17043 17044 17045 17046 17047 17048 17049 17050 17051 17052 17053 17054 17055 17056 17057 17058 17059 17060 17061 17062 17063 17064 17065 17066 17067 17068 17069 17070 17071 17072 17073 17074 17075 17076 17077 17078 17079 17080 17081 17082 17083 17084 17085 17086 17087 17088 17089 17090 17091 17092 17093 17094 17095 17096 17097 17098 17099 17100 17101 17102 17103 17104 17105 17106 17107 17108 17109 17110 17111 17112 17113 17114 17115 17116 17117 17118 17119 17120 17121 17122 17123 17124 17125 17126 17127 17128 17129 17130 17131 17132 17133 17134 17135 17136 17137 17138 17139 17140 17141 17142 17143 17144 17145 17146 17147 17148 17149 17150 17151 17152 17153 17154 17155 17156 17157 17158 17159 17160 17161 17162 17163 17164 17165 17166 17167 17168 17169 17170 17171 17172 17173 17174 17175 17176 17177 17178 17179 17180 17181 17182 17183 17184 17185 17186 17187 17188 17189 17190 17191 17192 17193 17194 17195 17196 17197 17198 17199 17200 17201 17202 17203 17204 17205 17206 17207 17208 17209 17210 17211 17212 17213 17214 17215 17216 17217 17218 17219 17220 17221 17222 17223 17224 17225 17226 17227 17228 17229 17230 17231 17232 17233 17234 17235 17236 17237 17238 17239 17240 17241 17242 17243 17244 17245 17246 17247 17248 17249 17250 17251 17252 17253 17254 17255 17256 17257 17258 17259 17260 17261 17262 17263 17264 17265 17266 17267 17268 17269 17270 17271 17272 17273 17274 17275 17276 17277 17278 17279 17280 17281 17282 17283 17284 17285 17286 17287 17288 17289 17290 17291 17292 17293 17294 17295 17296 17297 17298 17299 17300 17301 17302 17303 17304 17305 17306 17307 17308 17309 17310 17311 17312 17313 17314 17315 17316 17317 17318 17319 17320 17321 17322 17323 17324 17325 17326 17327 17328 17329 17330 17331 17332 17333 17334 17335 17336 17337 17338 17339 17340 17341 17342 17343 17344 17345 17346 17347 17348 17349 17350 17351 17352 17353 17354 17355 17356 17357 17358 17359 17360 17361 17362 17363 17364 17365 17366 17367 17368 17369 17370 17371 17372 17373 17374 17375 17376 17377 17378 17379 17380 17381 17382 17383 17384 17385 17386 17387 17388 17389 17390 17391 17392 17393 17394 17395 17396 17397 17398 17399 17400 17401 17402 17403 17404 17405 17406 17407 17408 17409 17410 17411 17412 17413 17414 17415 17416 17417 17418 17419 17420 17421 17422 17423 17424 17425 17426 17427 17428 17429 17430 17431 17432 17433 17434 17435 17436 17437 17438 17439 17440 17441 17442 17443 17444 17445 17446 17447 17448 17449 17450 17451 17452 17453 17454 17455 17456 17457 17458 17459 17460 17461 17462 17463 17464 17465 17466 17467 17468 17469 17470 17471 17472 17473 17474 17475 17476 17477 17478 17479 17480 17481 17482 17483 17484 17485 17486 17487 17488 17489 17490 17491 17492 17493 17494 17495 17496 17497 17498 17499 17500 17501 17502 17503 17504 17505 17506 17507 17508 17509 17510 17511 17512 17513 17514 17515 17516 17517 17518 17519 17520 17521 17522 17523 17524 17525 17526 17527 17528 17529 17530 17531 17532 17533 17534 17535 17536 17537 17538 17539 17540 17541 17542 17543 17544 17545 17546 17547 17548 17549 17550 17551 17552 17553 17554 17555 17556 17557 17558 17559 17560 17561 17562 17563 17564 17565 17566 17567 17568 17569 17570 17571 17572 17573 17574 17575 17576 17577 17578 17579 17580 17581 17582 17583 17584 17585 17586 17587 17588 17589 17590 17591 17592 17593 17594 17595 17596 17597 17598 17599 17600 17601 17602 17603 17604 17605 17606 17607 17608 17609 17610 17611 17612 17613 17614 17615 17616 17617 17618 17619 17620 17621 17622 17623 17624 17625 17626 17627 17628 17629 17630 17631 17632 17633 17634 17635 17636 17637 17638 17639 17640 17641 17642 17643 17644 17645 17646 17647 17648 17649 17650 17651 17652 17653 17654 17655 17656 17657 17658 17659 17660 17661 17662 17663 17664 17665 17666 17667 17668 17669 17670 17671 17672 17673 17674 17675 17676 17677 17678 17679 17680 17681 17682 17683 17684 17685 17686 17687 17688 17689 17690 17691 17692 17693 17694 17695 17696 17697 17698 17699 17700 17701 17702 17703 17704 17705 17706 17707 17708 17709 17710 17711 17712 17713 17714 17715 17716 17717 17718 17719 17720 17721 17722 17723 17724 17725 17726 17727 17728 17729 17730 17731 17732 17733 17734 17735 17736 17737 17738 17739 17740 17741 17742 17743 17744 17745 17746 17747 17748 17749 17750 17751 17752 17753 17754 17755 17756 17757 17758 17759 17760 17761 17762 17763 17764 17765 17766 17767 17768 17769 17770 17771 17772 17773 17774 17775 17776 17777 17778 17779 17780 17781 17782 17783 17784 17785 17786 17787 17788 17789 17790 17791 17792 17793 17794 17795 17796 17797 17798 17799 17800 17801 17802 17803 17804 17805 17806 17807 17808 17809 17810 17811 17812 17813 17814 17815 17816 17817 17818 17819 17820 17821 17822 17823 17824 17825 17826 17827 17828 17829 17830 17831 17832 17833 17834 17835 17836 17837 17838 17839 17840 17841 17842 17843 17844 17845 17846 17847 17848 17849 17850 17851 17852 17853 17854 17855 17856 17857 17858 17859 17860 17861 17862 17863 17864 17865 17866 17867 17868 17869 17870 17871 17872 17873 17874 17875 17876 17877 17878 17879 17880 17881 17882 17883 17884 17885 17886 17887 17888 17889 17890 17891 17892 17893 17894 17895 17896 17897 17898 17899 17900 17901 17902 17903 17904 17905 17906 17907 17908 17909 17910 17911 17912 17913 17914 17915 17916 17917 17918 17919 17920 17921 17922 17923 17924 17925 17926 17927 17928 17929 17930 17931 17932 17933 17934 17935 17936 17937 17938 17939 17940 17941 17942 17943 17944 17945 17946 17947 17948 17949 17950 17951 17952 17953 17954 17955 17956 17957 17958 17959 17960 17961 17962 17963 17964 17965 17966 17967 17968 17969 17970 17971 17972 17973 17974 17975 17976 17977 17978 17979 17980 17981 17982 17983 17984 17985 17986 17987 17988 17989 17990 17991 17992 17993 17994 17995 17996 17997 17998 17999 18000 18001 18002 18003 18004 18005 18006 18007 18008 18009 18010 18011 18012 18013 18014 18015 18016 18017 18018 18019 18020 18021 18022 18023 18024 18025 18026 18027 18028 18029 18030 18031 18032 18033 18034 18035 18036 18037 18038 18039 18040 18041 18042 18043 18044 18045 18046 18047 18048 18049 18050 18051 18052 18053 18054 18055 18056 18057 18058 18059 18060 18061 18062 18063 18064 18065 18066 18067 18068 18069 18070 18071 18072 18073 18074 18075 18076 18077 18078 18079 18080 18081 18082 18083 18084 18085 18086 18087 18088 18089 18090 18091 18092 18093 18094 18095 18096 18097 18098 18099 18100 18101 18102 18103 18104 18105 18106 18107 18108 18109 18110 18111 18112 18113 18114 18115 18116 18117 18118 18119 18120 18121 18122 18123 18124 18125 18126 18127 18128 18129 18130 18131 18132 18133 18134 18135 18136 18137 18138 18139 18140 18141 18142 18143 18144 18145 18146 18147 18148 18149 18150 18151 18152 18153 18154 18155 18156 18157 18158 18159 18160 18161 18162 18163 18164 18165 18166 18167 18168 18169 18170 18171 18172 18173 18174 18175 18176 18177 18178 18179 18180 18181 18182 18183 18184 18185 18186 18187 18188 18189 18190 18191 18192 18193 18194 18195 18196 18197 18198 18199 18200 18201 18202 18203 18204 18205 18206 18207 18208 18209 18210 18211 18212 18213 18214 18215 18216 18217 18218 18219 18220 18221 18222 18223 18224 18225 18226 18227 18228 18229 18230 18231 18232 18233 18234 18235 18236 18237 18238 18239 18240 18241 18242 18243 18244 18245 18246 18247 18248 18249 18250 18251 18252 18253 18254 18255 18256 18257 18258 18259 18260 18261 18262 18263 18264 18265 18266 18267 18268 18269 18270 18271 18272 18273 18274 18275 18276 18277 18278 18279 18280 18281 18282 18283 18284 18285 18286 18287 18288 18289 18290 18291 18292 18293 18294 18295 18296 18297 18298 18299 18300 18301 18302 18303 18304 18305 18306 18307 18308 18309 18310 18311 18312 18313 18314 18315 18316 18317 18318 18319 18320 18321 18322 18323 18324 18325 18326 18327 18328 18329 18330 18331 18332 18333 18334 18335 18336 18337 18338 18339 18340 18341 18342 18343 18344 18345 18346 18347 18348 18349 18350 18351 18352 18353 18354 18355 18356 18357 18358 18359 18360 18361 18362 18363 18364 18365 18366 18367 18368 18369 18370 18371 18372 18373 18374 18375 18376 18377 18378 18379 18380 18381 18382 18383 18384 18385 18386 18387 18388 18389 18390 18391 18392 18393 18394 18395 18396 18397 18398 18399 18400 18401 18402 18403 18404 18405 18406 18407 18408 18409 18410 18411 18412 18413 18414 18415 18416 18417 18418 18419 18420 18421 18422 18423 18424 18425 18426 18427 18428 18429 18430 18431 18432 18433 18434 18435 18436 18437 18438 18439 18440 18441 18442 18443 18444 18445 18446 18447 18448 18449 18450 18451 18452 18453 18454 18455 18456 18457 18458 18459 18460 18461 18462 18463 18464 18465 18466 18467 18468 18469 18470 18471 18472 18473 18474 18475 18476 18477 18478 18479 18480 18481 18482 18483 18484 18485 18486 18487 18488 18489 18490 18491 18492 18493 18494 18495 18496 18497 18498 18499 18500 18501 18502 18503 18504 18505 18506 18507 18508 18509 18510 18511 18512 18513 18514 18515 18516 18517 18518 18519 18520 18521 18522 18523 18524 18525 18526 18527 18528 18529 18530 18531 18532 18533 18534 18535 18536 18537 18538 18539 18540 18541 18542 18543 18544 18545 18546 18547 18548 18549 18550 18551 18552 18553 18554 18555 18556 18557 18558 18559 18560 18561 18562 18563 18564 18565 18566 18567 18568 18569 18570 18571 18572 18573 18574 18575 18576 18577 18578 18579 18580 18581 18582 18583 18584 18585 18586 18587 18588 18589 18590 18591 18592 18593 18594 18595 18596 18597 18598 18599 18600 18601 18602 18603 18604 18605 18606 18607 18608 18609 18610 18611 18612 18613 18614 18615 18616 18617 18618 18619 18620 18621 18622 18623 18624 18625 18626 18627 18628 18629 18630 18631 18632 18633 18634 18635 18636 18637 18638 18639 18640 18641 18642 18643 18644 18645 18646 18647 18648 18649 18650 18651 18652 18653 18654 18655 18656 18657 18658 18659 18660 18661 18662 18663 18664 18665 18666 18667 18668 18669 18670 18671 18672 18673 18674 18675 18676 18677 18678 18679 18680 18681 18682 18683 18684 18685 18686 18687 18688 18689 18690 18691 18692 18693 18694 18695 18696 18697 18698 18699 18700 18701 18702 18703 18704 18705 18706 18707 18708 18709 18710 18711 18712 18713 18714 18715 18716 18717 18718 18719 18720 18721 18722 18723 18724 18725 18726 18727 18728 18729 18730 18731 18732 18733 18734 18735 18736 18737 18738 18739 18740 18741 18742 18743 18744 18745 18746 18747 18748 18749 18750 18751 18752 18753 18754 18755 18756 18757 18758 18759 18760 18761 18762 18763 18764 18765 18766 18767 18768 18769 18770 18771 18772 18773 18774 18775 18776 18777 18778 18779 18780 18781 18782 18783 18784 18785 18786 18787 18788 18789 18790 18791 18792 18793 18794 18795 18796 18797 18798 18799 18800 18801 18802 18803 18804 18805 18806 18807 18808 18809 18810 18811 18812 18813 18814 18815 18816 18817 18818 18819 18820 18821 18822 18823 18824 18825 18826 18827 18828 18829 18830 18831 18832 18833 18834 18835 18836 18837 18838 18839 18840 18841 18842 18843 18844 18845 18846 18847 18848 18849 18850 18851 18852 18853 18854 18855 18856 18857 18858 18859 18860 18861 18862 18863 18864 18865 18866 18867 18868 18869 18870 18871 18872 18873 18874 18875 18876 18877 18878 18879 18880 18881 18882 18883 18884 18885 18886 18887 18888 18889 18890 18891 18892 18893 18894 18895 18896 18897 18898 18899 18900 18901 18902 18903 18904 18905 18906 18907 18908 18909 18910 18911 18912 18913 18914 18915 18916 18917 18918 18919 18920 18921 18922 18923 18924 18925 18926 18927 18928 18929 18930 18931 18932 18933 18934 18935 18936 18937 18938 18939 18940 18941 18942 18943 18944 18945 18946 18947 18948 18949 18950 18951 18952 18953 18954 18955 18956 18957 18958 18959 18960 18961 18962 18963 18964 18965 18966 18967 18968 18969 18970 18971 18972 18973 18974 18975 18976 18977 18978 18979 18980 18981 18982 18983 18984 18985 18986 18987 18988 18989 18990 18991 18992 18993 18994 18995 18996 18997 18998 18999 19000 19001 19002 19003 19004 19005 19006 19007 19008 19009 19010 19011 19012 19013 19014 19015 19016 19017 19018 19019 19020 19021 19022 19023 19024 19025 19026 19027 19028 19029 19030 19031 19032 19033 19034 19035 19036 19037 19038 19039 19040 19041 19042 19043 19044 19045 19046 19047 19048 19049 19050 19051 19052 19053 19054 19055 19056 19057 19058 19059 19060 19061 19062 19063 19064 19065 19066 19067 19068 19069 19070 19071 19072 19073 19074 19075 19076 19077 19078 19079 19080 19081 19082 19083 19084 19085 19086 19087 19088 19089 19090 19091 19092 19093 19094 19095 19096 19097 19098 19099 19100 19101 19102 19103 19104 19105 19106 19107 19108 19109 19110 19111 19112 19113 19114 19115 19116 19117 19118 19119 19120 19121 19122 19123 19124 19125 19126 19127 19128 19129 19130 19131 19132 19133 19134 19135 19136 19137 19138 19139 19140 19141 19142 19143 19144 19145 19146 19147 19148 19149 19150 19151 19152 19153 19154 19155 19156 19157 19158 19159 19160 19161 19162 19163 19164 19165 19166 19167 19168 19169 19170 19171 19172 19173 19174 19175 19176 19177 19178 19179 19180 19181 19182 19183 19184 19185 19186 19187 19188 19189 19190 19191 19192 19193 19194 19195 19196 19197 19198 19199 19200 19201 19202 19203 19204 19205 19206 19207 19208 19209 19210 19211 19212 19213 19214 19215 19216 19217 19218 19219 19220 19221 19222 19223 19224 19225 19226 19227 19228 19229 19230 19231 19232 19233 19234 19235 19236 19237 19238 19239 19240 19241 19242 19243 19244 19245 19246 19247 19248 19249 19250 19251 19252 19253 19254 19255 19256 19257 19258 19259 19260 19261 19262 19263 19264 19265 19266 19267 19268 19269 19270 19271 19272 19273 19274 19275 19276 19277 19278 19279 19280 19281 19282 19283 19284 19285 19286 19287 19288 19289 19290 19291 19292 19293 19294 19295 19296 19297 19298 19299 19300 19301 19302 19303 19304 19305 19306 19307 19308 19309 19310 19311 19312 19313 19314 19315 19316 19317 19318 19319 19320 19321 19322 19323 19324 19325 19326 19327 19328 19329 19330 19331 19332 19333 19334 19335 19336 19337 19338 19339 19340 19341 19342 19343 19344 19345 19346 19347 19348 19349 19350 19351 19352 19353 19354 19355 19356 19357 19358 19359 19360 19361 19362 19363 19364 19365 19366 19367 19368 19369 19370 19371 19372 19373 19374 19375 19376 19377 19378 19379 19380 19381 19382 19383 19384 19385 19386 19387 19388 19389 19390 19391 19392 19393 19394 19395 19396 19397 19398 19399 19400 19401 19402 19403 19404 19405 19406 19407 19408 19409 19410 19411 19412 19413 19414 19415 19416 19417 19418 19419 19420 19421 19422 19423 19424 19425 19426 19427 19428 19429 19430 19431 19432 19433 19434 19435 19436 19437 19438 19439 19440 19441 19442 19443 19444 19445 19446 19447 19448 19449 19450 19451 19452 19453 19454 19455 19456 19457 19458 19459 19460 19461 19462 19463 19464 19465 19466 19467 19468 19469 19470 19471 19472 19473 19474 19475 19476 19477 19478 19479 19480 19481 19482 19483 19484 19485 19486 19487 19488 19489 19490 19491 19492 19493 19494 19495 19496 19497 19498 19499 19500 19501 19502 19503 19504 19505 19506 19507 19508 19509 19510 19511 19512 19513 19514 19515 19516 19517 19518 19519 19520 19521 19522 19523 19524 19525 19526 19527 19528 19529 19530 19531 19532 19533 19534 19535 19536 19537 19538 19539 19540 19541 19542 19543 19544 19545 19546 19547 19548 19549 19550 19551 19552 19553 19554 19555 19556 19557 19558 19559 19560 19561 19562 19563 19564 19565 19566 19567 19568 19569 19570 19571 19572 19573 19574 19575 19576 19577 19578 19579 19580 19581 19582 19583 19584 19585 19586 19587 19588 19589 19590 19591 19592 19593 19594 19595 19596 19597 19598 19599 19600 19601 19602 19603 19604 19605 19606 19607 19608 19609 19610 19611 19612 19613 19614 19615 19616 19617 19618 19619 19620 19621 19622 19623 19624 19625 19626 19627 19628 19629 19630 19631 19632 19633 19634 19635 19636 19637 19638 19639 19640 19641 19642 19643 19644 19645 19646 19647 19648 19649 19650 19651 19652 19653 19654 19655 19656 19657 19658 19659 19660 19661 19662 19663 19664 19665 19666 19667 19668 19669 19670 19671 19672 19673 19674 19675 19676 19677 19678 19679 19680 19681 19682 19683 19684 19685 19686 19687 19688 19689 19690 19691 19692 19693 19694 19695 19696 19697 19698 19699 19700 19701 19702 19703 19704 19705 19706 19707 19708 19709 19710 19711 19712 19713 19714 19715 19716 19717 19718 19719 19720 19721 19722 19723 19724 19725 19726 19727 19728 19729 19730 19731 19732 19733 19734 19735 19736 19737 19738 19739 19740 19741 19742 19743 19744 19745 19746 19747 19748 19749 19750 19751 19752 19753 19754 19755 19756 19757 19758 19759 19760 19761 19762 19763 19764 19765 19766 19767 19768 19769 19770 19771 19772 19773 19774 19775 19776 19777 19778 19779 19780 19781 19782 19783 19784 19785 19786 19787 19788 19789 19790 19791 19792 19793 19794 19795 19796 19797 19798 19799 19800 19801 19802 19803 19804 19805 19806 19807 19808 19809 19810 19811 19812 19813 19814 19815 19816 19817 19818 19819 19820 19821 19822 19823 19824 19825 19826 19827 19828 19829 19830 19831 19832 19833 19834 19835 19836 19837 19838 19839 19840 19841 19842 19843 19844 19845 19846 19847 19848 19849 19850 19851 19852 19853 19854 19855 19856 19857 19858 19859 19860 19861 19862 19863 19864 19865 19866 19867 19868 19869 19870 19871 19872 19873 19874 19875 19876 19877 19878 19879 19880 19881 19882 19883 19884 19885 19886 19887 19888 19889 19890 19891 19892 19893 19894 19895 19896 19897 19898 19899 19900 19901 19902 19903 19904 19905 19906 19907 19908 19909 19910 19911 19912 19913 19914 19915 19916 19917 19918 19919 19920 19921 19922 19923 19924 19925 19926 19927 19928 19929 19930 19931 19932 19933 19934 19935 19936 19937 19938 19939 19940 19941 19942 19943 19944 19945 19946 19947 19948 19949 19950 19951 19952 19953 19954 19955 19956 19957 19958 19959 19960 19961 19962 19963 19964 19965 19966 19967 19968 19969 19970 19971 19972 19973 19974 19975 19976 19977 19978 19979 19980 19981 19982 19983 19984 19985 19986 19987 19988 19989 19990 19991 19992 19993 19994 19995 19996 19997 19998 19999 20000 20001 20002 20003 20004 20005 20006 20007 20008 20009 20010 20011 20012 20013 20014 20015 20016 20017 20018 20019 20020 20021 20022 20023 20024 20025 20026 20027 20028 20029 20030 20031 20032 20033 20034 20035 20036 20037 20038 20039 20040 20041 20042 20043 20044 20045 20046 20047 20048 20049 20050 20051 20052 20053 20054 20055 20056 20057 20058 20059 20060 20061 20062 20063 20064 20065 20066 20067 20068 20069 20070 20071 20072 20073 20074 20075 20076 20077 20078 20079 20080 20081 20082 20083 20084 20085 20086 20087 20088 20089 20090 20091 20092 20093 20094 20095 20096 20097 20098 20099 20100 20101 20102 20103 20104 20105 20106 20107 20108 20109 20110 20111 20112 20113 20114 20115 20116 20117 20118 20119 20120 20121 20122 20123 20124 20125 20126 20127 20128 20129 20130 20131 20132 20133 20134 20135 20136 20137 20138 20139 20140 20141 20142 20143 20144 20145 20146 20147 20148 20149 20150 20151 20152 20153 20154 20155 20156 20157 20158 20159 20160 20161 20162 20163 20164 20165 20166 20167 20168 20169 20170 20171 20172 20173 20174 20175 20176 20177 20178 20179 20180 20181 20182 20183 20184 20185 20186 20187 20188 20189 20190 20191 20192 20193 20194 20195 20196 20197 20198 20199 20200 20201 20202 20203 20204 20205 20206 20207 20208 20209 20210 20211 20212 20213 20214 20215 20216 20217 20218 20219 20220 20221 20222 20223 20224 20225 20226 20227 20228 20229 20230 20231 20232 20233 20234 20235 20236 20237 20238 20239 20240 20241 20242 20243 20244 20245 20246 20247 20248 20249 20250 20251 20252 20253 20254 20255 20256 20257 20258 20259 20260 20261 20262 20263 20264 20265 20266 20267 20268 20269 20270 20271 20272 20273 20274 20275 20276 20277 20278 20279 20280 20281 20282 20283 20284 20285 20286 20287 20288 20289 20290 20291 20292 20293 20294 20295 20296 20297 20298 20299 20300 20301 20302 20303 20304 20305 20306 20307 20308 20309 20310 20311 20312 20313 20314 20315 20316 20317 20318 20319 20320 20321 20322 20323 20324 20325 20326 20327 20328 20329 20330 20331 20332 20333 20334 20335 20336 20337 20338 20339 20340 20341 20342 20343 20344 20345 20346 20347 20348 20349 20350 20351 20352 20353 20354 20355 20356 20357 20358 20359 20360 20361 20362 20363 20364 20365 20366 20367 20368 20369 20370 20371 20372 20373 20374 20375 20376 20377 20378 20379 20380 20381 20382 20383 20384 20385 20386 20387 20388 20389 20390 20391 20392 20393 20394 20395 20396 20397 20398 20399 20400 20401 20402 20403 20404 20405 20406 20407 20408 20409 20410 20411 20412 20413 20414 20415 20416 20417 20418 20419 20420 20421 20422 20423 20424 20425 20426 20427 20428 20429 20430 20431 20432 20433 20434 20435 20436 20437 20438 20439 20440 20441 20442 20443 20444 20445 20446 20447 20448 20449 20450 20451 20452 20453 20454 20455 20456 20457 20458 20459 20460 20461 20462 20463 20464 20465 20466 20467 20468 20469 20470 20471 20472 20473 20474 20475 20476 20477 20478 20479 20480 20481 20482 20483 20484 20485 20486 20487 20488 20489 20490 20491 20492 20493 20494 20495 20496 20497 20498 20499 20500 20501 20502 20503 20504 20505 20506 20507 20508 20509 20510 20511 20512 20513 20514 20515 20516 20517 20518 20519 20520 20521 20522 20523 20524 20525 20526 20527 20528 20529 20530 20531 20532 20533 20534 20535 20536 20537 20538 20539 20540 20541 20542 20543 20544 20545 20546 20547 20548 20549 20550 20551 20552 20553 20554 20555 20556 20557 20558 20559 20560 20561 20562 20563 20564 20565 20566 20567 20568 20569 20570 20571 20572 20573 20574 20575 20576 20577 20578 20579 20580 20581 20582 20583 20584 20585 20586 20587 20588 20589 20590 20591 20592 20593 20594 20595 20596 20597 20598 20599 20600 20601 20602 20603 20604 20605 20606 20607 20608 20609 20610 20611 20612 20613 20614 20615 20616 20617 20618 20619 20620 20621 20622 20623 20624 20625 20626 20627 20628 20629 20630 20631 20632 20633 20634 20635 20636 20637 20638 20639 20640 20641 20642 20643 20644 20645 20646 20647 20648 20649 20650 20651 20652 20653 20654 20655 20656 20657 20658 20659 20660 20661 20662 20663 20664 20665 20666 20667 20668 20669 20670 20671 20672 20673 20674 20675 20676 20677 20678 20679 20680 20681 20682 20683 20684 20685 20686 20687 20688 20689 20690 20691 20692 20693 20694 20695 20696 20697 20698 20699 20700 20701 20702 20703 20704 20705 20706 20707 20708 20709 20710 20711 20712 20713 20714 20715 20716 20717 20718 20719 20720 20721 20722 20723 20724 20725 20726 20727 20728 20729 20730 20731 20732 20733 20734 20735 20736 20737 20738 20739 20740 20741 20742 20743 20744 20745 20746 20747 20748 20749 20750 20751 20752 20753 20754 20755 20756 20757 20758 20759 20760 20761 20762 20763 20764 20765 20766 20767 20768 20769 20770 20771 20772 20773 20774 20775 20776 20777 20778 20779 20780 20781 20782 20783 20784 20785 20786 20787 20788 20789 20790 20791 20792 20793 20794 20795 20796 20797 20798 20799 20800 20801 20802 20803 20804 20805 20806 20807 20808 20809 20810 20811 20812 20813 20814 20815 20816 20817 20818 20819 20820 20821 20822 20823 20824 20825 20826 20827 20828 20829 20830 20831 20832 20833 20834 20835 20836 20837 20838 20839 20840 20841 20842 20843 20844 20845 20846 20847 20848 20849 20850 20851 20852 20853 20854 20855 20856 20857 20858 20859 20860 20861 20862 20863 20864 20865 20866 20867 20868 20869 20870 20871 20872 20873 20874 20875 20876 20877 20878 20879 20880 20881 20882 20883 20884 20885 20886 20887 20888 20889 20890 20891 20892 20893 20894 20895 20896 20897 20898 20899 20900 20901 20902 20903 20904 20905 20906 20907 20908 20909 20910 20911 20912 20913 20914 20915 20916 20917 20918 20919 20920 20921 20922 20923 20924 20925 20926 20927 20928 20929 20930 20931 20932 20933 20934 20935 20936 20937 20938 20939 20940 20941 20942 20943 20944 20945 20946 20947 20948 20949 20950 20951 20952 20953 20954 20955 20956 20957 20958 20959 20960 20961 20962 20963 20964 20965 20966 20967 20968 20969 20970 20971 20972 20973 20974 20975 20976 20977 20978 20979 20980 20981 20982 20983 20984 20985 20986 20987 20988 20989 20990 20991 20992 20993 20994 20995 20996 20997 20998 20999 21000 21001 21002 21003 21004 21005 21006 21007 21008 21009 21010 21011 21012 21013 21014 21015 21016 21017 21018 21019 21020 21021 21022 21023 21024 21025 21026 21027 21028 21029 21030 21031 21032 21033 21034 21035 21036 21037 21038 21039 21040 21041 21042 21043 21044 21045 21046 21047 21048 21049 21050 21051 21052 21053 21054 21055 21056 21057 21058 21059 21060 21061 21062 21063 21064 21065 21066 21067 21068 21069 21070 21071 21072 21073 21074 21075 21076 21077 21078 21079 21080 21081 21082 21083 21084 21085 21086 21087 21088 21089 21090 21091 21092 21093 21094 21095 21096 21097 21098 21099 21100 21101 21102 21103 21104 21105 21106 21107 21108 21109 21110 21111 21112 21113 21114 21115 21116 21117 21118 21119 21120 21121 21122 21123 21124 21125 21126 21127 21128 21129 21130 21131 21132 21133 21134 21135 21136 21137 21138 21139 21140 21141 21142 21143 21144 21145 21146 21147 21148 21149 21150 21151 21152 21153 21154 21155 21156 21157 21158 21159 21160 21161 21162 21163 21164 21165 21166 21167 21168 21169 21170 21171 21172 21173 21174 21175 21176 21177 21178 21179 21180 21181 21182 21183 21184 21185 21186 21187 21188 21189 21190 21191 21192 21193 21194 21195 21196 21197 21198 21199 21200 21201 21202 21203 21204 21205 21206 21207 21208 21209 21210 21211 21212 21213 21214 21215 21216 21217 21218 21219 21220 21221 21222 21223 21224 21225 21226 21227 21228 21229 21230 21231 21232 21233 21234 21235 21236 21237 21238 21239 21240 21241 21242 21243 21244 21245 21246 21247 21248 21249 21250 21251 21252 21253 21254 21255 21256 21257 21258 21259 21260 21261 21262 21263 21264 21265 21266 21267 21268 21269 21270 21271 21272 21273 21274 21275 21276 21277 21278 21279 21280 21281 21282 21283 21284 21285 21286 21287 21288 21289 21290 21291 21292 21293 21294 21295 21296 21297 21298 21299 21300 21301 21302 21303 21304 21305 21306 21307 21308 21309 21310 21311 21312 21313 21314 21315 21316 21317 21318 21319 21320 21321 21322 21323 21324 21325 21326 21327 21328 21329 21330 21331 21332 21333 21334 21335 21336 21337 21338 21339 21340 21341 21342 21343 21344 21345 21346 21347 21348 21349 21350 21351 21352 21353 21354 21355 21356 21357 21358 21359 21360 21361 21362 21363 21364 21365 21366 21367 21368 21369 21370 21371 21372 21373 21374 21375 21376 21377 21378 21379 21380 21381 21382 21383 21384 21385 21386 21387 21388 21389 21390 21391 21392 21393 21394 21395 21396 21397 21398 21399 21400 21401 21402 21403 21404 21405 21406 21407 21408 21409 21410 21411 21412 21413 21414 21415 21416 21417 21418 21419 21420 21421 21422 21423 21424 21425 21426 21427 21428 21429 21430 21431 21432 21433 21434 21435 21436 21437 21438 21439 21440 21441 21442 21443 21444 21445 21446 21447 21448 21449 21450 21451 21452 21453 21454 21455 21456 21457 21458 21459 21460 21461 21462 21463 21464 21465 21466 21467 21468 21469 21470 21471 21472 21473 21474 21475 21476 21477 21478 21479 21480 21481 21482 21483 21484 21485 21486 21487 21488 21489 21490 21491 21492 21493 21494 21495 21496 21497 21498 21499 21500 21501 21502 21503 21504 21505 21506 21507 21508 21509 21510 21511 21512 21513 21514 21515 21516 21517 21518 21519 21520 21521 21522 21523 21524 21525 21526 21527 21528 21529 21530 21531 21532 21533 21534 21535 21536 21537 21538 21539 21540 21541 21542 21543 21544 21545 21546 21547 21548 21549 21550 21551 21552 21553 21554 21555 21556 21557 21558 21559 21560 21561 21562 21563 21564 21565 21566 21567 21568 21569 21570 21571 21572 21573 21574 21575 21576 21577 21578 21579 21580 21581 21582 21583 21584 21585 21586 21587 21588 21589 21590 21591 21592 21593 21594 21595 21596 21597 21598 21599 21600 21601 21602 21603 21604 21605 21606 21607 21608 21609 21610 21611 21612 21613 21614 21615 21616 21617 21618 21619 21620 21621 21622 21623 21624 21625 21626 21627 21628 21629 21630 21631 21632 21633 21634 21635 21636 21637 21638 21639 21640 21641 21642 21643 21644 21645 21646 21647 21648 21649 21650 21651 21652 21653 21654 21655 21656 21657 21658 21659 21660 21661 21662 21663 21664 21665 21666 21667 21668 21669 21670 21671 21672 21673 21674 21675 21676 21677 21678 21679 21680 21681 21682 21683 21684 21685 21686 21687 21688 21689 21690 21691 21692 21693 21694 21695 21696 21697 21698 21699 21700 21701 21702 21703 21704 21705 21706 21707 21708 21709 21710 21711 21712 21713 21714 21715 21716 21717 21718 21719 21720 21721 21722 21723 21724 21725 21726 21727 21728 21729 21730 21731 21732 21733 21734 21735 21736 21737 21738 21739 21740 21741 21742 21743 21744 21745 21746 21747 21748 21749 21750 21751 21752 21753 21754 21755 21756 21757 21758 21759 21760 21761 21762 21763 21764 21765 21766 21767 21768 21769 21770 21771 21772 21773 21774 21775 21776 21777 21778 21779 21780 21781 21782 21783 21784 21785 21786 21787 21788 21789 21790 21791 21792 21793 21794 21795 21796 21797 21798 21799 21800 21801 21802 21803 21804 21805 21806 21807 21808 21809 21810 21811 21812 21813 21814 21815 21816 21817 21818 21819 21820 21821 21822 21823 21824 21825 21826 21827 21828 21829 21830 21831 21832 21833 21834 21835 21836 21837 21838 21839 21840 21841 21842 21843 21844 21845 21846 21847 21848 21849 21850 21851 21852 21853 21854 21855 21856 21857 21858 21859 21860 21861 21862 21863 21864 21865 21866 21867 21868 21869 21870 21871 21872 21873 21874 21875 21876 21877 21878 21879 21880 21881 21882 21883 21884 21885 21886 21887 21888 21889 21890 21891 21892 21893 21894 21895 21896 21897 21898 21899 21900 21901 21902 21903 21904 21905 21906 21907 21908 21909 21910 21911 21912 21913 21914 21915 21916 21917 21918 21919 21920 21921 21922 21923 21924 21925 21926 21927 21928 21929 21930 21931 21932 21933 21934 21935 21936 21937 21938 21939 21940 21941 21942 21943 21944 21945 21946 21947 21948 21949 21950 21951 21952 21953 21954 21955 21956 21957 21958 21959 21960 21961 21962 21963 21964 21965 21966 21967 21968 21969 21970 21971 21972 21973 21974 21975 21976 21977 21978 21979 21980 21981 21982 21983 21984 21985 21986 21987 21988 21989 21990 21991 21992 21993 21994 21995 21996 21997 21998 21999 22000 22001 22002 22003 22004 22005 22006 22007 22008 22009 22010 22011 22012 22013 22014 22015 22016 22017 22018 22019 22020 22021 22022 22023 22024 22025 22026 22027 22028 22029 22030 22031 22032 22033 22034 22035 22036 22037 22038 22039 22040 22041 22042 22043 22044 22045 22046 22047 22048 22049 22050 22051 22052 22053 22054 22055 22056 22057 22058 22059 22060 22061 22062 22063 22064 22065 22066 22067 22068 22069 22070 22071 22072 22073 22074 22075 22076 22077 22078 22079 22080 22081 22082 22083 22084 22085 22086 22087 22088 22089 22090 22091 22092 22093 22094 22095 22096 22097 22098 22099 22100 22101 22102 22103 22104 22105 22106 22107 22108 22109 22110 22111 22112 22113 22114 22115 22116 22117 22118 22119 22120 22121 22122 22123 22124 22125 22126 22127 22128 22129 22130 22131 22132 22133 22134 22135 22136 22137 22138 22139 22140 22141 22142 22143 22144 22145 22146 22147 22148 22149 22150 22151 22152 22153 22154 22155 22156 22157 22158 22159 22160 22161 22162 22163 22164 22165 22166 22167 22168 22169 22170 22171 22172 22173 22174 22175 22176 22177 22178 22179 22180 22181 22182 22183 22184 22185 22186 22187 22188 22189 22190 22191 22192 22193 22194 22195 22196 22197 22198 22199 22200 22201 22202 22203 22204 22205 22206 22207 22208 22209 22210 22211 22212 22213 22214 22215 22216 22217 22218 22219 22220 22221 22222 22223 22224 22225 22226 22227 22228 22229 22230 22231 22232 22233 22234 22235 22236 22237 22238 22239 22240 22241 22242 22243 22244 22245 22246 22247 22248 22249 22250 22251 22252 22253 22254 22255 22256 22257 22258 22259 22260 22261 22262 22263 22264 22265 22266 22267 22268 22269 22270 22271 22272 22273 22274 22275 22276 22277 22278 22279 22280 22281 22282 22283 22284 22285 22286 22287 22288 22289 22290 22291 22292 22293 22294 22295 22296 22297 22298 22299 22300 22301 22302 22303 22304 22305 22306 22307 22308 22309 22310 22311 22312 22313 22314 22315 22316 22317 22318 22319 22320 22321 22322 22323 22324 22325 22326 22327 22328 22329 22330 22331 22332 22333 22334 22335 22336 22337 22338 22339 22340 22341 22342 22343 22344 22345 22346 22347 22348 22349 22350 22351 22352 22353 22354 22355 22356 22357 22358 22359 22360 22361 22362 22363 22364 22365 22366 22367 22368 22369 22370 22371 22372 22373 22374 22375 22376 22377 22378 22379 22380 22381 22382 22383 22384 22385 22386 22387 22388 22389 22390 22391 22392 22393 22394 22395 22396 22397 22398 22399 22400 22401 22402 22403 22404 22405 22406 22407 22408 22409 22410 22411 22412 22413 22414 22415 22416 22417 22418 22419 22420 22421 22422 22423 22424 22425 22426 22427 22428 22429 22430 22431 22432 22433 22434 22435 22436 22437 22438 22439 22440 22441 22442 22443 22444 22445 22446 22447 22448 22449 22450 22451 22452 22453 22454 22455 22456 22457 22458 22459 22460 22461 22462 22463 22464 22465 22466 22467 22468 22469 22470 22471 22472 22473 22474 22475 22476 22477 22478 22479 22480 22481 22482 22483 22484 22485 22486 22487 22488 22489 22490 22491 22492 22493 22494 22495 22496 22497 22498 22499 22500 22501 22502 22503 22504 22505 22506 22507 22508 22509 22510 22511 22512 22513 22514 22515 22516 22517 22518 22519 22520 22521 22522 22523 22524 22525 22526 22527 22528 22529 22530 22531 22532 22533 22534 22535 22536 22537 22538 22539 22540 22541 22542 22543 22544 22545 22546 22547 22548 22549 22550 22551 22552 22553 22554 22555 22556 22557 22558 22559 22560 22561 22562 22563 22564 22565 22566 22567 22568 22569 22570 22571 22572 22573 22574 22575 22576 22577 22578 22579 22580 22581 22582 22583 22584 22585 22586 22587 22588 22589 22590 22591 22592 22593 22594 22595 22596 22597 22598 22599 22600 22601 22602 22603 22604 22605 22606 22607 22608 22609 22610 22611 22612 22613 22614 22615 22616 22617 22618 22619 22620 22621 22622 22623 22624 22625 22626 22627 22628 22629 22630 22631 22632 22633 22634 22635 22636 22637 22638 22639 22640 22641 22642 22643 22644 22645 22646 22647 22648 22649 22650 22651 22652 22653 22654 22655 22656 22657 22658 22659 22660 22661 22662 22663 22664 22665 22666 22667 22668 22669 22670 22671 22672 22673 22674 22675 22676 22677 22678 22679 22680 22681 22682 22683 22684 22685 22686 22687 22688 22689 22690 22691 22692 22693 22694 22695 22696 22697 22698 22699 22700 22701 22702 22703 22704 22705 22706 22707 22708 22709 22710 22711 22712 22713 22714 22715 22716 22717 22718 22719 22720 22721 22722 22723 22724 22725 22726 22727 22728 22729 22730 22731 22732 22733 22734 22735 22736 22737 22738 22739 22740 22741 22742 22743 22744 22745 22746 22747 22748 22749 22750 22751 22752 22753 22754 22755 22756 22757 22758 22759 22760 22761 22762 22763 22764 22765 22766 22767 22768 22769 22770 22771 22772 22773 22774 22775 22776 22777 22778 22779 22780 22781 22782 22783 22784 22785 22786 22787 22788 22789 22790 22791 22792 22793 22794 22795 22796 22797 22798 22799 22800 22801 22802 22803 22804 22805 22806 22807 22808 22809 22810 22811 22812 22813 22814 22815 22816 22817 22818 22819 22820 22821 22822 22823 22824 22825 22826 22827 22828 22829 22830 22831 22832 22833 22834 22835 22836 22837 22838 22839 22840 22841 22842 22843 22844 22845 22846 22847 22848 22849 22850 22851 22852 22853 22854 22855 22856 22857 22858 22859 22860 22861 22862 22863 22864 22865 22866 22867 22868 22869 22870 22871 22872 22873 22874 22875 22876 22877 22878 22879 22880 22881 22882 22883 22884 22885 22886 22887 22888 22889 22890 22891 22892 22893 22894 22895 22896 22897 22898 22899 22900 22901 22902 22903 22904 22905 22906 22907 22908 22909 22910 22911 22912 22913 22914 22915 22916 22917 22918 22919 22920 22921 22922 22923 22924 22925 22926 22927 22928 22929 22930 22931 22932 22933 22934 22935 22936 22937 22938 22939 22940 22941 22942 22943 22944 22945 22946 22947 22948 22949 22950 22951 22952 22953 22954 22955 22956 22957 22958 22959 22960 22961 22962 22963 22964 22965 22966 22967 22968 22969 22970 22971 22972 22973 22974 22975 22976 22977 22978 22979 22980 22981 22982 22983 22984 22985 22986 22987 22988 22989 22990 22991 22992 22993 22994 22995 22996 22997 22998 22999 23000 23001 23002 23003 23004 23005 23006 23007 23008 23009 23010 23011 23012 23013 23014 23015 23016 23017 23018 23019 23020 23021 23022 23023 23024 23025 23026 23027 23028 23029 23030 23031 23032 23033 23034 23035 23036 23037 23038 23039 23040 23041 23042 23043 23044 23045 23046 23047 23048 23049 23050 23051 23052 23053 23054 23055 23056 23057 23058 23059 23060 23061 23062 23063 23064 23065 23066 23067 23068 23069 23070 23071 23072 23073 23074 23075 23076 23077 23078 23079 23080 23081 23082 23083 23084 23085 23086 23087 23088 23089 23090 23091 23092 23093 23094 23095 23096 23097 23098 23099 23100 23101 23102 23103 23104 23105 23106 23107 23108 23109 23110 23111 23112 23113 23114 23115 23116 23117 23118 23119 23120 23121 23122 23123 23124 23125 23126 23127 23128 23129 23130 23131 23132 23133 23134 23135 23136 23137 23138 23139 23140 23141 23142 23143 23144 23145 23146 23147 23148 23149 23150 23151 23152 23153 23154 23155 23156 23157 23158 23159 23160 23161 23162 23163 23164 23165 23166 23167 23168 23169 23170 23171 23172 23173 23174 23175 23176 23177 23178 23179 23180 23181 23182 23183 23184 23185 23186 23187 23188 23189 23190 23191 23192 23193 23194 23195 23196 23197 23198 23199 23200 23201 23202 23203 23204 23205 23206 23207 23208 23209 23210 23211 23212 23213 23214 23215 23216 23217 23218 23219 23220 23221 23222 23223 23224 23225 23226 23227 23228 23229 23230 23231 23232 23233 23234 23235 23236 23237 23238 23239 23240 23241 23242 23243 23244 23245 23246 23247 23248 23249 23250 23251 23252 23253 23254 23255 23256 23257 23258 23259 23260 23261 23262 23263 23264 23265 23266 23267 23268 23269 23270 23271 23272 23273 23274 23275 23276 23277 23278 23279 23280 23281 23282 23283 23284 23285 23286 23287 23288 23289 23290 23291 23292 23293 23294 23295 23296 23297 23298 23299 23300 23301 23302 23303 23304 23305 23306 23307 23308 23309 23310 23311 23312 23313 23314 23315 23316 23317 23318 23319 23320 23321 23322 23323 23324 23325 23326 23327 23328 23329 23330 23331 23332 23333 23334 23335 23336 23337 23338 23339 23340 23341 23342 23343 23344 23345 23346 23347 23348 23349 23350 23351 23352 23353 23354 23355 23356 23357 23358 23359 23360 23361 23362 23363 23364 23365 23366 23367 23368 23369 23370 23371 23372 23373 23374 23375 23376 23377 23378 23379 23380 23381 23382 23383 23384 23385 23386 23387 23388 23389 23390 23391 23392 23393 23394 23395 23396 23397 23398 23399 23400 23401 23402 23403 23404 23405 23406 23407 23408 23409 23410 23411 23412 23413 23414 23415 23416 23417 23418 23419 23420 23421 23422 23423 23424 23425 23426 23427 23428 23429 23430 23431 23432 23433 23434 23435 23436 23437 23438 23439 23440 23441 23442 23443 23444 23445 23446 23447 23448 23449 23450 23451 23452 23453 23454 23455 23456 23457 23458 23459 23460 23461 23462 23463 23464 23465 23466 23467 23468 23469 23470 23471 23472 23473 23474 23475 23476 23477 23478 23479 23480 23481 23482 23483 23484 23485 23486 23487 23488 23489 23490 23491 23492 23493 23494 23495 23496 23497 23498 23499 23500 23501 23502 23503 23504 23505 23506 23507 23508 23509 23510 23511 23512 23513 23514 23515 23516 23517 23518 23519 23520 23521 23522 23523 23524 23525 23526 23527 23528 23529 23530 23531 23532 23533 23534 23535 23536 23537 23538 23539 23540 23541 23542 23543 23544 23545 23546 23547 23548 23549 23550 23551 23552 23553 23554 23555 23556 23557 23558 23559 23560 23561 23562 23563 23564 23565 23566 23567 23568 23569 23570 23571 23572 23573 23574 23575 23576 23577 23578 23579 23580 23581 23582 23583 23584 23585 23586 23587 23588 23589 23590 23591 23592 23593 23594 23595 23596 23597 23598 23599 23600 23601 23602 23603 23604 23605 23606 23607 23608 23609 23610 23611 23612 23613 23614 23615 23616 23617 23618 23619 23620 23621 23622 23623 23624 23625 23626 23627 23628 23629 23630 23631 23632 23633 23634 23635 23636 23637 23638 23639 23640 23641 23642 23643 23644 23645 23646 23647 23648 23649 23650 23651 23652 23653 23654 23655 23656 23657 23658 23659 23660 23661 23662 23663 23664 23665 23666 23667 23668 23669 23670 23671 23672 23673 23674 23675 23676 23677 23678 23679 23680 23681 23682 23683 23684 23685 23686 23687 23688 23689 23690 23691 23692 23693 23694 23695 23696 23697 23698 23699 23700 23701 23702 23703 23704 23705 23706 23707 23708 23709 23710 23711 23712 23713 23714 23715 23716 23717 23718 23719 23720 23721 23722 23723 23724 23725 23726 23727 23728 23729 23730 23731 23732 23733 23734 23735 23736 23737 23738 23739 23740 23741 23742 23743 23744 23745 23746 23747 23748 23749 23750 23751 23752 23753 23754 23755 23756 23757 23758 23759 23760 23761 23762 23763 23764 23765 23766 23767 23768 23769 23770 23771 23772 23773 23774 23775 23776 23777 23778 23779 23780 23781 23782 23783 23784 23785 23786 23787 23788 23789 23790 23791 23792 23793 23794 23795 23796 23797 23798 23799 23800 23801 23802 23803 23804 23805 23806 23807 23808 23809 23810 23811 23812 23813 23814 23815 23816 23817 23818 23819 23820 23821 23822 23823 23824 23825 23826 23827 23828 23829 23830 23831 23832 23833 23834 23835 23836 23837 23838 23839 23840 23841 23842 23843 23844 23845 23846 23847 23848 23849 23850 23851 23852 23853 23854 23855 23856 23857 23858 23859 23860 23861 23862 23863 23864 23865 23866 23867 23868 23869 23870 23871 23872 23873 23874 23875 23876 23877 23878 23879 23880 23881 23882 23883 23884 23885 23886 23887 23888 23889 23890 23891 23892 23893 23894 23895 23896 23897 23898 23899 23900 23901 23902 23903 23904 23905 23906 23907 23908 23909 23910 23911 23912 23913 23914 23915 23916 23917 23918 23919 23920 23921 23922 23923 23924 23925 23926 23927 23928 23929 23930 23931 23932 23933 23934 23935 23936 23937 23938 23939 23940 23941 23942 23943 23944 23945 23946 23947 23948 23949 23950 23951 23952 23953 23954 23955 23956 23957 23958 23959 23960 23961 23962 23963 23964 23965 23966 23967 23968 23969 23970 23971 23972 23973 23974 23975 23976 23977 23978 23979 23980 23981 23982 23983 23984 23985 23986 23987 23988 23989 23990 23991 23992 23993 23994 23995 23996 23997 23998 23999 24000 24001 24002 24003 24004 24005 24006 24007 24008 24009 24010 24011 24012 24013 24014 24015 24016 24017 24018 24019 24020 24021 24022 24023 24024 24025 24026 24027 24028 24029 24030 24031 24032 24033 24034 24035 24036 24037 24038 24039 24040 24041 24042 24043 24044 24045 24046 24047 24048 24049 24050 24051 24052 24053 24054 24055 24056 24057 24058 24059 24060 24061 24062 24063 24064 24065 24066 24067 24068 24069 24070 24071 24072 24073 24074 24075 24076 24077 24078 24079 24080 24081 24082 24083 24084 24085 24086 24087 24088 24089 24090 24091 24092 24093 24094 24095 24096 24097 24098 24099 24100 24101 24102 24103 24104 24105 24106 24107 24108 24109 24110 24111 24112 24113 24114 24115 24116 24117 24118 24119 24120 24121 24122 24123 24124 24125 24126 24127 24128 24129 24130 24131 24132 24133 24134 24135 24136 24137 24138 24139 24140 24141 24142 24143 24144 24145 24146 24147 24148 24149 24150 24151 24152 24153 24154 24155 24156 24157 24158 24159 24160 24161 24162 24163 24164 24165 24166 24167 24168 24169 24170 24171 24172 24173 24174 24175 24176 24177 24178 24179 24180 24181 24182 24183 24184 24185 24186 24187 24188 24189 24190 24191 24192 24193 24194 24195 24196 24197 24198 24199 24200 24201 24202 24203 24204 24205 24206 24207 24208 24209 24210 24211 24212 24213 24214 24215 24216 24217 24218 24219 24220 24221 24222 24223 24224 24225 24226 24227 24228 24229 24230 24231 24232 24233 24234 24235 24236 24237 24238 24239 24240 24241 24242 24243 24244 24245 24246 24247 24248 24249 24250 24251 24252 24253 24254 24255 24256 24257 24258 24259 24260 24261 24262 24263 24264 24265 24266 24267 24268 24269 24270 24271 24272 24273 24274 24275 24276 24277 24278 24279 24280 24281 24282 24283 24284 24285 24286 24287 24288 24289 24290 24291 24292 24293 24294 24295 24296 24297 24298 24299 24300 24301 24302 24303 24304 24305 24306 24307 24308 24309 24310 24311 24312 24313 24314 24315 24316 24317 24318 24319 24320 24321 24322 24323 24324 24325 24326 24327 24328 24329 24330 24331 24332 24333 24334 24335 24336 24337 24338 24339 24340 24341 24342 24343 24344 24345 24346 24347 24348 24349 24350 24351 24352 24353 24354 24355 24356 24357 24358 24359 24360 24361 24362 24363 24364 24365 24366 24367 24368 24369 24370 24371 24372 24373 24374 24375 24376 24377 24378 24379 24380 24381 24382 24383 24384 24385 24386 24387 24388 24389 24390 24391 24392 24393 24394 24395 24396 24397 24398 24399 24400 24401 24402 24403 24404 24405 24406 24407 24408 24409 24410 24411 24412 24413 24414 24415 24416 24417 24418 24419 24420 24421 24422 24423 24424 24425 24426 24427 24428 24429 24430 24431 24432 24433 24434 24435 24436 24437 24438 24439 24440 24441 24442 24443 24444 24445 24446 24447 24448 24449 24450 24451 24452 24453 24454 24455 24456 24457 24458 24459 24460 24461 24462 24463 24464 24465 24466 24467 24468 24469 24470 24471 24472 24473 24474 24475 24476 24477 24478 24479 24480 24481 24482 24483 24484 24485 24486 24487 24488 24489 24490 24491 24492 24493 24494 24495 24496 24497 24498 24499 24500 24501 24502 24503 24504 24505 24506 24507 24508 24509 24510 24511 24512 24513 24514 24515 24516 24517 24518 24519 24520 24521 24522 24523 24524 24525 24526 24527 24528 24529 24530 24531 24532 24533 24534 24535 24536 24537 24538 24539 24540 24541 24542 24543 24544 24545 24546 24547 24548 24549 24550 24551 24552 24553 24554 24555 24556 24557 24558 24559 24560 24561 24562 24563 24564 24565 24566 24567 24568 24569 24570 24571 24572 24573 24574 24575 24576 24577 24578 24579 24580 24581 24582 24583 24584 24585 24586 24587 24588 24589 24590 24591 24592 24593 24594 24595 24596 24597 24598 24599 24600 24601 24602 24603 24604 24605 24606 24607 24608 24609 24610 24611 24612 24613 24614 24615 24616 24617 24618 24619 24620 24621 24622 24623 24624 24625 24626 24627 24628 24629 24630 24631 24632 24633 24634 24635 24636 24637 24638 24639 24640 24641 24642 24643 24644 24645 24646 24647 24648 24649 24650 24651 24652 24653 24654 24655 24656 24657 24658 24659 24660 24661 24662 24663 24664 24665 24666 24667 24668 24669 24670 24671 24672 24673 24674 24675 24676 24677 24678 24679 24680 24681 24682 24683 24684 24685 24686 24687 24688 24689 24690 24691 24692 24693 24694 24695 24696 24697 24698 24699 24700 24701 24702 24703 24704 24705 24706 24707 24708 24709 24710 24711 24712 24713 24714 24715 24716 24717 24718 24719 24720 24721 24722 24723 24724 24725 24726 24727 24728 24729 24730 24731 24732 24733 24734 24735 24736 24737 24738 24739 24740 24741 24742 24743 24744 24745 24746 24747 24748 24749 24750 24751 24752 24753 24754 24755 24756 24757 24758 24759 24760 24761 24762 24763 24764 24765 24766 24767 24768 24769 24770 24771 24772 24773 24774 24775 24776 24777 24778 24779 24780 24781 24782 24783 24784 24785 24786 24787 24788 24789 24790 24791 24792 24793 24794 24795 24796 24797 24798 24799 24800 24801 24802 24803 24804 24805 24806 24807 24808 24809 24810 24811 24812 24813 24814 24815 24816 24817 24818 24819 24820 24821 24822 24823 24824 24825 24826 24827 24828 24829 24830 24831 24832 24833 24834 24835 24836 24837 24838 24839 24840 24841 24842 24843 24844 24845 24846 24847 24848 24849 24850 24851 24852 24853 24854 24855 24856 24857 24858 24859 24860 24861 24862 24863 24864 24865 24866 24867 24868 24869 24870 24871 24872 24873 24874 24875 24876 24877 24878 24879 24880 24881 24882 24883 24884 24885 24886 24887 24888 24889 24890 24891 24892 24893 24894 24895 24896 24897 24898 24899 24900 24901 24902 24903 24904 24905 24906 24907 24908 24909 24910 24911 24912 24913 24914 24915 24916 24917 24918 24919 24920 24921 24922 24923 24924 24925 24926 24927 24928 24929 24930 24931 24932 24933 24934 24935 24936 24937 24938 24939 24940 24941 24942 24943 24944 24945 24946 24947 24948 24949 24950 24951 24952 24953 24954 24955 24956 24957 24958 24959 24960 24961 24962 24963 24964 24965 24966 24967 24968 24969 24970 24971 24972 24973 24974 24975 24976 24977 24978 24979 24980 24981 24982 24983 24984 24985 24986 24987 24988 24989 24990 24991 24992 24993 24994 24995 24996 24997 24998 24999 25000 25001 25002 25003 25004 25005 25006 25007 25008 25009 25010 25011 25012 25013 25014 25015 25016 25017 25018 25019 25020 25021 25022 25023 25024 25025 25026 25027 25028 25029 25030 25031 25032 25033 25034 25035 25036 25037 25038 25039 25040 25041 25042 25043 25044 25045 25046 25047 25048 25049 25050 25051 25052 25053 25054 25055 25056 25057 25058 25059 25060 25061 25062 25063 25064 25065 25066 25067 25068 25069 25070 25071 25072 25073 25074 25075 25076 25077 25078 25079 25080 25081 25082 25083 25084 25085 25086 25087 25088 25089 25090 25091 25092 25093 25094 25095 25096 25097 25098 25099 25100 25101 25102 25103 25104 25105 25106 25107 25108 25109 25110 25111 25112 25113 25114 25115 25116 25117 25118 25119 25120 25121 25122 25123 25124 25125 25126 25127 25128 25129 25130 25131 25132 25133 25134 25135 25136 25137 25138 25139 25140 25141 25142 25143 25144 25145 25146 25147 25148 25149 25150 25151 25152 25153 25154 25155 25156 25157 25158 25159 25160 25161 25162 25163 25164 25165 25166 25167 25168 25169 25170 25171 25172 25173 25174 25175 25176 25177 25178 25179 25180 25181 25182 25183 25184 25185 25186 25187 25188 25189 25190 25191 25192 25193 25194 25195 25196 25197 25198 25199 25200 25201 25202 25203 25204 25205 25206 25207 25208 25209 25210 25211 25212 25213 25214 25215 25216 25217 25218 25219 25220 25221 25222 25223 25224 25225 25226 25227 25228 25229 25230 25231 25232 25233 25234 25235 25236 25237 25238 25239 25240 25241 25242 25243 25244 25245 25246 25247 25248 25249 25250 25251 25252 25253 25254 25255 25256 25257 25258 25259 25260 25261 25262 25263 25264 25265 25266 25267 25268 25269 25270 25271 25272 25273 25274 25275 25276 25277 25278 25279 25280 25281 25282 25283 25284 25285 25286 25287 25288 25289 25290 25291 25292 25293 25294 25295 25296 25297 25298 25299 25300 25301 25302 25303 25304 25305 25306 25307 25308 25309 25310 25311 25312 25313 25314 25315 25316 25317 25318 25319 25320 25321 25322 25323 25324 25325 25326 25327 25328 25329 25330 25331 25332 25333 25334 25335 25336 25337 25338 25339 25340 25341 25342 25343 25344 25345 25346 25347 25348 25349 25350 25351 25352 25353 25354 25355 25356 25357 25358 25359 25360 25361 25362 25363 25364 25365 25366 25367 25368 25369 25370 25371 25372 25373 25374 25375 25376 25377 25378 25379 25380 25381 25382 25383 25384 25385 25386 25387 25388 25389 25390 25391 25392 25393 25394 25395 25396 25397 25398 25399 25400 25401 25402 25403 25404 25405 25406 25407 25408 25409 25410 25411 25412 25413 25414 25415 25416 25417 25418 25419 25420 25421 25422 25423 25424 25425 25426 25427 25428 25429 25430 25431 25432 25433 25434 25435 25436 25437 25438 25439 25440 25441 25442 25443 25444 25445 25446 25447 25448 25449 25450 25451 25452 25453 25454 25455 25456 25457 25458 25459 25460 25461 25462 25463 25464 25465 25466 25467 25468 25469 25470 25471 25472 25473 25474 25475 25476 25477 25478 25479 25480 25481 25482 25483 25484 25485 25486 25487 25488 25489 25490 25491 25492 25493 25494 25495 25496 25497 25498 25499 25500 25501 25502 25503 25504 25505 25506 25507 25508 25509 25510 25511 25512 25513 25514 25515 25516 25517 25518 25519 25520 25521 25522 25523 25524 25525 25526 25527 25528 25529 25530 25531 25532 25533 25534 25535 25536 25537 25538 25539 25540 25541 25542 25543 25544 25545 25546 25547 25548 25549 25550 25551 25552 25553 25554 25555 25556 25557 25558 25559 25560 25561 25562 25563 25564 25565 25566 25567 25568 25569 25570 25571 25572 25573 25574 25575 25576 25577 25578 25579 25580 25581 25582 25583 25584 25585 25586 25587 25588 25589 25590 25591 25592 25593 25594 25595 25596 25597 25598 25599 25600 25601 25602 25603 25604 25605 25606 25607 25608 25609 25610 25611 25612 25613 25614 25615 25616 25617 25618 25619 25620 25621 25622 25623 25624 25625 25626 25627 25628 25629 25630 25631 25632 25633 25634 25635 25636 25637 25638 25639 25640 25641 25642 25643 25644 25645 25646 25647 25648 25649 25650 25651 25652 25653 25654 25655 25656 25657 25658 25659 25660 25661 25662 25663 25664 25665 25666 25667 25668 25669 25670 25671 25672 25673 25674 25675 25676 25677 25678 25679 25680 25681 25682 25683 25684 25685 25686 25687 25688 25689 25690 25691 25692 25693 25694 25695 25696 25697 25698 25699 25700 25701 25702 25703 25704 25705 25706 25707 25708 25709 25710 25711 25712 25713 25714 25715 25716 25717 25718 25719 25720 25721 25722 25723 25724 25725 25726 25727 25728 25729 25730 25731 25732 25733 25734 25735 25736 25737 25738 25739 25740 25741 25742 25743 25744 25745 25746 25747 25748 25749 25750 25751 25752 25753 25754 25755 25756 25757 25758 25759 25760 25761 25762 25763 25764 25765 25766 25767 25768 25769 25770 25771 25772 25773 25774 25775 25776 25777 25778 25779 25780 25781 25782 25783 25784 25785 25786 25787 25788 25789 25790 25791 25792 25793 25794 25795 25796 25797 25798 25799 25800 25801 25802 25803 25804 25805 25806 25807 25808 25809 25810 25811 25812 25813 25814 25815 25816 25817 25818 25819 25820 25821 25822 25823 25824 25825 25826 25827 25828 25829 25830 25831 25832 25833 25834 25835 25836 25837 25838 25839 25840 25841 25842 25843 25844 25845 25846 25847 25848 25849 25850 25851 25852 25853 25854 25855 25856 25857 25858 25859 25860 25861 25862 25863 25864 25865 25866 25867 25868 25869 25870 25871 25872 25873 25874 25875 25876 25877 25878 25879 25880 25881 25882 25883 25884 25885 25886 25887 25888 25889 25890 25891 25892 25893 25894 25895 25896 25897 25898 25899 25900 25901 25902 25903 25904 25905 25906 25907 25908 25909 25910 25911 25912 25913 25914 25915 25916 25917 25918 25919 25920 25921 25922 25923 25924 25925 25926 25927 25928 25929 25930 25931 25932 25933 25934 25935 25936 25937 25938 25939 25940 25941 25942 25943 25944 25945 25946 25947 25948 25949 25950 25951 25952 25953 25954 25955 25956 25957 25958 25959 25960 25961 25962 25963 25964 25965 25966 25967 25968 25969 25970 25971 25972 25973 25974 25975 25976 25977 25978 25979 25980 25981 25982 25983 25984 25985 25986 25987 25988 25989 25990 25991 25992 25993 25994 25995 25996 25997 25998 25999 26000 26001 26002 26003 26004 26005 26006 26007 26008 26009 26010 26011 26012 26013 26014 26015 26016 26017 26018 26019 26020 26021 26022 26023 26024 26025 26026 26027 26028 26029 26030 26031 26032 26033 26034 26035 26036 26037 26038 26039 26040 26041 26042 26043 26044 26045 26046 26047 26048 26049 26050 26051 26052 26053 26054 26055 26056 26057 26058 26059 26060 26061 26062 26063 26064 26065 26066 26067 26068 26069 26070 26071 26072 26073 26074 26075 26076 26077 26078 26079 26080 26081 26082 26083 26084 26085 26086 26087 26088 26089 26090 26091 26092 26093 26094 26095 26096 26097 26098 26099 26100 26101 26102 26103 26104 26105 26106 26107 26108 26109 26110 26111 26112 26113 26114 26115 26116 26117 26118 26119 26120 26121 26122 26123 26124 26125 26126 26127 26128 26129 26130 26131 26132 26133 26134 26135 26136 26137 26138 26139 26140 26141 26142 26143 26144 26145 26146 26147 26148 26149 26150 26151 26152 26153 26154 26155 26156 26157 26158 26159 26160 26161 26162 26163 26164 26165 26166 26167 26168 26169 26170 26171 26172 26173 26174 26175 26176 26177 26178 26179 26180 26181 26182 26183 26184 26185 26186 26187 26188 26189 26190 26191 26192 26193 26194 26195 26196 26197 26198 26199 26200 26201 26202 26203 26204 26205 26206 26207 26208 26209 26210 26211 26212 26213 26214 26215 26216 26217 26218 26219 26220 26221 26222 26223 26224 26225 26226 26227 26228 26229 26230 26231 26232 26233 26234 26235 26236 26237 26238 26239 26240 26241 26242 26243 26244 26245 26246 26247 26248 26249 26250 26251 26252 26253 26254 26255 26256 26257 26258 26259 26260 26261 26262 26263 26264 26265 26266 26267 26268 26269 26270 26271 26272 26273 26274 26275 26276 26277 26278 26279 26280 26281 26282 26283 26284 26285 26286 26287 26288 26289 26290 26291 26292 26293 26294 26295 26296 26297 26298 26299 26300 26301 26302 26303 26304 26305 26306 26307 26308 26309 26310 26311 26312 26313 26314 26315 26316 26317 26318 26319 26320 26321 26322 26323 26324 26325 26326 26327 26328 26329 26330 26331 26332 26333 26334 26335 26336 26337 26338 26339 26340 26341 26342 26343 26344 26345 26346 26347 26348 26349 26350 26351 26352 26353 26354 26355 26356 26357 26358 26359 26360 26361 26362 26363 26364 26365 26366 26367 26368 26369 26370 26371 26372 26373 26374 26375 26376 26377 26378 26379 26380 26381 26382 26383 26384 26385 26386 26387 26388 26389 26390 26391 26392 26393 26394 26395 26396 26397 26398 26399 26400 26401 26402 26403 26404 26405 26406 26407 26408 26409 26410 26411 26412 26413 26414 26415 26416 26417 26418 26419 26420 26421 26422 26423 26424 26425 26426 26427 26428 26429 26430 26431 26432 26433 26434 26435 26436 26437 26438 26439 26440 26441 26442 26443 26444 26445 26446 26447 26448 26449 26450 26451 26452 26453 26454 26455 26456 26457 26458 26459 26460 26461 26462 26463 26464 26465 26466 26467 26468 26469 26470 26471 26472 26473 26474 26475 26476 26477 26478 26479 26480 26481 26482 26483 26484 26485 26486 26487 26488 26489 26490 26491 26492 26493 26494 26495 26496 26497 26498 26499 26500 26501 26502 26503 26504 26505 26506 26507 26508 26509 26510 26511 26512 26513 26514 26515 26516 26517 26518 26519 26520 26521 26522 26523 26524 26525 26526 26527 26528 26529 26530 26531 26532 26533 26534 26535 26536 26537 26538 26539 26540 26541 26542 26543 26544 26545 26546 26547 26548 26549 26550 26551 26552 26553 26554 26555 26556 26557 26558 26559 26560 26561 26562 26563 26564 26565 26566 26567 26568 26569 26570 26571 26572 26573 26574 26575 26576 26577 26578 26579 26580 26581 26582 26583 26584 26585 26586 26587 26588 26589 26590 26591 26592 26593 26594 26595 26596 26597 26598 26599 26600 26601 26602 26603 26604 26605 26606 26607 26608 26609 26610 26611 26612 26613 26614 26615 26616 26617 26618 26619 26620 26621 26622 26623 26624 26625 26626 26627 26628 26629 26630 26631 26632 26633 26634 26635 26636 26637 26638 26639 26640 26641 26642 26643 26644 26645 26646 26647 26648 26649 26650 26651 26652 26653 26654 26655 26656 26657 26658 26659 26660 26661 26662 26663 26664 26665 26666 26667 26668 26669 26670 26671 26672 26673 26674 26675 26676 26677 26678 26679 26680 26681 26682 26683 26684 26685 26686 26687 26688 26689 26690 26691 26692 26693 26694 26695 26696 26697 26698 26699 26700 26701 26702 26703 26704 26705 26706 26707 26708 26709 26710 26711 26712 26713 26714 26715 26716 26717 26718 26719 26720 26721 26722 26723 26724 26725 26726 26727 26728 26729 26730 26731 26732 26733 26734 26735 26736 26737 26738 26739 26740 26741 26742 26743 26744 26745 26746 26747 26748 26749 26750 26751 26752 26753 26754 26755 26756 26757 26758 26759 26760 26761 26762 26763 26764 26765 26766 26767 26768 26769 26770 26771 26772 26773 26774 26775 26776 26777 26778 26779 26780 26781 26782 26783 26784 26785 26786 26787 26788 26789 26790 26791 26792 26793 26794 26795 26796 26797 26798 26799 26800 26801 26802 26803 26804 26805 26806 26807 26808 26809 26810 26811 26812 26813 26814 26815 26816 26817 26818 26819 26820 26821 26822 26823 26824 26825 26826 26827 26828 26829 26830 26831 26832 26833 26834 26835 26836 26837 26838 26839 26840 26841 26842 26843 26844 26845 26846 26847 26848 26849 26850 26851 26852 26853 26854 26855 26856 26857 26858 26859 26860 26861 26862 26863 26864 26865 26866 26867 26868 26869 26870 26871 26872 26873 26874 26875 26876 26877 26878 26879 26880 26881 26882 26883 26884 26885 26886 26887 26888 26889 26890 26891 26892 26893 26894 26895 26896 26897 26898 26899 26900 26901 26902 26903 26904 26905 26906 26907 26908 26909 26910 26911 26912 26913 26914 26915 26916 26917 26918 26919 26920 26921 26922 26923 26924 26925 26926 26927 26928 26929 26930 26931 26932 26933 26934 26935 26936 26937 26938 26939 26940 26941 26942 26943 26944 26945 26946 26947 26948 26949 26950 26951 26952 26953 26954 26955 26956 26957 26958 26959 26960 26961 26962 26963 26964 26965 26966 26967 26968 26969 26970 26971 26972 26973 26974 26975 26976 26977 26978 26979 26980 26981 26982 26983 26984 26985 26986 26987 26988 26989 26990 26991 26992 26993 26994 26995 26996 26997 26998 26999 27000 27001 27002 27003 27004 27005 27006 27007 27008 27009 27010 27011 27012 27013 27014 27015 27016 27017 27018 27019 27020 27021 27022 27023 27024 27025 27026 27027 27028 27029 27030 27031 27032 27033 27034 27035 27036 27037 27038 27039 27040 27041 27042 27043 27044 27045 27046 27047 27048 27049 27050 27051 27052 27053 27054 27055 27056 27057 27058 27059 27060 27061 27062 27063 27064 27065 27066 27067 27068 27069 27070 27071 27072 27073 27074 27075 27076 27077 27078 27079 27080 27081 27082 27083 27084 27085 27086 27087 27088 27089 27090 27091 27092 27093 27094 27095 27096 27097 27098 27099 27100 27101 27102 27103 27104 27105 27106 27107 27108 27109 27110 27111 27112 27113 27114 27115 27116 27117 27118 27119 27120 27121 27122 27123 27124 27125 27126 27127 27128 27129 27130 27131 27132 27133 27134 27135 27136 27137 27138 27139 27140 27141 27142 27143 27144 27145 27146 27147 27148 27149 27150 27151 27152 27153 27154 27155 27156 27157 27158 27159 27160 27161 27162 27163 27164 27165 27166 27167 27168 27169 27170 27171 27172 27173 27174 27175 27176 27177 27178 27179 27180 27181 27182 27183 27184 27185 27186 27187 27188 27189 27190 27191 27192 27193 27194 27195 27196 27197 27198 27199 27200 27201 27202 27203 27204 27205 27206 27207 27208 27209 27210 27211 27212 27213 27214 27215 27216 27217 27218 27219 27220 27221 27222 27223 27224 27225 27226 27227 27228 27229 27230 27231 27232 27233 27234 27235 27236 27237 27238 27239 27240 27241 27242 27243 27244 27245 27246 27247 27248 27249 27250 27251 27252 27253 27254 27255 27256 27257 27258 27259 27260 27261 27262 27263 27264 27265 27266 27267 27268 27269 27270 27271 27272 27273 27274 27275 27276 27277 27278 27279 27280 27281 27282 27283 27284 27285 27286 27287 27288 27289 27290 27291 27292 27293 27294 27295 27296 27297 27298 27299 27300 27301 27302 27303 27304 27305 27306 27307 27308 27309 27310 27311 27312 27313 27314 27315 27316 27317 27318 27319 27320 27321 27322 27323 27324 27325 27326 27327 27328 27329 27330 27331 27332 27333 27334 27335 27336 27337 27338 27339 27340 27341 27342 27343 27344 27345 27346 27347 27348 27349 27350 27351 27352 27353 27354 27355 27356 27357 27358 27359 27360 27361 27362 27363 27364 27365 27366 27367 27368 27369 27370 27371 27372 27373 27374 27375 27376 27377 27378 27379 27380 27381 27382 27383 27384 27385 27386 27387 27388 27389 27390 27391 27392 27393 27394 27395 27396 27397 27398 27399 27400 27401 27402 27403 27404 27405 27406 27407 27408 27409 27410 27411 27412 27413 27414 27415 27416 27417 27418 27419 27420 27421 27422 27423 27424 27425 27426 27427 27428 27429 27430 27431 27432 27433 27434 27435 27436 27437 27438 27439 27440 27441 27442 27443 27444 27445 27446 27447 27448 27449 27450 27451 27452 27453 27454 27455 27456 27457 27458 27459 27460 27461 27462 27463 27464 27465 27466 27467 27468 27469 27470 27471 27472 27473 27474 27475 27476 27477 27478 27479 27480 27481 27482 27483 27484 27485 27486 27487 27488 27489 27490 27491 27492 27493 27494 27495 27496 27497 27498 27499 27500 27501 27502 27503 27504 27505 27506 27507 27508 27509 27510 27511 27512 27513 27514 27515 27516 27517 27518 27519 27520 27521 27522 27523 27524 27525 27526 27527 27528 27529 27530 27531 27532 27533 27534 27535 27536 27537 27538 27539 27540 27541 27542 27543 27544 27545 27546 27547 27548 27549 27550 27551 27552 27553 27554 27555 27556 27557 27558 27559 27560 27561 27562 27563 27564 27565 27566 27567 27568 27569 27570 27571 27572 27573 27574 27575 27576 27577 27578 27579 27580 27581 27582 27583 27584 27585 27586 27587 27588 27589 27590 27591 27592 27593 27594 27595 27596 27597 27598 27599 27600 27601 27602 27603 27604 27605 27606 27607 27608 27609 27610 27611 27612 27613 27614 27615 27616 27617 27618 27619 27620 27621 27622 27623 27624 27625 27626 27627 27628 27629 27630 27631 27632 27633 27634 27635 27636 27637 27638 27639 27640 27641 27642 27643 27644 27645 27646 27647 27648 27649 27650 27651 27652 27653 27654 27655 27656 27657 27658 27659 27660 27661 27662 27663 27664 27665 27666 27667 27668 27669 27670 27671 27672 27673 27674 27675 27676 27677 27678 27679 27680 27681 27682 27683 27684 27685 27686 27687 27688 27689 27690 27691 27692 27693 27694 27695 27696 27697 27698 27699 27700 27701 27702 27703 27704 27705 27706 27707 27708 27709 27710 27711 27712 27713 27714 27715 27716 27717 27718 27719 27720 27721 27722 27723 27724 27725 27726 27727 27728 27729 27730 27731 27732 27733 27734 27735 27736 27737 27738 27739 27740 27741 27742 27743 27744 27745 27746 27747 27748 27749 27750 27751 27752 27753 27754 27755 27756 27757 27758 27759 27760 27761 27762 27763 27764 27765 27766 27767 27768 27769 27770 27771 27772 27773 27774 27775 27776 27777 27778 27779 27780 27781 27782 27783 27784 27785 27786 27787 27788 27789 27790 27791 27792 27793 27794 27795 27796 27797 27798 27799 27800 27801 27802 27803 27804 27805 27806 27807 27808 27809 27810 27811 27812 27813 27814 27815 27816 27817 27818 27819 27820 27821 27822 27823 27824 27825 27826 27827 27828 27829 27830 27831 27832 27833 27834 27835 27836 27837 27838 27839 27840 27841 27842 27843 27844 27845 27846 27847 27848 27849 27850 27851 27852 27853 27854 27855 27856 27857 27858 27859 27860 27861 27862 27863 27864 27865 27866 27867 27868 27869 27870 27871 27872 27873 27874 27875 27876 27877 27878 27879 27880 27881 27882 27883 27884 27885 27886 27887 27888 27889 27890 27891 27892 27893 27894 27895 27896 27897 27898 27899 27900 27901 27902 27903 27904 27905 27906 27907 27908 27909 27910 27911 27912 27913 27914 27915 27916 27917 27918 27919 27920 27921 27922 27923 27924 27925 27926 27927 27928 27929 27930 27931 27932 27933 27934 27935 27936 27937 27938 27939 27940 27941 27942 27943 27944 27945 27946 27947 27948 27949 27950 27951 27952 27953 27954 27955 27956 27957 27958 27959 27960 27961 27962 27963 27964 27965 27966 27967 27968 27969 27970 27971 27972 27973 27974 27975 27976 27977 27978 27979 27980 27981 27982 27983 27984 27985 27986 27987 27988 27989 27990 27991 27992 27993 27994 27995 27996 27997 27998 27999 28000 28001 28002 28003 28004 28005 28006 28007 28008 28009 28010 28011 28012 28013 28014 28015 28016 28017 28018 28019 28020 28021 28022 28023 28024 28025 28026 28027 28028 28029 28030 28031 28032 28033 28034 28035 28036 28037 28038 28039 28040 28041 28042 28043 28044 28045 28046 28047 28048 28049 28050 28051 28052 28053 28054 28055 28056 28057 28058 28059 28060 28061 28062 28063 28064 28065 28066 28067 28068 28069 28070 28071 28072 28073 28074 28075 28076 28077 28078 28079 28080 28081 28082 28083 28084 28085 28086 28087 28088 28089 28090 28091 28092 28093 28094 28095 28096 28097 28098 28099 28100 28101 28102 28103 28104 28105 28106 28107 28108 28109 28110 28111 28112 28113 28114 28115 28116 28117 28118 28119 28120 28121 28122 28123 28124 28125 28126 28127 28128 28129 28130 28131 28132 28133 28134 28135 28136 28137 28138 28139 28140 28141 28142 28143 28144 28145 28146 28147 28148 28149 28150 28151 28152 28153 28154 28155 28156 28157 28158 28159 28160 28161 28162 28163 28164 28165 28166 28167 28168 28169 28170 28171 28172 28173 28174 28175 28176 28177 28178 28179 28180 28181 28182 28183 28184 28185 28186 28187 28188 28189 28190 28191 28192 28193 28194 28195 28196 28197 28198 28199 28200 28201 28202 28203 28204 28205 28206 28207 28208 28209 28210 28211 28212 28213 28214 28215 28216 28217 28218 28219 28220 28221 28222 28223 28224 28225 28226 28227 28228 28229 28230 28231 28232 28233 28234 28235 28236 28237 28238 28239 28240 28241 28242 28243 28244 28245 28246 28247 28248 28249 28250 28251 28252 28253 28254 28255 28256 28257 28258 28259 28260 28261 28262 28263 28264 28265 28266 28267 28268 28269 28270 28271 28272 28273 28274 28275 28276 28277 28278 28279 28280 28281 28282 28283 28284 28285 28286 28287 28288 28289 28290 28291 28292 28293 28294 28295 28296 28297 28298 28299 28300 28301 28302 28303 28304 28305 28306 28307 28308 28309 28310 28311 28312 28313 28314 28315 28316 28317 28318 28319 28320 28321 28322 28323 28324 28325 28326 28327 28328 28329 28330 28331 28332 28333 28334 28335 28336 28337 28338 28339 28340 28341 28342 28343 28344 28345 28346 28347 28348 28349 28350 28351 28352 28353 28354 28355 28356 28357 28358 28359 28360 28361 28362 28363 28364 28365 28366 28367 28368 28369 28370 28371 28372 28373 28374 28375 28376 28377 28378 28379 28380 28381 28382 28383 28384 28385 28386 28387 28388 28389 28390 28391 28392 28393 28394 28395 28396 28397 28398 28399 28400 28401 28402 28403 28404 28405 28406 28407 28408 28409 28410 28411 28412 28413 28414 28415 28416 28417 28418 28419 28420 28421 28422 28423 28424 28425 28426 28427 28428 28429 28430 28431 28432 28433 28434 28435 28436 28437 28438 28439 28440 28441 28442 28443 28444 28445 28446 28447 28448 28449 28450 28451 28452 28453 28454 28455 28456 28457 28458 28459 28460 28461 28462 28463 28464 28465 28466 28467 28468 28469 28470 28471 28472 28473 28474 28475 28476 28477 28478 28479 28480 28481 28482 28483 28484 28485 28486 28487 28488 28489 28490 28491 28492 28493 28494 28495 28496 28497 28498 28499 28500 28501 28502 28503 28504 28505 28506 28507 28508 28509 28510 28511 28512 28513 28514 28515 28516 28517 28518 28519 28520 28521 28522 28523 28524 28525 28526 28527 28528 28529 28530 28531 28532 28533 28534 28535 28536 28537 28538 28539 28540 28541 28542 28543 28544 28545 28546 28547 28548 28549 28550 28551 28552 28553 28554 28555 28556 28557 28558 28559 28560 28561 28562 28563 28564 28565 28566 28567 28568 28569 28570 28571 28572 28573 28574 28575 28576 28577 28578 28579 28580 28581 28582 28583 28584 28585 28586 28587 28588 28589 28590 28591 28592 28593 28594 28595 28596 28597 28598 28599 28600 28601 28602 28603 28604 28605 28606 28607 28608 28609 28610 28611 28612 28613 28614 28615 28616 28617 28618 28619 28620 28621 28622 28623 28624 28625 28626 28627 28628 28629 28630 28631 28632 28633 28634 28635 28636 28637 28638 28639 28640 28641 28642 28643 28644 28645 28646 28647 28648 28649 28650 28651 28652 28653 28654 28655 28656 28657 28658 28659 28660 28661 28662 28663 28664 28665 28666 28667 28668 28669 28670 28671 28672 28673 28674 28675 28676 28677 28678 28679 28680 28681 28682 28683 28684 28685 28686 28687 28688 28689 28690 28691 28692 28693 28694 28695 28696 28697 28698 28699 28700 28701 28702 28703 28704 28705 28706 28707 28708 28709 28710 28711 28712 28713 28714 28715 28716 28717 28718 28719 28720 28721 28722 28723 28724 28725 28726 28727 28728 28729 28730 28731 28732 28733 28734 28735 28736 28737 28738 28739 28740 28741 28742 28743 28744 28745 28746 28747 28748 28749 28750 28751 28752 28753 28754 28755 28756 28757 28758 28759 28760 28761 28762 28763 28764 28765 28766 28767 28768 28769 28770 28771 28772 28773 28774 28775 28776 28777 28778 28779 28780 28781 28782 28783 28784 28785 28786 28787 28788 28789 28790 28791 28792 28793 28794 28795 28796 28797 28798 28799 28800 28801 28802 28803 28804 28805 28806 28807 28808 28809 28810 28811 28812 28813 28814 28815 28816 28817 28818 28819 28820 28821 28822 28823 28824 28825 28826 28827 28828 28829 28830 28831 28832 28833 28834 28835 28836 28837 28838 28839 28840 28841 28842 28843 28844 28845 28846 28847 28848 28849 28850 28851 28852 28853 28854 28855 28856 28857 28858 28859 28860 28861 28862 28863 28864 28865 28866 28867 28868 28869 28870 28871 28872 28873 28874 28875 28876 28877 28878 28879 28880 28881 28882 28883 28884 28885 28886 28887 28888 28889 28890 28891 28892 28893 28894 28895 28896 28897 28898 28899 28900 28901 28902 28903 28904 28905 28906 28907 28908 28909 28910 28911 28912 28913 28914 28915 28916 28917 28918 28919 28920 28921 28922 28923 28924 28925 28926 28927 28928 28929 28930 28931 28932 28933 28934 28935 28936 28937 28938 28939 28940 28941 28942 28943 28944 28945 28946 28947 28948 28949 28950 28951 28952 28953 28954 28955 28956 28957 28958 28959 28960 28961 28962 28963 28964 28965 28966 28967 28968 28969 28970 28971 28972 28973 28974 28975 28976 28977 28978 28979 28980 28981 28982 28983 28984 28985 28986 28987 28988 28989 28990 28991 28992 28993 28994 28995 28996 28997 28998 28999 29000 29001 29002 29003 29004 29005 29006 29007 29008 29009 29010 29011 29012 29013 29014 29015 29016 29017 29018 29019 29020 29021 29022 29023 29024 29025 29026 29027 29028 29029 29030 29031 29032 29033 29034 29035 29036 29037 29038 29039 29040 29041 29042 29043 29044 29045 29046 29047 29048 29049 29050 29051 29052 29053 29054 29055 29056 29057 29058 29059 29060 29061 29062 29063 29064 29065 29066 29067 29068 29069 29070 29071 29072 29073 29074 29075 29076 29077 29078 29079 29080 29081 29082 29083 29084 29085 29086 29087 29088 29089 29090 29091 29092 29093 29094 29095 29096 29097 29098 29099 29100 29101 29102 29103 29104 29105 29106 29107 29108 29109 29110 29111 29112 29113 29114 29115 29116 29117 29118 29119 29120 29121 29122 29123 29124 29125 29126 29127 29128 29129 29130 29131 29132 29133 29134 29135 29136 29137 29138 29139 29140 29141 29142 29143 29144 29145 29146 29147 29148 29149 29150 29151 29152 29153 29154 29155 29156 29157 29158 29159 29160 29161 29162 29163 29164 29165 29166 29167 29168 29169 29170 29171 29172 29173 29174 29175 29176 29177 29178 29179 29180 29181 29182 29183 29184 29185 29186 29187 29188 29189 29190 29191 29192 29193 29194 29195 29196 29197 29198 29199 29200 29201 29202 29203 29204 29205 29206 29207 29208 29209 29210 29211 29212 29213 29214 29215 29216 29217 29218 29219 29220 29221 29222 29223 29224 29225 29226 29227 29228 29229 29230 29231 29232 29233 29234 29235 29236 29237 29238 29239 29240 29241 29242 29243 29244 29245 29246 29247 29248 29249 29250 29251 29252 29253 29254 29255 29256 29257 29258 29259 29260 29261 29262 29263 29264 29265 29266 29267 29268 29269 29270 29271 29272 29273 29274 29275 29276 29277 29278 29279 29280 29281 29282 29283 29284 29285 29286 29287 29288 29289 29290 29291 29292 29293 29294 29295 29296 29297 29298 29299 29300 29301 29302 29303 29304 29305 29306 29307 29308 29309 29310 29311 29312 29313 29314 29315 29316 29317 29318 29319 29320 29321 29322 29323 29324 29325 29326 29327 29328 29329 29330 29331 29332 29333 29334 29335 29336 29337 29338 29339 29340 29341 29342 29343 29344 29345 29346 29347 29348 29349 29350 29351 29352 29353 29354 29355 29356 29357 29358 29359 29360 29361 29362 29363 29364 29365 29366 29367 29368 29369 29370 29371 29372 29373 29374 29375 29376 29377 29378 29379 29380 29381 29382 29383 29384 29385 29386 29387 29388 29389 29390 29391 29392 29393 29394 29395 29396 29397 29398 29399 29400 29401 29402 29403 29404 29405 29406 29407 29408 29409 29410 29411 29412 29413 29414 29415 29416 29417 29418 29419 29420 29421 29422 29423 29424 29425 29426 29427 29428 29429 29430 29431 29432 29433 29434 29435 29436 29437 29438 29439 29440 29441 29442 29443 29444 29445 29446 29447 29448 29449 29450 29451 29452 29453 29454 29455 29456 29457 29458 29459 29460 29461 29462 29463 29464 29465 29466 29467 29468 29469 29470 29471 29472 29473 29474 29475 29476 29477 29478 29479 29480 29481 29482 29483 29484 29485 29486 29487 29488 29489 29490 29491 29492 29493 29494 29495 29496 29497 29498 29499 29500 29501 29502 29503 29504 29505 29506 29507 29508 29509 29510 29511 29512 29513 29514 29515 29516 29517 29518 29519 29520 29521 29522 29523 29524 29525 29526 29527 29528 29529 29530 29531 29532 29533 29534 29535 29536 29537 29538 29539 29540 29541 29542 29543 29544 29545 29546 29547 29548 29549 29550 29551 29552 29553 29554 29555 29556 29557 29558 29559 29560 29561 29562 29563 29564 29565 29566 29567 29568 29569 29570 29571 29572 29573 29574 29575 29576 29577 29578 29579 29580 29581 29582 29583 29584 29585 29586 29587 29588 29589 29590 29591 29592 29593 29594 29595 29596 29597 29598 29599 29600 29601 29602 29603 29604 29605 29606 29607 29608 29609 29610 29611 29612 29613 29614 29615 29616 29617 29618 29619 29620 29621 29622 29623 29624 29625 29626 29627 29628 29629 29630 29631 29632 29633 29634 29635 29636 29637 29638 29639 29640 29641 29642 29643 29644 29645 29646 29647 29648 29649 29650 29651 29652 29653 29654 29655 29656 29657 29658 29659 29660 29661 29662 29663 29664 29665 29666 29667 29668 29669 29670 29671 29672 29673 29674 29675 29676 29677 29678 29679 29680 29681 29682 29683 29684 29685 29686 29687 29688 29689 29690 29691 29692 29693 29694 29695 29696 29697 29698 29699 29700 29701 29702 29703 29704 29705 29706 29707 29708 29709 29710 29711 29712 29713 29714 29715 29716 29717 29718 29719 29720 29721 29722 29723 29724 29725 29726 29727 29728 29729 29730 29731 29732 29733 29734 29735 29736 29737 29738 29739 29740 29741 29742 29743 29744 29745 29746 29747 29748 29749 29750 29751 29752 29753 29754 29755 29756 29757 29758 29759 29760 29761 29762 29763 29764 29765 29766 29767 29768 29769 29770 29771 29772 29773 29774 29775 29776 29777 29778 29779 29780 29781 29782 29783 29784 29785 29786 29787 29788 29789 29790 29791 29792 29793 29794 29795 29796 29797 29798 29799 29800 29801 29802 29803 29804 29805 29806 29807 29808 29809 29810 29811 29812 29813 29814 29815 29816 29817 29818 29819 29820 29821 29822 29823 29824 29825 29826 29827 29828 29829 29830 29831 29832 29833 29834 29835 29836 29837 29838 29839 29840 29841 29842 29843 29844 29845 29846 29847 29848 29849 29850 29851 29852 29853 29854 29855 29856 29857 29858 29859 29860 29861 29862 29863 29864 29865 29866 29867 29868 29869 29870 29871 29872 29873 29874 29875 29876 29877 29878 29879 29880 29881 29882 29883 29884 29885 29886 29887 29888 29889 29890 29891 29892 29893 29894 29895 29896 29897 29898 29899 29900 29901 29902 29903 29904 29905 29906 29907 29908 29909 29910 29911 29912 29913 29914 29915 29916 29917 29918 29919 29920 29921 29922 29923 29924 29925 29926 29927 29928 29929 29930 29931 29932 29933 29934 29935 29936 29937 29938 29939 29940 29941 29942 29943 29944 29945 29946 29947 29948 29949 29950 29951 29952 29953 29954 29955 29956 29957 29958 29959 29960 29961 29962 29963 29964 29965 29966 29967 29968 29969 29970 29971 29972 29973 29974 29975 29976 29977 29978 29979 29980 29981 29982 29983 29984 29985 29986 29987 29988 29989 29990 29991 29992 29993 29994 29995 29996 29997 29998 29999 30000 30001 30002 30003 30004 30005 30006 30007 30008 30009 30010 30011 30012 30013 30014 30015 30016 30017 30018 30019 30020 30021 30022 30023 30024 30025 30026 30027 30028 30029 30030 30031 30032 30033 30034 30035 30036 30037 30038 30039 30040 30041 30042 30043 30044 30045 30046 30047 30048 30049 30050 30051 30052 30053 30054 30055 30056 30057 30058 30059 30060 30061 30062 30063 30064 30065 30066 30067 30068 30069 30070 30071 30072 30073 30074 30075 30076 30077 30078 30079 30080 30081 30082 30083 30084 30085 30086 30087 30088 30089 30090 30091 30092 30093 30094 30095 30096 30097 30098 30099 30100 30101 30102 30103 30104 30105 30106 30107 30108 30109 30110 30111 30112 30113 30114 30115 30116 30117 30118 30119 30120 30121 30122 30123 30124 30125 30126 30127 30128 30129 30130 30131 30132 30133 30134 30135 30136 30137 30138 30139 30140 30141 30142 30143 30144 30145 30146 30147 30148 30149 30150 30151 30152 30153 30154 30155 30156 30157 30158 30159 30160 30161 30162 30163 30164 30165 30166 30167 30168 30169 30170 30171 30172 30173 30174 30175 30176 30177 30178 30179 30180 30181 30182 30183 30184 30185 30186 30187 30188 30189 30190 30191 30192 30193 30194 30195 30196 30197 30198 30199 30200 30201 30202 30203 30204 30205 30206 30207 30208 30209 30210 30211 30212 30213 30214 30215 30216 30217 30218 30219 30220 30221 30222 30223 30224 30225 30226 30227 30228 30229 30230 30231 30232 30233 30234 30235 30236 30237 30238 30239 30240 30241 30242 30243 30244 30245 30246 30247 30248 30249 30250 30251 30252 30253 30254 30255 30256 30257 30258 30259 30260 30261 30262 30263 30264 30265 30266 30267 30268 30269 30270 30271 30272 30273 30274 30275 30276 30277 30278 30279 30280 30281 30282 30283 30284 30285 30286 30287 30288 30289 30290 30291 30292 30293 30294 30295 30296 30297 30298 30299 30300 30301 30302 30303 30304 30305 30306 30307 30308 30309 30310 30311 30312 30313 30314 30315 30316 30317 30318 30319 30320 30321 30322 30323 30324 30325 30326 30327 30328 30329 30330 30331 30332 30333 30334 30335 30336 30337 30338 30339 30340 30341 30342 30343 30344 30345 30346 30347 30348 30349 30350 30351 30352 30353 30354 30355 30356 30357 30358 30359 30360 30361 30362 30363 30364 30365 30366 30367 30368 30369 30370 30371 30372 30373 30374 30375 30376 30377 30378 30379 30380 30381 30382 30383 30384 30385 30386 30387 30388 30389 30390 30391 30392 30393 30394 30395 30396 30397 30398 30399 30400 30401 30402 30403 30404 30405 30406 30407 30408 30409 30410 30411 30412 30413 30414 30415 30416 30417 30418 30419 30420 30421 30422 30423 30424 30425 30426 30427 30428 30429 30430 30431 30432 30433 30434 30435 30436 30437 30438 30439 30440 30441 30442 30443 30444 30445 30446 30447 30448 30449 30450 30451 30452 30453 30454 30455 30456 30457 30458 30459 30460 30461 30462 30463 30464 30465 30466 30467 30468 30469 30470 30471 30472 30473 30474 30475 30476 30477 30478 30479 30480 30481 30482 30483 30484 30485 30486 30487 30488 30489 30490 30491 30492 30493 30494 30495 30496 30497 30498 30499 30500 30501 30502 30503 30504 30505 30506 30507 30508 30509 30510 30511 30512 30513 30514 30515 30516 30517 30518 30519 30520 30521 30522 30523 30524 30525 30526 30527 30528 30529 30530 30531 30532 30533 30534 30535 30536 30537 30538 30539 30540 30541 30542 30543 30544 30545 30546 30547 30548 30549 30550 30551 30552 30553 30554 30555 30556 30557 30558 30559 30560 30561 30562 30563 30564 30565 30566 30567 30568 30569 30570 30571 30572 30573 30574 30575 30576 30577 
</DataArray>
<DataArray type="UInt32" Name="offsets" format="ascii">
3 6 9 12 15 18 20 23 26 29 31 34 37 40 42 45 48 51 54 57 60 62 64 67 70 73 76 78 80 83 85 87 90 92 95 98 101 103 106 109 111 114 117 120 123 126 129 132 134 137 140 143 146 149 152 155 158 160 163 166 168 171 173 176 178 181 183 186 189 192 195 198 201 204 207 210 213 216 219 222 225 228 231 233 236 239 242 245 248 251 254 257 259 262 265 267 269 272 275 278 281 284 287 290 293 296 299 302 305 307 310 313 316 319 322 324 327 330 332 335 338 341 344 347 350 353 356 359 362 365 368 371 374 377 380 383 386 389 391 394 397 400 403 406 408 411 414 417 420 423 426 429 432 435 438 441 444 447 450 453 456 459 462 465 468 471 474 477 480 482 485 487 490 493 496 498 501 504 507 509 512 515 518 520 522 525 528 530 533 536 539 542 544 547 550 553 556 559 561 564 567 570 573 575 578 580 583 586 588 591 594 597 599 602 605 607 610 613 616 619 622 625 628 631 634 637 639 642 645 647 650 653 656 659 662 665 668 670 673 676 679 682 685 688 691 694 697 700 703 706 709 712 715 718 721 724 727 730 733 735 738 740 743 746 749 752 755 757 760 763 766 769 772 775 778 781 783 786 789 792 794 797 800 802 805 808 811 814 816 819 822 824 827 830 833 836 839 841 844 846 849 852 855 858 861 864 867 870 873 876 879 882 885 888 891 894 897 900 902 905 908 911 914 917 919 921 924 927 930 933 936 939 942 945 948 951 953 956 959 962 965 968 971 974 977 980 982 985 988 990 992 995 998 1001 1003 1006 1009 1011 1014 1017 1020 1023 1026 1029 1032 1035 1038 1041 1044 1047 1050 1053 1056 1058 1061 1064 1067 1070 1073 1076 1079 1082 1084 1087 1090 1092 1095 1098 1101 1104 1106 1109 1112 1115 1118 1121 1124 1127 1130 1133 1136 1139 1142 1145 1148 1150 1152 1155 1158 1160 1162 1165 1167 1170 1172 1175 1177 1180 1183 1185 1188 1191 1194 1197 1200 1203 1206 1209 1212 1214 1216 1219 1222 1224 1227 1230 1233 1236 1239 1241 1244 1247 1249 1252 1255 1258 1261 1263 1266 1269 1272 1274 1277 1280 1283 1285 1288 1290 1293 1296 1298 1301 1304 1307 1310 1313 1316 1319 1322 1325 1328 1331 1333 1336 1339 1342 1345 1348 1351 1353 1356 1359 1362 1364 1367 1370 1373 1376 1379 1382 1385 1387 1390 1393 1396 1399 1402 1404 1407 1409 1412 1415 1418 1421 1424 1426 1428 1431 1434 1437 1439 1441 1444 1446 1449 1452 1455 1458 1461 1464 1467 1469 1472 1475 1478 1481 1484 1487 1490 1493 1496 1499 1502 1505 1508 1511 1513 1516 1519 1521 1524 1526 1529 1532 1535 1538 1541 1544 1547 1550 1553 1556 1559 1562 1565 1568 1570 1573 1576 1579 1582 1585 1588 1591 1594 1597 1600 1603 1606 1609 1612 1615 1618 1620 1623 1626 1629 1632 1635 1638 1641 1644 1647 1650 1653 1655 1657 1660 1663 1666 1669 1672 1675 1678 1681 1684 1687 1690 1693 1696 1699 1702 1705 1707 1710 1713 1716 1719 1722 1725 1728 1730 1733 1736 1739 1742 1745 1748 1751 1754 1756 1759 1762 1765 1767 1770 1773 1776 1779 1782 1785 1788 1791 1794 1797 1800 1803 1806 1809 1812 1815 1818 1821 1824 1827 1830 1833 1836 1839 1842 1845 1848 1851 1853 1856 1858 1861 1864 1867 1870 1873 1876 1879 1882 1885 1888 1891 1894 1897 1899 1902 1905 1908 1910 1913 1916 1919 1922 1925 1928 1931 1934 1937 1940 1943 1946 1949 1951 1953 1956 1959 1962 1965 1968 1971 1974 1976 1979 1982 1985 1988 1991 1994 1997 2000 2003 2006 2009 2011 2014 2017 2020 2023 2026 2029 2032 2034 2037 2040 2043 2046 2049 2052 2055 2058 2061 2064 2067 2070 2073 2076 2079 2082 2085 2087 2090 2093 2096 2099 2102 2105 2108 2111 2114 2117 2119 2122 2125 2128 2131 2134 2136 2139 2142 2145 2147 2150 2153 2156 2159 2161 2164 2167 2170 2173 2176 2179 2182 2184 2187 2189 2192 2195 2197 2200 2202 2205 2208 2211 2214 2217 2220 2223 2226 2229 2232 2235 2238 2241 2244 2247 2250 2253 2256 2259 2262 2265 2268 2271 2274 2277 2280 2283 2286 2289 2292 2295 2298 2301 2304 2307 2309 2312 2314 2316 2319 2322 2325 2328 2331 2334 2337 2340 2343 2346 2349 2351 2354 2357 2360 2363 2366 2369 2372 2374 2377 2379 2382 2384 2387 2390 2393 2396 2399 2402 2404 2407 2409 2411 2414 2417 2420 2423 2426 2429 2432 2435 2438 2441 2444 2447 2450 2453 2456 2459 2462 2464 2467 2470 2473 2476 2479 2482 2485 2488 2491 2494 2497 2500 2503 2506 2508 2511 2514 2517 2520 2523 2526 2529 2532 2535 2538 2541 2544 2547 2549 2552 2555 2558 2561 2564 2567 2570 2573 2576 2578 2581 2584 2587 2590 2593 2595 2597 2600 2603 2606 2609 2611 2613 2616 2619 2622 2625 2628 2631 2634 2637 2640 2643 2646 2648 2651 2654 2657 2660 2662 2665 2668 2671 2674 2677 2680 2682 2685 2688 2690 2693 2695 2698 2701 2704 2706 2709 2712 2715 2718 2721 2724 2727 2729 2732 2735 2738 2741 2743 2745 2748 2751 2753 2756 2759 2762 2764 2766 2768 2770 2773 2776 2778 2781 2784 2787 2790 2793 2796 2799 2802 2804 2806 2809 2812 2815 2818 2821 2824 2826 2829 2831 2834 2837 2840 2842 2845 2848 2851 2854 2857 2860 2863 2866 2869 2872 2875 2878 2881 2884 2887 2890 2893 2896 2899 2902 2905 2908 2911 2914 2917 2920 2923 2926 2928 2931 2934 2937 2940 2943 2946 2949 2952 2955 2958 2961 2964 2967 2970 2973 2976 2979 2982 2985 2988 2991 2993 2996 2999 3002 3005 3008 3011 3014 3017 3020 3022 3025 3028 3031 3034 3037 3040 3042 3045 3048 3051 3054 3057 3059 3062 3065 3068 3071 3074 3076 3079 3082 3085 3088 3091 3094 3097 3100 3103 3106 3108 3111 3114 3117 3120 3122 3124 3127 3130 3132 3135 3138 3141 3144 3146 3149 3152 3154 3157 3160 3163 3166 3169 3171 3173 3176 3179 3182 3185 3188 3191 3193 3196 3199 3202 3205 3208 3211 3214 3216 3218 3221 3224 3227 3229 3232 3235 3238 3240 3243 3246 3248 3251 3253 3256 3259 3262 3264 3267 3270 3272 3274 3277 3280 3283 3286 3289 3292 3294 3297 3299 3302 3304 3307 3310 3313 3315 3317 3320 3322 3325 3328 3331 3334 3337 3340 3343 3346 3349 3352 3355 3358 3361 3364 3367 3370 3372 3375 3378 3381 3384 3387 3390 3393 3395 3398 3401 3404 3407 3410 3412 3415 3418 3421 3423 3426 3429 3432 3435 3437 3440 3442 3445 3447 3450 3453 3456 3459 3461 3464 3467 3469 3472 3475 3478 3481 3484 3487 3490 3493 3496 3499 3502 3504 3507 3510 3513 3516 3518 3521 3524 3527 3530 3532 3535 3538 3541 3544 3547 3550 3552 3555 3558 3561 3563 3566 3568 3570 3573 3576 3579 3582 3585 3588 3591 3594 3597 3600 3603 3606 3609 3612 3615 3618 3621 3624 3627 3630 3633 3636 3639 3642 3645 3648 3651 3654 3656 3659 3662 3664 3666 3669 3671 3674 3677 3680 3683 3685 3688 3691 3693 3696 3699 3702 3705 3708 3711 3714 3717 3720 3723 3726 3729 3732 3735 3738 3741 3744 3747 3750 3753 3756 3759 3762 3765 3768 3771 3774 3777 3779 3782 3785 3788 3791 3794 3797 3800 3803 3805 3808 3811 3814 3817 3820 3823 3826 3828 3831 3833 3836 3839 3842 3844 3847 3850 3853 3856 3859 3862 3865 3867 3870 3872 3875 3878 3881 3884 3887 3889 3892 3895 3898 3901 3904 3907 3910 3913 3916 3919 3922 3925 3928 3931 3934 3937 3940 3943 3946 3949 3952 3955 3958 3961 3964 3967 3970 3973 3976 3979 3982 3985 3988 3991 3994 3997 4000 4003 4006 4008 4010 4013 4016 4018 4021 4024 4027 4029 4032 4035 4038 4040 4042 4045 4048 4050 4053 4056 4059 4062 4065 4068 4071 4074 4077 4080 4083 4086 4089 4092 4095 4098 4101 4104 4107 4110 4113 4115 4118 4120 4123 4126 4129 4132 4135 4138 4141 4144 4147 4150 4153 4156 4159 4162 4165 4168 4171 4174 4177 4180 4183 4186 4189 4192 4195 4198 4201 4204 4207 4210 4213 4216 4219 4222 4225 4228 4231 4234 4237 4240 4243 4246 4249 4252 4255 4257 4260 4262 4265 4267 4270 4273 4275 4278 4281 4284 4287 4290 4293 4296 4299 4302 4305 4308 4311 4314 4317 4320 4323 4326 4329 4332 4335 4338 4341 4344 4347 4350 4353 4356 4358 4361 4364 4367 4370 4373 4376 4379 4382 4385 4388 4391 4394 4397 4400 4403 4406 4409 4412 4415 4418 4421 4424 4427 4430 4433 4436 4439 4442 4445 4448 4451 4454 4457 4460 4463 4466 4469 4472 4475 4478 4481 4484 4487 4490 4493 4496 4499 4502 4505 4507 4510 4513 4516 4519 4521 4524 4527 4530 4533 4536 4539 4542 4545 4547 4550 4553 4556 4559 4562 4564 4566 4568 4571 4574 4577 4580 4582 4584 4587 4590 4592 4595 4598 4601 4604 4607 4610 4613 4616 4619 4622 4625 4628 4631 4634 4636 4638 4641 4643 4646 4649 4652 4655 4658 4661 4664 4667 4670 4673 4676 4679 4682 4685 4688 4691 4694 4697 4699 4702 4705 4708 4711 4714 4717 4719 4722 4725 4728 4731 4734 4737 4740 4743 4746 4749 4752 4755 4758 4761 4764 4767 4770 4773 4775 4778 4781 4784 4787 4790 4793 4796 4799 4802 4804 4807 4810 4812 4815 4818 4821 4824 4827 4830 4833 4836 4839 4842 4845 4848 4851 4854 4857 4860 4862 4865 4867 4870 4873 4876 4879 4881 4884 4886 4889 4892 4894 4896 4899 4902 4904 4907 4910 4913 4915 4918 4921 4924 4927 4930 4933 4935 4938 4941 4944 4946 4949 4952 4955 4958 4960 4963 4966 4969 4972 4975 4978 4981 4983 4986 4989 4992 4995 4998 5000 5003 5006 5008 5011 5014 5017 5020 5023 5026 5029 5031 5034 5037 5040 5042 5044 5047 5050 5053 5055 5058 5061 5064 5067 5070 5072 5074 5076 5079 5082 5085 5088 5091 5094 5097 5100 5103 5105 5107 5110 5112 5115 5118 5121 5124 5127 5129 5132 5135 5137 5140 5142 5145 5148 5151 5153 5156 5159 5161 5164 5167 5170 5173 5176 5179 5182 5184 5187 5190 5192 5194 5197 5200 5202 5205 5207 5210 5213 5215 5218 5221 5223 5226 5228 5231 5234 5237 5239 5242 5245 5247 5250 5252 5255 5258 5260 5263 5265 5268 5271 5274 5277 5279 5281 5284 5287 5290 5293 5296 5299 5302 5305 5308 5310 5313 5316 5319 5322 5325 5328 5331 5334 5337 5340 5343 5346 5349 5352 5355 5358 5361 5364 5366 5368 5371 5374 5377 5379 5382 5385 5388 5391 5393 5396 5399 5401 5404 5407 5410 5412 5415 5418 5420 5423 5426 5429 5432 5434 5437 5440 5443 5446 5449 5451 5454 5457 5460 5462 5464 5467 5470 5472 5475 5478 5481 5484 5487 5489 5491 5494 5497 5500 5503 5505 5508 5511 5514 5517 5519 5522 5525 5528 5531 5534 5537 5540 5543 5546 5549 5552 5555 5558 5561 5564 5567 5570 5573 5576 5579 5582 5585 5588 5591 5594 5597 5600 5603 5605 5608 5611 5614 5617 5620 5623 5626 5629 5632 5635 5638 5640 5643 5646 5649 5652 5654 5657 5660 5663 5665 5668 5671 5673 5676 5679 5682 5685 5688 5690 5693 5696 5699 5702 5705 5708 5711 5714 5717 5720 5723 5726 5729 5732 5735 5738 5741 5744 5747 5750 5752 5755 5758 5761 5764 5767 5769 5772 5775 5778 5781 5784 5787 5790 5792 5795 5798 5801 5804 5807 5810 5813 5816 5819 5822 5825 5828 5831 5833 5836 5839 5842 5845 5848 5850 5852 5855 5858 5861 5864 5866 5869 5871 5874 5877 5880 5882 5884 5887 5890 5892 5895 5898 5901 5903 5906 5909 5912 5915 5917 5920 5923 5925 5927 5930 5933 5936 5939 5942 5945 5947 5950 5953 5955 5958 5961 5964 5967 5969 5972 5975 5978 5981 5984 5987 5990 5993 5996 5999 6002 6005 6008 6011 6014 6017 6020 6023 6026 6028 6031 6033 6036 6039 6042 6044 6047 6049 6052 6054 6057 6060 6062 6065 6068 6070 6072 6074 6077 6080 6083 6085 6088 6091 6094 6097 6100 6103 6105 6108 6111 6114 6117 6120 6123 6126 6128 6131 6133 6136 6139 6142 6145 6148 6151 6154 6156 6159 6162 6165 6168 6171 6174 6177 6180 6183 6186 6189 6191 6194 6197 6199 6202 6205 6208 6211 6214 6217 6220 6223 6226 6229 6232 6235 6238 6241 6244 6247 6249 6252 6255 6258 6261 6264 6267 6270 6273 6276 6279 6282 6285 6288 6291 6294 6297 6300 6303 6306 6309 6312 6314 6317 6320 6323 6325 6328 6331 6334 6337 6340 6343 6346 6349 6352 6355 6357 6360 6363 6366 6369 6372 6375 6378 6381 6384 6387 6389 6392 6395 6398 6401 6404 6407 6409 6412 6415 6418 6420 6423 6426 6429 6432 6435 6438 6441 6444 6447 6450 6453 6456 6459 6462 6465 6468 6471 6474 6477 6480 6483 6485 6488 6491 6494 6497 6500 6502 6505 6508 6510 6513 6516 6519 6522 6525 6528 6530 6533 6536 6539 6542 6544 6547 6550 6553 6556 6559 6562 6565 6568 6571 6574 6577 6580 6583 6586 6589 6592 6595 6598 6600 6603 6606 6609 6612 6615 6617 6620 6623 6626 6628 6631 6633 6636 6639 6642 6645 6648 6651 6654 6656 6659 6662 6665 6667 6669 6672 6675 6678 6681 6684 6686 6689 6692 6695 6697 6700 6703 6706 6709 6712 6715 6718 6721 6724 6727 6730 6733 6736 6739 6742 6744 6747 6750 6753 6756 6759 6762 6764 6767 6770 6773 6776 6779 6782 6785 6788 6791 6794 6797 6799 6802 6805 6808 6811 6814 6817 6820 6823 6826 6828 6831 6834 6837 6840 6842 6844 6847 6850 6853 6856 6859 6862 6865 6868 6870 6872 6875 6877 6880 6883 6886 6889 6892 6894 6897 6900 6903 6906 6909 6912 6914 6917 6919 6922 6925 6928 6931 6934 6937 6940 6943 6946 6949 6951 6954 6957 6960 6963 6966 6969 6971 6974 6977 6980 6983 6986 6989 6992 6995 6997 7000 7003 7006 7009 7012 7014 7017 7020 7022 7025 7028 7031 7034 7037 7040 7042 7045 7048 7051 7054 7057 7060 7063 7066 7068 7071 7074 7077 7080 7082 7085 7088 7091 7094 7097 7100 7103 7106 7109 7112 7114 7117 7120 7123 7126 7129 7132 7135 7138 7141 7143 7146 7149 7152 7155 7157 7160 7163 7166 7169 7172 7175 7178 7181 7183 7186 7188 7191 7194 7197 7199 7202 7205 7208 7211 7214 7217 7220 7223 7225 7228 7231 7234 7236 7239 7242 7245 7247 7250 7253 7255 7258 7261 7264 7267 7270 7273 7276 7279 7282 7285 7288 7291 7294 7297 7300 7303 7306 7309 7312 7315 7318 7321 7324 7327 7330 7333 7336 7339 7342 7345 7348 7351 7354 7357 7360 7363 7366 7369 7372 7375 7378 7381 7384 7387 7390 7393 7396 7399 7402 7405 7408 7411 7414 7416 7419 7422 7425 7427 7430 7433 7436 7439 7442 7445 7447 7450 7452 7455 7458 7461 7464 7466 7468 7471 7474 7477 7480 7483 7486 7489 7492 7495 7498 7501 7504 7507 7510 7513 7516 7519 7522 7525 7528 7531 7534 7536 7539 7542 7544 7547 7550 7553 7555 7558 7561 7564 7567 7570 7573 7576 7579 7582 7585 7588 7591 7594 7597 7599 7602 7604 7607 7609 7612 7615 7618 7621 7624 7627 7630 7633 7636 7639 7642 7645 7648 7651 7654 7657 7660 7662 7665 7668 7671 7674 7677 7680 7683 7686 7689 7692 7695 7698 7701 7704 7707 7710 7713 7716 7719 7722 7725 7728 7731 7734 7737 7740 7743 7746 7749 7752 7755 7758 7761 7763 7766 7769 7772 7775 7778 7781 7783 7786 7789 7791 7794 7796 7799 7802 7804 7807 7810 7813 7815 7818 7821 7824 7827 7830 7833 7836 7839 7842 7845 7848 7851 7854 7857 7860 7863 7866 7869 7872 7875 7878 7881 7884 7887 7890 7892 7895 7898 7901 7904 7906 7909 7912 7914 7917 7920 7923 7926 7929 7932 7935 7938 7941 7944 7947 7950 7953 7956 7959 7962 7965 7968 7971 7974 7977 7980 7983 7986 7989 7992 7995 7998 8001 8004 8006 8009 8012 8015 8017 8020 8023 8026 8029 8031 8034 8037 8040 8043 8046 8048 8051 8054 8057 8060 8062 8065 8068 8071 8074 8077 8080 8083 8086 8089 8092 8095 8098 8101 8104 8106 8108 8111 8113 8116 8118 8121 8124 8127 8130 8133 8136 8139 8142 8145 8148 8151 8154 8157 8160 8163 8166 8169 8172 8175 8178 8181 8184 8187 8190 8193 8195 8197 8200 8203 8205 8208 8211 8213 8216 8219 8222 8225 8228 8231 8234 8237 8240 8243 8246 8248 8251 8254 8256 8259 8262 8265 8268 8271 8274 8277 8280 8283 8286 8289 8292 8295 8298 8300 8302 8305 8307 8309 8312 8315 8318 8321 8323 8326 8329 8332 8334 8336 8339 8342 8345 8348 8351 8354 8357 8359 8362 8365 8368 8371 8374 8377 8380 8383 8386 8389 8392 8395 8398 8401 8404 8407 8409 8412 8415 8418 8421 8423 8426 8429 8432 8435 8438 8441 8444 8446 8449 8452 8455 8458 8461 8464 8467 8469 8472 8475 8477 8480 8483 8486 8489 8492 8495 8498 8501 8504 8507 8510 8513 8516 8519 8522 8524 8527 8530 8533 8536 8539 8542 8545 8548 8550 8553 8556 8559 8562 8565 8568 8571 8573 8576 8579 8582 8585 8588 8590 8593 8596 8599 8602 8604 8607 8610 8613 8616 8619 8622 8625 8628 8631 8634 8637 8640 8642 8645 8648 8651 8654 8657 8660 8663 8666 8669 8672 8675 8678 8681 8684 8686 8689 8692 8695 8698 8701 8704 8707 8710 8713 8716 8719 8722 8725 8727 8729 8732 8735 8737 8740 8743 8746 8749 8751 8754 8757 8760 8762 8765 8768 8770 8773 8776 8779 8782 8784 8787 8790 8793 8796 8799 8802 8805 8808 8811 8814 8817 8820 8823 8826 8829 8832 8835 8838 8841 8844 8847 8850 8853 8856 8859 8862 8865 8868 8871 8874 8877 8880 8883 8886 8888 8891 8894 8897 8899 8902 8904 8907 8910 8913 8916 8919 8922 8925 8928 8931 8934 8937 8940 8943 8946 8948 8951 8954 8957 8960 8963 8966 8969 8972 8974 8977 8980 8983 8985 8988 8991 8994 8997 9000 9003 9006 9008 9011 9013 9016 9019 9022 9025 9028 9031 9034 9037 9040 9043 9046 9049 9052 9055 9057 9060 9063 9065 9068 9071 9074 9077 9080 9083 9086 9088 9091 9094 9097 9100 9103 9106 9109 9112 9115 9118 9121 9124 9127 9130 9133 9136 9139 9142 9145 9148 9151 9154 9157 9160 9163 9166 9169 9171 9174 9177 9179 9182 9185 9188 9190 9193 9196 9198 9201 9204 9207 9210 9213 9216 9219 9222 9225 9228 9231 9234 9237 9240 9243 9246 9249 9252 9255 9257 9260 9263 9266 9269 9272 9275 9278 9281 9284 9287 9290 9293 9296 9298 9301 9304 9307 9310 9313 9316 9319 9322 9325 9328 9331 9334 9337 9340 9343 9346 9349 9352 9355 9357 9360 9363 9366 9369 9372 9375 9378 9381 9384 9387 9390 9393 9396 9399 9402 9405 9407 9410 9413 9415 9418 9421 9424 9426 9429 9432 9434 9437 9440 9443 9446 9449 9452 9455 9458 9461 9464 9467 9470 9473 9476 9478 9481 9484 9486 9489 9492 9495 9498 9501 9504 9507 9510 9513 9516 9519 9522 9525 9528 9531 9534 9537 9540 9543 9546 9549 9552 9555 9558 9561 9564 9567 9570 9573 9576 9579 9582 9585 9588 9591 9594 9596 9599 9602 9605 9608 9610 9613 9616 9619 9622 9625 9628 9631 9634 9637 9640 9643 9646 9649 9652 9655 9657 9660 9662 9664 9667 9670 9672 9675 9677 9680 9683 9686 9689 9692 9695 9698 9701 9703 9706 9709 9711 9714 9717 9720 9723 9725 9727 9730 9732 9735 9738 9741 9744 9747 9750 9753 9756 9759 9762 9765 9768 9771 9774 9777 9780 9783 9786 9789 9792 9795 9797 9800 9803 9806 9809 9812 9815 9818 9821 9824 9827 9830 9833 9836 9839 9842 9845 9848 9851 9854 9857 9860 9863 9866 9869 9872 9874 9877 9880 9883 9886 9889 9891 9894 9897 9900 9903 9906 9909 9912 9915 9918 9920 9923 9926 9929 9932 9935 9938 9941 9944 9947 9950 9953 9956 9959 9962 9965 9968 9971 9973 9975 9978 9981 9983 9986 9989 9992 9994 9997 10000 10003 10006 10009 10012 10015 10018 10021 10024 10026 10029 10032 10034 10037 10039 10042 10045 10048 10051 10053 10056 10059 10062 10064 10067 10070 10073 10076 10079 10082 10084 10087 10090 10093 10096 10099 10102 10104 10107 10110 10113 10116 10119 10122 10125 10128 10131 10134 10137 10140 10143 10146 10148 10151 10154 10156 10159 10162 10165 10167 10169 10172 10175 10178 10181 10184 10187 10190 10193 10196 10199 10201 10204 10207 10210 10212 10215 10218 10221 10224 10226 10229 10232 10235 10238 10241 10244 10247 10250 10252 10255 10258 10261 10264 10267 10269 10271 10274 10277 10280 10282 10285 10287 10289 10292 10295 10298 10301 10304 10306 10309 10312 10315 10318 10321 10324 10326 10329 10332 10335 10338 10341 10344 10347 10349 10352 10355 10357 10360 10363 10365 10368 10371 10374 10377 10380 10383 10386 10389 10392 10395 10398 10401 10404 10407 10409 10412 10415 10418 10420 10423 10426 10428 10431 10434 10437 10440 10442 10445 10448 10451 10454 10457 10460 10463 10466 10468 10471 10474 10477 10480 10482 10485 10488 10491 10494 10497 10500 10503 10506 10508 10511 10514 10517 10520 10523 10526 10529 10532 10535 10537 10540 10543 10546 10548 10551 10554 10556 10559 10562 10564 10567 10570 10573 10576 10579 10582 10585 10588 10591 10593 10596 10599 10602 10605 10608 10611 10614 10617 10620 10623 10626 10629 10632 10635 10638 10641 10643 10646 10649 10652 10655 10658 10661 10664 10667 10670 10673 10676 10679 10682 10685 10688 10691 10694 10697 10700 10703 10706 10709 10712 10715 10718 10721 10723 10726 10728 10731 10734 10737 10740 10743 10746 10749 10752 10755 10758 10760 10763 10766 10768 10771 10774 10777 10780 10783 10786 10789 10792 10795 10798 10801 10804 10807 10810 10813 10816 10819 10822 10825 10828 10831 10833 10836 10839 10842 10845 10848 10851 10854 10857 10860 10862 10865 10867 10870 10873 10876 10879 10882 10885 10888 10890 10893 10895 10898 10901 10904 10907 10910 10913 10916 10919 10922 10925 10928 10930 10933 10936 10939 10942 10944 10947 10949 10952 10955 10958 10961 10964 10967 10969 10972 10975 10977 10980 10983 10985 10988 10991 10994 10996 10998 11000 11003 11006 11009 11012 11015 11018 11021 11024 11027 11030 11033 11036 11039 11041 11044 11047 11050 11053 11056 11059 11062 11064 11067 11069 11072 11074 11077 11080 11082 11084 11087 11090 11093 11096 11099 11102 11104 11107 11110 11113 11116 11118 11121 11123 11126 11128 11131 11133 11136 11139 11142 11145 11147 11150 11153 11156 11159 11162 11164 11167 11170 11173 11176 11179 11182 11185 11188 11191 11194 11197 11200 11203 11206 11208 11211 11214 11217 11220 11223 11225 11228 11231 11234 11236 11239 11242 11245 11248 11251 11254 11257 11260 11263 11266 11269 11272 11275 11278 11281 11284 11287 11289 11292 11295 11298 11301 11303 11306 11309 11312 11315 11318 11321 11323 11326 11329 11332 11335 11338 11341 11344 11347 11350 11353 11355 11358 11361 11363 11366 11368 11371 11374 11377 11380 11383 11386 11389 11392 11395 11398 11401 11403 11406 11409 11412 11415 11418 11421 11423 11426 11428 11430 11433 11435 11438 11441 11444 11447 11450 11453 11456 11458 11461 11464 11467 11470 11473 11476 11479 11482 11485 11488 11491 11494 11497 11500 11503 11506 11508 11511 11514 11517 11520 11523 11526 11529 11532 11535 11538 11540 11543 11546 11549 11552 11555 11558 11561 11564 11567 11570 11572 11575 11578 11581 11584 11586 11589 11592 11595 11598 11601 11603 11606 11609 11612 11615 11617 11620 11623 11626 11629 11632 11635 11638 11641 11644 11647 11650 11653 11656 11659 11662 11665 11668 11671 11673 11676 11679 11682 11685 11688 11691 11694 11697 11699 11702 11704 11706 11709 11712 11715 11718 11721 11723 11726 11729 11732 11735 11738 11741 11744 11747 11750 11753 11756 11759 11762 11765 11767 11770 11773 11775 11778 11780 11782 11785 11788 11791 11794 11797 11800 11802 11805 11808 11811 11814 11816 11819 11821 11824 11827 11829 11832 11835 11838 11841 11844 11847 11849 11851 11854 11857 11860 11863 11866 11869 11872 11875 11878 11881 11884 11887 11890 11893 11896 11898 11901 11904 11907 11910 11913 11916 11919 11921 11924 11926 11929 11932 11935 11937 11940 11942 11945 11948 11951 11954 11957 11960 11963 11966 11968 11971 11974 11977 11980 11983 11985 11988 11990 11993 11996 11999 12002 12004 12007 12010 12013 12016 12019 12021 12024 12027 12030 12033 12036 12039 12042 12045 12048 12051 12054 12057 12060 12063 12066 12069 12072 12075 12078 12081 12084 12087 12090 12093 12095 12098 12101 12104 12106 12109 12111 12114 12117 12120 12122 12125 12128 12131 12134 12137 12140 12143 12146 12149 12152 12155 12158 12161 12164 12167 12170 12173 12175 12177 12179 12181 12184 12187 12190 12193 12196 12199 12201 12204 12207 12210 12212 12215 12218 12221 12224 12227 12230 12233 12236 12239 12242 12244 12246 12248 12251 12254 12256 12258 12261 12264 12267 12270 12273 12276 12279 12282 12285 12287 12290 12293 12296 12299 12302 12305 12308 12311 12313 12315 12318 12321 12324 12326 12329 12332 12335 12338 12341 12344 12347 12350 12353 12356 12359 12361 12364 12366 12369 12372 12375 12378 12381 12383 12385 12388 12391 12393 12395 12398 12401 12404 12407 12410 12413 12416 12419 12422 12425 12428 12431 12434 12437 12440 12443 12446 12449 12452 12455 12458 12461 12464 12467 12470 12473 12476 12479 12482 12485 12488 12491 12494 12497 12500 12503 12506 12509 12512 12515 12518 12521 12523 12525 12528 12531 12534 12537 12540 12543 12546 12549 12552 12555 12558 12561 12564 12567 12570 12573 12576 12579 12582 12585 12587 12590 12593 12596 12599 12602 12605 12608 12611 12614 12617 12620 12623 12626 12629 12632 12635 12637 12640 12642 12645 12648 12651 12654 12657 12660 12663 12666 12668 12671 12674 12677 12680 12683 12686 12689 12692 12695 12698 12701 12703 12706 12709 12711 12714 12717 12719 12722 12725 12728 12731 12733 12736 12739 12742 12745 12747 12750 12753 12755 12758 12760 12763 12766 12769 12772 12775 12777 12780 12783 12786 12789 12792 12795 12798 12800 12803 12806 12809 12812 12815 12818 12821 12824 12827 12830 12833 12836 12839 12842 12845 12848 12851 12854 12857 12860 12863 12866 12869 12872 12874 12877 12880 12883 12885 12888 12891 12893 12896 12899 12902 12904 12907 12910 12913 12916 12918 12921 12923 12926 12929 12932 12935 12938 12941 12944 12947 12949 12952 12955 12958 12961 12964 12967 12970 12973 12976 12979 12981 12984 12987 12989 12992 12995 12997 13000 13003 13005 13007 13010 13013 13016 13019 13022 13025 13028 13030 13032 13035 13038 13041 13043 13046 13049 13051 13053 13056 13059 13062 13064 13066 13069 13071 13074 13077 13079 13082 13085 13088 13091 13093 13096 13098 13100 13103 13106 13109 13111 13114 13116 13118 13121 13123 13125 13127 13129 13132 13134 13137 13139 13142 13144 13147 13150 13153 13155 13158 13161 13163 13166 13168 13170 13173 13176 13179 13182 13184 13187 13189 13191 13194 13197 13200 13202 13204 13207 13210 13212 13214 13217 13220 13223 13226 13228 13231 13234 13237 13240 13242 13245 13248 13251 13254 13256 13259 13261 13264 13266 13269 13271 13274 13276 13279 13281 13284 13287 13290 13293 13296 13298 13301 13304 13306 13308 13310 13313 13316 13318 13320 13323 13325 13328 13331 13333 13336 13339 13342 13345 13348 13351 13353 13356 13359 13361 13364 13366 13369 13372 13375 13378 13380 13383 13385 13388 13390 13393 13396 13399 13401 13404 13407 13409 13412 13414 13417 13419 13422 13425 13428 13431 13434 13436 13439 13442 13445 13448 13451 13454 13457 13460 13463 13466 13468 13471 13474 13477 13480 13482 13485 13488 13490 13493 13496 13499 13502 13505 13507 13510 13513 13515 13518 13521 13524 13526 13529 13531 13534 13537 13540 13542 13545 13548 13551 13554 13556 13559 13562 13565 13568 13570 13572 13575 13578 13581 13584 13587 13590 13592 13595 13598 13600 13603 13606 13609 13612 13615 13618 13621 13624 13627 13630 13633 13636 13639 13642 13645 13648 13651 13654 13657 13660 13663 13666 13669 13672 13675 13678 13681 13684 13687 13690 13693 13696 13699 13702 13705 13708 13711 13714 13717 13720 13723 13726 13729 13732 13735 13738 13741 13744 13747 13750 13753 13756 13759 13762 13765 13768 13771 13774 13776 13779 13782 13785 13788 13791 13794 13797 13800 13803 13806 13809 13812 13814 13817 13820 13822 13825 13828 13831 13833 13836 13839 13842 13845 13848 13851 13854 13857 13860 13863 13866 13869 13872 13875 13878 13880 13883 13886 13889 13892 13895 13898 13901 13904 13907 13910 13913 13916 13919 13922 13925 13928 13930 13933 13936 13939 13942 13945 13948 13951 13954 13957 13960 13963 13966 13969 13971 13974 13977 13979 13982 13985 13987 13990 13992 13995 13998 14001 14004 14007 14010 14013 14015 14018 14021 14024 14027 14030 14033 14036 14039 14042 14045 14048 14051 14053 14056 14059 14062 14064 14067 14070 14073 14076 14079 14082 14085 14088 14091 14093 14096 14099 14102 14105 14108 14111 14113 14116 14119 14122 14125 14128 14131 14133 14136 14139 14142 14144 14147 14150 14153 14156 14159 14162 14165 14167 14170 14173 14176 14179 14182 14185 14188 14191 14194 14197 14199 14202 14205 14208 14211 14214 14217 14220 14223 14226 14229 14232 14235 14238 14241 14244 14247 14249 14252 14254 14257 14260 14263 14266 14269 14272 14275 14278 14281 14284 14286 14289 14291 14294 14297 14300 14303 14306 14309 14312 14315 14318 14321 14324 14326 14329 14332 14335 14338 14341 14344 14347 14350 14353 14356 14359 14361 14364 14367 14370 14373 14376 14379 14382 14384 14387 14390 14393 14396 14399 14402 14405 14407 14410 14413 14416 14419 14422 14425 14428 14431 14434 14437 14440 14442 14445 14448 14451 14454 14457 14460 14463 14466 14468 14471 14473 14476 14479 14482 14485 14488 14491 14494 14497 14500 14503 14505 14508 14511 14514 14516 14519 14522 14525 14528 14531 14534 14537 14540 14543 14545 14548 14551 14554 14557 14560 14563 14566 14569 14572 14575 14578 14581 14584 14587 14590 14593 14595 14598 14601 14604 14607 14610 14613 14616 14619 14622 14625 14628 14631 14634 14637 14640 14643 14646 14649 14651 14654 14657 14659 14662 14665 14667 14670 14673 14676 14679 14682 14684 14687 14690 14693 14696 14699 14702 14705 14708 14711 14714 14717 14720 14723 14726 14729 14732 14735 14738 14741 14744 14747 14750 14753 14756 14759 14762 14765 14768 14771 14774 14777 14780 14783 14786 14789 14792 14795 14798 14801 14804 14807 14810 14813 14816 14819 14822 14825 14828 14831 14834 14837 14840 14843 14846 14849 14852 14855 14858 14861 14863 14866 14869 14871 14874 14877 14880 14883 14886 14889 14892 14895 14898 14901 14904 14907 14910 14913 14916 14919 14922 14925 14928 14931 14934 14937 14940 14943 14945 14947 14950 14953 14956 14959 14962 14965 14968 14971 14974 14977 14980 14983 14986 14989 14992 14995 14997 14999 15002 15005 15008 15011 15014 15017 15020 15022 15025 15027 15030 15033 15035 15037 15040 15043 15046 15049 15052 15055 15058 15061 15064 15067 15070 15072 15075 15077 15080 15083 15086 15088 15091 15094 15097 15099 15102 15104 15107 15110 15113 15116 15119 15121 15123 15126 15129 15132 15135 15138 15141 15144 15147 15150 15153 15156 15159 15162 15165 15168 15171 15174 15177 15180 15183 15186 15189 15192 15195 15198 15201 15204 15207 15210 15213 15216 15219 15222 15225 15228 15231 15234 15237 15240 15243 15246 15249 15252 15255 15258 15261 15264 15267 15270 15273 15276 15279 15282 15285 15288 15291 15294 15297 15300 15303 15306 15309 15312 15315 15318 15321 15324 15327 15330 15333 15336 15339 15342 15345 15348 15351 15354 15357 15360 15363 15366 15369 15372 15375 15378 15381 15384 15387 15390 15393 15396 15399 15402 15405 15408 15411 15414 15417 15420 15423 15426 15429 15432 15435 15437 15439 15442 15444 15447 15449 15452 15455 15457 15460 15463 15466 15469 15471 15474 15477 15480 15483 15486 15489 15492 15494 15496 15498 15501 15504 15507 15510 15513 15515 15517 15520 15523 15526 15529 15532 15535 15538 15541 15544 15547 15550 15553 15556 15559 15562 15565 15568 15571 15574 15577 15580 15583 15586 15589 15592 15595 15598 15601 15604 15607 15610 15613 15616 15619 15621 15624 15627 15629 15632 15635 15638 15641 15644 15647 15650 15653 15656 15659 15662 15664 15667 15670 15673 15676 15679 15682 15685 15687 15690 15693 15696 15699 15702 15705 15708 15711 15714 15717 15720 15723 15726 15729 15732 15735 15737 15740 15743 15745 15748 15751 15754 15757 15760 15763 15766 15769 15772 15775 15778 15781 15784 15787 15790 15793 15796 15799 15802 15805 15808 15811 15814 15816 15819 15822 15824 15827 15830 15832 15835 15838 15841 15844 15847 15850 15853 15855 15858 15861 15864 15867 15870 15873 15875 15878 15881 15883 15886 15889 15892 15895 15897 15900 15902 15905 15908 15910 15913 15916 15919 15922 15924 15927 15929 15932 15935 15937 15940 15943 15946 15949 15952 15955 15958 15961 15964 15967 15970 15973 15975 15978 15981 15984 15986 15989 15992 15994 15997 16000 16003 16006 16008 16011 16014 16017 16020 16023 16026 16029 16032 16035 16038 16040 16043 16046 16049 16052 16055 16058 16061 16064 16067 16070 16072 16075 16078 16081 16084 16087 16090 16093 16096 16099 16102 16105 16108 16110 16113 16116 16118 16121 16124 16127 16130 16133 16136 16139 16142 16145 16148 16150 16153 16156 16159 16162 16165 16167 16170 16172 16174 16177 16180 16182 16185 16188 16191 16194 16197 16200 16203 16206 16209 16211 16213 16216 16219 16222 16225 16228 16231 16233 16236 16239 16242 16245 16248 16251 16254 16257 16260 16263 16266 16269 16272 16275 16278 16281 16284 16287 16290 16293 16296 16299 16302 16305 16308 16310 16313 16316 16319 16322 16325 16328 16331 16334 16337 16340 16343 16346 16349 16352 16355 16358 16361 16364 16367 16370 16373 16376 16379 16382 16385 16388 16391 16394 16397 16400 16403 16406 16409 16412 16415 16418 16421 16424 16427 16430 16432 16435 16438 16441 16444 16447 16450 16453 16456 16459 16462 16464 16467 16470 16473 16475 16478 16480 16483 16486 16489 16491 16494 16497 16500 16502 16505 16507 16510 16512 16515 16517 16519 16522 16525 16527 16530 16533 16536 16538 16541 16544 16547 16550 16553 16555 16558 16561 16564 16567 16569 16572 16575 16578 16580 16583 16586 16589 16592 16594 16597 16599 16602 16605 16608 16611 16614 16617 16620 16623 16626 16629 16632 16635 16638 16641 16643 16646 16649 16652 16655 16657 16660 16663 16665 16668 16671 16673 16675 16678 16681 16683 16686 16688 16691 16694 16697 16699 16701 16703 16705 16708 16711 16713 16716 16719 16722 16725 16727 16730 16732 16735 16738 16740 16742 16744 16747 16749 16752 16755 16757 16759 16761 16764 16767 16770 16773 16776 16779 16782 16785 16788 16790 16792 16795 16798 16801 16804 16806 16808 16811 16814 16817 16819 16822 16824 16827 16830 16833 16836 16839 16842 16845 16848 16851 16854 16857 16859 16862 16865 16868 16871 16874 16877 16880 16883 16886 16889 16892 16895 16898 16901 16904 16907 16910 16913 16916 16919 16922 16925 16928 16930 16933 16936 16939 16942 16945 16948 16951 16954 16957 16960 16963 16966 16969 16972 16975 16978 16980 16983 16986 16988 16991 16994 16997 17000 17003 17006 17009 17012 17015 17017 17020 17023 17026 17028 17030 17033 17036 17038 17041 17044 17047 17050 17053 17055 17058 17060 17063 17066 17069 17071 17074 17077 17080 17083 17086 17089 17092 17094 17097 17100 17102 17105 17108 17111 17114 17116 17119 17122 17125 17127 17129 17132 17135 17137 17140 17143 17146 17148 17151 17154 17157 17160 17163 17166 17169 17171 17174 17177 17179 17182 17184 17186 17188 17191 17193 17196 17198 17200 17203 17206 17209 17212 17215 17218 17220 17223 17226 17228 17231 17234 17237 17240 17243 17246 17249 17252 17255 17258 17261 17264 17267 17270 17273 17276 17279 17282 17285 17288 17291 17294 17297 17300 17303 17306 17309 17312 17315 17318 17321 17324 17327 17330 17333 17335 17337 17340 17343 17346 17349 17352 17355 17358 17361 17363 17365 17367 17369 17372 17375 17377 17380 17383 17386 17389 17392 17395 17398 17401 17403 17406 17409 17411 17414 17417 17420 17422 17425 17428 17431 17434 17436 17439 17442 17445 17448 17451 17454 17457 17460 17463 17466 17469 17472 17475 17478 17480 17483 17486 17489 17492 17495 17497 17500 17503 17506 17509 17512 17515 17518 17521 17523 17526 17529 17532 17534 17536 17539 17542 17544 17546 17549 17552 17555 17558 17561 17563 17566 17569 17572 17575 17578 17581 17583 17586 17588 17591 17594 17597 17600 17603 17606 17609 17612 17614 17616 17619 17621 17623 17625 17628 17630 17633 17636 17639 17642 17645 17648 17650 17653 17656 17659 17662 17665 17668 17671 17673 17676 17679 17682 17685 17688 17691 17694 17697 17700 17703 17706 17709 17712 17715 17718 17721 17724 17727 17730 17733 17736 17739 17742 17745 17748 17751 17754 17757 17760 17763 17766 17769 17772 17775 17778 17781 17784 17787 17790 17793 17796 17799 17802 17805 17808 17811 17814 17817 17820 17823 17826 17829 17832 17835 17838 17841 17844 17846 17849 17852 17855 17858 17861 17864 17867 17869 17872 17875 17877 17880 17883 17886 17888 17891 17893 17896 17899 17901 17904 17907 17910 17913 17916 17919 17922 17924 17927 17930 17933 17935 17938 17941 17944 17947 17950 17953 17956 17958 17961 17963 17966 17969 17972 17975 17978 17981 17984 17987 17990 17993 17996 17999 18002 18005 18008 18011 18014 18017 18020 18023 18026 18029 18032 18035 18038 18040 18042 18045 18047 18050 18053 18056 18059 18062 18065 18068 18070 18073 18075 18078 18080 18082 18084 18087 18090 18092 18095 18098 18100 18103 18106 18109 18111 18114 18117 18120 18123 18126 18129 18132 18134 18136 18139 18142 18144 18147 18150 18153 18155 18158 18161 18164 18167 18169 18172 18174 18177 18180 18183 18186 18189 18192 18194 18197 18199 18202 18205 18208 18211 18214 18216 18219 18222 18224 18227 18230 18233 18236 18239 18242 18245 18248 18251 18254 18257 18260 18263 18266 18269 18272 18274 18277 18280 18282 18284 18287 18289 18292 18295 18298 18301 18304 18307 18310 18313 18315 18318 18321 18324 18327 18330 18333 18336 18339 18342 18345 18348 18351 18354 18357 18360 18363 18365 18368 18371 18374 18376 18379 18382 18384 18387 18390 18393 18396 18399 18402 18404 18407 18410 18413 18416 18419 18422 18425 18428 18431 18434 18437 18440 18443 18446 18449 18452 18455 18458 18461 18463 18465 18468 18471 18474 18477 18480 18483 18486 18488 18491 18494 18497 18499 18502 18505 18507 18510 18512 18515 18518 18520 18523 18525 18527 18530 18532 18535 18537 18540 18542 18545 18548 18551 18554 18557 18560 18563 18566 18569 18572 18575 18578 18581 18584 18587 18589 18591 18594 18597 18600 18603 18606 18609 18612 18614 18617 18620 18623 18626 18629 18632 18635 18638 18641 18644 18647 18650 18653 18656 18659 18661 18664 18666 18669 18672 18675 18678 18681 18684 18686 18689 18692 18695 18697 18700 18703 18706 18708 18711 18714 18717 18720 18723 18726 18729 18732 18735 18738 18741 18744 18747 18750 18753 18756 18759 18762 18765 18768 18771 18773 18776 18779 18782 18785 18787 18790 18793 18796 18799 18802 18804 18807 18810 18813 18815 18818 18821 18824 18827 18830 18833 18836 18839 18842 18845 18848 18851 18853 18856 18859 18862 18865 18867 18870 18873 18876 18879 18882 18885 18888 18891 18893 18896 18899 18902 18905 18908 18911 18914 18916 18919 18922 18925 18928 18930 18933 18936 18939 18942 18945 18948 18951 18954 18956 18959 18962 18965 18968 18971 18974 18977 18980 18983 18985 18988 18991 18994 18997 19000 19003 19006 19009 19012 19015 19018 19021 19024 19027 19030 19033 19036 19039 19042 19045 19048 19051 19054 19057 19060 19063 19066 19069 19071 19074 19077 19080 19083 19086 19089 19092 19094 19097 19100 19103 19106 19109 19112 19115 19118 19121 19124 19127 19130 19133 19136 19139 19142 19145 19148 19151 19154 19157 19160 19163 19166 19169 19172 19175 19178 19181 19183 19186 19189 19192 19195 19198 19201 19204 19207 19210 19213 19216 19219 19222 19225 19228 19231 19234 19237 19240 19243 19246 19249 19252 19255 19258 19261 19264 19267 19270 19273 19276 19279 19281 19284 19287 19289 19292 19295 19298 19301 19303 19306 19309 19311 19314 19317 19320 19323 19325 19328 19331 19334 19336 19339 19342 19345 19347 19350 19353 19356 19359 19362 19365 19368 19371 19374 19377 19379 19382 19385 19387 19390 19393 19396 19399 19402 19405 19407 19410 19413 19416 19419 19422 19424 19427 19430 19433 19436 19438 19441 19444 19447 19450 19453 19456 19459 19462 19465 19468 19470 19473 19476 19479 19482 19485 19488 19491 19494 19497 19499 19502 19505 19508 19511 19514 19517 19520 19523 19526 19529 19532 19535 19538 19540 19543 19546 19549 19552 19555 19558 19561 19563 19566 19569 19572 19575 19578 19580 19583 19586 19589 19592 19595 19598 19601 19604 19607 19610 19613 19616 19619 19622 19624 19627 19630 19633 19636 19639 19642 19645 19648 19650 19653 19656 19659 19662 19665 19668 19671 19674 19677 19680 19683 19686 19689 19692 19695 19698 19701 19704 19707 19710 19713 19716 19719 19722 19725 19728 19731 19734 19737 19740 19743 19746 19749 19751 19754 19757 19760 19763 19765 19767 19770 19773 19775 19778 19781 19783 19786 19789 19791 19794 19797 19800 19803 19806 19809 19812 19815 19818 19821 19824 19827 19830 19833 19836 19839 19842 19845 19848 19850 19853 19856 19859 19862 19864 19867 19870 19873 19876 19879 19882 19885 19888 19891 19894 19897 19900 19903 19906 19909 19912 19915 19918 19921 19924 19927 19930 19933 19936 19939 19942 19945 19948 19951 19954 19957 19960 19963 19966 19969 19972 19975 19978 19981 19984 19987 19990 19993 19996 19999 20002 20005 20008 20011 20014 20017 20020 20023 20026 20029 20032 20035 20038 20041 20044 20047 20050 20053 20056 20059 20062 20065 20068 20071 20074 20077 20079 20082 20085 20088 20091 20093 20096 20098 20101 20104 20106 20109 20112 20115 20118 20120 20123 20126 20128 20131 20134 20137 20140 20143 20146 20149 20152 20155 20158 20161 20164 20167 20170 20173 20176 20179 20182 20185 20188 20191 20194 20197 20200 20203 20206 20209 20212 20215 20218 20221 20224 20227 20230 20233 20236 20239 20242 20245 20248 20251 20254 20257 20260 20263 20266 20269 20272 20275 20278 20281 20284 20287 20290 20293 20296 20299 20302 20305 20308 20310 20313 20316 20319 20322 20325 20328 20331 20334 20337 20339 20342 20345 20348 20351 20354 20357 20360 20362 20365 20368 20371 20374 20377 20380 20383 20386 20389 20392 20395 20398 20401 20404 20407 20410 20413 20416 20419 20421 20423 20426 20429 20431 20434 20436 20439 20442 20445 20448 20451 20454 20457 20460 20463 20466 20469 20472 20475 20478 20481 20484 20487 20490 20493 20496 20499 20502 20505 20508 20511 20514 20517 20520 20523 20526 20529 20532 20535 20538 20541 20544 20547 20550 20553 20556 20559 20562 20565 20568 20571 20574 20577 20580 20583 20586 20589 20592 20595 20598 20601 20603 20605 20608 20611 20614 20617 20620 20623 20626 20629 20632 20635 20638 20641 20644 20647 20650 20653 20656 20659 20662 20665 20667 20670 20673 20676 20679 20682 20685 20688 20691 20694 20697 20699 20702 20705 20708 20710 20713 20716 20719 20722 20725 20728 20730 20733 20736 20739 20742 20745 20748 20751 20754 20757 20760 20763 20766 20769 20771 20774 20777 20780 20783 20786 20789 20791 20793 20796 20798 20801 20804 20806 20809 20812 20815 20817 20820 20823 20826 20828 20831 20834 20837 20840 20843 20845 20848 20850 20853 20856 20859 20862 20864 20867 20870 20873 20876 20878 20881 20883 20886 20889 20891 20893 20896 20899 20902 20905 20908 20910 20913 20916 20919 20922 20925 20927 20929 20931 20934 20936 20939 20941 20944 20947 20950 20953 20956 20958 20961 20964 20967 20970 20973 20976 20979 20982 20984 20986 20989 20992 20994 20997 21000 21003 21006 21008 21011 21014 21016 21019 21022 21024 21027 21030 21033 21036 21039 21042 21045 21048 21051 21053 21056 21059 21062 21065 21068 21071 21074 21077 21079 21082 21085 21088 21091 21094 21097 21100 21103 21106 21108 21110 21113 21116 21119 21122 21125 21128 21131 21134 21137 21140 21143 21146 21149 21152 21155 21158 21161 21164 21167 21170 21173 21176 21179 21182 21185 21188 21191 21194 21197 21200 21203 21206 21209 21212 21215 21217 21220 21223 21226 21229 21231 21234 21237 21240 21243 21246 21249 21252 21255 21258 21261 21264 21267 21270 21273 21276 21279 21281 21283 21286 21289 21292 21295 21298 21301 21304 21307 21310 21312 21315 21318 21321 21324 21326 21329 21332 21334 21337 21340 21343 21346 21349 21352 21355 21358 21361 21364 21367 21370 21373 21375 21378 21381 21384 21387 21390 21393 21396 21399 21402 21405 21408 21411 21414 21417 21420 21423 21426 21429 21432 21435 21438 21441 21444 21447 21450 21452 21455 21458 21461 21464 21467 21469 21472 21475 21478 21480 21483 21486 21489 21491 21493 21496 21499 21502 21505 21508 21511 21514 21517 21520 21523 21526 21529 21532 21535 21537 21540 21543 21546 21548 21551 21554 21557 21560 21562 21564 21567 21570 21573 21576 21579 21582 21585 21588 21591 21594 21597 21600 21603 21606 21609 21612 21615 21618 21621 21624 21627 21630 21633 21635 21638 21641 21644 21647 21650 21653 21656 21659 21662 21664 21667 21670 21673 21676 21678 21681 21683 21686 21689 21692 21695 21697 21700 21703 21706 21709 21712 21715 21718 21721 21724 21727 21730 21733 21736 21739 21742 21744 21747 21750 21752 21755 21758 21761 21764 21767 21770 21773 21776 21779 21782 21784 21786 21789 21792 21795 21798 21800 21803 21806 21809 21811 21814 21817 21820 21823 21825 21827 21830 21832 21835 21837 21840 21842 21845 21848 21850 21853 21856 21858 21861 21864 21866 21869 21872 21875 21877 21880 21883 21885 21888 21890 21893 21895 21898 21901 21903 21906 21909 21912 21915 21918 21921 21924 21927 21930 21933 21936 21939 21942 21944 21947 21950 21953 21956 21959 21962 21965 21968 21971 21974 21977 21980 21983 21986 21989 21992 21994 21996 21999 22002 22005 22008 22011 22013 22016 22019 22022 22025 22027 22030 22033 22035 22038 22041 22044 22047 22049 22052 22055 22058 22061 22064 22067 22070 22073 22076 22079 22082 22085 22088 22091 22094 22097 22100 22103 22106 22109 22112 22115 22118 22121 22124 22127 22130 22133 22136 22139 22142 22145 22148 22151 22154 22157 22160 22163 22165 22168 22171 22174 22177 22180 22183 22186 22189 22192 22195 22198 22201 22204 22206 22209 22211 22214 22217 22220 22223 22225 22228 22231 22234 22237 22240 22243 22246 22249 22252 22255 22258 22261 22264 22267 22270 22273 22276 22279 22281 22284 22286 22289 22292 22294 22297 22300 22303 22305 22308 22311 22314 22317 22320 22323 22326 22329 22332 22335 22338 22341 22344 22347 22350 22353 22356 22359 22362 22365 22368 22371 22374 22377 22380 22383 22386 22388 22391 22394 22396 22399 22402 22405 22408 22411 22414 22417 22420 22423 22426 22429 22432 22435 22438 22441 22444 22447 22450 22453 22456 22459 22462 22465 22468 22471 22474 22477 22480 22483 22486 22489 22492 22495 22498 22501 22503 22506 22508 22511 22514 22517 22520 22523 22526 22529 22532 22535 22538 22541 22544 22547 22550 22553 22556 22559 22561 22563 22566 22569 22572 22575 22578 22580 22583 22586 22589 22592 22594 22597 22600 22603 22606 22608 22611 22614 22617 22620 22623 22626 22629 22632 22635 22638 22641 22644 22647 22650 22653 22656 22659 22662 22664 22667 22670 22673 22676 22679 22682 22684 22687 22690 22692 22695 22698 22701 22704 22707 22710 22713 22716 22719 22722 22725 22728 22730 22733 22736 22738 22741 22744 22747 22750 22753 22756 22759 22762 22764 22767 22770 22773 22776 22779 22782 22784 22787 22790 22792 22795 22798 22801 22804 22807 22810 22813 22816 22819 22822 22825 22828 22831 22834 22837 22840 22843 22846 22849 22852 22855 22858 22861 22864 22867 22870 22873 22876 22879 22882 22885 22888 22891 22894 22897 22900 22902 22905 22908 22911 22913 22916 22919 22921 22924 22927 22930 22933 22936 22939 22941 22944 22947 22950 22953 22956 22958 22961 22964 22967 22970 22973 22976 22978 22981 22984 22987 22990 22992 22995 22997 23000 23003 23005 23008 23011 23014 23016 23019 23022 23025 23028 23031 23034 23037 23040 23043 23046 23049 23052 23055 23057 23060 23063 23066 23069 23072 23075 23078 23081 23084 23087 23090 23093 23096 23099 23102 23105 23108 23111 23114 23117 23120 23123 23126 23129 23131 23134 23136 23139 23141 23144 23146 23149 23152 23155 23158 23160 23163 23166 23169 23172 23174 23177 23180 23183 23186 23189 23192 23195 23198 23201 23204 23207 23210 23213 23216 23218 23221 23224 23227 23229 23232 23235 23238 23240 23243 23246 23248 23251 23254 23257 23259 23262 23265 23268 23271 23273 23276 23279 23282 23285 23287 23290 23293 23296 23299 23302 23305 23308 23311 23314 23317 23319 23322 23325 23328 23331 23334 23336 23339 23341 23344 23347 23350 23353 23356 23358 23360 23363 23366 23368 23371 23373 23376 23379 23381 23384 23387 23390 23393 23396 23399 23402 23405 23408 23411 23414 23417 23420 23422 23425 23428 23431 23434 23437 23439 23442 23445 23448 23451 23454 23457 23460 23463 23466 23469 23471 23474 23476 23479 23482 23484 23487 23490 23492 23495 23497 23500 23502 23505 23508 23511 23514 23517 23519 23521 23524 23527 23530 23533 23536 23539 23542 23545 23548 23551 23554 23556 23559 23562 23565 23568 23571 23573 23576 23579 23582 23584 23587 23589 23592 23595 23598 23601 23604 23607 23610 23613 23616 23619 23622 23625 23628 23631 23634 23636 23639 23642 23645 23648 23650 23653 23656 23659 23662 23665 23668 23671 23674 23677 23680 23683 23686 23689 23692 23695 23698 23701 23704 23707 23710 23713 23716 23719 23721 23724 23727 23729 23732 23735 23738 23741 23744 23747 23750 23752 23755 23758 23760 23763 23765 23768 23771 23774 23777 23780 23783 23786 23789 23792 23794 23797 23800 23802 23805 23808 23811 23813 23816 23819 23822 23825 23828 23831 23834 23836 23839 23842 23845 23848 23850 23852 23855 23858 23861 23864 23867 23870 23873 23876 23879 23881 23884 23887 23890 23893 23896 23899 23902 23905 23908 23911 23914 23917 23920 23923 23926 23929 23931 23934 23936 23939 23942 23945 23947 23950 23953 23956 23959 23962 23965 23968 23971 23974 23977 23980 23983 23986 23988 23991 23994 23997 24000 24003 24005 24008 24011 24014 24016 24018 24021 24024 24027 24029 24032 24035 24037 24040 24043 24046 24049 24051 24053 24056 24059 24062 24064 24067 24070 24072 24075 24078 24081 24084 24086 24089 24091 24094 24097 24100 24102 24105 24108 24111 24114 24117 24120 24123 24126 24129 24132 24135 24138 24141 24144 24147 24150 24153 24156 24159 24162 24165 24167 24170 24173 24176 24179 24182 24185 24188 24191 24194 24196 24199 24202 24205 24207 24210 24212 24215 24218 24221 24224 24227 24230 24233 24236 24239 24242 24245 24247 24250 24253 24256 24259 24262 24264 24267 24270 24273 24276 24279 24281 24284 24287 24290 24293 24296 24299 24302 24305 24308 24311 24314 24317 24320 24323 24326 24329 24331 24334 24337 24340 24343 24346 24349 24352 24355 24358 24360 24363 24366 24369 24372 24375 24378 24381 24384 24387 24390 24393 24396 24399 24402 24405 24407 24410 24413 24416 24419 24422 24425 24428 24431 24434 24437 24440 24443 24446 24449 24452 24455 24458 24461 24464 24467 24470 24473 24476 24479 24482 24485 24488 24491 24494 24496 24499 24502 24505 24508 24510 24513 24515 24517 24520 24523 24526 24529 24532 24535 24537 24540 24542 24545 24548 24551 24553 24556 24559 24561 24564 24567 24570 24573 24576 24579 24581 24584 24587 24590 24593 24596 24599 24602 24604 24607 24610 24613 24616 24618 24621 24624 24627 24630 24633 24636 24638 24641 24644 24647 24650 24653 24656 24659 24662 24665 24668 24671 24674 24676 24679 24681 24684 24687 24690 24693 24696 24699 24702 24704 24706 24709 24712 24715 24718 24721 24724 24727 24730 24732 24735 24738 24741 24743 24746 24749 24751 24754 24757 24760 24763 24766 24769 24772 24775 24778 24781 24784 24787 24790 24793 24796 24799 24802 24805 24808 24811 24814 24817 24820 24823 24826 24828 24831 24834 24836 24839 24842 24845 24848 24851 24853 24856 24859 24861 24864 24866 24869 24872 24875 24877 24880 24883 24886 24889 24891 24894 24897 24899 24901 24904 24907 24910 24913 24916 24918 24921 24924 24926 24929 24932 24935 24938 24941 24943 24946 24949 24952 24955 24958 24961 24964 24967 24970 24972 24975 24978 24981 24984 24986 24989 24992 24995 24998 25001 25004 25006 25009 25011 25014 25017 25020 25022 25025 25027 25030 25033 25035 25038 25040 25043 25046 25049 25051 25054 25057 25060 25063 25066 25069 25072 25075 25078 25081 25084 25087 25090 25092 25095 25098 25101 25104 25106 25109 25112 25115 25118 25121 25124 25126 25129 25132 25135 25138 25141 25144 25147 25149 25152 25155 25158 25161 25164 25167 25169 25172 25175 25178 25181 25184 25187 25190 25192 25195 25198 25200 25203 25206 25209 25212 25215 25218 25221 25224 25227 25229 25231 25234 25237 25240 25243 25246 25249 25252 25255 25258 25261 25264 25267 25269 25272 25275 25278 25281 25284 25287 25290 25292 25295 25298 25301 25303 25306 25308 25311 25314 25316 25319 25322 25325 25328 25331 25333 25336 25339 25342 25344 25347 25350 25353 25356 25358 25361 25364 25367 25369 25372 25375 25378 25381 25384 25387 25390 25392 25395 25398 25400 25403 25406 25409 25411 25414 25417 25420 25422 25425 25428 25431 25434 25436 25439 25442 25445 25447 25450 25453 25456 25459 25462 25465 25468 25471 25474 25476 25479 25482 25485 25488 25491 25494 25497 25500 25503 25505 25508 25511 25514 25517 25519 25522 25525 25527 25530 25533 25536 25539 25542 25545 25548 25551 25554 25557 25560 25563 25566 25569 25572 25575 25578 25581 25584 25587 25590 25593 25596 25599 25602 25605 25607 25610 25613 25616 25619 25622 25625 25628 25631 25634 25637 25640 25642 25645 25648 25651 25653 25656 25659 25662 25665 25668 25671 25673 25676 25679 25682 25685 25688 25691 25694 25697 25700 25703 25706 25709 25712 25715 25718 25721 25724 25727 25730 25733 25736 25739 25742 25745 25748 25751 25753 25756 25758 25761 25764 25766 25768 25771 25774 25777 25780 25783 25786 25789 25792 25795 25798 25801 25804 25807 25810 25813 25816 25819 25821 25824 25827 25830 25833 25836 25839 25842 25845 25848 25851 25854 25857 25860 25863 25866 25869 25872 25875 25878 25881 25884 25887 25890 25893 25896 25899 25902 25905 25908 25911 25914 25917 25920 25923 25926 25929 25932 25935 25938 25941 25944 25947 25950 25953 25956 25959 25962 25965 25968 25971 25974 25977 25980 25983 25986 25989 25992 25995 25998 26001 26004 26006 26009 26012 26014 26017 26020 26023 26026 26028 26031 26034 26037 26040 26043 26046 26049 26052 26055 26058 26060 26063 26065 26068 26071 26074 26076 26079 26082 26085 26087 26090 26092 26095 26098 26101 26103 26106 26108 26111 26113 26116 26119 26122 26124 26127 26130 26133 26136 26138 26141 26143 26146 26149 26152 26155 26158 26160 26163 26165 26167 26170 26173 26176 26179 26182 26185 26187 26190 26193 26196 26198 26201 26204 26207 26210 26213 26216 26219 26222 26225 26228 26231 26234 26237 26240 26243 26246 26249 26252 26255 26257 26260 26263 26266 26268 26270 26273 26276 26279 26282 26285 26287 26290 26293 26296 26299 26302 26305 26308 26311 26314 26317 26320 26323 26326 26329 26331 26334 26337 26339 26342 26344 26347 26350 26353 26355 26358 26360 26363 26366 26368 26371 26374 26377 26380 26383 26386 26389 26392 26395 26398 26401 26403 26406 26409 26412 26415 26418 26421 26424 26427 26430 26433 26435 26437 26440 26443 26446 26449 26452 26455 26458 26460 26463 26466 26469 26472 26475 26478 26481 26484 26487 26490 26493 26496 26499 26502 26504 26507 26510 26513 26516 26519 26522 26525 26528 26531 26534 26536 26539 26542 26545 26547 26550 26552 26554 26557 26560 26563 26566 26569 26572 26575 26578 26580 26583 26586 26589 26592 26595 26598 26601 26604 26607 26609 26612 26614 26617 26619 26622 26625 26628 26631 26634 26637 26640 26643 26645 26648 26650 26653 26656 26659 26662 26665 26668 26670 26673 26676 26678 26681 26683 26686 26689 26692 26695 26698 26701 26704 26707 26710 26713 26716 26719 26722 26725 26727 26730 26733 26736 26739 26742 26745 26748 26751 26754 26757 26759 26762 26765 26768 26771 26774 26777 26779 26782 26785 26788 26791 26794 26797 26800 26803 26806 26809 26812 26815 26818 26821 26824 26827 26830 26833 26836 26839 26842 26845 26848 26851 26854 26856 26859 26862 26865 26868 26871 26873 26876 26879 26882 26885 26888 26891 26894 26897 26900 26903 26906 26908 26911 26914 26917 26920 26922 26925 26928 26931 26934 26937 26939 26942 26945 26948 26951 26954 26956 26959 26962 26964 26967 26970 26973 26976 26979 26982 26985 26988 26991 26994 26997 27000 27003 27006 27009 27012 27015 27018 27021 27024 27027 27030 27033 27036 27039 27042 27044 27047 27050 27052 27055 27058 27061 27064 27067 27070 27073 27076 27079 27082 27085 27088 27091 27094 27097 27099 27102 27105 27108 27111 27114 27117 27120 27123 27126 27128 27131 27134 27137 27140 27143 27146 27149 27151 27154 27157 27160 27163 27166 27168 27171 27174 27177 27180 27183 27186 27188 27191 27194 27197 27200 27202 27205 27208 27211 27214 27217 27220 27223 27225 27228 27231 27233 27236 27239 27241 27244 27247 27250 27253 27255 27258 27261 27264 27267 27270 27273 27276 27279 27281 27284 27287 27289 27292 27295 27298 27301 27304 27307 27310 27313 27316 27318 27321 27324 27327 27330 27333 27335 27338 27341 27344 27347 27349 27352 27355 27358 27360 27363 27366 27369 27372 27375 27378 27381 27384 27387 27390 27393 27395 27397 27400 27403 27406 27409 27412 27415 27418 27421 27424 27427 27430 27432 27435 27438 27441 27444 27447 27449 27452 27454 27456 27459 27461 27463 27466 27469 27471 27474 27477 27480 27483 27486 27489 27491 27494 27496 27498 27501 27504 27507 27510 27513 27515 27518 27521 27524 27527 27530 27533 27536 27539 27541 27544 27547 27550 27553 27555 27558 27561 27564 27567 27570 27572 27575 27578 27580 27583 27586 27589 27592 27595 27598 27601 27603 27606 27608 27611 27614 27617 27620 27623 27626 27629 27631 27633 27636 27639 27642 27645 27648 27651 27654 27656 27659 27662 27665 27668 27671 27674 27676 27679 27682 27685 27688 27691 27694 27697 27700 27703 27706 27709 27712 27715 27718 27720 27723 27726 27728 27731 27734 27737 27740 27742 27745 27748 27751 27754 27756 27759 27762 27765 27768 27771 27774 27776 27779 27782 27785 27788 27791 27794 27797 27799 27802 27805 27808 27810 27813 27816 27819 27822 27824 27827 27830 27832 27835 27838 27841 27844 27847 27850 27853 27855 27858 27861 27864 27867 27869 27872 27874 27877 27880 27883 27886 27889 27892 27895 27898 27901 27904 27907 27910 27913 27916 27918 27921 27924 27927 27930 27933 27936 27939 27941 27944 27947 27949 27952 27955 27957 27960 27963 27966 27969 27972 27975 27978 27981 27984 27986 27989 27992 27995 27997 28000 28003 28006 28009 28012 28015 28018 28021 28024 28026 28029 28032 28035 28038 28041 28044 28047 28050 28053 28056 28059 28061 28064 28067 28070 28072 28075 28078 28081 28084 28087 28090 28093 28096 28099 28102 28105 28107 28110 28113 28116 28119 28122 28125 28128 28131 28134 28137 28139 28142 28145 28148 28151 28154 28156 28159 28162 28165 28168 28171 28174 28177 28180 28182 28185 28188 28190 28193 28196 28198 28201 28204 28207 28210 28212 28214 28217 28220 28223 28226 28228 28231 28234 28237 28240 28242 28245 28248 28250 28253 28256 28259 28262 28264 28267 28270 28272 28275 28278 28281 28284 28287 28289 28292 28295 28298 28301 28304 28307 28310 28313 28315 28318 28320 28323 28326 28329 28332 28335 28338 28341 28344 28347 28349 28351 28354 28357 28360 28363 28366 28369 28371 28374 28377 28379 28382 28385 28387 28390 28392 28395 28398 28401 28403 28406 28409 28411 28414 28417 28420 28423 28426 28429 28432 28435 28437 28439 28442 28445 28447 28449 28452 28455 28458 28461 28463 28466 28469 28472 28474 28477 28479 28482 28484 28486 28488 28491 28493 28496 28499 28502 28504 28507 28510 28513 28516 28519 28522 28525 28528 28531 28533 28536 28539 28541 28544 28547 28550 28553 28556 28559 28561 28564 28567 28570 28573 28576 28579 28581 28583 28585 28588 28591 28594 28597 28600 28603 28606 28609 28612 28615 28618 28620 28623 28626 28629 28632 28634 28637 28640 28643 28646 28649 28652 28655 28658 28660 28663 28666 28668 28671 28674 28677 28679 28682 28685 28688 28691 28694 28697 28700 28703 28706 28708 28711 28714 28717 28720 28723 28726 28729 28732 28734 28737 28740 28743 28745 28748 28751 28753 28756 28759 28762 28764 28767 28769 28772 28775 28777 28780 28782 28785 28788 28790 28793 28796 28799 28802 28805 28808 28810 28813 28816 28818 28821 28824 28827 28830 28833 28836 28839 28842 28845 28848 28851 28854 28857 28860 28863 28866 28869 28872 28875 28878 28881 28884 28887 28890 28893 28896 28899 28902 28905 28908 28911 28914 28917 28920 28923 28926 28929 28932 28935 28938 28941 28944 28947 28950 28953 28956 28959 28962 28965 28968 28971 28974 28977 28980 28983 28986 28989 28992 28995 28998 29001 29004 29007 29010 29013 29016 29019 29022 29025 29028 29031 29034 29037 29040 29043 29046 29049 29052 29055 29058 29061 29064 29067 29070 29073 29076 29079 29082 29085 29088 29091 29094 29097 29100 29103 29106 29108 29111 29114 29117 29120 29122 29125 29128 29131 29134 29137 29140 29143 29146 29149 29152 29155 29158 29160 29162 29165 29168 29171 29174 29177 29180 29183 29186 29189 29192 29195 29198 29201 29204 29207 29209 29212 29215 29218 29220 29223 29226 29229 29232 29235 29238 29241 29244 29247 29250 29252 29255 29257 29260 29263 29266 29269 29272 29275 29278 29281 29284 29287 29290 29293 29296 29299 29302 29305 29308 29311 29314 29317 29320 29323 29326 29329 29331 29334 29337 29340 29343 29345 29348 29351 29354 29357 29360 29363 29366 29369 29371 29374 29377 29380 29383 29386 29389 29392 29395 29398 29401 29404 29407 29410 29413 29416 29419 29422 29425 29428 29431 29434 29437 29440 29443 29446 29449 29452 29455 29458 29461 29464 29467 29470 29473 29476 29479 29482 29485 29488 29491 29494 29497 29500 29503 29506 29509 29512 29515 29518 29520 29523 29526 29529 29532 29535 29538 29541 29544 29547 29550 29553 29556 29559 29562 29565 29568 29571 29574 29577 29580 29583 29586 29589 29592 29595 29598 29601 29604 29607 29610 29613 29616 29618 29621 29624 29627 29630 29633 29636 29638 29641 29644 29647 29650 29653 29656 29658 29661 29664 29666 29669 29671 29674 29676 29679 29682 29685 29688 29690 29693 29696 29699 29702 29705 29707 29710 29713 29716 29718 29720 29723 29726 29729 29731 29734 29737 29740 29743 29745 29747 29750 29753 29756 29759 29762 29765 29768 29771 29774 29777 29780 29783 29786 29789 29791 29794 29797 29799 29802 29805 29807 29809 29812 29815 29818 29821 29824 29827 29830 29833 29836 29839 29841 29844 29846 29849 29852 29855 29858 29861 29864 29867 29870 29873 29876 29879 29881 29884 29887 29890 29893 29896 29899 29902 29904 29907 29910 29913 29916 29919 29922 29925 29928 29931 29934 29937 29940 29943 29946 29949 29952 29955 29958 29960 29962 29965 29968 29971 29974 29977 29980 29983 29986 29989 29992 29995 29998 30001 30004 30007 30010 30013 30015 30018 30021 30024 30027 30030 30033 30036 30039 30042 30044 30047 30050 30053 30056 30059 30062 30065 30068 30071 30074 30077 30080 30082 30085 30088 30091 30094 30096 30099 30101 30104 30107 30110 30113 30116 30119 30122 30125 30128 30130 30133 30136 30139 30142 30144 30147 30150 30153 30156 30158 30161 30163 30166 30169 30172 30175 30178 30181 30184 30187 30190 30193 30196 30199 30201 30204 30207 30210 30213 30216 30219 30222 30225 30228 30231 30234 30237 30240 30243 30246 30248 30251 30253 30256 30259 30261 30264 30267 30270 30272 30275 30277 30280 30283 30285 30288 30291 30293 30296 30298 30301 30304 30307 30310 30313 30316 30319 30321 30323 30326 30329 30332 30335 30337 30339 30342 30345 30347 30349 30352 30354 30357 30360 30362 30364 30367 30370 30372 30375 30378 30380 30383 30386 30389 30392 30395 30398 30401 30404 30406 30409 30412 30414 30417 30419 30422 30425 30428 30430 30433 30436 30439 30442 30445 30448 30451 30454 30456 30459 30462 30465 30468 30471 30474 30477 30480 30483 30486 30489 30492 30495 30498 30501 30504 30507 30510 30513 30516 30519 30522 30524 30527 30530 30533 30536 30539 30542 30545 30548 30551 30554 30557 30560 30563 30566 30569 30572 30575 30578 
</DataArray>
<DataArray type="UInt32" Name="types" format="ascii">
5 5 5 5 5 5 3 5 5 5 3 5 5 5 3 5 5 5 5 5 5 3 3 5 5 5 5 3 3 5 3 3 5 3 5 5 5 3 5 5 3 5 5 5 5 5 5 5 3 5 5 5 5 5 5 5 5 3 5 5 3 5 3 5 3 5 3 5 5 5 5 5 5 5 5 5 5 5 5 5 5 5 5 3 5 5 5 5 5 5 5 5 3 5 5 3 3 5 5 5 5 5 5 5 5 5 5 5 5 3 5 5 5 5 5 3 5 5 3 5 5 5 5 5 5 5 5 5 5 5 5 5 5 5 5 5 5 5 3 5 5 5 5 5 3 5 5 5 5 5 5 5 5 5 5 5 5 5 5 5 5 5 5 5 5 5 5 5 5 3 5 3 5 5 5 3 5 5 5 3 5 5 5 3 3 5 5 3 5 5 5 5 3 5 5 5 5 5 3 5 5 5 5 3 5 3 5 5 3 5 5 5 3 5 5 3 5 5 5 5 5 5 5 5 5 5 3 5 5 3 5 5 5 5 5 5 5 3 5 5 5 5 5 5 5 5 5 5 5 5 5 5 5 5 5 5 5 5 5 3 5 3 5 5 5 5 5 3 5 5 5 5 5 5 5 5 3 5 5 5 3 5 5 3 5 5 5 5 3 5 5 3 5 5 5 5 5 3 5 3 5 5 5 5 5 5 5 5 5 5 5 5 5 5 5 5 5 5 3 5 5 5 5 5 3 3 5 5 5 5 5 5 5 5 5 5 3 5 5 5 5 5 5 5 5 5 3 5 5 3 3 5 5 5 3 5 5 3 5 5 5 5 5 5 5 5 5 5 5 5 5 5 5 3 5 5 5 5 5 5 5 5 3 5 5 3 5 5 5 5 3 5 5 5 5 5 5 5 5 5 5 5 5 5 5 3 3 5 5 3 3 5 3 5 3 5 3 5 5 3 5 5 5 5 5 5 5 5 5 3 3 5 5 3 5 5 5 5 5 3 5 5 3 5 5 5 5 3 5 5 5 3 5 5 5 3 5 3 5 5 3 5 5 5 5 5 5 5 5 5 5 5 3 5 5 5 5 5 5 3 5 5 5 3 5 5 5 5 5 5 5 3 5 5 5 5 5 3 5 3 5 5 5 5 5 3 3 5 5 5 3 3 5 3 5 5 5 5 5 5 5 3 5 5 5 5 5 5 5 5 5 5 5 5 5 5 3 5 5 3 5 3 5 5 5 5 5 5 5 5 5 5 5 5 5 5 3 5 5 5 5 5 5 5 5 5 5 5 5 5 5 5 5 3 5 5 5 5 5 5 5 5 5 5 5 3 3 5 5 5 5 5 5 5 5 5 5 5 5 5 5 5 5 3 5 5 5 5 5 5 5 3 5 5 5 5 5 5 5 5 3 5 5 5 3 5 5 5 5 5 5 5 5 5 5 5 5 5 5 5 5 5 5 5 5 5 5 5 5 5 5 5 5 3 5 3 5 5 5 5 5 5 5 5 5 5 5 5 5 3 5 5 5 3 5 5 5 5 5 5 5 5 5 5 5 5 5 3 3 5 5 5 5 5 5 5 3 5 5 5 5 5 5 5 5 5 5 5 3 5 5 5 5 5 5 5 3 5 5 5 5 5 5 5 5 5 5 5 5 5 5 5 5 5 3 5 5 5 5 5 5 5 5 5 5 3 5 5 5 5 5 3 5 5 5 3 5 5 5 5 3 5 5 5 5 5 5 5 3 5 3 5 5 3 5 3 5 5 5 5 5 5 5 5 5 5 5 5 5 5 5 5 5 5 5 5 5 5 5 5 5 5 5 5 5 5 5 5 5 5 5 3 5 3 3 5 5 5 5 5 5 5 5 5 5 5 3 5 5 5 5 5 5 5 3 5 3 5 3 5 5 5 5 5 5 3 5 3 3 5 5 5 5 5 5 5 5 5 5 5 5 5 5 5 5 5 3 5 5 5 5 5 5 5 5 5 5 5 5 5 5 3 5 5 5 5 5 5 5 5 5 5 5 5 5 3 5 5 5 5 5 5 5 5 5 3 5 5 5 5 5 3 3 5 5 5 5 3 3 5 5 5 5 5 5 5 5 5 5 5 3 5 5 5 5 3 5 5 5 5 5 5 3 5 5 3 5 3 5 5 5 3 5 5 5 5 5 5 5 3 5 5 5 5 3 3 5 5 3 5 5 5 3 3 3 3 5 5 3 5 5 5 5 5 5 5 5 3 3 5 5 5 5 5 5 3 5 3 5 5 5 3 5 5 5 5 5 5 5 5 5 5 5 5 5 5 5 5 5 5 5 5 5 5 5 5 5 5 5 5 3 5 5 5 5 5 5 5 5 5 5 5 5 5 5 5 5 5 5 5 5 5 3 5 5 5 5 5 5 5 5 5 3 5 5 5 5 5 5 3 5 5 5 5 5 3 5 5 5 5 5 3 5 5 5 5 5 5 5 5 5 5 3 5 5 5 5 3 3 5 5 3 5 5 5 5 3 5 5 3 5 5 5 5 5 3 3 5 5 5 5 5 5 3 5 5 5 5 5 5 5 3 3 5 5 5 3 5 5 5 3 5 5 3 5 3 5 5 5 3 5 5 3 3 5 5 5 5 5 5 3 5 3 5 3 5 5 5 3 3 5 3 5 5 5 5 5 5 5 5 5 5 5 5 5 5 5 5 3 5 5 5 5 5 5 5 3 5 5 5 5 5 3 5 5 5 3 5 5 5 5 3 5 3 5 3 5 5 5 5 3 5 5 3 5 5 5 5 5 5 5 5 5 5 5 3 5 5 5 5 3 5 5 5 5 3 5 5 5 5 5 5 3 5 5 5 3 5 3 3 5 5 5 5 5 5 5 5 5 5 5 5 5 5 5 5 5 5 5 5 5 5 5 5 5 5 5 5 3 5 5 3 3 5 3 5 5 5 5 3 5 5 3 5 5 5 5 5 5 5 5 5 5 5 5 5 5 5 5 5 5 5 5 5 5 5 5 5 5 5 5 3 5 5 5 5 5 5 5 5 3 5 5 5 5 5 5 5 3 5 3 5 5 5 3 5 5 5 5 5 5 5 3 5 3 5 5 5 5 5 3 5 5 5 5 5 5 5 5 5 5 5 5 5 5 5 5 5 5 5 5 5 5 5 5 5 5 5 5 5 5 5 5 5 5 5 5 5 5 5 3 3 5 5 3 5 5 5 3 5 5 5 3 3 5 5 3 5 5 5 5 5 5 5 5 5 5 5 5 5 5 5 5 5 5 5 5 5 3 5 3 5 5 5 5 5 5 5 5 5 5 5 5 5 5 5 5 5 5 5 5 5 5 5 5 5 5 5 5 5 5 5 5 5 5 5 5 5 5 5 5 5 5 5 5 5 3 5 3 5 3 5 5 3 5 5 5 5 5 5 5 5 5 5 5 5 5 5 5 5 5 5 5 5 5 5 5 5 5 5 5 3 5 5 5 5 5 5 5 5 5 5 5 5 5 5 5 5 5 5 5 5 5 5 5 5 5 5 5 5 5 5 5 5 5 5 5 5 5 5 5 5 5 5 5 5 5 5 5 5 5 3 5 5 5 5 3 5 5 5 5 5 5 5 5 3 5 5 5 5 5 3 3 3 5 5 5 5 3 3 5 5 3 5 5 5 5 5 5 5 5 5 5 5 5 5 5 3 3 5 3 5 5 5 5 5 5 5 5 5 5 5 5 5 5 5 5 5 5 3 5 5 5 5 5 5 3 5 5 5 5 5 5 5 5 5 5 5 5 5 5 5 5 5 5 3 5 5 5 5 5 5 5 5 5 3 5 5 3 5 5 5 5 5 5 5 5 5 5 5 5 5 5 5 5 3 5 3 5 5 5 5 3 5 3 5 5 3 3 5 5 3 5 5 5 3 5 5 5 5 5 5 3 5 5 5 3 5 5 5 5 3 5 5 5 5 5 5 5 3 5 5 5 5 5 3 5 5 3 5 5 5 5 5 5 5 3 5 5 5 3 3 5 5 5 3 5 5 5 5 5 3 3 3 5 5 5 5 5 5 5 5 5 3 3 5 3 5 5 5 5 5 3 5 5 3 5 3 5 5 5 3 5 5 3 5 5 5 5 5 5 5 3 5 5 3 3 5 5 3 5 3 5 5 3 5 5 3 5 3 5 5 5 3 5 5 3 5 3 5 5 3 5 3 5 5 5 5 3 3 5 5 5 5 5 5 5 5 5 3 5 5 5 5 5 5 5 5 5 5 5 5 5 5 5 5 5 5 3 3 5 5 5 3 5 5 5 5 3 5 5 3 5 5 5 3 5 5 3 5 5 5 5 3 5 5 5 5 5 3 5 5 5 3 3 5 5 3 5 5 5 5 5 3 3 5 5 5 5 3 5 5 5 5 3 5 5 5 5 5 5 5 5 5 5 5 5 5 5 5 5 5 5 5 5 5 5 5 5 5 5 5 5 3 5 5 5 5 5 5 5 5 5 5 5 3 5 5 5 5 3 5 5 5 3 5 5 3 5 5 5 5 5 3 5 5 5 5 5 5 5 5 5 5 5 5 5 5 5 5 5 5 5 5 3 5 5 5 5 5 3 5 5 5 5 5 5 5 3 5 5 5 5 5 5 5 5 5 5 5 5 5 3 5 5 5 5 5 3 3 5 5 5 5 3 5 3 5 5 5 3 3 5 5 3 5 5 5 3 5 5 5 5 3 5 5 3 3 5 5 5 5 5 5 3 5 5 3 5 5 5 5 3 5 5 5 5 5 5 5 5 5 5 5 5 5 5 5 5 5 5 5 3 5 3 5 5 5 3 5 3 5 3 5 5 3 5 5 3 3 3 5 5 5 3 5 5 5 5 5 5 3 5 5 5 5 5 5 5 3 5 3 5 5 5 5 5 5 5 3 5 5 5 5 5 5 5 5 5 5 5 3 5 5 3 5 5 5 5 5 5 5 5 5 5 5 5 5 5 5 5 3 5 5 5 5 5 5 5 5 5 5 5 5 5 5 5 5 5 5 5 5 5 3 5 5 5 3 5 5 5 5 5 5 5 5 5 5 3 5 5 5 5 5 5 5 5 5 5 3 5 5 5 5 5 5 3 5 5 5 3 5 5 5 5 5 5 5 5 5 5 5 5 5 5 5 5 5 5 5 5 5 3 5 5 5 5 5 3 5 5 3 5 5 5 5 5 5 3 5 5 5 5 3 5 5 5 5 5 5 5 5 5 5 5 5 5 5 5 5 5 5 3 5 5 5 5 5 3 5 5 5 3 5 3 5 5 5 5 5 5 5 3 5 5 5 3 3 5 5 5 5 5 3 5 5 5 3 5 5 5 5 5 5 5 5 5 5 5 5 5 5 5 3 5 5 5 5 5 5 3 5 5 5 5 5 5 5 5 5 5 5 3 5 5 5 5 5 5 5 5 5 3 5 5 5 5 3 3 5 5 5 5 5 5 5 5 3 3 5 3 5 5 5 5 5 3 5 5 5 5 5 5 3 5 3 5 5 5 5 5 5 5 5 5 5 3 5 5 5 5 5 5 3 5 5 5 5 5 5 5 5 3 5 5 5 5 5 3 5 5 3 5 5 5 5 5 5 3 5 5 5 5 5 5 5 5 3 5 5 5 5 3 5 5 5 5 5 5 5 5 5 5 3 5 5 5 5 5 5 5 5 5 3 5 5 5 5 3 5 5 5 5 5 5 5 5 3 5 3 5 5 5 3 5 5 5 5 5 5 5 5 3 5 5 5 3 5 5 5 3 5 5 3 5 5 5 5 5 5 5 5 5 5 5 5 5 5 5 5 5 5 5 5 5 5 5 5 5 5 5 5 5 5 5 5 5 5 5 5 5 5 5 5 5 5 5 5 5 5 5 5 5 5 5 5 5 3 5 5 5 3 5 5 5 5 5 5 3 5 3 5 5 5 5 3 3 5 5 5 5 5 5 5 5 5 5 5 5 5 5 5 5 5 5 5 5 5 5 3 5 5 3 5 5 5 3 5 5 5 5 5 5 5 5 5 5 5 5 5 5 3 5 3 5 3 5 5 5 5 5 5 5 5 5 5 5 5 5 5 5 5 5 3 5 5 5 5 5 5 5 5 5 5 5 5 5 5 5 5 5 5 5 5 5 5 5 5 5 5 5 5 5 5 5 5 5 3 5 5 5 5 5 5 3 5 5 3 5 3 5 5 3 5 5 5 3 5 5 5 5 5 5 5 5 5 5 5 5 5 5 5 5 5 5 5 5 5 5 5 5 5 3 5 5 5 5 3 5 5 3 5 5 5 5 5 5 5 5 5 5 5 5 5 5 5 5 5 5 5 5 5 5 5 5 5 5 5 5 5 5 3 5 5 5 3 5 5 5 5 3 5 5 5 5 5 3 5 5 5 5 3 5 5 5 5 5 5 5 5 5 5 5 5 5 5 3 3 5 3 5 3 5 5 5 5 5 5 5 5 5 5 5 5 5 5 5 5 5 5 5 5 5 5 5 5 5 3 3 5 5 3 5 5 3 5 5 5 5 5 5 5 5 5 5 5 3 5 5 3 5 5 5 5 5 5 5 5 5 5 5 5 5 5 3 3 5 3 3 5 5 5 5 3 5 5 5 3 3 5 5 5 5 5 5 5 3 5 5 5 5 5 5 5 5 5 5 5 5 5 5 5 5 3 5 5 5 5 3 5 5 5 5 5 5 5 3 5 5 5 5 5 5 5 3 5 5 3 5 5 5 5 5 5 5 5 5 5 5 5 5 5 5 3 5 5 5 5 5 5 5 5 3 5 5 5 5 5 5 5 3 5 5 5 5 5 3 5 5 5 5 3 5 5 5 5 5 5 5 5 5 5 5 5 3 5 5 5 5 5 5 5 5 5 5 5 5 5 5 3 5 5 5 5 5 5 5 5 5 5 5 5 5 3 3 5 5 3 5 5 5 5 3 5 5 5 3 5 5 3 5 5 5 5 3 5 5 5 5 5 5 5 5 5 5 5 5 5 5 5 5 5 5 5 5 5 5 5 5 5 5 5 5 5 5 5 5 5 5 3 5 5 5 3 5 3 5 5 5 5 5 5 5 5 5 5 5 5 5 5 3 5 5 5 5 5 5 5 5 3 5 5 5 3 5 5 5 5 5 5 5 3 5 3 5 5 5 5 5 5 5 5 5 5 5 5 5 5 3 5 5 3 5 5 5 5 5 5 5 3 5 5 5 5 5 5 5 5 5 5 5 5 5 5 5 5 5 5 5 5 5 5 5 5 5 5 5 3 5 5 3 5 5 5 3 5 5 3 5 5 5 5 5 5 5 5 5 5 5 5 5 5 5 5 5 5 5 3 5 5 5 5 5 5 5 5 5 5 5 5 5 3 5 5 5 5 5 5 5 5 5 5 5 5 5 5 5 5 5 5 5 3 5 5 5 5 5 5 5 5 5 5 5 5 5 5 5 5 3 5 5 3 5 5 5 3 5 5 3 5 5 5 5 5 5 5 5 5 5 5 5 5 5 3 5 5 3 5 5 5 5 5 5 5 5 5 5 5 5 5 5 5 5 5 5 5 5 5 5 5 5 5 5 5 5 5 5 5 5 5 5 5 5 3 5 5 5 5 3 5 5 5 5 5 5 5 5 5 5 5 5 5 5 5 3 5 3 3 5 5 3 5 3 5 5 5 5 5 5 5 5 3 5 5 3 5 5 5 5 3 3 5 3 5 5 5 5 5 5 5 5 5 5 5 5 5 5 5 5 5 5 5 5 5 3 5 5 5 5 5 5 5 5 5 5 5 5 5 5 5 5 5 5 5 5 5 5 5 5 5 3 5 5 5 5 5 3 5 5 5 5 5 5 5 5 5 3 5 5 5 5 5 5 5 5 5 5 5 5 5 5 5 5 5 3 3 5 5 3 5 5 5 3 5 5 5 5 5 5 5 5 5 5 3 5 5 3 5 3 5 5 5 5 3 5 5 5 3 5 5 5 5 5 5 3 5 5 5 5 5 5 3 5 5 5 5 5 5 5 5 5 5 5 5 5 5 3 5 5 3 5 5 5 3 3 5 5 5 5 5 5 5 5 5 5 3 5 5 5 3 5 5 5 5 3 5 5 5 5 5 5 5 5 3 5 5 5 5 5 3 3 5 5 5 3 5 3 3 5 5 5 5 5 3 5 5 5 5 5 5 3 5 5 5 5 5 5 5 3 5 5 3 5 5 3 5 5 5 5 5 5 5 5 5 5 5 5 5 5 3 5 5 5 3 5 5 3 5 5 5 5 3 5 5 5 5 5 5 5 5 3 5 5 5 5 3 5 5 5 5 5 5 5 5 3 5 5 5 5 5 5 5 5 5 3 5 5 5 3 5 5 3 5 5 3 5 5 5 5 5 5 5 5 5 3 5 5 5 5 5 5 5 5 5 5 5 5 5 5 5 5 3 5 5 5 5 5 5 5 5 5 5 5 5 5 5 5 5 5 5 5 5 5 5 5 5 5 5 3 5 3 5 5 5 5 5 5 5 5 5 5 3 5 5 3 5 5 5 5 5 5 5 5 5 5 5 5 5 5 5 5 5 5 5 5 5 3 5 5 5 5 5 5 5 5 5 3 5 3 5 5 5 5 5 5 5 3 5 3 5 5 5 5 5 5 5 5 5 5 5 3 5 5 5 5 3 5 3 5 5 5 5 5 5 3 5 5 3 5 5 3 5 5 5 3 3 3 5 5 5 5 5 5 5 5 5 5 5 5 5 3 5 5 5 5 5 5 5 3 5 3 5 3 5 5 3 3 5 5 5 5 5 5 3 5 5 5 5 3 5 3 5 3 5 3 5 5 5 5 3 5 5 5 5 5 3 5 5 5 5 5 5 5 5 5 5 5 5 5 5 3 5 5 5 5 5 3 5 5 5 3 5 5 5 5 5 5 5 5 5 5 5 5 5 5 5 5 5 3 5 5 5 5 3 5 5 5 5 5 5 3 5 5 5 5 5 5 5 5 5 5 3 5 5 3 5 3 5 5 5 5 5 5 5 5 5 5 5 3 5 5 5 5 5 5 3 5 3 3 5 3 5 5 5 5 5 5 5 3 5 5 5 5 5 5 5 5 5 5 5 5 5 5 5 5 3 5 5 5 5 5 5 5 5 5 5 3 5 5 5 5 5 5 5 5 5 5 3 5 5 5 5 3 5 5 5 5 5 3 5 5 5 5 3 5 5 5 5 5 5 5 5 5 5 5 5 5 5 5 5 5 5 3 5 5 5 5 5 5 5 5 3 5 3 3 5 5 5 5 5 3 5 5 5 5 5 5 5 5 5 5 5 5 5 5 3 5 5 3 5 3 3 5 5 5 5 5 5 3 5 5 5 5 3 5 3 5 5 3 5 5 5 5 5 5 3 3 5 5 5 5 5 5 5 5 5 5 5 5 5 5 5 3 5 5 5 5 5 5 5 3 5 3 5 5 5 3 5 3 5 5 5 5 5 5 5 5 3 5 5 5 5 5 3 5 3 5 5 5 5 3 5 5 5 5 5 3 5 5 5 5 5 5 5 5 5 5 5 5 5 5 5 5 5 5 5 5 5 5 5 5 3 5 5 5 3 5 3 5 5 5 3 5 5 5 5 5 5 5 5 5 5 5 5 5 5 5 5 5 3 3 3 3 5 5 5 5 5 5 3 5 5 5 3 5 5 5 5 5 5 5 5 5 5 3 3 3 5 5 3 3 5 5 5 5 5 5 5 5 5 3 5 5 5 5 5 5 5 5 3 3 5 5 5 3 5 5 5 5 5 5 5 5 5 5 5 3 5 3 5 5 5 5 5 3 3 5 5 3 3 5 5 5 5 5 5 5 5 5 5 5 5 5 5 5 5 5 5 5 5 5 5 5 5 5 5 5 5 5 5 5 5 5 5 5 5 5 5 5 5 5 5 3 3 5 5 5 5 5 5 5 5 5 5 5 5 5 5 5 5 5 5 5 5 3 5 5 5 5 5 5 5 5 5 5 5 5 5 5 5 5 3 5 3 5 5 5 5 5 5 5 5 3 5 5 5 5 5 5 5 5 5 5 5 3 5 5 3 5 5 3 5 5 5 5 3 5 5 5 5 3 5 5 3 5 3 5 5 5 5 5 3 5 5 5 5 5 5 5 3 5 5 5 5 5 5 5 5 5 5 5 5 5 5 5 5 5 5 5 5 5 5 5 5 3 5 5 5 3 5 5 3 5 5 5 3 5 5 5 5 3 5 3 5 5 5 5 5 5 5 5 3 5 5 5 5 5 5 5 5 5 5 3 5 5 3 5 5 3 5 5 3 3 5 5 5 5 5 5 5 3 3 5 5 5 3 5 5 3 3 5 5 5 3 3 5 3 5 5 3 5 5 5 5 3 5 3 3 5 5 5 3 5 3 3 5 3 3 3 3 5 3 5 3 5 3 5 5 5 3 5 5 3 5 3 3 5 5 5 5 3 5 3 3 5 5 5 3 3 5 5 3 3 5 5 5 5 3 5 5 5 5 3 5 5 5 5 3 5 3 5 3 5 3 5 3 5 3 5 5 5 5 5 3 5 5 3 3 3 5 5 3 3 5 3 5 5 3 5 5 5 5 5 5 3 5 5 3 5 3 5 5 5 5 3 5 3 5 3 5 5 5 3 5 5 3 5 3 5 3 5 5 5 5 5 3 5 5 5 5 5 5 5 5 5 5 3 5 5 5 5 3 5 5 3 5 5 5 5 5 3 5 5 3 5 5 5 3 5 3 5 5 5 3 5 5 5 5 3 5 5 5 5 3 3 5 5 5 5 5 5 3 5 5 3 5 5 5 5 5 5 5 5 5 5 5 5 5 5 5 5 5 5 5 5 5 5 5 5 5 5 5 5 5 5 5 5 5 5 5 5 5 5 5 5 5 5 5 5 5 5 5 5 5 5 5 5 5 5 5 5 5 5 3 5 5 5 5 5 5 5 5 5 5 5 5 3 5 5 3 5 5 5 3 5 5 5 5 5 5 5 5 5 5 5 5 5 5 5 3 5 5 5 5 5 5 5 5 5 5 5 5 5 5 5 5 3 5 5 5 5 5 5 5 5 5 5 5 5 5 3 5 5 3 5 5 3 5 3 5 5 5 5 5 5 5 3 5 5 5 5 5 5 5 5 5 5 5 5 3 5 5 5 3 5 5 5 5 5 5 5 5 5 3 5 5 5 5 5 5 3 5 5 5 5 5 5 3 5 5 5 3 5 5 5 5 5 5 5 3 5 5 5 5 5 5 5 5 5 5 3 5 5 5 5 5 5 5 5 5 5 5 5 5 5 5 5 3 5 3 5 5 5 5 5 5 5 5 5 5 3 5 3 5 5 5 5 5 5 5 5 5 5 5 3 5 5 5 5 5 5 5 5 5 5 5 3 5 5 5 5 5 5 5 3 5 5 5 5 5 5 5 3 5 5 5 5 5 5 5 5 5 5 5 3 5 5 5 5 5 5 5 5 3 5 3 5 5 5 5 5 5 5 5 5 5 3 5 5 5 3 5 5 5 5 5 5 5 5 5 3 5 5 5 5 5 5 5 5 5 5 5 5 5 5 5 5 3 5 5 5 5 5 5 5 5 5 5 5 5 5 5 5 5 5 5 3 5 5 3 5 5 3 5 5 5 5 5 3 5 5 5 5 5 5 5 5 5 5 5 5 5 5 5 5 5 5 5 5 5 5 5 5 5 5 5 5 5 5 5 5 5 5 5 5 5 5 5 5 5 5 5 5 5 5 5 5 5 5 5 5 5 5 5 5 5 5 5 3 5 5 3 5 5 5 5 5 5 5 5 5 5 5 5 5 5 5 5 5 5 5 5 5 5 5 5 3 3 5 5 5 5 5 5 5 5 5 5 5 5 5 5 5 5 3 3 5 5 5 5 5 5 5 3 5 3 5 5 3 3 5 5 5 5 5 5 5 5 5 5 5 3 5 3 5 5 5 3 5 5 5 3 5 3 5 5 5 5 5 3 3 5 5 5 5 5 5 5 5 5 5 5 5 5 5 5 5 5 5 5 5 5 5 5 5 5 5 5 5 5 5 5 5 5 5 5 5 5 5 5 5 5 5 5 5 5 5 5 5 5 5 5 5 5 5 5 5 5 5 5 5 5 5 5 5 5 5 5 5 5 5 5 5 5 5 5 5 5 5 5 5 5 5 5 5 5 5 5 5 5 5 5 5 5 5 5 5 5 5 5 5 5 5 5 5 3 3 5 3 5 3 5 5 3 5 5 5 5 3 5 5 5 5 5 5 5 3 3 3 5 5 5 5 5 3 3 5 5 5 5 5 5 5 5 5 5 5 5 5 5 5 5 5 5 5 5 5 5 5 5 5 5 5 5 5 5 5 5 5 5 3 5 5 3 5 5 5 5 5 5 5 5 5 5 5 3 5 5 5 5 5 5 5 3 5 5 5 5 5 5 5 5 5 5 5 5 5 5 5 5 3 5 5 3 5 5 5 5 5 5 5 5 5 5 5 5 5 5 5 5 5 5 5 5 5 5 5 3 5 5 3 5 5 3 5 5 5 5 5 5 5 3 5 5 5 5 5 5 3 5 5 3 5 5 5 5 3 5 3 5 5 3 5 5 5 5 3 5 3 5 5 3 5 5 5 5 5 5 5 5 5 5 5 5 3 5 5 5 3 5 5 3 5 5 5 5 3 5 5 5 5 5 5 5 5 5 5 3 5 5 5 5 5 5 5 5 5 5 3 5 5 5 5 5 5 5 5 5 5 5 5 3 5 5 3 5 5 5 5 5 5 5 5 5 5 3 5 5 5 5 5 3 5 3 3 5 5 3 5 5 5 5 5 5 5 5 5 3 3 5 5 5 5 5 5 3 5 5 5 5 5 5 5 5 5 5 5 5 5 5 5 5 5 5 5 5 5 5 5 5 5 3 5 5 5 5 5 5 5 5 5 5 5 5 5 5 5 5 5 5 5 5 5 5 5 5 5 5 5 5 5 5 5 5 5 5 5 5 5 5 5 5 3 5 5 5 5 5 5 5 5 5 5 3 5 5 5 3 5 3 5 5 5 3 5 5 5 3 5 3 5 3 5 3 3 5 5 3 5 5 5 3 5 5 5 5 5 3 5 5 5 5 3 5 5 5 3 5 5 5 5 3 5 3 5 5 5 5 5 5 5 5 5 5 5 5 5 5 3 5 5 5 5 3 5 5 3 5 5 3 3 5 5 3 5 3 5 5 5 3 3 3 3 5 5 3 5 5 5 5 3 5 3 5 5 3 3 3 5 3 5 5 3 3 3 5 5 5 5 5 5 5 5 5 3 3 5 5 5 5 3 3 5 5 5 3 5 3 5 5 5 5 5 5 5 5 5 5 5 3 5 5 5 5 5 5 5 5 5 5 5 5 5 5 5 5 5 5 5 5 5 5 5 3 5 5 5 5 5 5 5 5 5 5 5 5 5 5 5 5 3 5 5 3 5 5 5 5 5 5 5 5 5 3 5 5 5 3 3 5 5 3 5 5 5 5 5 3 5 3 5 5 5 3 5 5 5 5 5 5 5 3 5 5 3 5 5 5 5 3 5 5 5 3 3 5 5 3 5 5 5 3 5 5 5 5 5 5 5 3 5 5 3 5 3 3 3 5 3 5 3 3 5 5 5 5 5 5 3 5 5 3 5 5 5 5 5 5 5 5 5 5 5 5 5 5 5 5 5 5 5 5 5 5 5 5 5 5 5 5 5 5 5 5 5 5 5 3 3 5 5 5 5 5 5 5 5 3 3 3 3 5 5 3 5 5 5 5 5 5 5 5 3 5 5 3 5 5 5 3 5 5 5 5 3 5 5 5 5 5 5 5 5 5 5 5 5 5 5 3 5 5 5 5 5 3 5 5 5 5 5 5 5 5 3 5 5 5 3 3 5 5 3 3 5 5 5 5 5 3 5 5 5 5 5 5 3 5 3 5 5 5 5 5 5 5 5 3 3 5 3 3 3 5 3 5 5 5 5 5 5 3 5 5 5 5 5 5 5 3 5 5 5 5 5 5 5 5 5 5 5 5 5 5 5 5 5 5 5 5 5 5 5 5 5 5 5 5 5 5 5 5 5 5 5 5 5 5 5 5 5 5 5 5 5 5 5 5 5 5 5 5 5 5 5 5 5 3 5 5 5 5 5 5 5 3 5 5 3 5 5 5 3 5 3 5 5 3 5 5 5 5 5 5 5 3 5 5 5 3 5 5 5 5 5 5 5 3 5 3 5 5 5 5 5 5 5 5 5 5 5 5 5 5 5 5 5 5 5 5 5 5 5 5 5 3 3 5 3 5 5 5 5 5 5 5 3 5 3 5 3 3 3 5 5 3 5 5 3 5 5 5 3 5 5 5 5 5 5 5 3 3 5 5 3 5 5 5 3 5 5 5 5 3 5 3 5 5 5 5 5 5 3 5 3 5 5 5 5 5 3 5 5 3 5 5 5 5 5 5 5 5 5 5 5 5 5 5 5 5 3 5 5 3 3 5 3 5 5 5 5 5 5 5 5 3 5 5 5 5 5 5 5 5 5 5 5 5 5 5 5 5 3 5 5 5 3 5 5 3 5 5 5 5 5 5 3 5 5 5 5 5 5 5 5 5 5 5 5 5 5 5 5 5 5 5 3 3 5 5 5 5 5 5 5 3 5 5 5 3 5 5 3 5 3 5 5 3 5 3 3 5 3 5 3 5 3 5 5 5 5 5 5 5 5 5 5 5 5 5 5 5 3 3 5 5 5 5 5 5 5 3 5 5 5 5 5 5 5 5 5 5 5 5 5 5 5 3 5 3 5 5 5 5 5 5 3 5 5 5 3 5 5 5 3 5 5 5 5 5 5 5 5 5 5 5 5 5 5 5 5 5 5 5 5 5 3 5 5 5 5 3 5 5 5 5 5 3 5 5 5 3 5 5 5 5 5 5 5 5 5 5 5 5 3 5 5 5 5 3 5 5 5 5 5 5 5 5 3 5 5 5 5 5 5 5 3 5 5 5 5 3 5 5 5 5 5 5 5 5 3 5 5 5 5 5 5 5 5 5 3 5 5 5 5 5 5 5 5 5 5 5 5 5 5 5 5 5 5 5 5 5 5 5 5 5 5 5 5 3 5 5 5 5 5 5 5 3 5 5 5 5 5 5 5 5 5 5 5 5 5 5 5 5 5 5 5 5 5 5 5 5 5 5 5 5 5 3 5 5 5 5 5 5 5 5 5 5 5 5 5 5 5 5 5 5 5 5 5 5 5 5 5 5 5 5 5 5 5 5 3 5 5 3 5 5 5 5 3 5 5 3 5 5 5 5 3 5 5 5 3 5 5 5 3 5 5 5 5 5 5 5 5 5 5 3 5 5 3 5 5 5 5 5 5 3 5 5 5 5 5 3 5 5 5 5 3 5 5 5 5 5 5 5 5 5 5 3 5 5 5 5 5 5 5 5 5 3 5 5 5 5 5 5 5 5 5 5 5 5 5 3 5 5 5 5 5 5 5 3 5 5 5 5 5 3 5 5 5 5 5 5 5 5 5 5 5 5 5 5 3 5 5 5 5 5 5 5 5 3 5 5 5 5 5 5 5 5 5 5 5 5 5 5 5 5 5 5 5 5 5 5 5 5 5 5 5 5 5 5 5 5 5 3 5 5 5 5 3 3 5 5 3 5 5 3 5 5 3 5 5 5 5 5 5 5 5 5 5 5 5 5 5 5 5 5 5 5 3 5 5 5 5 3 5 5 5 5 5 5 5 5 5 5 5 5 5 5 5 5 5 5 5 5 5 5 5 5 5 5 5 5 5 5 5 5 5 5 5 5 5 5 5 5 5 5 5 5 5 5 5 5 5 5 5 5 5 5 5 5 5 5 5 5 5 5 5 5 5 5 5 5 5 5 5 3 5 5 5 5 3 5 3 5 5 3 5 5 5 5 3 5 5 3 5 5 5 5 5 5 5 5 5 5 5 5 5 5 5 5 5 5 5 5 5 5 5 5 5 5 5 5 5 5 5 5 5 5 5 5 5 5 5 5 5 5 5 5 5 5 5 5 5 5 5 5 5 5 5 5 5 5 5 5 3 5 5 5 5 5 5 5 5 5 3 5 5 5 5 5 5 5 3 5 5 5 5 5 5 5 5 5 5 5 5 5 5 5 5 5 5 5 3 3 5 5 3 5 3 5 5 5 5 5 5 5 5 5 5 5 5 5 5 5 5 5 5 5 5 5 5 5 5 5 5 5 5 5 5 5 5 5 5 5 5 5 5 5 5 5 5 5 5 5 5 5 5 5 5 5 5 5 5 5 3 3 5 5 5 5 5 5 5 5 5 5 5 5 5 5 5 5 5 5 5 5 3 5 5 5 5 5 5 5 5 5 5 3 5 5 5 3 5 5 5 5 5 5 3 5 5 5 5 5 5 5 5 5 5 5 5 5 3 5 5 5 5 5 5 3 3 5 3 5 5 3 5 5 5 3 5 5 5 3 5 5 5 5 5 3 5 3 5 5 5 5 3 5 5 5 5 3 5 3 5 5 3 3 5 5 5 5 5 3 5 5 5 5 5 3 3 3 5 3 5 3 5 5 5 5 5 3 5 5 5 5 5 5 5 5 3 3 5 5 3 5 5 5 5 3 5 5 3 5 5 3 5 5 5 5 5 5 5 5 5 3 5 5 5 5 5 5 5 5 3 5 5 5 5 5 5 5 5 5 3 3 5 5 5 5 5 5 5 5 5 5 5 5 5 5 5 5 5 5 5 5 5 5 5 5 5 5 5 5 5 5 5 5 5 5 5 3 5 5 5 5 3 5 5 5 5 5 5 5 5 5 5 5 5 5 5 5 5 3 3 5 5 5 5 5 5 5 5 5 3 5 5 5 5 3 5 5 3 5 5 5 5 5 5 5 5 5 5 5 5 5 3 5 5 5 5 5 5 5 5 5 5 5 5 5 5 5 5 5 5 5 5 5 5 5 5 5 3 5 5 5 5 5 3 5 5 5 3 5 5 5 3 3 5 5 5 5 5 5 5 5 5 5 5 5 5 5 3 5 5 5 3 5 5 5 5 3 3 5 5 5 5 5 5 5 5 5 5 5 5 5 5 5 5 5 5 5 5 5 5 5 3 5 5 5 5 5 5 5 5 5 3 5 5 5 5 3 5 3 5 5 5 5 3 5 5 5 5 5 5 5 5 5 5 5 5 5 5 5 3 5 5 3 5 5 5 5 5 5 5 5 5 5 3 3 5 5 5 5 3 5 5 5 3 5 5 5 5 3 3 5 3 5 3 5 3 5 5 3 5 5 3 5 5 3 5 5 5 3 5 5 3 5 3 5 3 5 5 3 5 5 5 5 5 5 5 5 5 5 5 5 5 3 5 5 5 5 5 5 5 5 5 5 5 5 5 5 5 5 3 3 5 5 5 5 5 3 5 5 5 5 3 5 5 3 5 5 5 5 3 5 5 5 5 5 5 5 5 5 5 5 5 5 5 5 5 5 5 5 5 5 5 5 5 5 5 5 5 5 5 5 5 5 5 5 5 5 5 3 5 5 5 5 5 5 5 5 5 5 5 5 5 3 5 3 5 5 5 5 3 5 5 5 5 5 5 5 5 5 5 5 5 5 5 5 5 5 5 3 5 3 5 5 3 5 5 5 3 5 5 5 5 5 5 5 5 5 5 5 5 5 5 5 5 5 5 5 5 5 5 5 5 5 5 5 3 5 5 3 5 5 5 5 5 5 5 5 5 5 5 5 5 5 5 5 5 5 5 5 5 5 5 5 5 5 5 5 5 5 5 5 5 5 5 3 5 3 5 5 5 5 5 5 5 5 5 5 5 5 5 5 5 5 5 3 3 5 5 5 5 5 3 5 5 5 5 3 5 5 5 5 3 5 5 5 5 5 5 5 5 5 5 5 5 5 5 5 5 5 5 3 5 5 5 5 5 5 3 5 5 3 5 5 5 5 5 5 5 5 5 5 5 5 3 5 5 3 5 5 5 5 5 5 5 5 3 5 5 5 5 5 5 3 5 5 3 5 5 5 5 5 5 5 5 5 5 5 5 5 5 5 5 5 5 5 5 5 5 5 5 5 5 5 5 5 5 5 5 5 5 5 5 3 5 5 5 3 5 5 3 5 5 5 5 5 5 3 5 5 5 5 5 3 5 5 5 5 5 5 3 5 5 5 5 3 5 3 5 5 3 5 5 5 3 5 5 5 5 5 5 5 5 5 5 5 5 5 3 5 5 5 5 5 5 5 5 5 5 5 5 5 5 5 5 5 5 5 5 5 5 5 5 3 5 3 5 3 5 3 5 5 5 5 3 5 5 5 5 3 5 5 5 5 5 5 5 5 5 5 5 5 5 5 3 5 5 5 3 5 5 5 3 5 5 3 5 5 5 3 5 5 5 5 3 5 5 5 5 3 5 5 5 5 5 5 5 5 5 5 3 5 5 5 5 5 3 5 3 5 5 5 5 5 3 3 5 5 3 5 3 5 5 3 5 5 5 5 5 5 5 5 5 5 5 5 5 3 5 5 5 5 5 3 5 5 5 5 5 5 5 5 5 5 3 5 3 5 5 3 5 5 3 5 3 5 3 5 5 5 5 5 3 3 5 5 5 5 5 5 5 5 5 5 5 3 5 5 5 5 5 3 5 5 5 3 5 3 5 5 5 5 5 5 5 5 5 5 5 5 5 5 5 3 5 5 5 5 3 5 5 5 5 5 5 5 5 5 5 5 5 5 5 5 5 5 5 5 5 5 5 5 3 5 5 3 5 5 5 5 5 5 5 3 5 5 3 5 3 5 5 5 5 5 5 5 5 5 3 5 5 3 5 5 5 3 5 5 5 5 5 5 5 3 5 5 5 5 3 3 5 5 5 5 5 5 5 5 5 3 5 5 5 5 5 5 5 5 5 5 5 5 5 5 5 5 3 5 3 5 5 5 3 5 5 5 5 5 5 5 5 5 5 5 5 5 3 5 5 5 5 5 3 5 5 5 3 3 5 5 5 3 5 5 3 5 5 5 5 3 3 5 5 5 3 5 5 3 5 5 5 5 3 5 3 5 5 5 3 5 5 5 5 5 5 5 5 5 5 5 5 5 5 5 5 5 5 5 5 5 3 5 5 5 5 5 5 5 5 5 3 5 5 5 3 5 3 5 5 5 5 5 5 5 5 5 5 5 3 5 5 5 5 5 3 5 5 5 5 5 3 5 5 5 5 5 5 5 5 5 5 5 5 5 5 5 5 3 5 5 5 5 5 5 5 5 5 3 5 5 5 5 5 5 5 5 5 5 5 5 5 5 5 3 5 5 5 5 5 5 5 5 5 5 5 5 5 5 5 5 5 5 5 5 5 5 5 5 5 5 5 5 5 3 5 5 5 5 3 5 3 3 5 5 5 5 5 5 3 5 3 5 5 5 3 5 5 3 5 5 5 5 5 5 3 5 5 5 5 5 5 5 3 5 5 5 5 3 5 5 5 5 5 5 3 5 5 5 5 5 5 5 5 5 5 5 5 3 5 3 5 5 5 5 5 5 5 3 3 5 5 5 5 5 5 5 5 3 5 5 5 3 5 5 3 5 5 5 5 5 5 5 5 5 5 5 5 5 5 5 5 5 5 5 5 5 5 5 5 5 3 5 5 3 5 5 5 5 5 3 5 5 3 5 3 5 5 5 3 5 5 5 5 3 5 5 3 3 5 5 5 5 5 3 5 5 3 5 5 5 5 5 3 5 5 5 5 5 5 5 5 5 3 5 5 5 5 3 5 5 5 5 5 5 3 5 3 5 5 5 3 5 3 5 5 3 5 3 5 5 5 3 5 5 5 5 5 5 5 5 5 5 5 5 5 3 5 5 5 5 3 5 5 5 5 5 5 3 5 5 5 5 5 5 5 3 5 5 5 5 5 5 3 5 5 5 5 5 5 5 3 5 5 3 5 5 5 5 5 5 5 5 5 3 3 5 5 5 5 5 5 5 5 5 5 5 5 3 5 5 5 5 5 5 5 3 5 5 5 3 5 3 5 5 3 5 5 5 5 5 3 5 5 5 3 5 5 5 5 3 5 5 5 3 5 5 5 5 5 5 5 3 5 5 3 5 5 5 3 5 5 5 3 5 5 5 5 3 5 5 5 3 5 5 5 5 5 5 5 5 5 3 5 5 5 5 5 5 5 5 5 3 5 5 5 5 3 5 5 3 5 5 5 5 5 5 5 5 5 5 5 5 5 5 5 5 5 5 5 5 5 5 5 5 5 5 3 5 5 5 5 5 5 5 5 5 5 5 3 5 5 5 3 5 5 5 5 5 5 3 5 5 5 5 5 5 5 5 5 5 5 5 5 5 5 5 5 5 5 5 5 5 5 5 5 5 3 5 3 5 5 3 3 5 5 5 5 5 5 5 5 5 5 5 5 5 5 5 5 5 3 5 5 5 5 5 5 5 5 5 5 5 5 5 5 5 5 5 5 5 5 5 5 5 5 5 5 5 5 5 5 5 5 5 5 5 5 5 5 5 5 5 5 5 5 5 5 5 5 5 5 5 5 5 5 5 5 5 5 5 5 5 3 5 5 3 5 5 5 5 3 5 5 5 5 5 5 5 5 5 5 3 5 3 5 5 5 3 5 5 5 3 5 3 5 5 5 3 5 3 5 3 5 5 5 3 5 5 5 5 3 5 3 5 5 5 5 5 3 5 3 3 5 5 5 5 5 5 3 5 5 5 3 5 5 5 5 5 5 5 5 5 5 5 5 5 5 5 5 5 5 5 3 5 5 5 3 3 5 5 5 5 5 3 5 5 5 5 5 5 5 5 5 5 5 5 5 5 3 5 5 3 5 3 5 5 5 3 5 3 5 5 3 5 5 5 5 5 5 5 5 5 5 5 3 5 5 5 5 5 5 5 5 5 5 3 3 5 5 5 5 5 5 5 3 5 5 5 5 5 5 5 5 5 5 5 5 5 5 3 5 5 5 5 5 5 5 5 5 5 3 5 5 5 3 5 3 3 5 5 5 5 5 5 5 5 3 5 5 5 5 5 5 5 5 5 3 5 3 5 3 5 5 5 5 5 5 5 5 3 5 3 5 5 5 5 5 5 3 5 5 3 5 3 5 5 5 5 5 5 5 5 5 5 5 5 5 5 3 5 5 5 5 5 5 5 5 5 5 3 5 5 5 5 5 5 3 5 5 5 5 5 5 5 5 5 5 5 5 5 5 5 5 5 5 5 5 5 5 5 5 5 3 5 5 5 5 5 3 5 5 5 5 5 5 5 5 5 5 5 3 5 5 5 5 3 5 5 5 5 5 3 5 5 5 5 5 3 5 5 3 5 5 5 5 5 5 5 5 5 5 5 5 5 5 5 5 5 5 5 5 5 5 5 5 5 5 3 5 5 3 5 5 5 5 5 5 5 5 5 5 5 5 5 5 5 3 5 5 5 5 5 5 5 5 5 3 5 5 5 5 5 5 5 3 5 5 5 5 5 3 5 5 5 5 5 5 3 5 5 5 5 3 5 5 5 5 5 5 5 3 5 5 3 5 5 3 5 5 5 5 3 5 5 5 5 5 5 5 5 3 5 5 3 5 5 5 5 5 5 5 5 5 3 5 5 5 5 5 3 5 5 5 5 3 5 5 5 3 5 5 5 5 5 5 5 5 5 5 5 3 3 5 5 5 5 5 5 5 5 5 5 5 3 5 5 5 5 5 3 5 3 3 5 3 3 5 5 3 5 5 5 5 5 5 3 5 3 3 5 5 5 5 5 3 5 5 5 5 5 5 5 5 3 5 5 5 5 3 5 5 5 5 5 3 5 5 3 5 5 5 5 5 5 5 3 5 3 5 5 5 5 5 5 5 3 3 5 5 5 5 5 5 5 3 5 5 5 5 5 5 3 5 5 5 5 5 5 5 5 5 5 5 5 5 5 3 5 5 3 5 5 5 5 3 5 5 5 5 3 5 5 5 5 5 5 3 5 5 5 5 5 5 5 3 5 5 5 3 5 5 5 5 3 5 5 3 5 5 5 5 5 5 5 3 5 5 5 5 3 5 3 5 5 5 5 5 5 5 5 5 5 5 5 5 5 3 5 5 5 5 5 5 5 3 5 5 3 5 5 3 5 5 5 5 5 5 5 5 5 3 5 5 5 3 5 5 5 5 5 5 5 5 5 3 5 5 5 5 5 5 5 5 5 5 5 3 5 5 5 3 5 5 5 5 5 5 5 5 5 5 5 3 5 5 5 5 5 5 5 5 5 5 3 5 5 5 5 5 3 5 5 5 5 5 5 5 5 3 5 5 3 5 5 3 5 5 5 5 3 3 5 5 5 5 3 5 5 5 5 3 5 5 3 5 5 5 5 3 5 5 3 5 5 5 5 5 3 5 5 5 5 5 5 5 5 3 5 3 5 5 5 5 5 5 5 5 5 3 3 5 5 5 5 5 5 3 5 5 3 5 5 3 5 3 5 5 5 3 5 5 3 5 5 5 5 5 5 5 5 3 3 5 5 3 3 5 5 5 5 3 5 5 5 3 5 3 5 3 3 3 5 3 5 5 5 3 5 5 5 5 5 5 5 5 5 3 5 5 3 5 5 5 5 5 5 3 5 5 5 5 5 5 3 3 3 5 5 5 5 5 5 5 5 5 5 5 3 5 5 5 5 3 5 5 5 5 5 5 5 5 3 5 5 3 5 5 5 3 5 5 5 5 5 5 5 5 5 3 5 5 5 5 5 5 5 5 3 5 5 5 3 5 5 3 5 5 5 3 5 3 5 5 3 5 3 5 5 3 5 5 5 5 5 5 3 5 5 3 5 5 5 5 5 5 5 5 5 5 5 5 5 5 5 5 5 5 5 5 5 5 5 5 5 5 5 5 5 5 5 5 5 5 5 5 5 5 5 5 5 5 5 5 5 5 5 5 5 5 5 5 5 5 5 5 5 5 5 5 5 5 5 5 5 5 5 5 5 5 5 5 5 5 5 5 5 5 5 5 5 5 5 5 5 5 5 5 5 5 5 5 5 5 5 5 3 5 5 5 5 3 5 5 5 5 5 5 5 5 5 5 5 5 3 3 5 5 5 5 5 5 5 5 5 5 5 5 5 5 5 3 5 5 5 3 5 5 5 5 5 5 5 5 5 5 3 5 3 5 5 5 5 5 5 5 5 5 5 5 5 5 5 5 5 5 5 5 5 5 5 5 5 3 5 5 5 5 3 5 5 5 5 5 5 5 5 3 5 5 5 5 5 5 5 5 5 5 5 5 5 5 5 5 5 5 5 5 5 5 5 5 5 5 5 5 5 5 5 5 5 5 5 5 5 5 5 5 5 5 5 5 5 5 5 5 5 3 5 5 5 5 5 5 5 5 5 5 5 5 5 5 5 5 5 5 5 5 5 5 5 5 5 5 5 5 5 5 5 5 3 5 5 5 5 5 5 3 5 5 5 5 5 5 3 5 5 3 5 3 5 3 5 5 5 5 3 5 5 5 5 5 3 5 5 5 3 3 5 5 5 3 5 5 5 5 3 3 5 5 5 5 5 5 5 5 5 5 5 5 5 5 3 5 5 3 5 5 3 3 5 5 5 5 5 5 5 5 5 5 3 5 3 5 5 5 5 5 5 5 5 5 5 5 3 5 5 5 5 5 5 5 3 5 5 5 5 5 5 5 5 5 5 5 5 5 5 5 5 5 5 3 3 5 5 5 5 5 5 5 5 5 5 5 5 5 5 5 5 5 3 5 5 5 5 5 5 5 5 5 3 5 5 5 5 5 5 5 5 5 5 5 5 3 5 5 5 5 3 5 3 5 5 5 5 5 5 5 5 5 3 5 5 5 5 3 5 5 5 5 3 5 3 5 5 5 5 5 5 5 5 5 5 5 5 3 5 5 5 5 5 5 5 5 5 5 5 5 5 5 5 3 5 3 5 5 3 5 5 5 3 5 3 5 5 3 5 5 3 5 3 5 5 5 5 5 5 5 3 3 5 5 5 5 3 3 5 5 3 3 5 3 5 5 3 3 5 5 3 5 5 3 5 5 5 5 5 5 5 5 3 5 5 3 5 3 5 5 5 3 5 5 5 5 5 5 5 5 3 5 5 5 5 5 5 5 5 5 5 5 5 5 5 5 5 5 5 5 5 5 5 3 5 5 5 5 5 5 5 5 5 5 5 5 5 5 5 5 5 5 
</DataArray>
</Cells>
<PointData Scalars="" Vectors="displacement," Tensors="">
<DataArray type="Float64" Name="displacement" NumberOfComponents="3" format="ascii">
-0.034997293306824037 -1.1180949104751977e-06 0 -0.03398289466505814 -0.00016644977739700359 0 -0.034999030820080379 1.713162724780712e-08 0 -0.034997293306824037 -1.1180949104751977e-06 0 -0.03398289466505814 -0.00016644977739700359 0 -0.030598032983666323 2.0050802237065208e-06 0 -0.03398289466505814 -0.00016644977739700359 0 -0.033405697858230825 1.7780537018075488e-05 0 -0.030598032983666323 2.0050802237065208e-06 0 -0.03398289466505814 -0.00016644977739700359 0 -0.033405697858230825 1.7780537018075488e-05 0 -0.03414400599620919 -2.8826579458852539e-05 0 -0.033405697858230825 1.7780537018075488e-05 0 -0.033747773500428763 0.00055543258956785701 0 -0.03414400599620919 -2.8826579458852539e-05 0 -0.033405697858230825 1.7780537018075488e-05 0 -0.033747773500428763 0.00055543258956785701 0 -0.030598032983666323 2.0050802237065208e-06 0 -0.031894799288026333 0.00013646039258336664 0 -0.030592259382638012 9.4907345521500436e-08 0 -0.031342519567597857 -0.00057103263767127317 0 -0.031655361214599088 0.00012403127797154078 0 -0.030757479000377629 0.00011960506165418903 0 -0.033747773500428763 0.00055543258956785701 0 -0.034173791042378013 -0.00022775680897557551 0 -0.03414400599620919 -2.8826579458852539e-05 0 -0.029994502471989922 -0.00012541805255088671 0 -0.031342519567597857 -0.00057103263767127317 0 -0.030757479000377629 0.00011960506165418903 0 -0.031894799288026333 0.00013646039258336664 0 -0.032701034949888935 -0.00034284965935938138 0 -0.03414400599620919 -2.8826579458852539e-05 0 -0.034463562276053183 0.00010417238320430805 0 -0.033988963509240348 -2.7578057764125219e-05 0 -0.034173791042378013 -0.00022775680897557551 0 -0.03414400599620919 -2.8826579458852539e-05 0 -0.033988963509240348 -2.7578057764125219e-05 0 -0.034463562276053183 0.00010417238320430805 0 -0.033564868108166029 0.00043426554090069796 0 -0.033988963509240348 -2.7578057764125219e-05 0 -0.034459886078531302 0.00013535719378612326 0 -0.034172927477189204 0.00024600031091508796 0 -0.03398289466505814 -0.00016644977739700359 0 -0.034463562276053183 0.00010417238320430805 0 -0.034999030820080379 1.713162724780712e-08 0 -0.03398289466505814 -0.00016644977739700359 0 -0.03414400599620919 -2.8826579458852539e-05 0 -0.034463562276053183 0.00010417238320430805 0 -0.034463562276053183 0.00010417238320430805 0 -0.034999030820080379 1.713162724780712e-08 0 -0.034908381464174833 7.0669348696917583e-05 0 -0.034999030820080379 1.713162724780712e-08 0 -0.034993387077656209 2.8690770532324465e-06 0 -0.034908381464174833 7.0669348696917583e-05 0 -0.034999030820080379 1.713162724780712e-08 0 -0.034993387077656209 2.8690770532324465e-06 0 -0.035000406460378018 6.9867893286312958e-09 0 -0.034993387077656209 2.8690770532324465e-06 0 -0.035017401886142892 6.1397555874451851e-05 0 -0.034908381464174833 7.0669348696917583e-05 0 -0.035205132815271038 0.00012250863788784575 0 -0.034158235964414925 6.4581560602830434e-06 0 -0.034158235964414925 6.4581560602830434e-06 0 -0.034172927477189204 0.00024600031091508796 0 -0.032729247856499097 0.00038469665040267499 0 -0.033564868108166029 0.00043426554090069796 0 -0.032784860180762168 -0.00038905122684060306 0 -0.034993387077656209 2.8690770532324465e-06 0 -0.034992208650692448 3.5288490475814205e-06 0 -0.035000406460378018 6.9867893286312958e-09 0 -0.035000023001224942 -1.4659564783582528e-08 0 -0.035005048535121944 -1.1403249883692305e-05 0 -0.034998632618557846 -1.1641161620874665e-05 0 -0.034992208650692448 3.5288490475814205e-06 0 -0.035000406460378018 6.9867893286312958e-09 0 -0.034997131842109376 2.4917141556779038e-06 0 -0.034883738675301333 -0.00010481304690808889 0 -0.035038809194051654 -2.0492947022649397e-05 0 -0.034999977488735255 3.3115202459420335e-08 0 -0.034883738675301333 -0.00010481304690808889 0 -0.034115735299313749 -0.0001175715371785338 0 -0.034282031112034358 -0.00014305635453015796 0 -0.034224335550798068 -3.7537833491233153e-06 0 -0.034158235964414925 6.4581560602830434e-06 0 -0.034883738675301333 -0.00010481304690808889 0 -0.034158235964414925 6.4581560602830434e-06 0 -0.033553353554028519 -0.00014932372271704119 0 -0.035033285926300471 -2.1831873380568975e-05 0 -0.035021633142830431 -5.2101659825185742e-05 0 -0.035046283460417729 -6.8447933155953053e-05 0 -0.034883738675301333 -0.00010481304690808889 0 -0.033553353554028519 -0.00014932372271704119 0 -0.035033285926300471 -2.1831873380568975e-05 0 -0.035021633142830431 -5.2101659825185742e-05 0 -0.034998632618557846 -1.1641161620874665e-05 0 -0.032876485257699865 -0.00036325718851743378 0 -0.032877470533655272 -0.00024088468911236574 0 -0.03295269733141494 -0.00025070281547978781 0 -0.035021633142830431 -5.2101659825185742e-05 0 -0.035046283460417729 -6.8447933155953053e-05 0 -0.035017330766130922 -0.00011079908517924198 0 -0.033553353554028519 -0.00014932372271704119 0 -0.03415378253589034 -4.1539658029201688e-05 0 -0.032729247856499097 0.00038469665040267499 0 -0.032482294919885579 -0.00014316339200396596 0 -0.032784860180762168 -0.00038905122684060306 0 -0.032482294919885579 -0.00014316339200396596 0 -0.03275890069084228 -0.00020759772903845242 0 -0.032784860180762168 -0.00038905122684060306 0 -0.033553353554028519 -0.00014932372271704119 0 -0.03253979590824322 -0.0001752409955673509 0 -0.032876485257699865 -0.00036325718851743378 0 -0.03275890069084228 -0.00020759772903845242 0 -0.032877470533655272 -0.00024088468911236574 0 -0.03275890069084228 -0.00020759772903845242 0 -0.032858965084809601 -0.00016358113669478217 0 -0.032877470533655272 -0.00024088468911236574 0 -0.032911854124202507 -0.00019512161865237928 0 -0.03295269733141494 -0.00025070281547978781 0 -0.033015197113867217 -0.00017396985634649521 0 -0.032877470533655272 -0.00024088468911236574 0 -0.032911854124202507 -0.00019512161865237928 0 -0.03295269733141494 -0.00025070281547978781 0 -0.032858965084809601 -0.00016358113669478217 0 -0.032911854124202507 -0.00019512161865237928 0 -0.032876594598915183 -0.00013725862700093104 0 -0.032858965084809601 -0.00016358113669478217 0 -0.032877470533655272 -0.00024088468911236574 0 -0.032911854124202507 -0.00019512161865237928 0 -0.033564868108166029 0.00043426554090069796 0 -0.033988963509240348 -2.7578057764125219e-05 0 -0.032784860180762168 -0.00038905122684060306 0 -0.032701034949888935 -0.00034284965935938138 0 -0.032751922162607867 -0.00039585225454438392 0 -0.034173791042378013 -0.00022775680897557551 0 -0.033988963509240348 -2.7578057764125219e-05 0 -0.032784860180762168 -0.00038905122684060306 0 -0.03275890069084228 -0.00020759772903845242 0 -0.032784860180762168 -0.00038905122684060306 0 -0.032299762754187916 -0.00010692538787507444 0 -0.031342519567597857 -0.00057103263767127317 0 -0.032784860180762168 -0.00038905122684060306 0 -0.032299762754187916 -0.00010692538787507444 0 -0.031342519567597857 -0.00057103263767127317 0 -0.032299762754187916 -0.00010692538787507444 0 -0.031655361214599088 0.00012403127797154078 0 -0.031655361214599088 0.00012403127797154078 0 -0.032415193219019131 0.00041363483343195801 0 -0.031346151668115177 0.00078224267667339749 0 -0.032299762754187916 -0.00010692538787507444 0 -0.031655361214599088 0.00012403127797154078 0 -0.032415193219019131 0.00041363483343195801 0 -0.03275890069084228 -0.00020759772903845242 0 -0.032299762754187916 -0.00010692538787507444 0 -0.032415193219019131 0.00041363483343195801 0 -0.022914873210566403 -0.0021272589547021536 0 -0.023199236622618587 -0.0019277957705480229 0 -0.02281911052756028 -0.0017541730529970487 0 -0.027484029590445158 -0.00076655009726126465 0 -0.026847969840146185 -0.00066857817621387094 0 -0.022914873210566403 -0.0021272589547021536 0 -0.02281911052756028 -0.0017541730529970487 0 -0.022477663342597588 -0.0019785300724230485 0 -0.032911854124202507 -0.00019512161865237928 0 -0.032876594598915183 -0.00013725862700093104 0 -0.033015197113867217 -0.00017396985634649521 0 -0.029021854388689084 -0.0015533542061679383 0 -0.03324044733933277 -0.00075396975524826655 0 -0.032858965084809601 -0.00016358113669478217 0 -0.032415193219019131 0.00041363483343195801 0 -0.033027867085287606 0.00010523895324922121 0 -0.027484029590445158 -0.00076655009726126465 0 -0.029021854388689084 -0.0015533542061679383 0 -0.03275890069084228 -0.00020759772903845242 0 -0.032858965084809601 -0.00016358113669478217 0 -0.032415193219019131 0.00041363483343195801 0 -0.032869750772029152 0.00078417849641232332 0 -0.029021854388689084 -0.0015533542061679383 0 -0.022914873210566403 -0.0021272589547021536 0 -0.023377862948578836 -0.0022475728307030222 0 -0.023199236622618587 -0.0019277957705480229 0 -0.029021854388689084 -0.0015533542061679383 0 -0.026394969984933413 -0.0016862729191994437 0 -0.023377862948578836 -0.0022475728307030222 0 -0.023199236622618587 -0.0019277957705480229 0 -0.023604829583417569 -0.0018925270039014525 0 -0.023199236622618587 -0.0019277957705480229 0 -0.023452744633131097 -0.0016360121968449542 0 -0.023604829583417569 -0.0018925270039014525 0 -0.023199236622618587 -0.0019277957705480229 0 -0.023452744633131097 -0.0016360121968449542 0 -0.023144402418057448 -0.0016597116736362966 0 -0.023199236622618587 -0.0019277957705480229 0 -0.023144402418057448 -0.0016597116736362966 0 -0.02281911052756028 -0.0017541730529970487 0 -0.023144402418057448 -0.0016597116736362966 0 -0.022921419559726697 -0.0014667260915521708 0 -0.023220918762442914 -0.0012440753720041203 0 -0.023452744633131097 -0.0016360121968449542 0 -0.023557147870176938 -0.001369111426706082 0 -0.023220918762442914 -0.0012440753720041203 0 -0.023452744633131097 -0.0016360121968449542 0 -0.023144402418057448 -0.0016597116736362966 0 -0.023220918762442914 -0.0012440753720041203 0 -0.02281911052756028 -0.0017541730529970487 0 -0.02246202662315451 -0.0016417558230118149 0 -0.022477663342597588 -0.0019785300724230485 0 -0.02281911052756028 -0.0017541730529970487 0 -0.022655554802041067 -0.0014369173424044481 0 -0.02246202662315451 -0.0016417558230118149 0 -0.023144402418057448 -0.0016597116736362966 0 -0.02281911052756028 -0.0017541730529970487 0 -0.022921419559726697 -0.0014667260915521708 0 -0.02281911052756028 -0.0017541730529970487 0 -0.022921419559726697 -0.0014667260915521708 0 -0.022655554802041067 -0.0014369173424044481 0 -0.022921419559726697 -0.0014667260915521708 0 -0.022655554802041067 -0.0014369173424044481 0 -0.022790370029823152 -0.0012310666667046412 0 -0.022655554802041067 -0.0014369173424044481 0 -0.02246202662315451 -0.0016417558230118149 0 -0.022393712436654695 -0.0012939299271835321 0 -0.02246202662315451 -0.0016417558230118149 0 -0.022171943411368196 -0.0014565766326474392 0 -0.022393712436654695 -0.0012939299271835321 0 -0.022305640196062911 -0.001729419668795403 0 -0.02246202662315451 -0.0016417558230118149 0 -0.022171943411368196 -0.0014565766326474392 0 -0.022305640196062911 -0.001729419668795403 0 -0.02246202662315451 -0.0016417558230118149 0 -0.022477663342597588 -0.0019785300724230485 0 -0.022199817803053488 -0.00088384895104970569 0 -0.02665785348020774 7.8883602566421303e-05 0 -0.023328423970281696 -5.732009458804106e-05 0 -0.02469310085166759 0.00065151950682806339 0 -0.024278945686331609 0.0018501715159676419 0 -0.022305640196062911 -0.001729419668795403 0 -0.022171943411368196 -0.0014565766326474392 0 -0.022115865014719557 -0.0018421622328630486 0 -0.023328423970281696 -5.732009458804106e-05 0 -0.024451081446927949 -8.6084681847390528e-06 0 -0.02469310085166759 0.00065151950682806339 0 -0.024451081446927949 -8.6084681847390528e-06 0 -0.025838663501332178 9.5286878026497275e-05 0 -0.024795425695318545 -0.0001781619642559804 0 -0.024451081446927949 -8.6084681847390528e-06 0 -0.025838663501332178 9.5286878026497275e-05 0 -0.02469310085166759 0.00065151950682806339 0 -0.026249957370834423 -1.2859512781906668e-06 0 -0.025838663501332178 9.5286878026497275e-05 0 -0.028094740076314566 3.7274483422324605e-06 0 -0.026249957370834423 -1.2859512781906668e-06 0 -0.025838663501332178 9.5286878026497275e-05 0 -0.024795425695318545 -0.0001781619642559804 0 -0.025838663501332178 9.5286878026497275e-05 0 -0.028094740076314566 3.7274483422324605e-06 0 -0.025722342327939705 0.0014294923874809851 0 -0.028097903950467216 4.2890983110890521e-07 0 -0.027599425583396505 0.00066070951202175257 0 -0.025722342327939705 0.0014294923874809851 0 -0.02469310085166759 0.00065151950682806339 0 -0.024278945686331609 0.0018501715159676419 0 -0.025838663501332178 9.5286878026497275e-05 0 -0.025722342327939705 0.0014294923874809851 0 -0.02469310085166759 0.00065151950682806339 0 -0.027599425583396505 0.00066070951202175257 0 -0.02665785348020774 7.8883602566421303e-05 0 -0.03022787772586966 0.0005575968993815658 0 -0.02665785348020774 7.8883602566421303e-05 0 -0.029769739959200899 -4.3465924853891203e-05 0 -0.029873964992119941 5.4632937082808141e-05 0 -0.029772879220813994 5.1682745519631974e-05 0 -0.029520448540865645 0.0001117490160447717 0 -0.029769739959200899 -4.3465924853891203e-05 0 -0.029772879220813994 5.1682745519631974e-05 0 -0.029520448540865645 0.0001117490160447717 0 -0.029769739959200899 -4.3465924853891203e-05 0 -0.029345364276993094 -7.0074794308286553e-07 0 -0.028100256339323414 1.3333402676970728e-06 0 -0.029520448540865645 0.0001117490160447717 0 -0.029345364276993094 -7.0074794308286553e-07 0 -0.029769739959200899 -4.3465924853891203e-05 0 -0.029345364276993094 -7.0074794308286553e-07 0 -0.03058885295073259 2.2297690868428836e-07 0 -0.029769739959200899 -4.3465924853891203e-05 0 -0.03058885295073259 2.2297690868428836e-07 0 -0.029873964992119941 5.4632937082808141e-05 0 -0.029994502471989922 -0.00012541805255088671 0 -0.03058885295073259 2.2297690868428836e-07 0 -0.029873964992119941 5.4632937082808141e-05 0 -0.029873964992119941 5.4632937082808141e-05 0 -0.030533440374552998 0.00050029122989555456 0 -0.030757479000377629 0.00011960506165418903 0 -0.029994502471989922 -0.00012541805255088671 0 -0.029873964992119941 5.4632937082808141e-05 0 -0.030757479000377629 0.00011960506165418903 0 -0.031655361214599088 0.00012403127797154078 0 -0.030757479000377629 0.00011960506165418903 0 -0.031346151668115177 0.00078224267667339749 0 -0.030533440374552998 0.00050029122989555456 0 -0.030757479000377629 0.00011960506165418903 0 -0.031346151668115177 0.00078224267667339749 0 -0.030533440374552998 0.00050029122989555456 0 -0.031346151668115177 0.00078224267667339749 0 -0.030115300706307069 0.0010544668508107409 0 -0.026847969840146185 -0.00066857817621387094 0 -0.02665785348020774 7.8883602566421303e-05 0 -0.022305640196062911 -0.001729419668795403 0 -0.022477663342597588 -0.0019785300724230485 0 -0.022115865014719557 -0.0018421622328630486 0 -0.029873964992119941 5.4632937082808141e-05 0 -0.030533440374552998 0.00050029122989555456 0 -0.030115300706307069 0.0010544668508107409 0 -0.034713820270632009 0.00013901894095097624 0 -0.034753209869362534 0.0003509306729657806 0 -0.034862214215222689 0.00015701260309570266 0 -0.034541087065613298 0.00031550746997191666 0 -0.034713820270632009 0.00013901894095097624 0 -0.034753209869362534 0.0003509306729657806 0 -0.034934657672770028 0.00015181710359135202 0 -0.034924089866583991 5.3532295044282715e-05 0 -0.034991631852215321 4.6837281567895158e-05 0 -0.034712509771772322 0.00024362210384727624 0 -0.034854944790492864 9.4390672245146548e-05 0 -0.034924089866583991 5.3532295044282715e-05 0 -0.034978056260395025 2.279381297470096e-06 0 -0.034910970848451947 1.1274062606705231e-05 0 -0.034924089866583991 5.3532295044282715e-05 0 -0.034991631852215321 4.6837281567895158e-05 0 -0.034978056260395025 2.279381297470096e-06 0 -0.034854944790492864 9.4390672245146548e-05 0 -0.034938596096979475 1.7364435023023048e-05 0 -0.034991631852215321 4.6837281567895158e-05 0 -0.034978056260395025 2.279381297470096e-06 0 -0.035005454851251318 6.2360442941081873e-06 0 -0.034994235306254354 -6.5193770752996156e-07 0 -0.034978056260395025 2.279381297470096e-06 0 -0.035005454851251318 6.2360442941081873e-06 0 -0.034994235306254354 -6.5193770752996156e-07 0 -0.035000000127587694 1.1966374688415798e-08 0 -0.034999955792872114 -1.850185285208329e-08 0 -0.034994235306254354 -6.5193770752996156e-07 0 -0.035000000127587694 1.1966374688415798e-08 0 -0.034999881911235528 3.6696834250674908e-07 0 -0.034994235306254354 -6.5193770752996156e-07 0 -0.034999955792872114 -1.850185285208329e-08 0 -0.034978056260395025 2.279381297470096e-06 0 -0.034999955792872114 -1.850185285208329e-08 0 -0.034978056260395025 2.279381297470096e-06 0 -0.034960947666326757 -5.3298099696702964e-06 0 -0.034978056260395025 2.279381297470096e-06 0 -0.034910970848451947 1.1274062606705231e-05 0 -0.034960947666326757 -5.3298099696702964e-06 0 -0.034910970848451947 1.1274062606705231e-05 0 -0.034960947666326757 -5.3298099696702964e-06 0 -0.034916215239902737 -7.5363108886768207e-06 0 -0.034999955792872114 -1.850185285208329e-08 0 -0.034960947666326757 -5.3298099696702964e-06 0 -0.034999885124515587 -1.3069601585569648e-08 0 -0.034960947666326757 -5.3298099696702964e-06 0 -0.034999885124515587 -1.3069601585569648e-08 0 -0.034916215239902737 -7.5363108886768207e-06 0 -0.034999885124515587 -1.3069601585569648e-08 0 -0.034916215239902737 -7.5363108886768207e-06 0 -0.034999875415191242 8.2774576012523586e-09 0 -0.034910970848451947 1.1274062606705231e-05 0 -0.034916215239902737 -7.5363108886768207e-06 0 -0.034800822806513705 4.2758350675948281e-05 0 -0.034916215239902737 -7.5363108886768207e-06 0 -0.034800822806513705 4.2758350675948281e-05 0 -0.034880422611394665 -1.556425059359338e-05 0 -0.034924089866583991 5.3532295044282715e-05 0 -0.034910970848451947 1.1274062606705231e-05 0 -0.034800822806513705 4.2758350675948281e-05 0 -0.034924089866583991 5.3532295044282715e-05 0 -0.034800822806513705 4.2758350675948281e-05 0 -0.034764345589987325 0.00013972829420848888 0 -0.034934657672770028 0.00015181710359135202 0 -0.034924089866583991 5.3532295044282715e-05 0 -0.034764345589987325 0.00013972829420848888 0 -0.034800822806513705 4.2758350675948281e-05 0 -0.034764345589987325 0.00013972829420848888 0 -0.034626546627288445 0.00015480473152134968 0 -0.034626546627288445 0.00015480473152134968 0 -0.034663378845115125 8.482128291960889e-05 0 -0.034517854625881236 0.00023798196714455505 0 -0.034800822806513705 4.2758350675948281e-05 0 -0.034626546627288445 0.00015480473152134968 0 -0.034663378845115125 8.482128291960889e-05 0 -0.03476064287837511 -5.1829215197789804e-06 0 -0.034696069591368298 1.9285979782312631e-05 0 -0.034850122999969896 -0.00011237685752126542 0 -0.034892666187295272 -0.0001525197507711864 0 -0.034914809825449984 -7.7933432448452781e-05 0 -0.034892666187295272 -0.0001525197507711864 0 -0.034914809825449984 -7.7933432448452781e-05 0 -0.034937219111397147 -0.00011630528776796962 0 -0.034850122999969896 -0.00011237685752126542 0 -0.034892666187295272 -0.0001525197507711864 0 -0.034825744409408825 -0.00020964918278431623 0 -0.034800822806513705 4.2758350675948281e-05 0 -0.034663378845115125 8.482128291960889e-05 0 -0.034880422611394665 -1.556425059359338e-05 0 -0.034850122999969896 -0.00011237685752126542 0 -0.034914809825449984 -7.7933432448452781e-05 0 -0.034880422611394665 -1.556425059359338e-05 0 -0.03476064287837511 -5.1829215197789804e-06 0 -0.03485401350011285 -6.5419389383870504e-06 0 -0.034916215239902737 -7.5363108886768207e-06 0 -0.034880422611394665 -1.556425059359338e-05 0 -0.034999875415191242 8.2774576012523586e-09 0 -0.034880422611394665 -1.556425059359338e-05 0 -0.034999875415191242 8.2774576012523586e-09 0 -0.034956823090793974 -1.5562459477788897e-05 0 -0.034999875415191242 8.2774576012523586e-09 0 -0.034956823090793974 -1.5562459477788897e-05 0 -0.034999977338140906 -3.4146760381055428e-09 0 -0.034914809825449984 -7.7933432448452781e-05 0 -0.034956823090793974 -1.5562459477788897e-05 0 -0.034958559025359659 -6.5393202099635233e-05 0 -0.034914809825449984 -7.7933432448452781e-05 0 -0.034880422611394665 -1.556425059359338e-05 0 -0.034956823090793974 -1.5562459477788897e-05 0 -0.034956823090793974 -1.5562459477788897e-05 0 -0.034980490288457886 -2.4266468167492676e-05 0 -0.034958559025359659 -6.5393202099635233e-05 0 -0.034980490288457886 -2.4266468167492676e-05 0 -0.034993381141716171 -6.1325268398381889e-05 0 -0.034958559025359659 -6.5393202099635233e-05 0 -0.034980490288457886 -2.4266468167492676e-05 0 -0.034999977338140906 -3.4146760381055428e-09 0 -0.034998632618557846 -1.1641161620874665e-05 0 -0.034956823090793974 -1.5562459477788897e-05 0 -0.034980490288457886 -2.4266468167492676e-05 0 -0.034999977338140906 -3.4146760381055428e-09 0 -0.035000023001224942 -1.4659564783582528e-08 0 -0.034999977338140906 -3.4146760381055428e-09 0 -0.034998632618557846 -1.1641161620874665e-05 0 -0.035021633142830431 -5.2101659825185742e-05 0 -0.034998632618557846 -1.1641161620874665e-05 0 -0.034993381141716171 -6.1325268398381889e-05 0 -0.034980490288457886 -2.4266468167492676e-05 0 -0.034998632618557846 -1.1641161620874665e-05 0 -0.034993381141716171 -6.1325268398381889e-05 0 -0.035017330766130922 -0.00011079908517924198 0 -0.034993381141716171 -6.1325268398381889e-05 0 -0.034976265372880753 -0.00011120163324508868 0 -0.035021633142830431 -5.2101659825185742e-05 0 -0.035017330766130922 -0.00011079908517924198 0 -0.034993381141716171 -6.1325268398381889e-05 0 -0.034993381141716171 -6.1325268398381889e-05 0 -0.034958559025359659 -6.5393202099635233e-05 0 -0.034976265372880753 -0.00011120163324508868 0 -0.034914809825449984 -7.7933432448452781e-05 0 -0.034958559025359659 -6.5393202099635233e-05 0 -0.034937219111397147 -0.00011630528776796962 0 -0.034958559025359659 -6.5393202099635233e-05 0 -0.034937219111397147 -0.00011630528776796962 0 -0.034976265372880753 -0.00011120163324508868 0 -0.0349529927005994 -0.00013580960105147901 0 -0.034937219111397147 -0.00011630528776796962 0 -0.034976265372880753 -0.00011120163324508868 0 -0.0349529927005994 -0.00013580960105147901 0 -0.034937219111397147 -0.00011630528776796962 0 -0.034928552475744737 -0.00015164868717706107 0 -0.034892666187295272 -0.0001525197507711864 0 -0.034928552475744737 -0.00015164868717706107 0 -0.034912378523436725 -0.00018637779665867891 0 -0.034928552475744737 -0.00015164868717706107 0 -0.034950743849970302 -0.00016653603694928451 0 -0.034912378523436725 -0.00018637779665867891 0 -0.034892666187295272 -0.0001525197507711864 0 -0.034937219111397147 -0.00011630528776796962 0 -0.034928552475744737 -0.00015164868717706107 0 -0.0349529927005994 -0.00013580960105147901 0 -0.034928552475744737 -0.00015164868717706107 0 -0.034950743849970302 -0.00016653603694928451 0 -0.0349529927005994 -0.00013580960105147901 0 -0.034950743849970302 -0.00016653603694928451 0 -0.034973705680214483 -0.00017003646604914604 0 -0.034654146645344781 -0.00070315888735386948 0 -0.03324044733933277 -0.00075396975524826655 0 -0.0349529927005994 -0.00013580960105147901 0 -0.034976265372880753 -0.00011120163324508868 0 -0.034973705680214483 -0.00017003646604914604 0 -0.03415378253589034 -4.1539658029201688e-05 0 -0.03324044733933277 -0.00075396975524826655 0 -0.035017330766130922 -0.00011079908517924198 0 -0.034976265372880753 -0.00011120163324508868 0 -0.034973705680214483 -0.00017003646604914604 0 -0.02944248336185715 -0.0021048216205479188 0 -0.030616747581457118 -0.0024039186410343381 0 -0.030188159853496266 -0.0010501994382364468 0 -0.034950743849970302 -0.00016653603694928451 0 -0.034972176512318154 -0.00017542261050939453 0 -0.034909927335782895 -0.00025222435496804639 0 -0.03324044733933277 -0.00075396975524826655 0 -0.033014917361394502 -0.0010675966531061903 0 -0.034950743849970302 -0.00016653603694928451 0 -0.034912378523436725 -0.00018637779665867891 0 -0.034909927335782895 -0.00025222435496804639 0 -0.031429652872692379 -0.0015721200510726743 0 -0.030188159853496266 -0.0010501994382364468 0 -0.031007182491855589 -0.00074262806751125251 0 -0.030616747581457118 -0.0024039186410343381 0 -0.031429652872692379 -0.0015721200510726743 0 -0.030188159853496266 -0.0010501994382364468 0 -0.026394969984933413 -0.0016862729191994437 0 -0.027910336873247399 -0.00091404021764928583 0 -0.030188159853496266 -0.0010501994382364468 0 -0.030942027101554349 2.5737981492420223e-05 0 -0.031007182491855589 -0.00074262806751125251 0 -0.023452744633131097 -0.0016360121968449542 0 -0.023604829583417569 -0.0018925270039014525 0 -0.023883346036823513 -0.0015253812829964409 0 -0.023452744633131097 -0.0016360121968449542 0 -0.023557147870176938 -0.001369111426706082 0 -0.023883346036823513 -0.0015253812829964409 0 -0.023025284024150373 -0.0012364100304238256 0 -0.027910336873247399 -0.00091404021764928583 0 -0.027910336873247399 -0.00091404021764928583 0 -0.029502444149021787 -0.00065252449027683901 0 -0.033692321497448045 -0.00036483480996565799 0 -0.033825153942695974 -0.00041895118470993656 0 -0.033934643487521621 -0.00031051135181517326 0 -0.033692321497448045 -0.00036483480996565799 0 -0.033934643487521621 -0.00031051135181517326 0 -0.033837608537439501 -0.0002525432689271003 0 -0.027910336873247399 -0.00091404021764928583 0 -0.033045734184451177 -0.0006815108262524306 0 -0.031429652872692379 -0.0015721200510726743 0 -0.031007182491855589 -0.00074262806751125251 0 -0.031609009105617002 -0.00034635877133195464 0 -0.030942027101554349 2.5737981492420223e-05 0 -0.031007182491855589 -0.00074262806751125251 0 -0.031609009105617002 -0.00034635877133195464 0 -0.031429652872692379 -0.0015721200510726743 0 -0.032268372134571045 -0.00072219794207662618 0 -0.031609009105617002 -0.00034635877133195464 0 -0.033971813519327071 -0.00050730336797146891 0 -0.033971872157680036 -0.00037288867601837017 0 -0.033825153942695974 -0.00041895118470993656 0 -0.033870295647788241 -0.00031748546067877697 0 -0.033045734184451177 -0.0006815108262524306 0 -0.033971872157680036 -0.00037288867601837017 0 -0.033825153942695974 -0.00041895118470993656 0 -0.033934643487521621 -0.00031051135181517326 0 -0.033934643487521621 -0.00031051135181517326 0 -0.034125033835804001 -0.00030059997575255148 0 -0.033991353625749607 -0.00029238355995325429 0 -0.034125033835804001 -0.00030059997575255148 0 -0.034013370419842912 -0.00028686382067913022 0 -0.033991353625749607 -0.00029238355995325429 0 -0.033971872157680036 -0.00037288867601837017 0 -0.033934643487521621 -0.00031051135181517326 0 -0.034125033835804001 -0.00030059997575255148 0 -0.034125033835804001 -0.00030059997575255148 0 -0.034281285771787871 -9.2720999837893e-05 0 -0.03411986976288485 -0.00019246266854917613 0 -0.033870295647788241 -0.00031748546067877697 0 -0.034209102600323921 -0.00024092258902385573 0 -0.034488210381251869 -9.0481817460160723e-05 0 -0.034125033835804001 -0.00030059997575255148 0 -0.03436945233031969 -0.00011737306942438246 0 -0.034125033835804001 -0.00030059997575255148 0 -0.03436945233031969 -0.00011737306942438246 0 -0.034281285771787871 -9.2720999837893e-05 0 -0.033971813519327071 -0.00050730336797146891 0 -0.033971872157680036 -0.00037288867601837017 0 -0.034125033835804001 -0.00030059997575255148 0 -0.034488210381251869 -9.0481817460160723e-05 0 -0.03436945233031969 -0.00011737306942438246 0 -0.034367346186684508 -1.0030631453771294e-05 0 -0.034404994624902992 -0.00015021256893876342 0 -0.034413844216759436 -0.0002127466765611732 0 -0.03436945233031969 -0.00011737306942438246 0 -0.034374779841328792 -5.9958767942804993e-05 0 -0.034281285771787871 -9.2720999837893e-05 0 -0.033870295647788241 -0.00031748546067877697 0 -0.034413844216759436 -0.0002127466765611732 0 -0.034281285771787871 -9.2720999837893e-05 0 -0.034352080381338829 2.9007758365290479e-05 0 -0.034198655774896843 -4.083705350635568e-05 0 -0.034374779841328792 -5.9958767942804993e-05 0 -0.034281285771787871 -9.2720999837893e-05 0 -0.034352080381338829 2.9007758365290479e-05 0 -0.034413844216759436 -0.0002127466765611732 0 -0.034696069591368298 1.9285979782312631e-05 0 -0.034352080381338829 2.9007758365290479e-05 0 -0.034517854625881236 0.00023798196714455505 0 -0.03435109173219731 0.00012137940353934679 0 -0.034449067243666739 -3.0456990282770466e-05 0 -0.034352080381338829 2.9007758365290479e-05 0 -0.034517854625881236 0.00023798196714455505 0 -0.034813283499293024 -0.00031846305066429638 0 -0.03485193621633205 -0.00026420284929297932 0 -0.034825744409408825 -0.00020964918278431623 0 -0.034413844216759436 -0.0002127466765611732 0 -0.034319910684818974 -4.6878406425775583e-05 0 -0.034832712459646607 -0.00033112057211279644 0 -0.034813283499293024 -0.00031846305066429638 0 -0.03485193621633205 -0.00026420284929297932 0 -0.034909927335782895 -0.00025222435496804639 0 -0.034832712459646607 -0.00033112057211279644 0 -0.03485193621633205 -0.00026420284929297932 0 -0.033014917361394502 -0.0010675966531061903 0 -0.033870295647788241 -0.00031748546067877697 0 -0.034909927335782895 -0.00025222435496804639 0 -0.03485193621633205 -0.00026420284929297932 0 -0.034879542955176542 -0.00021257133092645098 0 -0.03485193621633205 -0.00026420284929297932 0 -0.034879542955176542 -0.00021257133092645098 0 -0.034825744409408825 -0.00020964918278431623 0 -0.034912378523436725 -0.00018637779665867891 0 -0.034909927335782895 -0.00025222435496804639 0 -0.034879542955176542 -0.00021257133092645098 0 -0.034892666187295272 -0.0001525197507711864 0 -0.034912378523436725 -0.00018637779665867891 0 -0.034879542955176542 -0.00021257133092645098 0 -0.034892666187295272 -0.0001525197507711864 0 -0.034879542955176542 -0.00021257133092645098 0 -0.034825744409408825 -0.00020964918278431623 0 -0.034626546627288445 0.00015480473152134968 0 -0.034517854625881236 0.00023798196714455505 0 -0.034450388883325113 0.00024618006361180146 0 -0.034517854625881236 0.00023798196714455505 0 -0.034450388883325113 0.00024618006361180146 0 -0.03435109173219731 0.00012137940353934679 0 -0.034764345589987325 0.00013972829420848888 0 -0.034450388883325113 0.00024618006361180146 0 -0.034790992728386115 0.00034688814643040784 0 -0.034764345589987325 0.00013972829420848888 0 -0.034626546627288445 0.00015480473152134968 0 -0.034450388883325113 0.00024618006361180146 0 -0.034934657672770028 0.00015181710359135202 0 -0.034764345589987325 0.00013972829420848888 0 -0.034790992728386115 0.00034688814643040784 0 -0.034712509771772322 0.00024362210384727624 0 -0.03475878232535945 0.00043560238882635744 0 -0.03392274692601624 0.00016326925668620613 0 -0.033885350375696704 0.00013464985439305224 0 -0.033915601230055104 6.9334369501606745e-05 0 -0.033894815224786254 0.00019912267696317696 0 -0.03392274692601624 0.00016326925668620613 0 -0.033885350375696704 0.00013464985439305224 0 -0.03475878232535945 0.00043560238882635744 0 -0.034639483192351168 0.00046603527187204398 0 -0.033894815224786254 0.00019912267696317696 0 -0.033885350375696704 0.00013464985439305224 0 -0.033809877356533208 0.00010180060542677734 0 -0.033809877356533208 0.00010180060542677734 0 -0.033849635765747808 -1.1122320209549446e-05 0 -0.033717922147776837 -3.3983142537861983e-05 0 -0.033885350375696704 0.00013464985439305224 0 -0.033809877356533208 0.00010180060542677734 0 -0.033915601230055104 6.9334369501606745e-05 0 -0.033809877356533208 0.00010180060542677734 0 -0.033849635765747808 -1.1122320209549446e-05 0 -0.033915601230055104 6.9334369501606745e-05 0 -0.03392274692601624 0.00016326925668620613 0 -0.033915601230055104 6.9334369501606745e-05 0 -0.034081172214477956 7.9080612514808671e-05 0 -0.033849635765747808 -1.1122320209549446e-05 0 -0.033915601230055104 6.9334369501606745e-05 0 -0.033956524541169923 -3.8076271145658172e-05 0 -0.033915601230055104 6.9334369501606745e-05 0 -0.034081172214477956 7.9080612514808671e-05 0 -0.033956524541169923 -3.8076271145658172e-05 0 -0.034265612484233952 0.00021783305453113223 0 -0.03475878232535945 0.00043560238882635744 0 -0.034450388883325113 0.00024618006361180146 0 -0.03392274692601624 0.00016326925668620613 0 -0.034081172214477956 7.9080612514808671e-05 0 -0.034450388883325113 0.00024618006361180146 0 -0.033871448019788399 0.00023448824525214494 0 -0.03392274692601624 0.00016326925668620613 0 -0.034089159899079541 -1.4065299233051808e-05 0 -0.034081172214477956 7.9080612514808671e-05 0 -0.033956524541169923 -3.8076271145658172e-05 0 -0.034089159899079541 -1.4065299233051808e-05 0 -0.034081172214477956 7.9080612514808671e-05 0 -0.03422159025095154 7.4567920908739382e-05 0 -0.034450388883325113 0.00024618006361180146 0 -0.034081172214477956 7.9080612514808671e-05 0 -0.03422159025095154 7.4567920908739382e-05 0 -0.034450388883325113 0.00024618006361180146 0 -0.03435109173219731 0.00012137940353934679 0 -0.03422159025095154 7.4567920908739382e-05 0 -0.034352080381338829 2.9007758365290479e-05 0 -0.03435109173219731 0.00012137940353934679 0 -0.034198655774896843 -4.083705350635568e-05 0 -0.03435109173219731 0.00012137940353934679 0 -0.03422159025095154 7.4567920908739382e-05 0 -0.034198655774896843 -4.083705350635568e-05 0 -0.034089159899079541 -1.4065299233051808e-05 0 -0.03422159025095154 7.4567920908739382e-05 0 -0.034198655774896843 -4.083705350635568e-05 0 -0.034281285771787871 -9.2720999837893e-05 0 -0.034198655774896843 -4.083705350635568e-05 0 -0.03411986976288485 -0.00019246266854917613 0 -0.034198655774896843 -4.083705350635568e-05 0 -0.034026440496606976 -0.00014623311952079933 0 -0.03411986976288485 -0.00019246266854917613 0 -0.034089159899079541 -1.4065299233051808e-05 0 -0.034198655774896843 -4.083705350635568e-05 0 -0.034026440496606976 -0.00014623311952079933 0 -0.034089159899079541 -1.4065299233051808e-05 0 -0.034026440496606976 -0.00014623311952079933 0 -0.033956524541169923 -3.8076271145658172e-05 0 -0.034026440496606976 -0.00014623311952079933 0 -0.03411986976288485 -0.00019246266854917613 0 -0.034013370419842912 -0.00028686382067913022 0 -0.034125033835804001 -0.00030059997575255148 0 -0.03411986976288485 -0.00019246266854917613 0 -0.034013370419842912 -0.00028686382067913022 0 -0.034013370419842912 -0.00028686382067913022 0 -0.033859459847641174 -0.00016951229635622125 0 -0.033784536465300732 -0.00036128825750937187 0 -0.034026440496606976 -0.00014623311952079933 0 -0.034013370419842912 -0.00028686382067913022 0 -0.033859459847641174 -0.00016951229635622125 0 -0.034026440496606976 -0.00014623311952079933 0 -0.033859459847641174 -0.00016951229635622125 0 -0.033956524541169923 -3.8076271145658172e-05 0 -0.033849635765747808 -1.1122320209549446e-05 0 -0.033859459847641174 -0.00016951229635622125 0 -0.033956524541169923 -3.8076271145658172e-05 0 -0.033849635765747808 -1.1122320209549446e-05 0 -0.033859459847641174 -0.00016951229635622125 0 -0.033717922147776837 -3.3983142537861983e-05 0 -0.033717922147776837 -3.3983142537861983e-05 0 -0.033629527956105354 -0.00018137694283108804 0 -0.033461130190749769 0.00010232432615660927 0 -0.028002183688583961 -0.00066946578925833583 0 -0.031425970797813757 -7.5623995820905897e-05 0 -0.033859459847641174 -0.00016951229635622125 0 -0.033717922147776837 -3.3983142537861983e-05 0 -0.033629527956105354 -0.00018137694283108804 0 -0.028002183688583961 -0.00066946578925833583 0 -0.026951114480844612 -0.0016416501127407967 0 -0.033859459847641174 -0.00016951229635622125 0 -0.033629527956105354 -0.00018137694283108804 0 -0.033784536465300732 -0.00036128825750937187 0 -0.022733678912511244 -0.0014272638074951313 0 -0.02268363314611577 -0.0012903519705985121 0 -0.022659769774877967 -0.0012733986176361996 0 -0.022733678912511244 -0.0014272638074951313 0 -0.022732357883820924 -0.001283720309198502 0 -0.022779883882301954 -0.001347729337337728 0 -0.022733678912511244 -0.0014272638074951313 0 -0.022732357883820924 -0.001283720309198502 0 -0.02268363314611577 -0.0012903519705985121 0 -0.022732357883820924 -0.001283720309198502 0 -0.02268363314611577 -0.0012903519705985121 0 -0.022695447327512459 -0.0012601157095148473 0 -0.025010951987009592 -0.00092594239758445702 0 -0.026951114480844612 -0.0016416501127407967 0 -0.022779883882301954 -0.001347729337337728 0 -0.022785389006918684 -0.0012627267060193999 0 -0.022835742794150828 -0.0013460956583188583 0 -0.022732357883820924 -0.001283720309198502 0 -0.022779883882301954 -0.001347729337337728 0 -0.022785389006918684 -0.0012627267060193999 0 -0.022779883882301954 -0.001347729337337728 0 -0.022822276939428652 -0.0014438869771230968 0 -0.022835742794150828 -0.0013460956583188583 0 -0.022822276939428652 -0.0014438869771230968 0 -0.022898133455713728 -0.0014532523870032566 0 -0.022835742794150828 -0.0013460956583188583 0 -0.022733678912511244 -0.0014272638074951313 0 -0.022822276939428652 -0.0014438869771230968 0 -0.022846483469446968 -0.0015670929469877449 0 -0.022822276939428652 -0.0014438869771230968 0 -0.022846483469446968 -0.0015670929469877449 0 -0.022950553606936187 -0.0015682715111144262 0 -0.022733678912511244 -0.0014272638074951313 0 -0.022779883882301954 -0.001347729337337728 0 -0.022822276939428652 -0.0014438869771230968 0 -0.035454386184788911 -0.001280019438162525 0 -0.034777434613191063 -0.00036243301348888574 0 -0.034157003173172322 -0.0016936776321773567 0 -0.031425970797813757 -7.5623995820905897e-05 0 -0.028109608281102795 -0.0017883946649336401 0 -0.033894815224786254 0.00019912267696317696 0 -0.033809877356533208 0.00010180060542677734 0 -0.033461130190749769 0.00010232432615660927 0 -0.033809877356533208 0.00010180060542677734 0 -0.033717922147776837 -3.3983142537861983e-05 0 -0.033461130190749769 0.00010232432615660927 0 -0.034388538985597392 0.00050270721690768086 0 -0.034630558618469857 0.00055789324351783345 0 -0.034562800442752908 0.00044128227722144879 0 -0.03475878232535945 0.00043560238882635744 0 -0.031425970797813757 -7.5623995820905897e-05 0 -0.034541087065613298 0.00031550746997191666 0 -0.034562800442752908 0.00044128227722144879 0 -0.034753209869362534 0.0003509306729657806 0 -0.034541087065613298 0.00031550746997191666 0 -0.034388538985597392 0.00050270721690768086 0 -0.034562800442752908 0.00044128227722144879 0 -0.031425970797813757 -7.5623995820905897e-05 0 -0.035261116004147913 -0.00015937132031340867 0 -0.034630558618469857 0.00055789324351783345 0 -0.034562800442752908 0.00044128227722144879 0 -0.034753209869362534 0.0003509306729657806 0 -0.035454386184788911 -0.001280019438162525 0 -0.034887287390466301 -0.00019541527756148803 0 -0.034777434613191063 -0.00036243301348888574 0 -0.021484813857375121 -0.00041622358660299943 0 -0.021169303323290024 -0.00059525726408803797 0 -0.021390059901161759 -1.4681396939889863e-05 0 -0.021484813857375121 -0.00041622358660299943 0 -0.021169303323290024 -0.00059525726408803797 0 -0.021664090530024705 -0.00067065601457115174 0 -0.021714221633733009 -0.00076812287191122734 0 -0.020424183841829632 8.801356108811427e-05 0 -0.021484813857375121 -0.00041622358660299943 0 -0.021664090530024705 -0.00067065601457115174 0 -0.021776578276733793 -0.00038017301476599554 0 -0.021484813857375121 -0.00041622358660299943 0 -0.021390059901161759 -1.4681396939889863e-05 0 -0.021776578276733793 -0.00038017301476599554 0 -0.020424183841829632 8.801356108811427e-05 0 -0.021563977048158916 -0.00016447039441869839 0 -0.021281428772615036 0.00048335157200428029 0 -0.020782135027066162 0.00058718100434252253 0 -0.021320583982969037 8.9862201555735048e-05 0 -0.020270284582828285 -0.00019170269789894789 0 -0.020362011030780499 -0.00037428451373052585 0 -0.020446604588389275 -0.00013283330843542049 0 -0.020270284582828285 -0.00019170269789894789 0 -0.020362011030780499 -0.00037428451373052585 0 -0.020039610496448017 -0.00032453303606897854 0 -0.022696645434511893 -0.0010169452986484493 0 -0.022724222783296444 -0.0010503621069851521 0 -0.022672717898376823 -0.0010761317305842102 0 -0.022726828312028692 -0.00090895563311590684 0 -0.02268730680155313 -0.001034401642811983 0 -0.022629090315911819 -0.00093865695034391473 0 -0.021714221633733009 -0.00076812287191122734 0 -0.022681104966181257 -0.0010260074915393012 0 -0.02268730680155313 -0.001034401642811983 0 -0.02261511843467601 -0.0010352837563664392 0 -0.022629090315911819 -0.00093865695034391473 0 -0.021714221633733009 -0.00076812287191122734 0 -0.022283093954212792 -0.00086087263330687064 0 -0.022696645434511893 -0.0010169452986484493 0 -0.022724222783296444 -0.0010503621069851521 0 -0.022750881430861163 -0.0010362284620272309 0 -0.022724222783296444 -0.0010503621069851521 0 -0.022735987759667304 -0.0010887826134748149 0 -0.022762117774832991 -0.0010474728396262678 0 -0.022724222783296444 -0.0010503621069851521 0 -0.022750881430861163 -0.0010362284620272309 0 -0.022762117774832991 -0.0010474728396262678 0 -0.022735987759667304 -0.0010887826134748149 0 -0.022766167964668658 -0.0010794562938559961 0 -0.022762117774832991 -0.0010474728396262678 0 -0.022735987759667304 -0.0010887826134748149 0 -0.022752129866663792 -0.0011291086111330359 0 -0.022710261006202593 -0.0011412570672725152 0 -0.022735987759667304 -0.0010887826134748149 0 -0.022752129866663792 -0.0011291086111330359 0 -0.022766167964668658 -0.0010794562938559961 0 -0.022752129866663792 -0.0011291086111330359 0 -0.022785484934765548 -0.0011625473570715526 0 -0.022766167964668658 -0.0010794562938559961 0 -0.022752129866663792 -0.0011291086111330359 0 -0.022744004292145171 -0.0011950090888138802 0 -0.022785484934765548 -0.0011625473570715526 0 -0.022752129866663792 -0.0011291086111330359 0 -0.022744004292145171 -0.0011950090888138802 0 -0.022710261006202593 -0.0011412570672725152 0 -0.022732357883820924 -0.001283720309198502 0 -0.022744004292145171 -0.0011950090888138802 0 -0.022785389006918684 -0.0012627267060193999 0 -0.022744004292145171 -0.0011950090888138802 0 -0.022785389006918684 -0.0012627267060193999 0 -0.022785484934765548 -0.0011625473570715526 0 -0.022695447327512459 -0.0012601157095148473 0 -0.022697903569641825 -0.0012095184438761632 0 -0.022655735595843465 -0.0012741050043517529 0 -0.02268363314611577 -0.0012903519705985121 0 -0.022695447327512459 -0.0012601157095148473 0 -0.022655735595843465 -0.0012741050043517529 0 -0.022732357883820924 -0.001283720309198502 0 -0.022695447327512459 -0.0012601157095148473 0 -0.022697903569641825 -0.0012095184438761632 0 -0.022732357883820924 -0.001283720309198502 0 -0.022744004292145171 -0.0011950090888138802 0 -0.022697903569641825 -0.0012095184438761632 0 -0.022744004292145171 -0.0011950090888138802 0 -0.022697903569641825 -0.0012095184438761632 0 -0.022710261006202593 -0.0011412570672725152 0 -0.022697903569641825 -0.0012095184438761632 0 -0.022710261006202593 -0.0011412570672725152 0 -0.022644358581849228 -0.0011635000016655445 0 -0.022697903569641825 -0.0012095184438761632 0 -0.022644358581849228 -0.0011635000016655445 0 -0.022655735595843465 -0.0012741050043517529 0 -0.022681104966181257 -0.0010260074915393012 0 -0.02264363379035526 -0.0011586996346839202 0 -0.022710261006202593 -0.0011412570672725152 0 -0.022672717898376823 -0.0010761317305842102 0 -0.022644358581849228 -0.0011635000016655445 0 -0.02268730680155313 -0.001034401642811983 0 -0.02261511843467601 -0.0010352837563664392 0 -0.022644358581849228 -0.0011635000016655445 0 -0.022735987759667304 -0.0010887826134748149 0 -0.022710261006202593 -0.0011412570672725152 0 -0.022672717898376823 -0.0010761317305842102 0 -0.022724222783296444 -0.0010503621069851521 0 -0.022735987759667304 -0.0010887826134748149 0 -0.022672717898376823 -0.0010761317305842102 0 -0.02261511843467601 -0.0010352837563664392 0 -0.022553573878140568 -0.0010734111026300642 0 -0.022644358581849228 -0.0011635000016655445 0 -0.026951114480844612 -0.0016416501127407967 0 -0.030502592789424104 -0.0013229760059121588 0 -0.023929853297201386 -0.0011960944277732482 0 -0.026951114480844612 -0.0016416501127407967 0 -0.022553573878140568 -0.0010734111026300642 0 -0.022644358581849228 -0.0011635000016655445 0 -0.022655735595843465 -0.0012741050043517529 0 -0.034013370419842912 -0.00028686382067913022 0 -0.033784536465300732 -0.00036128825750937187 0 -0.03397652446062422 -0.00032104657870917473 0 -0.025815221684165356 -0.0012722003662642078 0 -0.026465473999853575 -0.0026448520230239231 0 -0.025146302949550718 -0.0019364877715372631 0 -0.034013370419842912 -0.00028686382067913022 0 -0.03397652446062422 -0.00032104657870917473 0 -0.033991353625749607 -0.00029238355995325429 0 -0.025146302949550718 -0.0019364877715372631 0 -0.02518917350581916 -0.0013131551421284935 0 -0.024616754515368298 -0.0011055521882573946 0 -0.025815221684165356 -0.0012722003662642078 0 -0.025146302949550718 -0.0019364877715372631 0 -0.02518917350581916 -0.0013131551421284935 0 -0.025815221684165356 -0.0012722003662642078 0 -0.02518917350581916 -0.0013131551421284935 0 -0.025003958365842956 -0.0007579326665254942 0 -0.02518917350581916 -0.0013131551421284935 0 -0.025003958365842956 -0.0007579326665254942 0 -0.024616754515368298 -0.0011055521882573946 0 -0.025815221684165356 -0.0012722003662642078 0 -0.025003958365842956 -0.0007579326665254942 0 -0.025142284423338764 0.00012877130985852492 0 -0.025003958365842956 -0.0007579326665254942 0 -0.024780670932067567 -0.00023771822706693688 0 -0.025142284423338764 0.00012877130985852492 0 -0.023929853297201386 -0.0011960944277732482 0 -0.023274201079146715 -0.00026596252880239387 0 -0.025003958365842956 -0.0007579326665254942 0 -0.024780670932067567 -0.00023771822706693688 0 -0.024490544971331244 -0.00060445738888052162 0 -0.022553573878140568 -0.0010734111026300642 0 -0.022559309674168238 -0.00096502951690476189 0 -0.022452041670068 -0.00085573919729730816 0 -0.022726828312028692 -0.00090895563311590684 0 -0.022629090315911819 -0.00093865695034391473 0 -0.022533438137767831 -0.00087385819582000619 0 -0.02261511843467601 -0.0010352837563664392 0 -0.022553573878140568 -0.0010734111026300642 0 -0.022559309674168238 -0.00096502951690476189 0 -0.02261511843467601 -0.0010352837563664392 0 -0.022559309674168238 -0.00096502951690476189 0 -0.022629090315911819 -0.00093865695034391473 0 -0.022629090315911819 -0.00093865695034391473 0 -0.022566786020393959 -0.00092009235360847503 0 -0.022533438137767831 -0.00087385819582000619 0 -0.022559309674168238 -0.00096502951690476189 0 -0.022629090315911819 -0.00093865695034391473 0 -0.022566786020393959 -0.00092009235360847503 0 -0.022559309674168238 -0.00096502951690476189 0 -0.022530903881409683 -0.00089149007553106631 0 -0.022452041670068 -0.00085573919729730816 0 -0.022559309674168238 -0.00096502951690476189 0 -0.022566786020393959 -0.00092009235360847503 0 -0.022530903881409683 -0.00089149007553106631 0 -0.021197084889442358 -0.00035299139872641477 0 -0.018626020752043684 -2.2516578613508401e-06 0 -0.020519491492449325 -0.00015194504447504499 0 -0.020447864902414258 -0.00014009315154748703 0 -0.02053980508767014 1.4436421599721014e-05 0 -0.020270284582828285 -0.00019170269789894789 0 -0.020039610496448017 -0.00032453303606897854 0 -0.020090280080439525 -3.0881833042605476e-05 0 -0.021714221633733009 -0.00076812287191122734 0 -0.021197084889442358 -0.00035299139872641477 0 -0.021197084889442358 -0.00035299139872641477 0 -0.021264379794272498 -0.0004151505449622442 0 -0.022566786020393959 -0.00092009235360847503 0 -0.022533438137767831 -0.00087385819582000619 0 -0.022530903881409683 -0.00089149007553106631 0 -0.024965760686254942 0.00015600045576686546 0 -0.02513696408265886 0.00012923184839826817 0 -0.024513140264288292 0.0014340904189843742 0 -0.024780670932067567 -0.00023771822706693688 0 -0.024965760686254942 0.00015600045576686546 0 -0.024520910117606036 8.9837457383430623e-05 0 -0.023800691764935149 -0.00028303707201414208 0 -0.023274201079146715 -0.00026596252880239387 0 -0.024780670932067567 -0.00023771822706693688 0 -0.024965760686254942 0.00015600045576686546 0 -0.025142284423338764 0.00012877130985852492 0 -0.022534748660915836 -0.0008707480522900259 0 -0.022530903881409683 -0.00089149007553106631 0 -0.022452041670068 -0.00085573919729730816 0 -0.021197084889442358 -0.00035299139872641477 0 -0.023274201079146715 -0.00026596252880239387 0 -0.024965760686254942 0.00015600045576686546 0 -0.024349753446623511 0.00051452934042615678 0 -0.024513140264288292 0.0014340904189843742 0 -0.024163885775657538 0.00017611124201679314 0 -0.023723208540957923 -0.00030074882764029044 0 -0.024342818780196007 -0.0001598624011921586 0 -0.024163885775657538 0.00017611124201679314 0 -0.023809013842013085 0.00038074243036078639 0 -0.023723208540957923 -0.00030074882764029044 0 -0.024163885775657538 0.00017611124201679314 0 -0.024520910117606036 8.9837457383430623e-05 0 -0.024342818780196007 -0.0001598624011921586 0 -0.024965760686254942 0.00015600045576686546 0 -0.024520910117606036 8.9837457383430623e-05 0 -0.024349753446623511 0.00051452934042615678 0 -0.024780670932067567 -0.00023771822706693688 0 -0.024520910117606036 8.9837457383430623e-05 0 -0.024342818780196007 -0.0001598624011921586 0 -0.024163885775657538 0.00017611124201679314 0 -0.024520910117606036 8.9837457383430623e-05 0 -0.024349753446623511 0.00051452934042615678 0 -0.024163885775657538 0.00017611124201679314 0 -0.024349753446623511 0.00051452934042615678 0 -0.023809013842013085 0.00038074243036078639 0 -0.024349753446623511 0.00051452934042615678 0 -0.023809013842013085 0.00038074243036078639 0 -0.02391597336779433 0.00091412850270464077 0 -0.023809013842013085 0.00038074243036078639 0 -0.023359185014441189 0.00075554524020350785 0 -0.02391597336779433 0.00091412850270464077 0 -0.023809013842013085 0.00038074243036078639 0 -0.023176156543775542 0.00021550455551809904 0 -0.023359185014441189 0.00075554524020350785 0 -0.023176156543775542 0.00021550455551809904 0 -0.022708146292799748 0.0007218486993060616 0 -0.023359185014441189 0.00075554524020350785 0 -0.023809013842013085 0.00038074243036078639 0 -0.023176156543775542 0.00021550455551809904 0 -0.023723208540957923 -0.00030074882764029044 0 -0.023723208540957923 -0.00030074882764029044 0 -0.023776327205282551 -0.001220926573212567 0 -0.022373150735163983 -0.00044663812702556537 0 -0.023176156543775542 0.00021550455551809904 0 -0.023723208540957923 -0.00030074882764029044 0 -0.022373150735163983 -0.00044663812702556537 0 -0.027131765335013824 -0.00048096105404277808 0 -0.022565547539223036 -0.00046866645047179139 0 -0.023723208540957923 -0.00030074882764029044 0 -0.024070953875937256 -0.00080533828805080007 0 -0.023776327205282551 -0.001220926573212567 0 -0.024070953875937256 -0.00080533828805080007 0 -0.024157560777369396 -0.00046798065620072782 0 -0.024490544971331244 -0.00060445738888052162 0 -0.023723208540957923 -0.00030074882764029044 0 -0.024070953875937256 -0.00080533828805080007 0 -0.024157560777369396 -0.00046798065620072782 0 -0.023723208540957923 -0.00030074882764029044 0 -0.024157560777369396 -0.00046798065620072782 0 -0.024342818780196007 -0.0001598624011921586 0 -0.024157560777369396 -0.00046798065620072782 0 -0.024342818780196007 -0.0001598624011921586 0 -0.024490544971331244 -0.00060445738888052162 0 -0.024780670932067567 -0.00023771822706693688 0 -0.024342818780196007 -0.0001598624011921586 0 -0.024490544971331244 -0.00060445738888052162 0 -0.025003958365842956 -0.0007579326665254942 0 -0.024490544971331244 -0.00060445738888052162 0 -0.024616754515368298 -0.0011055521882573946 0 -0.024070953875937256 -0.00080533828805080007 0 -0.024490544971331244 -0.00060445738888052162 0 -0.024616754515368298 -0.0011055521882573946 0 -0.030502592789424104 -0.0013229760059121588 0 -0.027131765335013824 -0.00048096105404277808 0 -0.025146302949550718 -0.0019364877715372631 0 -0.024616754515368298 -0.0011055521882573946 0 -0.023802340811602821 -0.0012098527637834477 0 -0.024070953875937256 -0.00080533828805080007 0 -0.024616754515368298 -0.0011055521882573946 0 -0.023802340811602821 -0.0012098527637834477 0 -0.024811734184772616 -0.0016213197817527072 0 -0.027131765335013824 -0.00048096105404277808 0 -0.03397652446062422 -0.00032104657870917473 0 -0.033991353625749607 -0.00029238355995325429 0 -0.033889226798482892 -0.0002142060909512308 0 -0.033934643487521621 -0.00031051135181517326 0 -0.033991353625749607 -0.00029238355995325429 0 -0.033837608537439501 -0.0002525432689271003 0 -0.033991353625749607 -0.00029238355995325429 0 -0.033837608537439501 -0.0002525432689271003 0 -0.033889226798482892 -0.0002142060909512308 0 -0.024752757904731568 -0.00085402137359885156 0 -0.02428664084636431 -0.00095996849235769298 0 -0.024076086286801374 -0.00054221199096461344 0 -0.029502444149021787 -0.00065252449027683901 0 -0.027131765335013824 -0.00048096105404277808 0 -0.024409130846424779 -0.0013237571830814656 0 -0.024752757904731568 -0.00085402137359885156 0 -0.02428664084636431 -0.00095996849235769298 0 -0.024409130846424779 -0.0013237571830814656 0 -0.02428664084636431 -0.00095996849235769298 0 -0.023915040233109527 -0.0011210193259382499 0 -0.02428664084636431 -0.00095996849235769298 0 -0.023915040233109527 -0.0011210193259382499 0 -0.024076086286801374 -0.00054221199096461344 0 -0.024082237517916567 -0.0017766495209425364 0 -0.024409130846424779 -0.0013237571830814656 0 -0.023915040233109527 -0.0011210193259382499 0 -0.023629685290057052 -0.001524729371478254 0 -0.024082237517916567 -0.0017766495209425364 0 -0.023915040233109527 -0.0011210193259382499 0 -0.023629685290057052 -0.001524729371478254 0 -0.023915040233109527 -0.0011210193259382499 0 -0.023393860277011517 -0.0010012403616989983 0 -0.023915040233109527 -0.0011210193259382499 0 -0.023674145384446569 -0.00079937224885625951 0 -0.023393860277011517 -0.0010012403616989983 0 -0.023915040233109527 -0.0011210193259382499 0 -0.023674145384446569 -0.00079937224885625951 0 -0.024076086286801374 -0.00054221199096461344 0 -0.023674145384446569 -0.00079937224885625951 0 -0.024076086286801374 -0.00054221199096461344 0 -0.023428446826640636 -0.00062056207050236519 0 -0.024076086286801374 -0.00054221199096461344 0 -0.023428446826640636 -0.00062056207050236519 0 -0.023446299763136072 -0.00028139639833374175 0 -0.023176156543775542 0.00021550455551809904 0 -0.022373150735163983 -0.00044663812702556537 0 -0.022708146292799748 0.0007218486993060616 0 -0.022373150735163983 -0.00044663812702556537 0 -0.021940797744207145 0.00047601674716994446 0 -0.022708146292799748 0.0007218486993060616 0 -0.021940797744207145 0.00047601674716994446 0 -0.021601316625729509 0.001323623561814858 0 -0.021088249568148896 0.00028600045112556595 0 -0.022373150735163983 -0.00044663812702556537 0 -0.021940797744207145 0.00047601674716994446 0 -0.021088249568148896 0.00028600045112556595 0 -0.022565547539223036 -0.00046866645047179139 0 -0.022894434220505296 7.8222844509965225e-05 0 -0.021102162970153493 0.0010436281204784681 0 -0.022894434220505296 7.8222844509965225e-05 0 -0.021358182443576505 0.0014362189893493509 0 -0.022708146292799748 0.0007218486993060616 0 -0.021510553325734014 0.0017436304594603438 0 -0.021940797744207145 0.00047601674716994446 0 -0.021601316625729509 0.001323623561814858 0 -0.022708146292799748 0.0007218486993060616 0 -0.021102162970153493 0.0010436281204784681 0 -0.018235214528413181 0.0020624318306455584 0 -0.021102162970153493 0.0010436281204784681 0 -0.018524395008228625 0.0023234590007138243 0 -0.022708146292799748 0.0007218486993060616 0 -0.021510553325734014 0.0017436304594603438 0 -0.023084639694908742 0.0015864204118171701 0 -0.021102162970153493 0.0010436281204784681 0 -0.022740487765719936 0.00080893424035664776 0 -0.017605632245132556 0.001382636814104042 0 -0.017850854924403223 0.0019174523245597578 0 -0.018131311660360659 0.0016816559784851245 0 -0.018235214528413181 0.0020624318306455584 0 -0.021256884191807476 0.0014438277455007034 0 -0.017605632245132556 0.001382636814104042 0 -0.018131311660360659 0.0016816559784851245 0 -0.018146188622482809 0.0013195402713498626 0 -0.018235214528413181 0.0020624318306455584 0 -0.015062368763985184 0.0031552198772019052 0 -0.013568941099934792 0.005044893711861005 0 -0.01339952704171255 0.0043566465931865663 0 -0.013006824655180936 0.0038691868046423026 0 -0.013568941099934792 0.005044893711861005 0 -0.013853249679624731 0.0046226009749125371 0 -0.014240354811838595 0.0050122885478877414 0 -0.018235214528413181 0.0020624318306455584 0 -0.018524395008228625 0.0023234590007138243 0 -0.019550976225202375 0.0018469805960431998 0 -0.019710489038485966 0.0021739180223408002 0 -0.01882106773243692 0.0022595782626629139 0 -0.013568941099934792 0.005044893711861005 0 -0.013853249679624731 0.0046226009749125371 0 -0.01339952704171255 0.0043566465931865663 0 -0.013853249679624731 0.0046226009749125371 0 -0.01339952704171255 0.0043566465931865663 0 -0.014150431729030034 0.0040731072879013636 0 -0.01339952704171255 0.0043566465931865663 0 -0.013488334974119028 0.0036614977965032216 0 -0.014150431729030034 0.0040731072879013636 0 -0.01339952704171255 0.0043566465931865663 0 -0.013488334974119028 0.0036614977965032216 0 -0.012717324548547135 0.0033999494163295305 0 -0.013488334974119028 0.0036614977965032216 0 -0.013891296649758737 0.0033255442074453388 0 -0.014150431729030034 0.0040731072879013636 0 -0.013488334974119028 0.0036614977965032216 0 -0.013891296649758737 0.0033255442074453388 0 -0.013242215010751492 0.0031216882492701098 0 -0.013488334974119028 0.0036614977965032216 0 -0.013242215010751492 0.0031216882492701098 0 -0.012717324548547135 0.0033999494163295305 0 -0.013891296649758737 0.0033255442074453388 0 -0.013242215010751492 0.0031216882492701098 0 -0.013701337283408527 0.0027326733758941163 0 -0.012723073647899184 0.0034014822089244974 0 -0.013679642513835719 0.0022254513621841874 0 -0.015062368763985184 0.0031552198772019052 0 -0.015457841820041627 0.0019967048038139487 0 -0.012983476629703842 0.0034622869495657027 0 -0.013006824655180936 0.0038691868046423026 0 -0.012534800642773852 0.0027014902010608997 0 -0.013242215010751492 0.0031216882492701098 0 -0.012717324548547135 0.0033999494163295305 0 -0.012721025732453282 0.0027730719987117281 0 -0.013376428967596511 0.0043047541136798312 0 -0.012723073647899184 0.0034014822089244974 0 -0.01339952704171255 0.0043566465931865663 0 -0.012983476629703842 0.0034622869495657027 0 -0.013006824655180936 0.0038691868046423026 0 -0.018131311660360659 0.0016816559784851245 0 -0.018288690366729369 0.0020608401464347944 0 -0.018497416592354175 0.0016669800924448532 0 -0.017850854924403223 0.0019174523245597578 0 -0.018131311660360659 0.0016816559784851245 0 -0.018288690366729369 0.0020608401464347944 0 -0.01574104382423137 0.0011041558402576773 0 -0.015764403428541331 0.0013847715437934587 0 -0.015913013384283012 0.0014313512552496257 0 -0.01574104382423137 0.0011041558402576773 0 -0.015654064113270784 0.0014158767573039964 0 -0.015764403428541331 0.0013847715437934587 0 -0.017160352253092547 0.0014559664682227318 0 -0.015457841820041627 0.0019967048038139487 0 -0.017850854924403223 0.0019174523245597578 0 -0.018288690366729369 0.0020608401464347944 0 -0.018085550146816103 0.0024442175945088578 0 -0.01574104382423137 0.0011041558402576773 0 -0.016049367332572288 0.0011512924568445055 0 -0.015913013384283012 0.0014313512552496257 0 -0.017160352253092547 0.0014559664682227318 0 -0.016983085143460766 0.0013553662234674674 0 -0.016049367332572288 0.0011512924568445055 0 -0.015897661288062619 0.00071207278274965709 0 -0.016312446826414882 0.00090004524250702296 0 -0.01574104382423137 0.0011041558402576773 0 -0.016049367332572288 0.0011512924568445055 0 -0.015897661288062619 0.00071207278274965709 0 -0.015897661288062619 0.00071207278274965709 0 -0.016097377024054619 0.0003088031646606798 0 -0.016212163964868864 0.00062800058593764495 0 -0.018497416592354175 0.0016669800924448532 0 -0.018146188622482809 0.0013195402713498626 0 -0.018703109295006865 0.0012556353242194759 0 -0.016983085143460766 0.0013553662234674674 0 -0.019852164142583062 0.00068612581326375831 0 -0.018131311660360659 0.0016816559784851245 0 -0.018497416592354175 0.0016669800924448532 0 -0.018146188622482809 0.0013195402713498626 0 -0.022708146292799748 0.0007218486993060616 0 -0.023084639694908742 0.0015864204118171701 0 -0.023359185014441189 0.00075554524020350785 0 -0.023084639694908742 0.0015864204118171701 0 -0.023359185014441189 0.00075554524020350785 0 -0.02391597336779433 0.00091412850270464077 0 -0.021256884191807476 0.0014438277455007034 0 -0.019852164142583062 0.00068612581326375831 0 -0.023084639694908742 0.0015864204118171701 0 -0.02391597336779433 0.00091412850270464077 0 -0.024513140264288292 0.0014340904189843742 0 -0.024349753446623511 0.00051452934042615678 0 -0.02391597336779433 0.00091412850270464077 0 -0.024513140264288292 0.0014340904189843742 0 -0.020447864902414258 -0.00014009315154748703 0 -0.020357713178065558 3.6400394602498515e-05 0 -0.02053980508767014 1.4436421599721014e-05 0 -0.019852164142583062 0.00068612581326375831 0 -0.018626020752043684 -2.2516578613508401e-06 0 -0.016097377024054619 0.0003088031646606798 0 -0.016627214523838193 0.00025773306919655848 0 -0.016368732876360925 0.00046236776220704042 0 -0.023274201079146715 -0.00026596252880239387 0 -0.019852164142583062 0.00068612581326375831 0 -0.016627214523838193 0.00025773306919655848 0 -0.016556310869320402 0.00050742409983535832 0 -0.016368732876360925 0.00046236776220704042 0 -0.016627214523838193 0.00025773306919655848 0 -0.016556310869320402 0.00050742409983535832 0 -0.016679459450974515 0.00056000768081189195 0 -0.018626020752043684 -2.2516578613508401e-06 0 -0.017210128181751098 0.00057891194066963701 0 -0.016556310869320402 0.00050742409983535832 0 -0.016679459450974515 0.00056000768081189195 0 -0.016446741777411338 0.0006792069721181179 0 -0.016556310869320402 0.00050742409983535832 0 -0.016446741777411338 0.0006792069721181179 0 -0.016368732876360925 0.00046236776220704042 0 -0.016446741777411338 0.0006792069721181179 0 -0.016368732876360925 0.00046236776220704042 0 -0.016212163964868864 0.00062800058593764495 0 -0.016097377024054619 0.0003088031646606798 0 -0.016368732876360925 0.00046236776220704042 0 -0.016212163964868864 0.00062800058593764495 0 -0.015897661288062619 0.00071207278274965709 0 -0.016212163964868864 0.00062800058593764495 0 -0.016312446826414882 0.00090004524250702296 0 -0.016446741777411338 0.0006792069721181179 0 -0.016212163964868864 0.00062800058593764495 0 -0.016312446826414882 0.00090004524250702296 0 -0.016049367332572288 0.0011512924568445055 0 -0.016388213491659219 0.001181600445166202 0 -0.01607397190086074 0.0015047410726722126 0 -0.016049367332572288 0.0011512924568445055 0 -0.016312446826414882 0.00090004524250702296 0 -0.016388213491659219 0.001181600445166202 0 -0.016388213491659219 0.001181600445166202 0 -0.016580400669694611 0.0013256262075370942 0 -0.016767103851097021 0.00094341285743783549 0 -0.016580400669694611 0.0013256262075370942 0 -0.016767103851097021 0.00094341285743783549 0 -0.016923728837674418 0.0014074533637299142 0 -0.016312446826414882 0.00090004524250702296 0 -0.016388213491659219 0.001181600445166202 0 -0.016767103851097021 0.00094341285743783549 0 -0.017210128181751098 0.00057891194066963701 0 -0.016797865623586223 0.00093386484515020954 0 -0.016446741777411338 0.0006792069721181179 0 -0.016312446826414882 0.00090004524250702296 0 -0.016767103851097021 0.00094341285743783549 0 -0.016679459450974515 0.00056000768081189195 0 -0.016446741777411338 0.0006792069721181179 0 -0.016767103851097021 0.00094341285743783549 0 -0.016873968692300432 0.00094932307910937526 0 -0.01702528755488731 0.00067361856881990878 0 -0.01726623418729643 0.00078274288060302302 0 -0.016788747739405745 0.00049040887371099788 0 -0.016873968692300432 0.00094932307910937526 0 -0.01702528755488731 0.00067361856881990878 0 -0.016873968692300432 0.00094932307910937526 0 -0.017171019412706198 0.0010956273748055532 0 -0.01726623418729643 0.00078274288060302302 0 -0.01702528755488731 0.00067361856881990878 0 -0.01726623418729643 0.00078274288060302302 0 -0.017172664459732496 0.00047213874253851514 0 -0.016797865623586223 0.00093386484515020954 0 -0.016919745303868423 0.0013823096283740385 0 -0.016873968692300432 0.00094932307910937526 0 -0.017171019412706198 0.0010956273748055532 0 -0.016923728837674418 0.0014074533637299142 0 -0.017171019412706198 0.0010956273748055532 0 -0.017305368293330587 0.0013060784099918558 0 -0.016923728837674418 0.0014074533637299142 0 -0.017546198489939727 0.0012286170274763623 0 -0.017414107269691906 0.0010162361008013412 0 -0.017699288298064008 0.00081523653951831902 0 -0.017528024339755567 0.0011028179841573961 0 -0.019364708526356543 0.0016239347472576915 0 -0.017546198489939727 0.0012286170274763623 0 -0.017305368293330587 0.0013060784099918558 0 -0.017388548101403958 0.0015767575936962003 0 -0.017546198489939727 0.0012286170274763623 0 -0.017305368293330587 0.0013060784099918558 0 -0.017414107269691906 0.0010162361008013412 0 -0.017171019412706198 0.0010956273748055532 0 -0.017305368293330587 0.0013060784099918558 0 -0.017414107269691906 0.0010162361008013412 0 -0.01726623418729643 0.00078274288060302302 0 -0.017560108233860731 0.00044571512268080482 0 -0.017699288298064008 0.00081523653951831902 0 -0.017414107269691906 0.0010162361008013412 0 -0.01726623418729643 0.00078274288060302302 0 -0.017699288298064008 0.00081523653951831902 0 -0.017171019412706198 0.0010956273748055532 0 -0.017414107269691906 0.0010162361008013412 0 -0.01726623418729643 0.00078274288060302302 0 -0.017560108233860731 0.00044571512268080482 0 -0.017335832595721766 0.00029531579579803038 0 -0.017172664459732496 0.00047213874253851514 0 -0.019343535926484603 0.00094331396643252937 0 -0.019364708526356543 0.0016239347472576915 0 -0.01726623418729643 0.00078274288060302302 0 -0.017560108233860731 0.00044571512268080482 0 -0.017172664459732496 0.00047213874253851514 0 -0.017560108233860731 0.00044571512268080482 0 -0.017335832595721766 0.00029531579579803038 0 -0.017425535364208624 7.3905036176966823e-05 0 -0.017335832595721766 0.00029531579579803038 0 -0.017172664459732496 0.00047213874253851514 0 -0.017221214619288217 9.0769011060363154e-05 0 -0.016788747739405745 0.00049040887371099788 0 -0.01702528755488731 0.00067361856881990878 0 -0.017172664459732496 0.00047213874253851514 0 -0.016788747739405745 0.00049040887371099788 0 -0.017172664459732496 0.00047213874253851514 0 -0.017221214619288217 9.0769011060363154e-05 0 -0.017210128181751098 0.00057891194066963701 0 -0.019053718775621127 0.00021626458054088379 0 -0.020270284582828285 -0.00019170269789894789 0 -0.020090280080439525 -3.0881833042605476e-05 0 -0.020361564603779612 -5.4303683128661337e-05 0 -0.018626020752043684 -2.2516578613508401e-06 0 -0.019053718775621127 0.00021626458054088379 0 -0.018014513032477919 9.3897539197792818e-05 0 -0.018127205960708857 0.00061986843025887669 0 -0.01875254257810326 2.7456317144624218e-05 0 -0.020270284582828285 -0.00019170269789894789 0 -0.020361564603779612 -5.4303683128661337e-05 0 -0.020446604588389275 -0.00013283330843542049 0 -0.019518627640792402 0.00031650541690619963 0 -0.019828634741757653 2.1931936835723527e-05 0 -0.019928838791904394 0.00027886466739922424 0 -0.021129289463499814 0.0014631838682574545 0 -0.021042939325340852 0.00079938581870861967 0 -0.021354150992425356 0.0010484135344422485 0 -0.021129289463499814 0.0014631838682574545 0 -0.020874246049357979 0.00081337136813302582 0 -0.021042939325340852 0.00079938581870861967 0 -0.019053718775621127 0.00021626458054088379 0 -0.020424183841829632 8.801356108811427e-05 0 -0.020424183841829632 8.801356108811427e-05 0 -0.019648972982366963 0.00021182561471175777 0 -0.020782135027066162 0.00058718100434252253 0 -0.020870568839324484 0.00081416490370508552 0 -0.021042939325340852 0.00079938581870861967 0 -0.021281428772615036 0.00048335157200428029 0 -0.020782135027066162 0.00058718100434252253 0 -0.021042939325340852 0.00079938581870861967 0 -0.021281428772615036 0.00048335157200428029 0 -0.021042939325340852 0.00079938581870861967 0 -0.021318048832347863 0.00076424092983061736 0 -0.019648972982366963 0.00021182561471175777 0 -0.020228239397583912 0.00026208928343602695 0 -0.019343535926484603 0.00094331396643252937 0 -0.019648972982366963 0.00021182561471175777 0 -0.021042939325340852 0.00079938581870861967 0 -0.021354150992425356 0.0010484135344422485 0 -0.021318048832347863 0.00076424092983061736 0 -0.019053718775621127 0.00021626458054088379 0 -0.019648972982366963 0.00021182561471175777 0 -0.017335832595721766 0.00029531579579803038 0 -0.017221214619288217 9.0769011060363154e-05 0 -0.017425535364208624 7.3905036176966823e-05 0 -0.021894263571206975 -0.00083420409912141774 0 -0.021789530333527714 -0.00090873164816655501 0 -0.022182226380674481 -0.0010065513270868971 0 -0.022117769430263765 -0.00092800940865611745 0 -0.021971748899041146 -0.00064177787857599207 0 -0.022311277118882103 -0.00083043246107885433 0 -0.021894263571206975 -0.00083420409912141774 0 -0.022117769430263765 -0.00092800940865611745 0 -0.021971748899041146 -0.00064177787857599207 0 -0.021894263571206975 -0.00083420409912141774 0 -0.022182226380674481 -0.0010065513270868971 0 -0.022117769430263765 -0.00092800940865611745 0 -0.021894263571206975 -0.00083420409912141774 0 -0.021971748899041146 -0.00064177787857599207 0 -0.021581330758597285 -0.00056774681985567613 0 -0.021971748899041146 -0.00064177787857599207 0 -0.021581330758597285 -0.00056774681985567613 0 -0.021597334358815334 -0.00025807075992051188 0 -0.022160595546968743 -0.00057235081435350955 0 -0.021158984716718451 -0.00023847793397806675 0 -0.021789530333527714 -0.00090873164816655501 0 -0.021581330758597285 -0.00056774681985567613 0 -0.020918724816211896 -0.00015351897238343389 0 -0.022596236291024356 -0.00021012552426705389 0 -0.021994003683708119 -0.00022804149951661181 0 -0.020918724816211896 -0.00015351897238343389 0 -0.021894263571206975 -0.00083420409912141774 0 -0.021789530333527714 -0.00090873164816655501 0 -0.021581330758597285 -0.00056774681985567613 0 -0.022596236291024356 -0.00021012552426705389 0 -0.021994003683708119 -0.00022804149951661181 0 -0.022790038310749078 -0.00014470759874756812 0 -0.021994003683708119 -0.00022804149951661181 0 -0.022790038310749078 -0.00014470759874756812 0 -0.02184992592303673 -0.00017752559189227588 0 -0.022554811057030499 -3.9107155118953006e-07 0 -0.022790038310749078 -0.00014470759874756812 0 -0.02184992592303673 -0.00017752559189227588 0 -0.022554811057030499 -3.9107155118953006e-07 0 -0.022790038310749078 -0.00014470759874756812 0 -0.024401972744643178 -1.4096676281224597e-07 0 -0.022790038310749078 -0.00014470759874756812 0 -0.023692035237295746 -0.00013855546273177811 0 -0.024401972744643178 -1.4096676281224597e-07 0 -0.022596236291024356 -0.00021012552426705389 0 -0.022790038310749078 -0.00014470759874756812 0 -0.023692035237295746 -0.00013855546273177811 0 -0.022596236291024356 -0.00021012552426705389 0 -0.023940386783056732 -0.00018304757277598838 0 -0.023692035237295746 -0.00013855546273177811 0 -0.023940386783056732 -0.00018304757277598838 0 -0.023692035237295746 -0.00013855546273177811 0 -0.024795425695318545 -0.0001781619642559804 0 -0.023692035237295746 -0.00013855546273177811 0 -0.024401972744643178 -1.4096676281224597e-07 0 -0.024795425695318545 -0.0001781619642559804 0 -0.026249957370834423 -1.2859512781906668e-06 0 -0.024401972744643178 -1.4096676281224597e-07 0 -0.024795425695318545 -0.0001781619642559804 0 -0.024451081446927949 -8.6084681847390528e-06 0 -0.023940386783056732 -0.00018304757277598838 0 -0.024795425695318545 -0.0001781619642559804 0 -0.024288007244175777 1.3001559978955353e-05 0 -0.02346066944497649 -0.00055405445450647868 0 -0.023328423970281696 -5.732009458804106e-05 0 -0.024451081446927949 -8.6084681847390528e-06 0 -0.022993562274036032 -0.0010142547259413168 0 -0.023328423970281696 -5.732009458804106e-05 0 -0.022993562274036032 -0.0010142547259413168 0 -0.022245783326994565 -0.0010082743674997732 0 -0.022199817803053488 -0.00088384895104970569 0 -0.022460239313863713 -0.00096890506596371132 0 -0.022182226380674481 -0.0010065513270868971 0 -0.022993562274036032 -0.0010142547259413168 0 -0.022245783326994565 -0.0010082743674997732 0 -0.022160595546968743 -0.00057235081435350955 0 -0.02346066944497649 -0.00055405445450647868 0 -0.021789530333527714 -0.00090873164816655501 0 -0.022182226380674481 -0.0010065513270868971 0 -0.022993562274036032 -0.0010142547259413168 0 -0.022117769430263765 -0.00092800940865611745 0 -0.022245783326994565 -0.0010082743674997732 0 -0.022351001850131679 -0.0010311217659563707 0 -0.022182226380674481 -0.0010065513270868971 0 -0.022117769430263765 -0.00092800940865611745 0 -0.022245783326994565 -0.0010082743674997732 0 -0.022245783326994565 -0.0010082743674997732 0 -0.022393712436654695 -0.0012939299271835321 0 -0.022351001850131679 -0.0010311217659563707 0 -0.022171943411368196 -0.0014565766326474392 0 -0.022245783326994565 -0.0010082743674997732 0 -0.022393712436654695 -0.0012939299271835321 0 -0.022655554802041067 -0.0014369173424044481 0 -0.022393712436654695 -0.0012939299271835321 0 -0.022546992189680641 -0.0011939833674918501 0 -0.022393712436654695 -0.0012939299271835321 0 -0.022546992189680641 -0.0011939833674918501 0 -0.022351001850131679 -0.0010311217659563707 0 -0.022655554802041067 -0.0014369173424044481 0 -0.022546992189680641 -0.0011939833674918501 0 -0.022790370029823152 -0.0012310666667046412 0 -0.022546992189680641 -0.0011939833674918501 0 -0.022790370029823152 -0.0012310666667046412 0 -0.022582644284525794 -0.0010055031959157628 0 -0.022790370029823152 -0.0012310666667046412 0 -0.022582644284525794 -0.0010055031959157628 0 -0.022920942595517618 -0.00099812004623265238 0 -0.022582644284525794 -0.0010055031959157628 0 -0.022920942595517618 -0.00099812004623265238 0 -0.022707411559442649 -0.00073837512111006164 0 -0.022582644284525794 -0.0010055031959157628 0 -0.022351001850131679 -0.0010311217659563707 0 -0.022311277118882103 -0.00083043246107885433 0 -0.022117769430263765 -0.00092800940865611745 0 -0.022351001850131679 -0.0010311217659563707 0 -0.022311277118882103 -0.00083043246107885433 0 -0.022546992189680641 -0.0011939833674918501 0 -0.022582644284525794 -0.0010055031959157628 0 -0.022351001850131679 -0.0010311217659563707 0 -0.023025284024150373 -0.0012364100304238256 0 -0.023455771429269544 -0.0013677910039987121 0 -0.023629685290057052 -0.001524729371478254 0 -0.023220918762442914 -0.0012440753720041203 0 -0.023393860277011517 -0.0010012403616989983 0 -0.022790370029823152 -0.0012310666667046412 0 -0.023220918762442914 -0.0012440753720041203 0 -0.022920942595517618 -0.00099812004623265238 0 -0.022921419559726697 -0.0014667260915521708 0 -0.022790370029823152 -0.0012310666667046412 0 -0.023220918762442914 -0.0012440753720041203 0 -0.022920942595517618 -0.00099812004623265238 0 -0.023393860277011517 -0.0010012403616989983 0 -0.023079484363793156 -0.00077363759271377843 0 -0.023220918762442914 -0.0012440753720041203 0 -0.022920942595517618 -0.00099812004623265238 0 -0.023393860277011517 -0.0010012403616989983 0 -0.023674145384446569 -0.00079937224885625951 0 -0.023393860277011517 -0.0010012403616989983 0 -0.023428446826640636 -0.00062056207050236519 0 -0.023393860277011517 -0.0010012403616989983 0 -0.023428446826640636 -0.00062056207050236519 0 -0.023079484363793156 -0.00077363759271377843 0 -0.023428446826640636 -0.00062056207050236519 0 -0.02312417770719831 -0.00049357862923410346 0 -0.023288907661031071 -0.00039531688492648262 0 -0.023428446826640636 -0.00062056207050236519 0 -0.023079484363793156 -0.00077363759271377843 0 -0.02312417770719831 -0.00049357862923410346 0 -0.023079484363793156 -0.00077363759271377843 0 -0.02312417770719831 -0.00049357862923410346 0 -0.022707411559442649 -0.00073837512111006164 0 -0.02312417770719831 -0.00049357862923410346 0 -0.022707411559442649 -0.00073837512111006164 0 -0.022678448914802928 -0.0003923066487983437 0 -0.022920942595517618 -0.00099812004623265238 0 -0.023079484363793156 -0.00077363759271377843 0 -0.022707411559442649 -0.00073837512111006164 0 -0.02312417770719831 -0.00049357862923410346 0 -0.023156139997232796 -0.00015020724726198947 0 -0.022678448914802928 -0.0003923066487983437 0 -0.02312417770719831 -0.00049357862923410346 0 -0.023288907661031071 -0.00039531688492648262 0 -0.023156139997232796 -0.00015020724726198947 0 -0.023156139997232796 -0.00015020724726198947 0 -0.023411976568367583 -0.0002814297619923397 0 -0.023345505301349392 8.1336285581552935e-05 0 -0.023288907661031071 -0.00039531688492648262 0 -0.023156139997232796 -0.00015020724726198947 0 -0.023446299763136072 -0.00028139639833374175 0 -0.023338990449376398 -0.00022679333323180262 0 -0.022894434220505296 7.8222844509965225e-05 0 -0.023428446826640636 -0.00062056207050236519 0 -0.023288907661031071 -0.00039531688492648262 0 -0.023446299763136072 -0.00028139639833374175 0 -0.021971748899041146 -0.00064177787857599207 0 -0.022311277118882103 -0.00083043246107885433 0 -0.022394513895803655 -0.00058227879226952222 0 -0.022582644284525794 -0.0010055031959157628 0 -0.022311277118882103 -0.00083043246107885433 0 -0.022707411559442649 -0.00073837512111006164 0 -0.022311277118882103 -0.00083043246107885433 0 -0.022707411559442649 -0.00073837512111006164 0 -0.022394513895803655 -0.00058227879226952222 0 -0.022707411559442649 -0.00073837512111006164 0 -0.022678448914802928 -0.0003923066487983437 0 -0.022394513895803655 -0.00058227879226952222 0 -0.022678448914802928 -0.0003923066487983437 0 -0.022243203617579924 -0.00027580098619345929 0 -0.022394513895803655 -0.00058227879226952222 0 -0.021971748899041146 -0.00064177787857599207 0 -0.022243203617579924 -0.00027580098619345929 0 -0.021597334358815334 -0.00025807075992051188 0 -0.021971748899041146 -0.00064177787857599207 0 -0.022243203617579924 -0.00027580098619345929 0 -0.022394513895803655 -0.00058227879226952222 0 -0.022243203617579924 -0.00027580098619345929 0 -0.021830275263446466 0.00015981793798761629 0 -0.022696727195839265 0.00019341525403923065 0 -0.022243203617579924 -0.00027580098619345929 0 -0.021830275263446466 0.00015981793798761629 0 -0.021597334358815334 -0.00025807075992051188 0 -0.022678448914802928 -0.0003923066487983437 0 -0.022243203617579924 -0.00027580098619345929 0 -0.022696727195839265 0.00019341525403923065 0 -0.022646313719010911 -0.00023687785211048149 0 -0.022762996521478476 -1.466301279615523e-05 0 -0.022762996521478476 -1.466301279615523e-05 0 -0.020899904312154327 0.0022630516524958892 0 -0.02255253239184795 0.00027918902367684884 0 -0.022958201803454856 0.00067468855865966877 0 -0.022486174502771673 0.0009530390632221321 0 -0.022696727195839265 0.00019341525403923065 0 -0.022072975604920317 0.00076817835705400898 0 -0.022711296717429649 0.0012306258673243373 0 -0.021830275263446466 0.00015981793798761629 0 -0.022696727195839265 0.00019341525403923065 0 -0.022072975604920317 0.00076817835705400898 0 -0.022072975604920317 0.00076817835705400898 0 -0.02141796926577216 0.0011286937007450653 0 -0.021401936320839351 0.00058628562801145043 0 -0.021830275263446466 0.00015981793798761629 0 -0.022072975604920317 0.00076817835705400898 0 -0.021401936320839351 0.00058628562801145043 0 -0.023643410806754996 0.00022943420341279479 0 -0.023411976568367583 -0.0002814297619923397 0 -0.023345505301349392 8.1336285581552935e-05 0 -0.023643410806754996 0.00022943420341279479 0 -0.023381655404910166 0.0002877380640283615 0 -0.023345505301349392 8.1336285581552935e-05 0 -0.023643410806754996 0.00022943420341279479 0 -0.023381655404910166 0.0002877380640283615 0 -0.023371371332162556 0.00039934164507444194 0 -0.023156139997232796 -0.00015020724726198947 0 -0.023345505301349392 8.1336285581552935e-05 0 -0.022997710293853987 0.00016987988853623044 0 -0.023381655404910166 0.0002877380640283615 0 -0.023345505301349392 8.1336285581552935e-05 0 -0.023191546910848414 0.00032769453737538292 0 -0.023345505301349392 8.1336285581552935e-05 0 -0.022997710293853987 0.00016987988853623044 0 -0.023191546910848414 0.00032769453737538292 0 -0.023156139997232796 -0.00015020724726198947 0 -0.022678448914802928 -0.0003923066487983437 0 -0.022997710293853987 0.00016987988853623044 0 -0.022678448914802928 -0.0003923066487983437 0 -0.02255253239184795 0.00027918902367684884 0 -0.022997710293853987 0.00016987988853623044 0 -0.022997710293853987 0.00016987988853623044 0 -0.022958201803454856 0.00067468855865966877 0 -0.023191546910848414 0.00032769453737538292 0 -0.02255253239184795 0.00027918902367684884 0 -0.022997710293853987 0.00016987988853623044 0 -0.022958201803454856 0.00067468855865966877 0 -0.015027762153305046 0.0046011273649110606 0 -0.014315889760406403 0.0045775175836647213 0 -0.014240354811838595 0.0050122885478877414 0 -0.018748784010682959 0.0027695571331412994 0 -0.018524395008228625 0.0023234590007138243 0 -0.022958201803454856 0.00067468855865966877 0 -0.023191546910848414 0.00032769453737538292 0 -0.023371371332162556 0.00039934164507444194 0 -0.015027762153305046 0.0046011273649110606 0 -0.014315889760406403 0.0045775175836647213 0 -0.014150431729030034 0.0040731072879013636 0 -0.013853249679624731 0.0046226009749125371 0 -0.014315889760406403 0.0045775175836647213 0 -0.014150431729030034 0.0040731072879013636 0 -0.013853249679624731 0.0046226009749125371 0 -0.014315889760406403 0.0045775175836647213 0 -0.014240354811838595 0.0050122885478877414 0 -0.023381655404910166 0.0002877380640283615 0 -0.023191546910848414 0.00032769453737538292 0 -0.023371371332162556 0.00039934164507444194 0 -0.015027762153305046 0.0046011273649110606 0 -0.014150431729030034 0.0040731072879013636 0 -0.01499987178090407 0.0037338072629193794 0 -0.014150431729030034 0.0040731072879013636 0 -0.01499987178090407 0.0037338072629193794 0 -0.014441436538048788 0.0035029568574247022 0 -0.018748784010682959 0.0027695571331412994 0 -0.020899904312154327 0.0022630516524958892 0 -0.015027762153305046 0.0046011273649110606 0 -0.01499987178090407 0.0037338072629193794 0 -0.015836814014581303 0.0041643375698136439 0 -0.01499987178090407 0.0037338072629193794 0 -0.014726113776547764 0.0028715246486455165 0 -0.01586148695576152 0.0030945095816795757 0 -0.01499987178090407 0.0037338072629193794 0 -0.014726113776547764 0.0028715246486455165 0 -0.014441436538048788 0.0035029568574247022 0 -0.013891296649758737 0.0033255442074453388 0 -0.014726113776547764 0.0028715246486455165 0 -0.014441436538048788 0.0035029568574247022 0 -0.013891296649758737 0.0033255442074453388 0 -0.014726113776547764 0.0028715246486455165 0 -0.013701337283408527 0.0027326733758941163 0 -0.013891296649758737 0.0033255442074453388 0 -0.014150431729030034 0.0040731072879013636 0 -0.014441436538048788 0.0035029568574247022 0 -0.022033458109703186 0.0016561590526010285 0 -0.02141796926577216 0.0011286937007450653 0 -0.020883405334500782 0.0018285504044818059 0 -0.022072975604920317 0.00076817835705400898 0 -0.022033458109703186 0.0016561590526010285 0 -0.02141796926577216 0.0011286937007450653 0 -0.020899904312154327 0.0022630516524958892 0 -0.019244315738634568 0.0029198065728517071 0 -0.022072975604920317 0.00076817835705400898 0 -0.022033458109703186 0.0016561590526010285 0 -0.022711296717429649 0.0012306258673243373 0 -0.022033458109703186 0.0016561590526010285 0 -0.02290443733844507 0.0011702842078593072 0 -0.022875345326342156 0.0026470333019236779 0 -0.01499987178090407 0.0037338072629193794 0 -0.015836814014581303 0.0041643375698136439 0 -0.01586148695576152 0.0030945095816795757 0 -0.022676954044401447 0.0012858516292946992 0 -0.020899904312154327 0.0022630516524958892 0 -0.022033458109703186 0.0016561590526010285 0 -0.02157688826837699 0.0023425523073995549 0 -0.020883405334500782 0.0018285504044818059 0 -0.022875345326342156 0.0026470333019236779 0 -0.02157688826837699 0.0023425523073995549 0 -0.021553325796936744 0.0032448682071245646 0 -0.022033458109703186 0.0016561590526010285 0 -0.022875345326342156 0.0026470333019236779 0 -0.02157688826837699 0.0023425523073995549 0 -0.02157688826837699 0.0023425523073995549 0 -0.020803300125444037 0.0026480138579693716 0 -0.021553325796936744 0.0032448682071245646 0 -0.020803300125444037 0.0026480138579693716 0 -0.019783033955524058 0.0026888461166607925 0 -0.020355359560204199 0.0033322263094255305 0 -0.020803300125444037 0.0026480138579693716 0 -0.019783033955524058 0.0026888461166607925 0 -0.020883405334500782 0.0018285504044818059 0 -0.019783033955524058 0.0026888461166607925 0 -0.019974822888053356 0.001783606686566843 0 -0.020883405334500782 0.0018285504044818059 0 -0.02157688826837699 0.0023425523073995549 0 -0.020803300125444037 0.0026480138579693716 0 -0.020883405334500782 0.0018285504044818059 0 -0.018891381922659128 0.0029935307872100804 0 -0.019783033955524058 0.0026888461166607925 0 -0.018823837553671043 0.0023647483191475221 0 -0.019783033955524058 0.0026888461166607925 0 -0.019974822888053356 0.001783606686566843 0 -0.018823837553671043 0.0023647483191475221 0 -0.019593412109268873 0.0011842275169963784 0 -0.019974822888053356 0.001783606686566843 0 -0.018823837553671043 0.0023647483191475221 0 -0.019593412109268873 0.0011842275169963784 0 -0.019974822888053356 0.001783606686566843 0 -0.020730136591165571 0.00095158255537380648 0 -0.019974822888053356 0.001783606686566843 0 -0.020883405334500782 0.0018285504044818059 0 -0.020730136591165571 0.00095158255537380648 0 -0.02141796926577216 0.0011286937007450653 0 -0.020883405334500782 0.0018285504044818059 0 -0.020730136591165571 0.00095158255537380648 0 -0.021830275263446466 0.00015981793798761629 0 -0.021401936320839351 0.00058628562801145043 0 -0.021133506326401506 0.00019486212441889846 0 -0.02141796926577216 0.0011286937007450653 0 -0.021401936320839351 0.00058628562801145043 0 -0.020730136591165571 0.00095158255537380648 0 -0.021401936320839351 0.00058628562801145043 0 -0.020730136591165571 0.00095158255537380648 0 -0.021133506326401506 0.00019486212441889846 0 -0.019593412109268873 0.0011842275169963784 0 -0.020424534448699346 0.00041038643676579085 0 -0.019605156164283929 0.00011555469764972344 0 -0.019593412109268873 0.0011842275169963784 0 -0.020730136591165571 0.00095158255537380648 0 -0.020424534448699346 0.00041038643676579085 0 -0.020730136591165571 0.00095158255537380648 0 -0.020424534448699346 0.00041038643676579085 0 -0.021133506326401506 0.00019486212441889846 0 -0.020424534448699346 0.00041038643676579085 0 -0.020918724816211896 -0.00015351897238343389 0 -0.021133506326401506 0.00019486212441889846 0 -0.021581330758597285 -0.00056774681985567613 0 -0.020918724816211896 -0.00015351897238343389 0 -0.021597334358815334 -0.00025807075992051188 0 -0.020424534448699346 0.00041038643676579085 0 -0.020918724816211896 -0.00015351897238343389 0 -0.019605156164283929 0.00011555469764972344 0 -0.021830275263446466 0.00015981793798761629 0 -0.021597334358815334 -0.00025807075992051188 0 -0.021133506326401506 0.00019486212441889846 0 -0.020918724816211896 -0.00015351897238343389 0 -0.021597334358815334 -0.00025807075992051188 0 -0.021133506326401506 0.00019486212441889846 0 -0.02184992592303673 -0.00017752559189227588 0 -0.021159752136846989 -0.00011856027791568847 0 -0.020707242019376647 -3.1408254435149785e-07 0 -0.022554811057030499 -3.9107155118953006e-07 0 -0.02184992592303673 -0.00017752559189227588 0 -0.020707242019376647 -3.1408254435149785e-07 0 -0.021994003683708119 -0.00022804149951661181 0 -0.020918724816211896 -0.00015351897238343389 0 -0.019605156164283929 0.00011555469764972344 0 -0.021718424727421793 -0.00019872873900428933 0 -0.020393000953212864 4.7167600824427283e-05 0 -0.021994003683708119 -0.00022804149951661181 0 -0.02184992592303673 -0.00017752559189227588 0 -0.021159752136846989 -0.00011856027791568847 0 -0.020393000953212864 4.7167600824427283e-05 0 -0.018794420588489697 0.00087828063013056031 0 -0.021159752136846989 -0.00011856027791568847 0 -0.020219546013569727 -5.0025352851067256e-05 0 -0.019428861830095394 3.8357564858561386e-05 0 -0.021159752136846989 -0.00011856027791568847 0 -0.020219546013569727 -5.0025352851067256e-05 0 -0.020707242019376647 -3.1408254435149785e-07 0 -0.020219546013569727 -5.0025352851067256e-05 0 -0.020707242019376647 -3.1408254435149785e-07 0 -0.018859884211074554 1.4814178771369857e-08 0 -0.020219546013569727 -5.0025352851067256e-05 0 -0.018859884211074554 1.4814178771369857e-08 0 -0.019428861830095394 3.8357564858561386e-05 0 -0.019593412109268873 0.0011842275169963784 0 -0.019605156164283929 0.00011555469764972344 0 -0.017880127426045011 0.0018067501211008739 0 -0.019593412109268873 0.0011842275169963784 0 -0.017880127426045011 0.0018067501211008739 0 -0.018823837553671043 0.0023647483191475221 0 -0.017880127426045011 0.0018067501211008739 0 -0.018823837553671043 0.0023647483191475221 0 -0.017714345412512798 0.0029352575343493822 0 -0.018823837553671043 0.0023647483191475221 0 -0.017714345412512798 0.0029352575343493822 0 -0.018161226484609726 0.0030939954138777758 0 -0.018891381922659128 0.0029935307872100804 0 -0.018823837553671043 0.0023647483191475221 0 -0.018161226484609726 0.0030939954138777758 0 -0.018859884211074554 1.4814178771369857e-08 0 -0.019428861830095394 3.8357564858561386e-05 0 -0.018069452939700525 4.076720951133919e-05 0 -0.018859884211074554 1.4814178771369857e-08 0 -0.018069452939700525 4.076720951133919e-05 0 -0.017012113289461925 2.9993745501027674e-07 0 -0.019428861830095394 3.8357564858561386e-05 0 -0.018069452939700525 4.076720951133919e-05 0 -0.017500287071486431 0.00014462296564826012 0 -0.017880127426045011 0.0018067501211008739 0 -0.017714345412512798 0.0029352575343493822 0 -0.01689065971288704 0.0037815024870627811 0 -0.018794420588489697 0.00087828063013056031 0 -0.016406058292193777 0.0017852917230605232 0 -0.018069452939700525 4.076720951133919e-05 0 -0.017012113289461925 2.9993745501027674e-07 0 -0.017623309019262536 7.923399990090069e-05 0 -0.018069452939700525 4.076720951133919e-05 0 -0.017623309019262536 7.923399990090069e-05 0 -0.017500287071486431 0.00014462296564826012 0 -0.017012113289461925 2.9993745501027674e-07 0 -0.017623309019262536 7.923399990090069e-05 0 -0.017245125066892023 3.4331383432944724e-05 0 -0.016489196393599904 0.00093359999518824476 0 -0.016406058292193777 0.0017852917230605232 0 -0.01689065971288704 0.0037815024870627811 0 -0.017472553424562338 0.003614852838407857 0 -0.017421258022658596 0.0041973248176479976 0 -0.017714345412512798 0.0029352575343493822 0 -0.01689065971288704 0.0037815024870627811 0 -0.017472553424562338 0.003614852838407857 0 -0.017714345412512798 0.0029352575343493822 0 -0.018161226484609726 0.0030939954138777758 0 -0.017472553424562338 0.003614852838407857 0 -0.017472553424562338 0.003614852838407857 0 -0.018028992089041698 0.0035196435936532713 0 -0.017640499116837946 0.0038962553824052385 0 -0.018891381922659128 0.0029935307872100804 0 -0.018161226484609726 0.0030939954138777758 0 -0.018028992089041698 0.0035196435936532713 0 -0.018161226484609726 0.0030939954138777758 0 -0.017472553424562338 0.003614852838407857 0 -0.018028992089041698 0.0035196435936532713 0 -0.018028992089041698 0.0035196435936532713 0 -0.017640499116837946 0.0038962553824052385 0 -0.017592165634543244 0.0041661584198081879 0 -0.017640499116837946 0.0038962553824052385 0 -0.017592165634543244 0.0041661584198081879 0 -0.017421258022658596 0.0041973248176479976 0 -0.017472553424562338 0.003614852838407857 0 -0.017640499116837946 0.0038962553824052385 0 -0.017421258022658596 0.0041973248176479976 0 -0.017421258022658596 0.0041973248176479976 0 -0.016887813216372241 0.0048336079499655422 0 -0.017523771566538292 0.0044492152136102114 0 -0.01689065971288704 0.0037815024870627811 0 -0.017421258022658596 0.0041973248176479976 0 -0.017523771566538292 0.0044492152136102114 0 -0.017592165634543244 0.0041661584198081879 0 -0.017421258022658596 0.0041973248176479976 0 -0.016887813216372241 0.0048336079499655422 0 -0.017012113289461925 2.9993745501027674e-07 0 -0.017245125066892023 3.4331383432944724e-05 0 -0.015164449301075295 4.3399477132005373e-08 0 -0.016406058292193777 0.0017852917230605232 0 -0.015164064496011879 -6.0770142701180225e-07 0 -0.016406058292193777 0.0017852917230605232 0 -0.015347201601505494 0.0027424801682515046 0 -0.014426693614199907 0.002722307977321984 0 -0.01338690667213775 0.00055653850292103943 0 -0.015160907201712061 2.2046084938069647e-06 0 -0.020355359560204199 0.0033322263094255305 0 -0.019028866170041785 0.0038794829141929194 0 -0.02121474332951857 0.0044041616794317359 0 -0.019783033955524058 0.0026888461166607925 0 -0.020355359560204199 0.0033322263094255305 0 -0.019028866170041785 0.0038794829141929194 0 -0.020803300125444037 0.0026480138579693716 0 -0.020355359560204199 0.0033322263094255305 0 -0.021553325796936744 0.0032448682071245646 0 -0.018891381922659128 0.0029935307872100804 0 -0.019783033955524058 0.0026888461166607925 0 -0.019028866170041785 0.0038794829141929194 0 -0.018891381922659128 0.0029935307872100804 0 -0.018028992089041698 0.0035196435936532713 0 -0.019028866170041785 0.0038794829141929194 0 -0.018028992089041698 0.0035196435936532713 0 -0.017592165634543244 0.0041661584198081879 0 -0.019028866170041785 0.0038794829141929194 0 -0.016632785286571691 0.0047337297503590595 0 -0.016733202038429335 0.0052035936378190036 0 -0.016887813216372241 0.0048336079499655422 0 -0.019028866170041785 0.0038794829141929194 0 -0.020461931613405267 0.0057208834434468222 0 -0.017592165634543244 0.0041661584198081879 0 -0.016887813216372241 0.0048336079499655422 0 -0.019028866170041785 0.0038794829141929194 0 -0.019028866170041785 0.0038794829141929194 0 -0.020461931613405267 0.0057208834434468222 0 -0.02121474332951857 0.0044041616794317359 0 -0.012080003703510788 0.0039852715375478711 0 -0.014787209367448623 0.0030769189084804247 0 -0.011755081694104075 0.00098941229993950168 0 -0.016887813216372241 0.0048336079499655422 0 -0.012080003703510788 0.0039852715375478711 0 -0.014787209367448623 0.0030769189084804247 0 -0.014787209367448623 0.0030769189084804247 0 -0.011755081694104075 0.00098941229993950168 0 -0.015317949703794539 0.001721760232394337 0 -0.011755081694104075 0.00098941229993950168 0 -0.015317949703794539 0.001721760232394337 0 -0.01236259857646144 -0.00011991833036747414 0 -0.013542959236282678 -8.5413218675139062e-05 0 -0.015160907201712061 2.2046084938069647e-06 0 -0.013383030823283902 -1.0445878428114263e-06 0 -0.01338690667213775 0.00055653850292103943 0 -0.013542959236282678 -8.5413218675139062e-05 0 -0.015160907201712061 2.2046084938069647e-06 0 -0.016887813216372241 0.0048336079499655422 0 -0.017523771566538292 0.0044492152136102114 0 -0.014787209367448623 0.0030769189084804247 0 -0.01338690667213775 0.00055653850292103943 0 -0.013542959236282678 -8.5413218675139062e-05 0 -0.012677021354608419 -0.00017392547052589593 0 -0.015347201601505494 0.0027424801682515046 0 -0.013957451391966807 0.00081467363688740157 0 -0.017523771566538292 0.0044492152136102114 0 -0.014787209367448623 0.0030769189084804247 0 -0.015317949703794539 0.001721760232394337 0 -0.013542959236282678 -8.5413218675139062e-05 0 -0.012677021354608419 -0.00017392547052589593 0 -0.012397726418030783 -0.0001824131860185647 0 -0.013542959236282678 -8.5413218675139062e-05 0 -0.013383030823283902 -1.0445878428114263e-06 0 -0.012397726418030783 -0.0001824131860185647 0 -0.013383030823283902 -1.0445878428114263e-06 0 -0.01160182530226705 -2.662240816348073e-07 0 -0.012397726418030783 -0.0001824131860185647 0 -0.01160182530226705 -2.662240816348073e-07 0 -0.012397726418030783 -0.0001824131860185647 0 -0.011186124316428422 -0.0002006426472059487 0 -0.012397726418030783 -0.0001824131860185647 0 -0.01236259857646144 -0.00011991833036747414 0 -0.011186124316428422 -0.0002006426472059487 0 -0.012677021354608419 -0.00017392547052589593 0 -0.012397726418030783 -0.0001824131860185647 0 -0.01236259857646144 -0.00011991833036747414 0 -0.013957451391966807 0.00081467363688740157 0 -0.012651627793169532 -4.1197185178310015e-05 0 -0.011755081694104075 0.00098941229993950168 0 -0.01236259857646144 -0.00011991833036747414 0 -0.011023902567085558 -0.00024774336556649936 0 -0.01236259857646144 -0.00011991833036747414 0 -0.011360456419239459 -0.00031874754053053594 0 -0.011023902567085558 -0.00024774336556649936 0 -0.01236259857646144 -0.00011991833036747414 0 -0.011360456419239459 -0.00031874754053053594 0 -0.011186124316428422 -0.0002006426472059487 0 -0.011360456419239459 -0.00031874754053053594 0 -0.010730269878917247 -0.00030154595693798297 0 -0.011186124316428422 -0.0002006426472059487 0 -0.011360456419239459 -0.00031874754053053594 0 -0.010730269878917247 -0.00030154595693798297 0 -0.010782032443963127 -0.000332637228891591 0 -0.011360456419239459 -0.00031874754053053594 0 -0.010782032443963127 -0.000332637228891591 0 -0.011023902567085558 -0.00024774336556649936 0 -0.010730269878917247 -0.00030154595693798297 0 -0.010445323321223561 -0.00026388263051626204 0 -0.010782032443963127 -0.000332637228891591 0 -0.010445323321223561 -0.00026388263051626204 0 -0.010782032443963127 -0.000332637228891591 0 -0.010503000586258086 -0.00016156277063274132 0 -0.010730269878917247 -0.00030154595693798297 0 -0.010445323321223561 -0.00026388263051626204 0 -0.010089663740648153 -0.00020823913757435318 0 -0.010730269878917247 -0.00030154595693798297 0 -0.010089663740648153 -0.00020823913757435318 0 -0.0097738357569773834 -0.00018706464496227605 0 -0.0097738357569773834 -0.00018706464496227605 0 -0.0098218448393311581 -1.9481252395053288e-07 0 -0.0080400723615456776 -1.0478105928507462e-06 0 -0.01160182530226705 -2.662240816348073e-07 0 -0.0098218448393311581 -1.9481252395053288e-07 0 -0.011186124316428422 -0.0002006426472059487 0 -0.0097738357569773834 -0.00018706464496227605 0 -0.0098218448393311581 -1.9481252395053288e-07 0 -0.011186124316428422 -0.0002006426472059487 0 -0.010730269878917247 -0.00030154595693798297 0 -0.0097738357569773834 -0.00018706464496227605 0 -0.011186124316428422 -0.0002006426472059487 0 -0.010903206488516979 -0.00012696972003606769 0 -0.010835473334630663 -0.00014016363510635423 0 -0.010848383190786896 -0.0001650269716500928 0 -0.010835473334630663 -0.00014016363510635423 0 -0.010806380223611804 -0.00021675552253304302 0 -0.010848383190786896 -0.0001650269716500928 0 -0.010903206488516979 -0.00012696972003606769 0 -0.010848383190786896 -0.0001650269716500928 0 -0.010900035786431048 -9.1265527891430805e-05 0 -0.01085012642427269 -1.2962592802230547e-05 0 -0.010805402834357583 1.6872489145470629e-05 0 -0.010903206488516979 -0.00012696972003606769 0 -0.010835473334630663 -0.00014016363510635423 0 -0.010806212707860391 1.4144416304097532e-05 0 -0.010835473334630663 -0.00014016363510635423 0 -0.01071145518718517 -0.00012829691308563241 0 -0.010806380223611804 -0.00021675552253304302 0 -0.010835473334630663 -0.00014016363510635423 0 -0.01071145518718517 -0.00012829691308563241 0 -0.010806212707860391 1.4144416304097532e-05 0 -0.01071145518718517 -0.00012829691308563241 0 -0.010782032443963127 -0.000332637228891591 0 -0.010503000586258086 -0.00016156277063274132 0 -0.01071145518718517 -0.00012829691308563241 0 -0.010782032443963127 -0.000332637228891591 0 -0.010806380223611804 -0.00021675552253304302 0 -0.010782032443963127 -0.000332637228891591 0 -0.011023902567085558 -0.00024774336556649936 0 -0.010855933905330841 -0.00024422812650179605 0 -0.010782032443963127 -0.000332637228891591 0 -0.010806380223611804 -0.00021675552253304302 0 -0.010855933905330841 -0.00024422812650179605 0 -0.010806380223611804 -0.00021675552253304302 0 -0.010855933905330841 -0.00024422812650179605 0 -0.010848383190786896 -0.0001650269716500928 0 -0.010838981193123282 -0.00016188598719738722 0 -0.010855933905330841 -0.00024422812650179605 0 -0.010848383190786896 -0.0001650269716500928 0 -0.010838981193123282 -0.00016188598719738722 0 -0.011023902567085558 -0.00024774336556649936 0 -0.010855933905330841 -0.00024422812650179605 0 -0.010494988990729762 4.7881885951397292e-05 0 -0.010986347430329668 -0.00020985753312345302 0 -0.011755081694104075 0.00098941229993950168 0 -0.011023902567085558 -0.00024774336556649936 0 -0.010684787148110426 0.00046752033823152896 0 -0.010059781017706694 0.0002725535415751456 0 -0.011023902567085558 -0.00024774336556649936 0 -0.010684787148110426 0.00046752033823152896 0 -0.010059781017706694 0.0002725535415751456 0 -0.0099387135730981038 0.00067164675091618028 0 -0.010109925091907427 0.00058566171907802674 0 -0.010059781017706694 0.0002725535415751456 0 -0.010684787148110426 0.00046752033823152896 0 -0.0099387135730981038 0.00067164675091618028 0 -0.0099387135730981038 0.00067164675091618028 0 -0.010109925091907427 0.00058566171907802674 0 -0.010082839727324119 0.00043016770588762848 0 -0.010494988990729762 4.7881885951397292e-05 0 -0.010494333352101823 0.00021511204130169839 0 -0.010838981193123282 -0.00016188598719738722 0 -0.01087351550496287 -0.00011973227496471548 0 -0.010848383190786896 -0.0001650269716500928 0 -0.01087351550496287 -0.00011973227496471548 0 -0.010848383190786896 -0.0001650269716500928 0 -0.010900035786431048 -9.1265527891430805e-05 0 -0.01087351550496287 -0.00011973227496471548 0 -0.010900035786431048 -9.1265527891430805e-05 0 -0.010916088720130869 -4.0400999062668199e-05 0 -0.010494333352101823 0.00021511204130169839 0 -0.01071790648825474 0.0001883820032041193 0 -0.010109925091907427 0.00058566171907802674 0 -0.010300155052534283 0.00021911140240951996 0 -0.010549492954610057 0.00042672447198658834 0 -0.010109925091907427 0.00058566171907802674 0 -0.010082839727324119 0.00043016770588762848 0 -0.010300155052534283 0.00021911140240951996 0 -0.014422477756720425 0.0004788546335294113 0 -0.015925443256394001 0.00084977747774140863 0 -0.014880812317909695 0.001717066376694235 0 -0.010082839727324119 0.00043016770588762848 0 -0.010300155052534283 0.00021911140240951996 0 -0.0099394623241429326 0.00022431057126373971 0 -0.011991637860005643 8.390800173693183e-05 0 -0.014479211998833277 0.0021498569902029148 0 -0.014422477756720425 0.0004788546335294113 0 -0.013799435486906582 0.0013874994268488223 0 -0.013344280468702934 0.0008331768715762628 0 -0.014422477756720425 0.0004788546335294113 0 -0.014880812317909695 0.001717066376694235 0 -0.013799435486906582 0.0013874994268488223 0 -0.010684787148110426 0.00046752033823152896 0 -0.0099387135730981038 0.00067164675091618028 0 -0.010623317428456701 0.0017668454428446563 0 -0.011755081694104075 0.00098941229993950168 0 -0.010684787148110426 0.00046752033823152896 0 -0.010623317428456701 0.0017668454428446563 0 -0.012080003703510788 0.0039852715375478711 0 -0.011755081694104075 0.00098941229993950168 0 -0.010623317428456701 0.0017668454428446563 0 -0.0099387135730981038 0.00067164675091618028 0 -0.010082839727324119 0.00043016770588762848 0 -0.0099394623241429326 0.00022431057126373971 0 -0.0099387135730981038 0.00067164675091618028 0 -0.010623317428456701 0.0017668454428446563 0 -0.0094640539407869224 0.0029687922803146925 0 -0.0088930522263206239 0.00055469170195842168 0 -0.014479211998833277 0.0021498569902029148 0 -0.012080003703510788 0.0039852715375478711 0 -0.010623317428456701 0.0017668454428446563 0 -0.0094640539407869224 0.0029687922803146925 0 -0.016733202038429335 0.0052035936378190036 0 -0.014479211998833277 0.0021498569902029148 0 -0.020461931613405267 0.0057208834434468222 0 -0.022747133663515148 0.0061066193898983183 0 -0.02121474332951857 0.0044041616794317359 0 -0.015925443256394001 0.00084977747774140863 0 -0.015896814504931155 0.0019948095332897255 0 -0.014880812317909695 0.001717066376694235 0 -0.014479211998833277 0.0021498569902029148 0 -0.019690825544080699 0.0033923508012852406 0 -0.022747133663515148 0.0061066193898983183 0 -0.02121474332951857 0.0044041616794317359 0 -0.022838825643608035 0.0043376401302051022 0 -0.019244315738634568 0.0029198065728517071 0 -0.019690825544080699 0.0033923508012852406 0 -0.01586148695576152 0.0030945095816795757 0 -0.015896814504931155 0.0019948095332897255 0 -0.015343114200731648 0.0024222303546997974 0 -0.022875345326342156 0.0026470333019236779 0 -0.022838825643608035 0.0043376401302051022 0 -0.021553325796936744 0.0032448682071245646 0 -0.02121474332951857 0.0044041616794317359 0 -0.022838825643608035 0.0043376401302051022 0 -0.021553325796936744 0.0032448682071245646 0 -0.020355359560204199 0.0033322263094255305 0 -0.02121474332951857 0.0044041616794317359 0 -0.021553325796936744 0.0032448682071245646 0 -0.014880812317909695 0.001717066376694235 0 -0.013955614876329826 0.0021292588154868865 0 -0.013799435486906582 0.0013874994268488223 0 -0.014726113776547764 0.0028715246486455165 0 -0.014880812317909695 0.001717066376694235 0 -0.015343114200731648 0.0024222303546997974 0 -0.014726113776547764 0.0028715246486455165 0 -0.01586148695576152 0.0030945095816795757 0 -0.015343114200731648 0.0024222303546997974 0 -0.015896814504931155 0.0019948095332897255 0 -0.014880812317909695 0.001717066376694235 0 -0.015343114200731648 0.0024222303546997974 0 -0.014726113776547764 0.0028715246486455165 0 -0.013955614876329826 0.0021292588154868865 0 -0.013701337283408527 0.0027326733758941163 0 -0.014726113776547764 0.0028715246486455165 0 -0.014880812317909695 0.001717066376694235 0 -0.013955614876329826 0.0021292588154868865 0 -0.013242215010751492 0.0031216882492701098 0 -0.013701337283408527 0.0027326733758941163 0 -0.013031863670705865 0.0026205027034243164 0 -0.013701337283408527 0.0027326733758941163 0 -0.013031863670705865 0.0026205027034243164 0 -0.013343730744874136 0.0023142846813396433 0 -0.013343730744874136 0.0023142846813396433 0 -0.013218842949831892 0.0018331079785646018 0 -0.012949510433775858 0.0022237094456263222 0 -0.013031863670705865 0.0026205027034243164 0 -0.013343730744874136 0.0023142846813396433 0 -0.012949510433775858 0.0022237094456263222 0 -0.013955614876329826 0.0021292588154868865 0 -0.013343730744874136 0.0023142846813396433 0 -0.013218842949831892 0.0018331079785646018 0 -0.013955614876329826 0.0021292588154868865 0 -0.013701337283408527 0.0027326733758941163 0 -0.013343730744874136 0.0023142846813396433 0 -0.013955614876329826 0.0021292588154868865 0 -0.013218842949831892 0.0018331079785646018 0 -0.013799435486906582 0.0013874994268488223 0 -0.013218842949831892 0.0018331079785646018 0 -0.012991986819271892 0.0013601824758725761 0 -0.012699944893394665 0.0018798483843116313 0 -0.013218842949831892 0.0018331079785646018 0 -0.012991986819271892 0.0013601824758725761 0 -0.013799435486906582 0.0013874994268488223 0 -0.012991986819271892 0.0013601824758725761 0 -0.012157115712854025 0.0014617657063294457 0 -0.012699944893394665 0.0018798483843116313 0 -0.013218842949831892 0.0018331079785646018 0 -0.012699944893394665 0.0018798483843116313 0 -0.012949510433775858 0.0022237094456263222 0 -0.012157115712854025 0.0014617657063294457 0 -0.012409784759696962 0.0020223699136287334 0 -0.012120693271988716 0.0022074737551205409 0 -0.012157115712854025 0.0014617657063294457 0 -0.012699944893394665 0.0018798483843116313 0 -0.012409784759696962 0.0020223699136287334 0 -0.012717324548547135 0.0033999494163295305 0 -0.012721025732453282 0.0027730719987117281 0 -0.012054457678157139 0.0023820811859579577 0 -0.012699944893394665 0.0018798483843116313 0 -0.012409784759696962 0.0020223699136287334 0 -0.012552868571455071 0.0023376127243737439 0 -0.012983476629703842 0.0034622869495657027 0 -0.012534800642773852 0.0027014902010608997 0 -0.012594824699583285 0.0025769472847678521 0 -0.012552868571455071 0.0023376127243737439 0 -0.012120693271988716 0.0022074737551205409 0 -0.012054457678157139 0.0023820811859579577 0 -0.012409784759696962 0.0020223699136287334 0 -0.012552868571455071 0.0023376127243737439 0 -0.012120693271988716 0.0022074737551205409 0 -0.012699944893394665 0.0018798483843116313 0 -0.012552868571455071 0.0023376127243737439 0 -0.012949510433775858 0.0022237094456263222 0 -0.013031863670705865 0.0026205027034243164 0 -0.012552868571455071 0.0023376127243737439 0 -0.012949510433775858 0.0022237094456263222 0 -0.013031863670705865 0.0026205027034243164 0 -0.012552868571455071 0.0023376127243737439 0 -0.012721025732453282 0.0027730719987117281 0 -0.013242215010751492 0.0031216882492701098 0 -0.013031863670705865 0.0026205027034243164 0 -0.012721025732453282 0.0027730719987117281 0 -0.012552868571455071 0.0023376127243737439 0 -0.012721025732453282 0.0027730719987117281 0 -0.012054457678157139 0.0023820811859579577 0 -0.015654064113270784 0.0014158767573039964 0 -0.015764403428541331 0.0013847715437934587 0 -0.015691891927405017 0.0014621586557529824 0 -0.015764403428541331 0.0013847715437934587 0 -0.015816057252695102 0.0014989726675061241 0 -0.015691891927405017 0.0014621586557529824 0 -0.013407887075700453 0.0024011182296021405 0 -0.013679642513835719 0.0022254513621841874 0 -0.015670124933610335 0.001428412135198369 0 -0.015655609924374231 0.0014577602269835218 0 -0.015691891927405017 0.0014621586557529824 0 -0.015457841820041627 0.0019967048038139487 0 -0.013679642513835719 0.0022254513621841874 0 -0.015457841820041627 0.0019967048038139487 0 -0.015436733794276286 0.0018038121286251645 0 -0.016049367332572288 0.0011512924568445055 0 -0.015913013384283012 0.0014313512552496257 0 -0.01607397190086074 0.0015047410726722126 0 -0.015764403428541331 0.0013847715437934587 0 -0.015816057252695102 0.0014989726675061241 0 -0.015913013384283012 0.0014313512552496257 0 -0.015816057252695102 0.0014989726675061241 0 -0.015913013384283012 0.0014313512552496257 0 -0.015890679919528531 0.0015572806059551349 0 -0.015913013384283012 0.0014313512552496257 0 -0.015890679919528531 0.0015572806059551349 0 -0.01598271263046001 0.0015494013727681015 0 -0.015913013384283012 0.0014313512552496257 0 -0.01607397190086074 0.0015047410726722126 0 -0.01598271263046001 0.0015494013727681015 0 -0.015890679919528531 0.0015572806059551349 0 -0.01598271263046001 0.0015494013727681015 0 -0.015928393978294018 0.0016026797543147436 0 -0.015816057252695102 0.0014989726675061241 0 -0.015890679919528531 0.0015572806059551349 0 -0.015830144631505245 0.0016002588681995199 0 -0.015890679919528531 0.0015572806059551349 0 -0.015830144631505245 0.0016002588681995199 0 -0.01590199769567786 0.0015887105710840697 0 -0.015890679919528531 0.0015572806059551349 0 -0.01590199769567786 0.0015887105710840697 0 -0.015928393978294018 0.0016026797543147436 0 -0.012157115712854025 0.0014617657063294457 0 -0.012120693271988716 0.0022074737551205409 0 -0.01138439522459715 0.0013111402366280751 0 -0.015816057252695102 0.0014989726675061241 0 -0.015691891927405017 0.0014621586557529824 0 -0.015830144631505245 0.0016002588681995199 0 -0.013679642513835719 0.0022254513621841874 0 -0.013624899225084941 0.0014127864585206248 0 -0.015655609924374231 0.0014577602269835218 0 -0.015691891927405017 0.0014621586557529824 0 -0.015830144631505245 0.0016002588681995199 0 -0.012120693271988716 0.0022074737551205409 0 -0.012041667255906904 0.0023940931204999528 0 -0.01138439522459715 0.0013111402366280751 0 -0.012157115712854025 0.0014617657063294457 0 -0.01138439522459715 0.0013111402366280751 0 -0.011848086400434015 0.00065292085709486131 0 -0.01138439522459715 0.0013111402366280751 0 -0.011332813928928046 0.00044536729784097834 0 -0.011848086400434015 0.00065292085709486131 0 -0.01590199769567786 0.0015887105710840697 0 -0.015820119398566375 0.0015423217843753305 0 -0.015871619973283967 0.001557585174806467 0 -0.015830144631505245 0.0016002588681995199 0 -0.01590199769567786 0.0015887105710840697 0 -0.015871619973283967 0.001557585174806467 0 -0.01138439522459715 0.0013111402366280751 0 -0.011332813928928046 0.00044536729784097834 0 -0.01093496112729276 0.00028183137190331545 0 -0.013624899225084941 0.0014127864585206248 0 -0.013298471111194829 0.00089986311295549748 0 -0.01590199769567786 0.0015887105710840697 0 -0.01586685868144198 0.0012594133038932192 0 -0.015797960245757747 0.0014327398332004218 0 -0.015881319259226291 0.0015202588178904435 0 -0.01588825040438533 0.0015190524111407288 0 -0.015820119398566375 0.0015423217843753305 0 -0.015871619973283967 0.001557585174806467 0 -0.015778096024291182 0.0013588524541836167 0 -0.013298471111194829 0.00089986311295549748 0 -0.014508018226429574 0.00059287611997815208 0 -0.01093496112729276 0.00028183137190331545 0 -0.011121382611778769 1.3598937221553354e-05 0 -0.010939971900042773 1.2152906777591636e-05 0 -0.011332813928928046 0.00044536729784097834 0 -0.01093496112729276 0.00028183137190331545 0 -0.011121382611778769 1.3598937221553354e-05 0 -0.011332813928928046 0.00044536729784097834 0 -0.011848086400434015 0.00065292085709486131 0 -0.011121382611778769 1.3598937221553354e-05 0 -0.011848086400434015 0.00065292085709486131 0 -0.011121382611778769 1.3598937221553354e-05 0 -0.012100344148198829 0.00038301778202716772 0 -0.011121382611778769 1.3598937221553354e-05 0 -0.01091656376732369 8.3460096068597824e-05 0 -0.0109813593306297 4.6743560019041756e-05 0 -0.011121382611778769 1.3598937221553354e-05 0 -0.01091656376732369 8.3460096068597824e-05 0 -0.010795097003403378 9.4458160455189685e-05 0 -0.011138905647225934 -5.5158520272231616e-06 0 -0.011917749213673744 0.00016643916491775444 0 -0.011121382611778769 1.3598937221553354e-05 0 -0.012100344148198829 0.00038301778202716772 0 -0.012849681264618202 0.00010903905959453118 0 -0.010887445724348126 0.0001057428741261111 0 -0.01071790648825474 0.0001883820032041193 0 -0.011991637860005643 8.390800173693183e-05 0 -0.011917749213673744 0.00016643916491775444 0 -0.010300155052534283 0.00021911140240951996 0 -0.010795097003403378 9.4458160455189685e-05 0 -0.010549492954610057 0.00042672447198658834 0 -0.01091656376732369 8.3460096068597824e-05 0 -0.010795097003403378 9.4458160455189685e-05 0 -0.010549492954610057 0.00042672447198658834 0 -0.014422477756720425 0.0004788546335294113 0 -0.012849681264618202 0.00010903905959453118 0 -0.013344280468702934 0.0008331768715762628 0 -0.012849681264618202 0.00010903905959453118 0 -0.013344280468702934 0.0008331768715762628 0 -0.012593242548642492 0.00079306061378420342 0 -0.012991986819271892 0.0013601824758725761 0 -0.013799435486906582 0.0013874994268488223 0 -0.013344280468702934 0.0008331768715762628 0 -0.012991986819271892 0.0013601824758725761 0 -0.013344280468702934 0.0008331768715762628 0 -0.012593242548642492 0.00079306061378420342 0 -0.012991986819271892 0.0013601824758725761 0 -0.012157115712854025 0.0014617657063294457 0 -0.012593242548642492 0.00079306061378420342 0 -0.012157115712854025 0.0014617657063294457 0 -0.011848086400434015 0.00065292085709486131 0 -0.012593242548642492 0.00079306061378420342 0 -0.011848086400434015 0.00065292085709486131 0 -0.012100344148198829 0.00038301778202716772 0 -0.012593242548642492 0.00079306061378420342 0 -0.012100344148198829 0.00038301778202716772 0 -0.012849681264618202 0.00010903905959453118 0 -0.012593242548642492 0.00079306061378420342 0 -0.016134079667574675 0.0015711232274325444 0 -0.01612503441752286 0.0015987731952532376 0 -0.016162210606301384 0.0015928106963914409 0 -0.016134079667574675 0.0015711232274325444 0 -0.016105153692130114 0.0015819483109823912 0 -0.01612503441752286 0.0015987731952532376 0 -0.016134079667574675 0.0015711232274325444 0 -0.016166621178919229 0.0015568241090550439 0 -0.016162210606301384 0.0015928106963914409 0 -0.016134079667574675 0.0015711232274325444 0 -0.01613706355292209 0.0015370679994485426 0 -0.016166621178919229 0.0015568241090550439 0 -0.017546198489939727 0.0012286170274763623 0 -0.017388548101403958 0.0015767575936962003 0 -0.01768321249508838 0.0013839163094446609 0 -0.016134079667574675 0.0015711232274325444 0 -0.01613706355292209 0.0015370679994485426 0 -0.016106602243310123 0.0015587674945001476 0 -0.01613706355292209 0.0015370679994485426 0 -0.016106602243310123 0.0015587674945001476 0 -0.016075876459027954 0.0015411673883523457 0 -0.016774995352686162 0.001567851393072696 0 -0.016402305646734498 0.0015548841438738795 0 -0.017388548101403958 0.0015767575936962003 0 -0.016923728837674418 0.0014074533637299142 0 -0.016737210133309876 0.0015870936140796603 0 -0.017305368293330587 0.0013060784099918558 0 -0.017388548101403958 0.0015767575936962003 0 -0.016923728837674418 0.0014074533637299142 0 -0.016106602243310123 0.0015587674945001476 0 -0.016082722546276528 0.0015626650520354436 0 -0.016075876459027954 0.0015411673883523457 0 -0.016106602243310123 0.0015587674945001476 0 -0.016105153692130114 0.0015819483109823912 0 -0.016082722546276528 0.0015626650520354436 0 -0.016134079667574675 0.0015711232274325444 0 -0.016106602243310123 0.0015587674945001476 0 -0.016105153692130114 0.0015819483109823912 0 -0.016105153692130114 0.0015819483109823912 0 -0.016081299062313082 0.0015935176098730826 0 -0.016082722546276528 0.0015626650520354436 0 -0.016081299062313082 0.0015935176098730826 0 -0.016063738344155132 0.0015718850247417409 0 -0.016082722546276528 0.0015626650520354436 0 -0.016081299062313082 0.0015935176098730826 0 -0.016063738344155132 0.0015718850247417409 0 -0.016053122072400741 0.0016086745723902327 0 -0.016063738344155132 0.0015718850247417409 0 -0.016039848917166297 0.0015758139030250388 0 -0.016053122072400741 0.0016086745723902327 0 -0.016063738344155132 0.0015718850247417409 0 -0.01606880676019248 0.0015460775153130005 0 -0.016052979513029253 0.0015477242090376198 0 -0.016063738344155132 0.0015718850247417409 0 -0.016052979513029253 0.0015477242090376198 0 -0.016039848917166297 0.0015758139030250388 0 -0.016063738344155132 0.0015718850247417409 0 -0.01606880676019248 0.0015460775153130005 0 -0.016082722546276528 0.0015626650520354436 0 -0.016580400669694611 0.0013256262075370942 0 -0.016737210133309876 0.0015870936140796603 0 -0.01607397190086074 0.0015047410726722126 0 -0.01606880676019248 0.0015460775153130005 0 -0.016075876459027954 0.0015411673883523457 0 -0.01607397190086074 0.0015047410726722126 0 -0.016402305646734498 0.0015548841438738795 0 -0.016101223080941598 0.0015202357146077686 0 -0.01606880676019248 0.0015460775153130005 0 -0.016082722546276528 0.0015626650520354436 0 -0.016075876459027954 0.0015411673883523457 0 -0.016580400669694611 0.0013256262075370942 0 -0.016923728837674418 0.0014074533637299142 0 -0.016737210133309876 0.0015870936140796603 0 -0.016388213491659219 0.001181600445166202 0 -0.016580400669694611 0.0013256262075370942 0 -0.01607397190086074 0.0015047410726722126 0 -0.01606880676019248 0.0015460775153130005 0 -0.01607397190086074 0.0015047410726722126 0 -0.016052979513029253 0.0015477242090376198 0 -0.01607397190086074 0.0015047410726722126 0 -0.01598271263046001 0.0015494013727681015 0 -0.016030099873277814 0.001550082542281124 0 -0.01598271263046001 0.0015494013727681015 0 -0.016030099873277814 0.001550082542281124 0 -0.015998781428852655 0.0015772584825826459 0 -0.01607397190086074 0.0015047410726722126 0 -0.016052979513029253 0.0015477242090376198 0 -0.016030099873277814 0.001550082542281124 0 -0.016052979513029253 0.0015477242090376198 0 -0.016030099873277814 0.001550082542281124 0 -0.016039848917166297 0.0015758139030250388 0 -0.016030099873277814 0.001550082542281124 0 -0.016039848917166297 0.0015758139030250388 0 -0.015998781428852655 0.0015772584825826459 0 -0.016039848917166297 0.0015758139030250388 0 -0.015998781428852655 0.0015772584825826459 0 -0.0160185689946005 0.0016034871131724736 0 -0.016039848917166297 0.0015758139030250388 0 -0.0160185689946005 0.0016034871131724736 0 -0.016053122072400741 0.0016086745723902327 0 -0.015928393978294018 0.0016026797543147436 0 -0.015998781428852655 0.0015772584825826459 0 -0.0160185689946005 0.0016034871131724736 0 -0.01598271263046001 0.0015494013727681015 0 -0.015928393978294018 0.0016026797543147436 0 -0.015998781428852655 0.0015772584825826459 0 -0.015893426818113402 0.0015845395997023343 0 -0.015823740295082909 0.001536423472470069 0 -0.01590199769567786 0.0015887105710840697 0 -0.015818715420723981 0.0015152025779445676 0 -0.015797960245757747 0.0014327398332004218 0 -0.015928393978294018 0.0016026797543147436 0 -0.015818715420723981 0.0015152025779445676 0 -0.015590763155107389 0.0014354557326711806 0 -0.01590199769567786 0.0015887105710840697 0 -0.015928393978294018 0.0016026797543147436 0 -0.015818715420723981 0.0015152025779445676 0 -0.0160185689946005 0.0016034871131724736 0 -0.016033212191829505 0.0016386520518111361 0 -0.016053122072400741 0.0016086745723902327 0 -0.015928393978294018 0.0016026797543147436 0 -0.0160185689946005 0.0016034871131724736 0 -0.016033212191829505 0.0016386520518111361 0 -0.015590763155107389 0.0014354557326711806 0 -0.015730074887785717 0.0013197957110241906 0 -0.015585732113783276 0.0012691188564281218 0 -0.01586685868144198 0.0012594133038932192 0 -0.015797960245757747 0.0014327398332004218 0 -0.015730074887785717 0.0013197957110241906 0 -0.015818715420723981 0.0015152025779445676 0 -0.015590763155107389 0.0014354557326711806 0 -0.015797960245757747 0.0014327398332004218 0 -0.015590763155107389 0.0014354557326711806 0 -0.015797960245757747 0.0014327398332004218 0 -0.015730074887785717 0.0013197957110241906 0 -0.01588825040438533 0.0015190524111407288 0 -0.014508018226429574 0.00059287611997815208 0 -0.01586685868144198 0.0012594133038932192 0 -0.015730074887785717 0.0013197957110241906 0 -0.015672094882165217 0.0011016982061881455 0 -0.01586685868144198 0.0012594133038932192 0 -0.015672094882165217 0.0011016982061881455 0 -0.015771547958778019 0.00082748043860975161 0 -0.015672094882165217 0.0011016982061881455 0 -0.015500412349603261 0.0010262984760602354 0 -0.015581267550313633 0.00083354443264724797 0 -0.015672094882165217 0.0011016982061881455 0 -0.015500412349603261 0.0010262984760602354 0 -0.015585732113783276 0.0012691188564281218 0 -0.015730074887785717 0.0013197957110241906 0 -0.015672094882165217 0.0011016982061881455 0 -0.015585732113783276 0.0012691188564281218 0 -0.015823740295082909 0.001536423472470069 0 -0.01553434724983362 0.001408910815538503 0 -0.015451132692905005 0.0012298111081204947 0 -0.01553434724983362 0.001408910815538503 0 -0.015590763155107389 0.0014354557326711806 0 -0.015585732113783276 0.0012691188564281218 0 -0.015334766436136045 0.0011367514027279333 0 -0.016033212191829505 0.0016386520518111361 0 -0.016057351205448208 0.0016536241297227343 0 -0.016057888783603022 0.0016361391498891827 0 -0.015500412349603261 0.0010262984760602354 0 -0.015274067471023613 0.0011194089306582843 0 -0.015390202291991692 0.00080906644990494435 0 -0.015500412349603261 0.0010262984760602354 0 -0.015585732113783276 0.0012691188564281218 0 -0.015274067471023613 0.0011194089306582843 0 -0.01553434724983362 0.001408910815538503 0 -0.014927897439063968 0.00094558025627109452 0 -0.01553434724983362 0.001408910815538503 0 -0.013905390828076795 0.00064667134260598571 0 -0.016057351205448208 0.0016536241297227343 0 -0.016057888783603022 0.0016361391498891827 0 -0.016082022024958471 0.0016383460174424565 0 -0.016074233369902421 0.0016207911579611193 0 -0.016057888783603022 0.0016361391498891827 0 -0.016082022024958471 0.0016383460174424565 0 -0.016074233369902421 0.0016207911579611193 0 -0.016057888783603022 0.0016361391498891827 0 -0.016053122072400741 0.0016086745723902327 0 -0.016033212191829505 0.0016386520518111361 0 -0.016057888783603022 0.0016361391498891827 0 -0.016053122072400741 0.0016086745723902327 0 -0.016081299062313082 0.0015935176098730826 0 -0.016074233369902421 0.0016207911579611193 0 -0.016053122072400741 0.0016086745723902327 0 -0.016101483608602512 0.0016136324687637212 0 -0.016082022024958471 0.0016383460174424565 0 -0.016122518991726949 0.0016336663870599908 0 -0.016105153692130114 0.0015819483109823912 0 -0.016081299062313082 0.0015935176098730826 0 -0.016101483608602512 0.0016136324687637212 0 -0.016081299062313082 0.0015935176098730826 0 -0.016074233369902421 0.0016207911579611193 0 -0.016101483608602512 0.0016136324687637212 0 -0.016105153692130114 0.0015819483109823912 0 -0.016101483608602512 0.0016136324687637212 0 -0.01612503441752286 0.0015987731952532376 0 -0.016074233369902421 0.0016207911579611193 0 -0.016101483608602512 0.0016136324687637212 0 -0.016082022024958471 0.0016383460174424565 0 -0.016082022024958471 0.0016383460174424565 0 -0.016122518991726949 0.0016336663870599908 0 -0.016081883392992539 0.0016674463208510661 0 -0.015647527084271272 0.0014926980059197523 0 -0.014927897439063968 0.00094558025627109452 0 -0.015033071617022213 0.0011336298168245201 0 -0.015041417508979549 0.0013265123259736437 0 -0.015226457366642623 0.0010953575235034851 0 -0.016057351205448208 0.0016536241297227343 0 -0.016082022024958471 0.0016383460174424565 0 -0.016081883392992539 0.0016674463208510661 0 -0.015033071617022213 0.0011336298168245201 0 -0.015041417508979549 0.0013265123259736437 0 -0.014863350111014906 0.001241168303815164 0 -0.016122518991726949 0.0016336663870599908 0 -0.01612503441752286 0.0015987731952532376 0 -0.016162210606301384 0.0015928106963914409 0 -0.015647527084271272 0.0014926980059197523 0 -0.015499742361510048 0.0016180821355700828 0 -0.015041417508979549 0.0013265123259736437 0 -0.014863350111014906 0.001241168303815164 0 -0.014842193484046794 0.0015621624300031127 0 -0.016101483608602512 0.0016136324687637212 0 -0.016122518991726949 0.0016336663870599908 0 -0.01612503441752286 0.0015987731952532376 0 -0.013900949861236363 0.00014935639948338044 0 -0.013885458305913281 0.00021531084390622788 0 -0.013995433617120348 0.00025093843549204854 0 -0.013900949861236363 0.00014935639948338044 0 -0.013885458305913281 0.00021531084390622788 0 -0.013854320691305853 0.00014465819737922563 0 -0.015033071617022213 0.0011336298168245201 0 -0.014962155343695816 0.00094747964004134738 0 -0.014863350111014906 0.001241168303815164 0 -0.015033071617022213 0.0011336298168245201 0 -0.014962155343695816 0.00094747964004134738 0 -0.015226457366642623 0.0010953575235034851 0 -0.014353304866009485 0.00053289198176533577 0 -0.014927897439063968 0.00094558025627109452 0 -0.013885458305913281 0.00021531084390622788 0 -0.01397887352995119 0.00027426237895650739 0 -0.013995433617120348 0.00025093843549204854 0 -0.015238237488721799 0.0014517741121860752 0 -0.014367111847933683 0.00097433988744276983 0 -0.014623754026565931 0.00066536538856655026 0 -0.014927897439063968 0.00094558025627109452 0 -0.013905390828076795 0.00064667134260598571 0 -0.012321639627526014 0.00033214304102787974 0 -0.012557673603348498 0.00061192321950736921 0 -0.012517175400960567 0.00035863750237627673 0 -0.013165062680427546 0.00015887609961163016 0 -0.013905390828076795 0.00064667134260598571 0 -0.012517175400960567 0.00035863750237627673 0 -0.012699011829845147 0.00042997894546409397 0 -0.012593224220905648 0.0001842982261047356 0 -0.012557673603348498 0.00061192321950736921 0 -0.012517175400960567 0.00035863750237627673 0 -0.012699011829845147 0.00042997894546409397 0 -0.015329089907050536 0.00049902398221777242 0 -0.015390202291991692 0.00080906644990494435 0 -0.015526670097814501 0.00053098625968630176 0 -0.013905390828076795 0.00064667134260598571 0 -0.014178763769105139 0.00034723573202418508 0 -0.015046651619359256 0.00083091602271272657 0 -0.015329089907050536 0.00049902398221777242 0 -0.015390202291991692 0.00080906644990494435 0 -0.015274067471023613 0.0011194089306582843 0 -0.015046651619359256 0.00083091602271272657 0 -0.015390202291991692 0.00080906644990494435 0 -0.015390202291991692 0.00080906644990494435 0 -0.015581267550313633 0.00083354443264724797 0 -0.015526670097814501 0.00053098625968630176 0 -0.015581267550313633 0.00083354443264724797 0 -0.015673863072390992 0.00068722917701615101 0 -0.015526670097814501 0.00053098625968630176 0 -0.015500412349603261 0.0010262984760602354 0 -0.015390202291991692 0.00080906644990494435 0 -0.015581267550313633 0.00083354443264724797 0 -0.015672094882165217 0.0011016982061881455 0 -0.015581267550313633 0.00083354443264724797 0 -0.015771547958778019 0.00082748043860975161 0 -0.015581267550313633 0.00083354443264724797 0 -0.015771547958778019 0.00082748043860975161 0 -0.015673863072390992 0.00068722917701615101 0 -0.014508018226429574 0.00059287611997815208 0 -0.01509350187471095 0.00093336933246730399 0 -0.015749626589136971 0.00081523697029727059 0 -0.015673863072390992 0.00068722917701615101 0 -0.015608275770675924 0.00019629478416943066 0 -0.015329089907050536 0.00049902398221777242 0 -0.015526670097814501 0.00053098625968630176 0 -0.015570306517341174 0.0001862285301591112 0 -0.015673863072390992 0.00068722917701615101 0 -0.015526670097814501 0.00053098625968630176 0 -0.015608275770675924 0.00019629478416943066 0 -0.015526670097814501 0.00053098625968630176 0 -0.015608275770675924 0.00019629478416943066 0 -0.015570306517341174 0.0001862285301591112 0 -0.014508018226429574 0.00059287611997815208 0 -0.01202627235233753 0.00031023419699427202 0 -0.014178763769105139 0.00034723573202418508 0 -0.012349216892489483 0.0002331716244050645 0 -0.010889435652650272 8.6582902374590786e-05 0 -0.010884609353169242 8.8210668622918571e-05 0 -0.010858884117289901 0.00010291115463820406 0 -0.01048031709380986 0.00081255662267428841 0 -0.010427627927943906 0.00057789055971611142 0 -0.010343321750191712 0.00071158558480410893 0 -0.01202627235233753 0.00031023419699427202 0 -0.010705136899429491 -1.1380196715771232e-06 0 -0.010887907862249075 9.0593474948075407e-05 0 -0.010884609353169242 8.8210668622918571e-05 0 -0.010893992447169411 8.4709230727377638e-05 0 -0.010887907862249075 9.0593474948075407e-05 0 -0.010886858261625505 8.9756053772806709e-05 0 -0.010884609353169242 8.8210668622918571e-05 0 -0.012017704982468052 0.00051973093867038885 0 -0.01194265455994851 2.6381984586352624e-05 0 -0.011621786409275765 0.00041115649466727386 0 -0.01202627235233753 0.00031023419699427202 0 -0.011789634725556549 0.00043010059347713413 0 -0.01202627235233753 0.00031023419699427202 0 -0.012349216892489483 0.0002331716244050645 0 -0.011789634725556549 0.00043010059347713413 0 -0.012349216892489483 0.0002331716244050645 0 -0.011789634725556549 0.00043010059347713413 0 -0.011642222911915625 0.00045326601979972639 0 -0.01048031709380986 0.00081255662267428841 0 -0.010461654324608181 0.000836041025250696 0 -0.010343321750191712 0.00071158558480410893 0 -0.010884609353169242 8.8210668622918571e-05 0 -0.010862816816878083 9.7916717832879891e-05 0 -0.010893992447169411 8.4709230727377638e-05 0 -0.011789634725556549 0.00043010059347713413 0 -0.010621457843869404 0.00029819689249575105 0 -0.010884609353169242 8.8210668622918571e-05 0 -0.010862816816878083 9.7916717832879891e-05 0 -0.010858884117289901 0.00010291115463820406 0 -0.010427627927943906 0.00057789055971611142 0 -0.010343321750191712 0.00071158558480410893 0 -0.010284442264323873 0.00048159080358477132 0 -0.010862816816878083 9.7916717832879891e-05 0 -0.010858884117289901 0.00010291115463820406 0 -0.010833461068930607 0.00011845872164952843 0 -0.010188200491718348 0.00076515649232464851 0 -0.010343321750191712 0.00071158558480410893 0 -0.010134146104933569 0.00060207502002448769 0 -0.010343321750191712 0.00071158558480410893 0 -0.010134146104933569 0.00060207502002448769 0 -0.010284442264323873 0.00048159080358477132 0 -0.010134146104933569 0.00060207502002448769 0 -0.01010662283895716 0.00045399109587703325 0 -0.010284442264323873 0.00048159080358477132 0 -0.012699011829845147 0.00042997894546409397 0 -0.012839743462817249 0.00025184973841548258 0 -0.012593224220905648 0.0001842982261047356 0 -0.010461654324608181 0.000836041025250696 0 -0.010188200491718348 0.00076515649232464851 0 -0.010343321750191712 0.00071158558480410893 0 -0.012349216892489483 0.0002331716244050645 0 -0.011305902934910206 0.00048185672251566228 0 -0.011305902934910206 0.00048185672251566228 0 -0.010961034718418547 0.00036656341160434819 0 -0.012517175400960567 0.00035863750237627673 0 -0.012593224220905648 0.0001842982261047356 0 -0.012341371298383242 0.0001159298898030688 0 -0.012321639627526014 0.00033214304102787974 0 -0.012517175400960567 0.00035863750237627673 0 -0.012341371298383242 0.0001159298898030688 0 -0.010134146104933569 0.00060207502002448769 0 -0.0099639327458752418 0.00051223033949608881 0 -0.0099254476309149388 0.00068980746083630213 0 -0.010188200491718348 0.00076515649232464851 0 -0.010134146104933569 0.00060207502002448769 0 -0.0099254476309149388 0.00068980746083630213 0 -0.010134146104933569 0.00060207502002448769 0 -0.0099639327458752418 0.00051223033949608881 0 -0.01010662283895716 0.00045399109587703325 0 -0.0099254476309149388 0.00068980746083630213 0 -0.009775005145923641 0.00053618296006627676 0 -0.0096763375647914464 0.00060354356794963893 0 -0.010961034718418547 0.00036656341160434819 0 -0.011901805224278987 0.00038932408304782402 0 -0.0099639327458752418 0.00051223033949608881 0 -0.0099254476309149388 0.00068980746083630213 0 -0.009775005145923641 0.00053618296006627676 0 -0.013165062680427546 0.00015887609961163016 0 -0.011901805224278987 0.00038932408304782402 0 -0.012321639627526014 0.00033214304102787974 0 -0.012341371298383242 0.0001159298898030688 0 -0.012087907139336704 4.9528899343200413e-05 0 -0.010918008796337336 -8.0863573492570393e-06 0 -0.010942162340812873 3.4330601957023593e-05 0 -0.010899957293626149 -7.2330804897831132e-05 0 -0.010942162340812873 3.4330601957023593e-05 0 -0.010872982728064043 8.057219945731865e-05 0 -0.010817101418282455 7.7415772067968372e-05 0 -0.010932685144105253 2.4171334636852746e-05 0 -0.010866853773343715 4.1811505150113156e-06 0 -0.010900035786431048 -9.1265527891430805e-05 0 -0.010918008796337336 -8.0863573492570393e-06 0 -0.010899957293626149 -7.2330804897831132e-05 0 -0.010900035786431048 -9.1265527891430805e-05 0 -0.010916088720130869 -4.0400999062668199e-05 0 -0.010918008796337336 -8.0863573492570393e-06 0 -0.01091656376732369 8.3460096068597824e-05 0 -0.010916088720130869 -4.0400999062668199e-05 0 -0.010918008796337336 -8.0863573492570393e-06 0 -0.010918008796337336 -8.0863573492570393e-06 0 -0.010942162340812873 3.4330601957023593e-05 0 -0.0109813593306297 4.6743560019041756e-05 0 -0.01091656376732369 8.3460096068597824e-05 0 -0.010918008796337336 -8.0863573492570393e-06 0 -0.0109813593306297 4.6743560019041756e-05 0 -0.011121382611778769 1.3598937221553354e-05 0 -0.010942162340812873 3.4330601957023593e-05 0 -0.0109813593306297 4.6743560019041756e-05 0 -0.011121382611778769 1.3598937221553354e-05 0 -0.010942162340812873 3.4330601957023593e-05 0 -0.010951693701904762 2.5324481801539949e-05 0 -0.011121382611778769 1.3598937221553354e-05 0 -0.010939971900042773 1.2152906777591636e-05 0 -0.010951693701904762 2.5324481801539949e-05 0 -0.010939971900042773 1.2152906777591636e-05 0 -0.010957080964532901 7.0433974806339701e-05 0 -0.010951693701904762 2.5324481801539949e-05 0 -0.010957080964532901 7.0433974806339701e-05 0 -0.010951693701904762 2.5324481801539949e-05 0 -0.010920105441750908 7.2228923342659168e-05 0 -0.010951693701904762 2.5324481801539949e-05 0 -0.010920105441750908 7.2228923342659168e-05 0 -0.010886116388119428 8.3753701638108409e-05 0 -0.010942162340812873 3.4330601957023593e-05 0 -0.010951693701904762 2.5324481801539949e-05 0 -0.010872982728064043 8.057219945731865e-05 0 -0.010951693701904762 2.5324481801539949e-05 0 -0.010872982728064043 8.057219945731865e-05 0 -0.010886116388119428 8.3753701638108409e-05 0 -0.010872982728064043 8.057219945731865e-05 0 -0.010886116388119428 8.3753701638108409e-05 0 -0.010834116602950939 0.00010955554324804207 0 -0.010886116388119428 8.3753701638108409e-05 0 -0.010864316559782801 9.6860591572328413e-05 0 -0.010834116602950939 0.00010955554324804207 0 -0.010920105441750908 7.2228923342659168e-05 0 -0.010886116388119428 8.3753701638108409e-05 0 -0.010893992447169411 8.4709230727377638e-05 0 -0.010887907862249075 9.0593474948075407e-05 0 -0.010920105441750908 7.2228923342659168e-05 0 -0.010893992447169411 8.4709230727377638e-05 0 -0.010886116388119428 8.3753701638108409e-05 0 -0.010893992447169411 8.4709230727377638e-05 0 -0.010864316559782801 9.6860591572328413e-05 0 -0.010862816816878083 9.7916717832879891e-05 0 -0.010893992447169411 8.4709230727377638e-05 0 -0.010864316559782801 9.6860591572328413e-05 0 -0.010862816816878083 9.7916717832879891e-05 0 -0.010864316559782801 9.6860591572328413e-05 0 -0.010829980169853402 0.00011308546265258809 0 -0.010864316559782801 9.6860591572328413e-05 0 -0.010829980169853402 0.00011308546265258809 0 -0.010834116602950939 0.00010955554324804207 0 -0.010829980169853402 0.00011308546265258809 0 -0.010834116602950939 0.00010955554324804207 0 -0.010806117702826102 0.00012560805618145473 0 -0.010862816816878083 9.7916717832879891e-05 0 -0.010829980169853402 0.00011308546265258809 0 -0.010833461068930607 0.00011845872164952843 0 -0.010834116602950939 0.00010955554324804207 0 -0.010812037467322689 0.00011456515897122342 0 -0.010781122252478436 0.00014018811928530903 0 -0.010872982728064043 8.057219945731865e-05 0 -0.010834116602950939 0.00010955554324804207 0 -0.010812037467322689 0.00011456515897122342 0 -0.010872982728064043 8.057219945731865e-05 0 -0.010812037467322689 0.00011456515897122342 0 -0.010817101418282455 7.7415772067968372e-05 0 -0.010803408124596806 9.6890673812694309e-05 0 -0.010812037467322689 0.00011456515897122342 0 -0.010817101418282455 7.7415772067968372e-05 0 -0.010903206488516979 -0.00012696972003606769 0 -0.010900035786431048 -9.1265527891430805e-05 0 -0.010899957293626149 -7.2330804897831132e-05 0 -0.01085012642427269 -1.2962592802230547e-05 0 -0.010866853773343715 4.1811505150113156e-06 0 -0.010803408124596806 9.6890673812694309e-05 0 -0.010812037467322689 0.00011456515897122342 0 -0.010803611380156508 0.00011531494144066181 0 -0.010803611380156508 0.00011531494144066181 0 -0.010801171647442844 0.00012712283198437933 0 -0.01081562328305141 9.8994880141020688e-05 0 -0.010803611380156508 0.00011531494144066181 0 -0.010801171647442844 0.00012712283198437933 0 -0.010789506277826554 0.00013127085916109991 0 -0.010801171647442844 0.00012712283198437933 0 -0.010793181891688928 0.00013524431057569485 0 -0.010787782665777193 0.00012738065790553638 0 -0.010801171647442844 0.00012712283198437933 0 -0.010779409327157345 0.00011920260481155098 0 -0.010787782665777193 0.00012738065790553638 0 -0.010801171647442844 0.00012712283198437933 0 -0.010793181891688928 0.00013524431057569485 0 -0.010807062892290577 0.00015663435632225979 0 -0.010779409327157345 0.00011920260481155098 0 -0.010789506277826554 0.00013127085916109991 0 -0.010751359193659434 0.00013643282589330565 0 -0.010801171647442844 0.00012712283198437933 0 -0.010779409327157345 0.00011920260481155098 0 -0.010789506277826554 0.00013127085916109991 0 -0.010812037467322689 0.00011456515897122342 0 -0.010789506277826554 0.00013127085916109991 0 -0.010781122252478436 0.00014018811928530903 0 -0.010812037467322689 0.00011456515897122342 0 -0.010803611380156508 0.00011531494144066181 0 -0.010789506277826554 0.00013127085916109991 0 -0.010834116602950939 0.00010955554324804207 0 -0.010781122252478436 0.00014018811928530903 0 -0.010806117702826102 0.00012560805618145473 0 -0.010781122252478436 0.00014018811928530903 0 -0.010785637812501744 0.00013361975403711988 0 -0.010683206677993971 0.0001729822904269036 0 -0.010781122252478436 0.00014018811928530903 0 -0.010806117702826102 0.00012560805618145473 0 -0.010785637812501744 0.00013361975403711988 0 -0.010829980169853402 0.00011308546265258809 0 -0.010785637812501744 0.00013361975403711988 0 -0.010833461068930607 0.00011845872164952843 0 -0.010829980169853402 0.00011308546265258809 0 -0.010806117702826102 0.00012560805618145473 0 -0.010785637812501744 0.00013361975403711988 0 -0.010785637812501744 0.00013361975403711988 0 -0.010821695444484074 0.00013726335881328346 0 -0.010802006491435067 0.00015302053627281903 0 -0.010785637812501744 0.00013361975403711988 0 -0.010833461068930607 0.00011845872164952843 0 -0.010821695444484074 0.00013726335881328346 0 -0.010785637812501744 0.00013361975403711988 0 -0.010683206677993971 0.0001729822904269036 0 -0.010802006491435067 0.00015302053627281903 0 -0.010781122252478436 0.00014018811928530903 0 -0.010683206677993971 0.0001729822904269036 0 -0.010751359193659434 0.00013643282589330565 0 -0.010789506277826554 0.00013127085916109991 0 -0.010781122252478436 0.00014018811928530903 0 -0.010751359193659434 0.00013643282589330565 0 -0.00075493423559431605 0.0007919344444124683 0 -0.0010976027281151604 0.00066997059784318596 0 -0.0014587472411967211 0.00098028295790124039 0 -0.005648162410208408 0.00039907520397024302 0 -0.0060017038763329209 0.00048857714092208565 0 -0.010751359193659434 0.00013643282589330565 0 -0.010528087520366739 -7.1574275827102711e-05 0 -0.010749420880168866 5.28010005503616e-05 0 -0.010683206677993971 0.0001729822904269036 0 -0.010751359193659434 0.00013643282589330565 0 -0.010528087520366739 -7.1574275827102711e-05 0 -0.010683206677993971 0.0001729822904269036 0 -0.010528087520366739 -7.1574275827102711e-05 0 -0.010252767638192604 3.6807532063645538e-05 0 -0.00075493423559431605 0.0007919344444124683 0 -0.00067021995815768308 0.00049913116669475673 0 -0.0010976027281151604 0.00066997059784318596 0 -0.00075493423559431605 0.0007919344444124683 0 -0.00067021995815768308 0.00049913116669475673 0 -0.00070027231232228657 0.00063737798786648182 0 -0.00067021995815768308 0.00049913116669475673 0 -0.0010976027281151604 0.00066997059784318596 0 -0.0012242873433009819 0.00041305907434213267 0 -0.0010976027281151604 0.00066997059784318596 0 -0.0014528662566805641 0.00068308801976848718 0 -0.0014587472411967211 0.00098028295790124039 0 -0.0010976027281151604 0.00066997059784318596 0 -0.0012242873433009819 0.00041305907434213267 0 -0.0014528662566805641 0.00068308801976848718 0 -0.0012242873433009819 0.00041305907434213267 0 -0.0014528662566805641 0.00068308801976848718 0 -0.0018049732027318377 0.00026372203317862964 0 -0.0017387239914478942 0.00093063551847925353 0 -0.0018099716121078979 0.00048320040022973529 0 -0.0019441079860656441 0.0008332423150103328 0 -0.001714282850157875 0.00096594061250138467 0 -0.0018935880214898785 0.0006344829296395122 0 -0.0014528662566805641 0.00068308801976848718 0 -0.001714282850157875 0.00096594061250138467 0 -0.0018049732027318377 0.00026372203317862964 0 -0.0020939961059827611 0.00075529949956107986 0 -0.0019441079860656441 0.0008332423150103328 0 -0.0018935880214898785 0.0006344829296395122 0 -0.0020939961059827611 0.00075529949956107986 0 -0.0019441079860656441 0.0008332423150103328 0 -0.0020793836189873234 0.0010330207268827404 0 -0.0019441079860656441 0.0008332423150103328 0 -0.0020793836189873234 0.0010330207268827404 0 -0.001714282850157875 0.00096594061250138467 0 -0.010777436793536948 0.0001217767182041338 0 -0.010777603639546792 0.00013148844160695359 0 -0.010749420880168866 5.28010005503616e-05 0 -0.0086774999658913912 9.4106384809197117e-05 0 -0.0068922431565058544 0.00070847465687112971 0 -0.010786481453994416 0.00012954436613760124 0 -0.010793181891688928 0.00013524431057569485 0 -0.010807062892290577 0.00015663435632225979 0 -0.010777436793536948 0.0001217767182041338 0 -0.010786481453994416 0.00012954436613760124 0 -0.010793181891688928 0.00013524431057569485 0 -0.010779409327157345 0.00011920260481155098 0 -0.010777436793536948 0.0001217767182041338 0 -0.010787782665777193 0.00012738065790553638 0 -0.010777436793536948 0.0001217767182041338 0 -0.010793181891688928 0.00013524431057569485 0 -0.010787782665777193 0.00012738065790553638 0 -0.010779409327157345 0.00011920260481155098 0 -0.010777436793536948 0.0001217767182041338 0 -0.010749420880168866 5.28010005503616e-05 0 -0.0068922431565058544 0.00070847465687112971 0 -0.0060017038763329209 0.00048857714092208565 0 -0.0020793836189873234 0.0010330207268827404 0 -0.0014587472411967211 0.00098028295790124039 0 -0.001714282850157875 0.00096594061250138467 0 -0.010779409327157345 0.00011920260481155098 0 -0.010751359193659434 0.00013643282589330565 0 -0.010749420880168866 5.28010005503616e-05 0 -0.0014528662566805641 0.00068308801976848718 0 -0.0014587472411967211 0.00098028295790124039 0 -0.001714282850157875 0.00096594061250138467 0 -0.0078490883025939436 0.00029876580671447185 0 -0.008322843521389468 0.00050585942260351555 0 -0.0086353821148512713 0.00021808031948900611 0 -0.0098354289760055301 0.00032329624928127991 0 -0.0099686027510525084 0.0002154461182930101 0 -0.0096739491112564652 0.00024993293529224374 0 -0.0089268553813134973 0.00022981811315401517 0 -0.0091554640168160385 0.0002501170177470566 0 -0.0078490883025939436 0.00029876580671447185 0 -0.0079733154582769215 0.0005463392632720119 0 -0.008322843521389468 0.00050585942260351555 0 -0.0098354289760055301 0.00032329624928127991 0 -0.0099764634609693318 0.00037086276457460942 0 -0.0099686027510525084 0.0002154461182930101 0 -0.0098354289760055301 0.00032329624928127991 0 -0.0098299868238495153 0.00042404695514205206 0 -0.0097324790851297423 0.00035712476289244627 0 -0.009775005145923641 0.00053618296006627676 0 -0.0098299868238495153 0.00042404695514205206 0 -0.0096703612046932126 0.00044409611413099794 0 -0.0099639327458752418 0.00051223033949608881 0 -0.0098299868238495153 0.00042404695514205206 0 -0.0099764634609693318 0.00037086276457460942 0 -0.0099639327458752418 0.00051223033949608881 0 -0.009775005145923641 0.00053618296006627676 0 -0.0098299868238495153 0.00042404695514205206 0 -0.0098354289760055301 0.00032329624928127991 0 -0.0098299868238495153 0.00042404695514205206 0 -0.0099764634609693318 0.00037086276457460942 0 -0.0099639327458752418 0.00051223033949608881 0 -0.0099764634609693318 0.00037086276457460942 0 -0.01010662283895716 0.00045399109587703325 0 -0.0099764634609693318 0.00037086276457460942 0 -0.01010662283895716 0.00045399109587703325 0 -0.010163428276207644 0.00034412781544804238 0 -0.0078490883025939436 0.00029876580671447185 0 -0.0072906970257544208 0.00035116380922760792 0 -0.0077811354450143099 0.00060576288496573235 0 -0.0089268553813134973 0.00022981811315401517 0 -0.0087332910652648185 0.00053116987181847381 0 -0.0099764634609693318 0.00037086276457460942 0 -0.0099686027510525084 0.0002154461182930101 0 -0.010163428276207644 0.00034412781544804238 0 -0.0078490883025939436 0.00029876580671447185 0 -0.0077811354450143099 0.00060576288496573235 0 -0.0079733154582769215 0.0005463392632720119 0 -0.010270452159884412 0.00019611236323051215 0 -0.010163428276207644 0.00034412781544804238 0 -0.010377407472022379 0.00034980728672069162 0 -0.0099686027510525084 0.0002154461182930101 0 -0.010270452159884412 0.00019611236323051215 0 -0.010163428276207644 0.00034412781544804238 0 -0.0087332910652648185 0.00053116987181847381 0 -0.0096772682420241968 0.00057506539582611368 0 -0.0087332910652648185 0.00053116987181847381 0 -0.010217195882081968 0.00041347718015632203 0 -0.010163428276207644 0.00034412781544804238 0 -0.010284442264323873 0.00048159080358477132 0 -0.010377407472022379 0.00034980728672069162 0 -0.01010662283895716 0.00045399109587703325 0 -0.010163428276207644 0.00034412781544804238 0 -0.010284442264323873 0.00048159080358477132 0 -0.010621457843869404 0.00029819689249575105 0 -0.010217195882081968 0.00041347718015632203 0 -0.010858884117289901 0.00010291115463820406 0 -0.010850985418754656 0.00013829182313734436 0 -0.010833461068930607 0.00011845872164952843 0 -0.010427627927943906 0.00057789055971611142 0 -0.010284442264323873 0.00048159080358477132 0 -0.010377407472022379 0.00034980728672069162 0 -0.010850985418754656 0.00013829182313734436 0 -0.010821695444484074 0.00013726335881328346 0 -0.010802006491435067 0.00015302053627281903 0 -0.010850985418754656 0.00013829182313734436 0 -0.010833461068930607 0.00011845872164952843 0 -0.010821695444484074 0.00013726335881328346 0 -0.011009681290387249 9.555570808142512e-05 0 -0.0096772682420241968 0.00057506539582611368 0 -0.010683206677993971 0.0001729822904269036 0 -0.010049729010872881 0.00029925914288553843 0 -0.010252767638192604 3.6807532063645538e-05 0 -0.010683206677993971 0.0001729822904269036 0 -0.010802006491435067 0.00015302053627281903 0 -0.010869425843421677 0.00020817598403451504 0 -0.010217195882081968 0.00041347718015632203 0 -0.0096772682420241968 0.00057506539582611368 0 -0.0095531336778937638 0.00047078321223405315 0 -0.0096546713201389536 0.00062156889231594408 0 -0.0096265452206166901 0.00046740443177312538 0 -0.010850985418754656 0.00013829182313734436 0 -0.010802006491435067 0.00015302053627281903 0 -0.010869425843421677 0.00020817598403451504 0 -0.00075493423559431605 0.0007919344444124683 0 -0.00072564238007067922 0.00063692392948097479 0 -0.00075332103148192161 0.00058338423577125359 0 -0.010528087520366739 -7.1574275827102711e-05 0 -0.010252767638192604 3.6807532063645538e-05 0 -0.0099569964196674302 -0.00016342625015022179 0 -0.010049729010872881 0.00029925914288553843 0 -0.010252767638192604 3.6807532063645538e-05 0 -0.0099569964196674302 -0.00016342625015022179 0 -0.005648162410208408 0.00039907520397024302 0 -0.0054909537779396873 -0.00013564739492120918 0 -0.00076876325514112903 0.00049420320182233188 0 -6.3642776426197141e-06 0.0006849794418226754 0 -0.00067021995815768308 0.00049913116669475673 0 0.00020571463895914516 0.00058102740514871538 0 -9.5847301701492069e-05 0.00024227552856788347 0 -0.00075493423559431605 0.0007919344444124683 0 -0.00070027231232228657 0.00063737798786648182 0 -0.00072564238007067922 0.00063692392948097479 0 -0.00067021995815768308 0.00049913116669475673 0 -0.00070027231232228657 0.00063737798786648182 0 -0.00072802323142028089 0.00070024704042559352 0 -0.00072802323142028089 0.00070024704042559352 0 -0.00072564238007067922 0.00063692392948097479 0 -0.00075167201042361238 0.00063683598553177304 0 -0.00070027231232228657 0.00063737798786648182 0 -0.00072802323142028089 0.00070024704042559352 0 -0.00072564238007067922 0.00063692392948097479 0 -0.00072564238007067922 0.00063692392948097479 0 -0.00075167201042361238 0.00063683598553177304 0 -0.00075332103148192161 0.00058338423577125359 0 -6.3642776426197141e-06 0.0006849794418226754 0 -0.0014320611732373462 0.00033471531422177465 0 -0.00075167201042361238 0.00063683598553177304 0 -0.00081107921250746879 0.00062254506664872957 0 -0.00075332103148192161 0.00058338423577125359 0 0.00020571463895914516 0.00058102740514871538 0 0.00050417952708006427 0.00041640517934449483 0 0.0008061412006867087 0.00060526892100185373 0 -0.00072802323142028089 0.00070024704042559352 0 -0.00088489257867860349 0.00062980162238554451 0 -0.0010816079147165194 0.00068161828353114099 0 -0.00081107921250746879 0.00062254506664872957 0 -0.00088489257867860349 0.00062980162238554451 0 -0.00075332103148192161 0.00058338423577125359 0 -0.00072802323142028089 0.00070024704042559352 0 -0.00081107921250746879 0.00062254506664872957 0 -0.00088489257867860349 0.00062980162238554451 0 -0.00072802323142028089 0.00070024704042559352 0 -0.00075167201042361238 0.00063683598553177304 0 -0.00081107921250746879 0.00062254506664872957 0 0.00020571463895914516 0.00058102740514871538 0 0.00050417952708006427 0.00041640517934449483 0 0.00029063362723483909 0.00023012042296909828 0 -0.0087332910652648185 0.00053116987181847381 0 -0.0043614037257992287 0.00040224347276682102 0 -0.0096772682420241968 0.00057506539582611368 0 -0.0054909537779396873 -0.00013564739492120918 0 -0.00088489257867860349 0.00062980162238554451 0 -0.00075332103148192161 0.00058338423577125359 0 -0.0010225611590468941 0.00056100162911305309 0 -0.0068156061600757973 0.0011894771248598163 0 -0.0070166838672410742 -0.00038315624042972859 0 -0.0057667018334319666 -0.00044315432736130616 0 -0.0068156061600757973 0.0011894771248598163 0 -0.0072720779808979549 0.0011685329613889599 0 -0.0070166838672410742 -0.00038315624042972859 0 -0.0054909537779396873 -0.00013564739492120918 0 -0.0043614037257992287 0.00040224347276682102 0 -0.0072906970257544208 0.00035116380922760792 0 -0.0077811354450143099 0.00060576288496573235 0 -0.0075981386318571039 0.00083024368398163613 0 -0.0077811354450143099 0.00060576288496573235 0 -0.0079805298001513168 0.00076152121768392972 0 -0.0079733154582769215 0.0005463392632720119 0 -0.0077811354450143099 0.00060576288496573235 0 -0.0079567607812291632 0.00080273158076991729 0 -0.0079805298001513168 0.00076152121768392972 0 -0.0043614037257992287 0.00040224347276682102 0 -0.0064867416849836122 0.00054372818368020814 0 -0.0077811354450143099 0.00060576288496573235 0 -0.0075981386318571039 0.00083024368398163613 0 -0.0079567607812291632 0.00080273158076991729 0 -0.00088489257867860349 0.00062980162238554451 0 -0.0010225611590468941 0.00056100162911305309 0 -0.0010816079147165194 0.00068161828353114099 0 -0.0014320611732373462 0.00033471531422177465 0 -0.00036744590602926452 0.00026903280316891077 0 0.0008061412006867087 0.00060526892100185373 0 0.00083094569508553962 0.00047369290655498549 0 0.00099897315847061012 0.00024213459615752918 0 -0.0043614037257992287 0.00040224347276682102 0 -0.0014320611732373462 0.00033471531422177465 0 0.0008061412006867087 0.00060526892100185373 0 0.00083094569508553962 0.00047369290655498549 0 0.00067745642250805231 0.00036107787694547719 0 0.00050417952708006427 0.00041640517934449483 0 0.0008061412006867087 0.00060526892100185373 0 0.00067745642250805231 0.00036107787694547719 0 -0.0033791329303546201 0.00022477821450561156 0 -0.0036161099016731356 0.0006080481132191498 0 -0.0042561528112847495 0.00026230446257467468 0 -0.0014320611732373462 0.00033471531422177465 0 -0.0048929335588598502 0.0004050279067652025 0 -0.0036161099016731356 0.0006080481132191498 0 -0.0042561528112847495 0.00026230446257467468 0 -0.0051338046284311782 0.00030042695082462527 0 -0.0018123075037029292 0.00025937800138206227 0 -0.0018639715961518326 0.00035315452291293425 0 -0.0019540416875252057 0.00023552207718062287 0 -0.0064867416849836122 0.00054372818368020814 0 -0.0048929335588598502 0.0004050279067652025 0 -0.0080117051457171788 0.00077337801163232566 0 -0.0081736187170702457 0.00077708515759132134 0 -0.0079805298001513168 0.00076152121768392972 0 -0.008322843521389468 0.00050585942260351555 0 -0.0087217070301953154 0.00070508928458780991 0 -0.0079805298001513168 0.00076152121768392972 0 -0.0076889185906379833 0.00086537562033031645 0 -0.0077972712753433156 0.00069744302377534851 0 -0.0079567607812291632 0.00080273158076991729 0 -0.0079805298001513168 0.00076152121768392972 0 -0.0077972712753433156 0.00069744302377534851 0 -0.0079805298001513168 0.00076152121768392972 0 -0.0079733154582769215 0.0005463392632720119 0 -0.008322843521389468 0.00050585942260351555 0 -0.0019098399371909821 0.00044640337162422266 0 -0.0018639715961518326 0.00035315452291293425 0 -0.0019559085105346468 0.00036180563739018987 0 0.0011801122399736179 -5.5773162230610432e-05 0 0.00099897315847061012 0.00024213459615752918 0 0.0010864167221688694 -8.8487872787631089e-05 0 2.796052808105686e-05 0.00031835072318613035 0 -0.00036744590602926452 0.00026903280316891077 0 0.00099897315847061012 0.00024213459615752918 0 0.00077751780776628521 0.00018384863179563856 0 0.0010864167221688694 -8.8487872787631089e-05 0 2.796052808105686e-05 0.00031835072318613035 0 0.0020598176433779475 0.00019068210342490115 0 -0.0018639715961518326 0.00035315452291293425 0 -0.0019559085105346468 0.00036180563739018987 0 -0.0019540416875252057 0.00023552207718062287 0 0.00082926054288119785 0.00041636145493661564 0 0.00088000376231932634 9.6568138178288013e-05 0 0.00083094569508553962 0.00047369290655498549 0 0.00099897315847061012 0.00024213459615752918 0 0.00077751780776628521 0.00018384863179563856 0 0.00083094569508553962 0.00047369290655498549 0 0.00067745642250805231 0.00036107787694547719 0 0.00078184678872033155 -3.027081191720957e-06 0 0.00067745642250805231 0.00036107787694547719 0 0.00078184678872033155 -3.027081191720957e-06 0 0.00060894151890960885 0.00014437305940192969 0 0.00088000376231932634 9.6568138178288013e-05 0 0.00071630155705834327 0.00014683857075616492 0 0.00088000376231932634 9.6568138178288013e-05 0 0.0020598176433779475 0.00019068210342490115 0 0.0014280095988542577 0.00024296003976892602 0 0.001343761002819868 -0.00018628349081143035 0 0.0017564338409646566 -4.9276110593382665e-05 0 0.00088000376231932634 9.6568138178288013e-05 0 0.0015554077150569581 -0.0002836489118299701 0 0.00077414994175066141 -6.3149572536140488e-05 0 0.00044467435183113318 -0.00027696068979435611 0 0.00051419397448365948 -0.00067219937586936542 0 0.00044467435183113318 -0.00027696068979435611 0 0.00022833369388106393 -0.0004019338511251519 0 0.00035562066362756323 -0.0005790486204640537 0 0.00044467435183113318 -0.00027696068979435611 0 0.00044322632177567464 -7.4824614493321125e-06 0 8.5867152923239809e-05 -7.8853382467488628e-05 0 0.00077414994175066141 -6.3149572536140488e-05 0 0.00044467435183113318 -0.00027696068979435611 0 0.00044322632177567464 -7.4824614493321125e-06 0 0.00077414994175066141 -6.3149572536140488e-05 0 0.00044322632177567464 -7.4824614493321125e-06 0 0.00060894151890960885 0.00014437305940192969 0 0.00044322632177567464 -7.4824614493321125e-06 0 0.00060894151890960885 0.00014437305940192969 0 0.00029063362723483909 0.00023012042296909828 0 0.00050417952708006427 0.00041640517934449483 0 0.00060894151890960885 0.00014437305940192969 0 0.00029063362723483909 0.00023012042296909828 0 0.00050417952708006427 0.00041640517934449483 0 0.00067745642250805231 0.00036107787694547719 0 0.00060894151890960885 0.00014437305940192969 0 0.00044322632177567464 -7.4824614493321125e-06 0 0.00029063362723483909 0.00023012042296909828 0 8.5867152923239809e-05 -7.8853382467488628e-05 0 0.00029063362723483909 0.00023012042296909828 0 8.5867152923239809e-05 -7.8853382467488628e-05 0 -9.5847301701492069e-05 0.00024227552856788347 0 0.00020571463895914516 0.00058102740514871538 0 0.00029063362723483909 0.00023012042296909828 0 -9.5847301701492069e-05 0.00024227552856788347 0 8.5867152923239809e-05 -7.8853382467488628e-05 0 -9.5847301701492069e-05 0.00024227552856788347 0 -0.00044562924254476857 1.3107138200967592e-05 0 8.5867152923239809e-05 -7.8853382467488628e-05 0 -0.00044562924254476857 1.3107138200967592e-05 0 -0.00030230032867936484 -0.00040410258076394371 0 8.5867152923239809e-05 -7.8853382467488628e-05 0 0.00022833369388106393 -0.0004019338511251519 0 -0.00030230032867936484 -0.00040410258076394371 0 0.00044467435183113318 -0.00027696068979435611 0 8.5867152923239809e-05 -7.8853382467488628e-05 0 0.00022833369388106393 -0.0004019338511251519 0 0.00022833369388106393 -0.0004019338511251519 0 0.00034801240927163863 -0.00074121591086539129 0 -0.00030230032867936484 -0.00040410258076394371 0 0.00038754231373927344 -0.00077423357817630169 0 0.00052788559500979162 -0.00084216936802341527 0 0.00034801240927163863 -0.00074121591086539129 0 -0.00030230032867936484 -0.00040410258076394371 0 -0.00060612404084905535 -0.00095326520642024376 0 0.00034801240927163863 -0.00074121591086539129 0 0.00064399175608984721 -0.0004309368505665988 0 0.0016247708202416459 -0.00078478904421118672 0 0.00022833369388106393 -0.0004019338511251519 0 0.00034801240927163863 -0.00074121591086539129 0 0.00035562066362756323 -0.0005790486204640537 0 0.00034801240927163863 -0.00074121591086539129 0 0.00064399175608984721 -0.0004309368505665988 0 0.00028214050259081473 -0.00060968759523460459 0 0.0010585841832100452 5.9862884834267695e-06 0 0.00036618095402770733 -6.8393434063749876e-05 0 0.00098081348474787994 0.00095971256944788288 0 0.00064399175608984721 -0.0004309368505665988 0 0.0010585841832100452 5.9862884834267695e-06 0 0.0016247708202416459 -0.00078478904421118672 0 0.00064399175608984721 -0.0004309368505665988 0 0.0010585841832100452 5.9862884834267695e-06 0 0.00036618095402770733 -6.8393434063749876e-05 0 0.0015554077150569581 -0.0002836489118299701 0 0.0053144307899772123 0.00033260784148491751 0 0.0040064437435388218 0.00017278707272885591 0 0.0040079553647629834 -0.00020560634963290213 0 0.0042017414420441939 0.00060797288166750541 0 0.00036618095402770733 -6.8393434063749876e-05 0 -9.5804880500725126e-05 -0.00073088551615530385 0 5.0089175071439849e-05 0.00040200168146102571 0 0.00064399175608984721 -0.0004309368505665988 0 0.00036618095402770733 -6.8393434063749876e-05 0 0.00028214050259081473 -0.00060968759523460459 0 0.0040064437435388218 0.00017278707272885591 0 0.0039029237054112958 0.0004619947063479817 0 0.0042017414420441939 0.00060797288166750541 0 0.00044467435183113318 -0.00027696068979435611 0 0.00051419397448365948 -0.00067219937586936542 0 0.00035562066362756323 -0.0005790486204640537 0 0.0015554077150569581 -0.0002836489118299701 0 0.0002249896041155327 -0.00068270476818677235 0 0.00036618095402770733 -6.8393434063749876e-05 0 -9.5804880500725126e-05 -0.00073088551615530385 0 0.00028214050259081473 -0.00060968759523460459 0 0.00034801240927163863 -0.00074121591086539129 0 0.00028214050259081473 -0.00060968759523460459 0 0.00035562066362756323 -0.0005790486204640537 0 0.00051419397448365948 -0.00067219937586936542 0 0.00028214050259081473 -0.00060968759523460459 0 0.00035562066362756323 -0.0005790486204640537 0 0.0015554077150569581 -0.0002836489118299701 0 0.0020598176433779475 0.00019068210342490115 0 0.0040079553647629834 -0.00020560634963290213 0 0.0036845317280861161 3.0191156863998885e-05 0 0.0031890996942495601 -0.00046829268959564917 0 0.0040064437435388218 0.00017278707272885591 0 0.0040079553647629834 -0.00020560634963290213 0 0.0036845317280861161 3.0191156863998885e-05 0 0.0059609630222276595 0.00014533327925769738 0 0.0056358681161467975 -1.0980997013459859e-05 0 0.0056720885420976797 0.00028246916044457731 0 0.0038963915249065708 0.00046664635513875145 0 0.0036845317280861161 3.0191156863998885e-05 0 0.0033271822194036256 0.00019266506010522005 0 0.0058229882174738361 0.00020180172605433814 0 0.004514030549473364 9.0180006894989727e-05 0 0.0040064437435388218 0.00017278707272885591 0 0.0038963915249065708 0.00046664635513875145 0 0.0036845317280861161 3.0191156863998885e-05 0 0.0046168965785870139 0.00058401893853515688 0 0.0058229882174738361 0.00020180172605433814 0 0.0056358681161467975 -1.0980997013459859e-05 0 0.0056720885420976797 0.00028246916044457731 0 0.0054353786704645843 0.00022495579235113494 0 0.004514030549473364 9.0180006894989727e-05 0 0.0027985449439431268 0.00031905702541197009 0 0.0056358681161467975 -1.0980997013459859e-05 0 0.0053040415048701325 -0.00016395827824815953 0 0.0054353786704645843 0.00022495579235113494 0 0.0033271822194036256 0.00019266506010522005 0 0.0031890996942495601 -0.00046829268959564917 0 0.0027650572090442793 -7.7736994750340289e-05 0 0.0036845317280861161 3.0191156863998885e-05 0 0.0033271822194036256 0.00019266506010522005 0 0.0031890996942495601 -0.00046829268959564917 0 0.0011134985160720185 0.00032790687528741849 0 0.0013140803145583267 0.00039316692679827254 0 0.00099866541783077208 0.00051233167538047018 0 0.0020598176433779475 0.00019068210342490115 0 0.0027985449439431268 0.00031905702541197009 0 -0.0018877856198700254 -0.00049234335669491667 0 -0.0018049732027318377 0.00026372203317862964 0 -0.0010612045963224897 -0.00014357832992754199 0 -0.0018877856198700254 -0.00049234335669491667 0 -0.0010612045963224897 -0.00014357832992754199 0 -0.0013433130661475504 -0.00063700109753196308 0 -0.0022200691853247918 -9.5530188048855406e-05 0 -0.0018099716121078979 0.00048320040022973529 0 -0.0019599428687549375 0.00044083031085653162 0 -0.0020647000846098561 0.00043872585050013337 0 -0.0021144141777599073 0.00053003241975629618 0 -0.0019599428687549375 0.00044083031085653162 0 -0.0018935880214898785 0.0006344829296395122 0 -0.0021144141777599073 0.00053003241975629618 0 -0.0020939961059827611 0.00075529949956107986 0 -0.0018935880214898785 0.0006344829296395122 0 -0.0021144141777599073 0.00053003241975629618 0 -0.0012242873433009819 0.00041305907434213267 0 -0.0018049732027318377 0.00026372203317862964 0 -0.0010612045963224897 -0.00014357832992754199 0 -0.00067021995815768308 0.00049913116669475673 0 -0.0012242873433009819 0.00041305907434213267 0 -0.0010612045963224897 -0.00014357832992754199 0 -0.00067021995815768308 0.00049913116669475673 0 -0.00044562924254476857 1.3107138200967592e-05 0 -0.0010612045963224897 -0.00014357832992754199 0 -0.00067021995815768308 0.00049913116669475673 0 -9.5847301701492069e-05 0.00024227552856788347 0 -0.00044562924254476857 1.3107138200967592e-05 0 -0.00044562924254476857 1.3107138200967592e-05 0 -0.00030230032867936484 -0.00040410258076394371 0 -0.0010612045963224897 -0.00014357832992754199 0 -0.00030230032867936484 -0.00040410258076394371 0 -0.0010612045963224897 -0.00014357832992754199 0 -0.00060612404084905535 -0.00095326520642024376 0 -0.0010612045963224897 -0.00014357832992754199 0 -0.00060612404084905535 -0.00095326520642024376 0 -0.0013433130661475504 -0.00063700109753196308 0 -0.001309125629796777 -0.0010765358257887349 0 -0.00060612404084905535 -0.00095326520642024376 0 -0.0013433130661475504 -0.00063700109753196308 0 0.00076510734374896376 -0.00086222789184512577 0 0.00052788559500979162 -0.00084216936802341527 0 0.0010585841832100452 5.9862884834267695e-06 0 0.0016247708202416459 -0.00078478904421118672 0 0.0020059775839412685 0.00030588982377270375 0 0.0028593548362742327 -0.00058075670301189185 0 0.0033064777478010207 0.00026257727081080651 0 0.0020059775839412685 0.00030588982377270375 0 0.0028593548362742327 -0.00058075670301189185 0 0.0016247708202416459 -0.00078478904421118672 0 0.0020059775839412685 0.00030588982377270375 0 0.0028593548362742327 -0.00058075670301189185 0 0.0033064777478010207 0.00026257727081080651 0 0.0040772660941844549 -0.0003129304244459647 0 0.00076510734374896376 -0.00086222789184512577 0 0.001074386850631912 -0.00033633153742274079 0 -0.001309125629796777 -0.0010765358257887349 0 -0.001629161144101396 -0.00084901177318942697 0 -0.0013433130661475504 -0.00063700109753196308 0 -0.001309125629796777 -0.0010765358257887349 0 -0.001629161144101396 -0.00084901177318942697 0 -0.0019505877146877568 -0.0012211433983520975 0 -0.0018877856198700254 -0.00049234335669491667 0 -0.001629161144101396 -0.00084901177318942697 0 -0.0013433130661475504 -0.00063700109753196308 0 -0.0019599428687549375 0.00044083031085653162 0 -0.0020224106495409866 0.00038763325319295219 0 -0.0019836436768600305 0.00033122610226691944 0 -0.0022200691853247918 -9.5530188048855406e-05 0 0.001074386850631912 -0.00033633153742274079 0 -0.0018877856198700254 -0.00049234335669491667 0 -0.001629161144101396 -0.00084901177318942697 0 -0.0019505877146877568 -0.0012211433983520975 0 -0.0019599428687549375 0.00044083031085653162 0 -0.0020224106495409866 0.00038763325319295219 0 -0.0020647000846098561 0.00043872585050013337 0 -0.0020224106495409866 0.00038763325319295219 0 -0.0020369033436547328 0.00036491182942645058 0 -0.0020206895990232342 0.00035177366484211544 0 -0.0020206895990232342 0.00035177366484211544 0 -0.0020330657069159382 0.00033517894601064585 0 -0.002047197163746837 0.00035143335999107808 0 -0.0020368460525682281 0.00032823804775383231 0 -0.0020330657069159382 0.00033517894601064585 0 -0.0019836436768600305 0.00033122610226691944 0 -0.0020224106495409866 0.00038763325319295219 0 -0.0020206895990232342 0.00035177366484211544 0 -0.0019836436768600305 0.00033122610226691944 0 0.001074386850631912 -0.00033633153742274079 0 0.0042359794954235476 0.00064705871175910711 0 -0.0020369033436547328 0.00036491182942645058 0 -0.0020206895990232342 0.00035177366484211544 0 -0.002047197163746837 0.00035143335999107808 0 0.0033064777478010207 0.00026257727081080651 0 0.0040772660941844549 -0.0003129304244459647 0 0.0042461174825610777 0.00057593665444334065 0 0.004732418166111918 -0.00026870365274692207 0 0.0041365315143847012 -0.00042181959003153902 0 0.0043071731425394829 0.00053592582220211285 0 -7.30862804319162e-06 0.00047923072868453093 0 0.001074386850631912 -0.00033633153742274079 0 -0.0020206895990232342 0.00035177366484211544 0 -0.0020330657069159382 0.00033517894601064585 0 -0.0019836436768600305 0.00033122610226691944 0 -7.30862804319162e-06 0.00047923072868453093 0 -0.00013464872756016423 0.00037984057499220836 0 -7.30862804319162e-06 0.00047923072868453093 0 -0.0028356552559675127 0.00019928227102584023 0 -0.0020430646112365568 0.00033254377317229667 0 -0.0020682998676497888 0.00034686961130056418 0 -0.0020984110302774538 0.00033338735362077073 0 -0.0020682998676497888 0.00034686961130056418 0 -0.0020984110302774538 0.00033338735362077073 0 -0.0020973771718208064 0.00036624759305880415 0 -0.0020682998676497888 0.00034686961130056418 0 -0.002065969249878518 0.00036481604308719235 0 -0.0020973771718208064 0.00036624759305880415 0 -0.002047197163746837 0.00035143335999107808 0 -0.0020682998676497888 0.00034686961130056418 0 -0.002065969249878518 0.00036481604308719235 0 -0.0020369033436547328 0.00036491182942645058 0 -0.002047197163746837 0.00035143335999107808 0 -0.002065969249878518 0.00036481604308719235 0 -0.002047197163746837 0.00035143335999107808 0 -0.0020490437731153287 0.00034138310438825684 0 -0.0020682998676497888 0.00034686961130056418 0 -0.0020430646112365568 0.00033254377317229667 0 -0.0020490437731153287 0.00034138310438825684 0 -0.0020682998676497888 0.00034686961130056418 0 -0.0020330657069159382 0.00033517894601064585 0 -0.002047197163746837 0.00035143335999107808 0 -0.0020490437731153287 0.00034138310438825684 0 -0.0020430646112365568 0.00033254377317229667 0 -0.0020330657069159382 0.00033517894601064585 0 -0.0020490437731153287 0.00034138310438825684 0 -0.0020984110302774538 0.00033338735362077073 0 -0.0021379122210102427 0.00037431996690772041 0 -0.0020973771718208064 0.00036624759305880415 0 -0.0020984110302774538 0.00033338735362077073 0 -0.0021379122210102427 0.00037431996690772041 0 -0.0021800232369723152 0.00035504163144393875 0 -0.0021379122210102427 0.00037431996690772041 0 -0.0021275627298437652 0.00039942512266800034 0 -0.0022094596357897373 0.00043121465622043988 0 -0.0021379122210102427 0.00037431996690772041 0 -0.0021275627298437652 0.00039942512266800034 0 -0.0020973771718208064 0.00036624759305880415 0 -0.0021275627298437652 0.00039942512266800034 0 -0.0022094596357897373 0.00043121465622043988 0 -0.0021344161799133035 0.00044913128731405527 0 -0.0020224106495409866 0.00038763325319295219 0 -0.0020369033436547328 0.00036491182942645058 0 -0.0020772459121244516 0.00039807363699163601 0 -0.0020369033436547328 0.00036491182942645058 0 -0.002065969249878518 0.00036481604308719235 0 -0.0020772459121244516 0.00039807363699163601 0 -0.002065969249878518 0.00036481604308719235 0 -0.0020973771718208064 0.00036624759305880415 0 -0.0020772459121244516 0.00039807363699163601 0 -0.0021275627298437652 0.00039942512266800034 0 -0.0020973771718208064 0.00036624759305880415 0 -0.0020772459121244516 0.00039807363699163601 0 -0.0021275627298437652 0.00039942512266800034 0 -0.0020772459121244516 0.00039807363699163601 0 -0.0021344161799133035 0.00044913128731405527 0 -0.0020772459121244516 0.00039807363699163601 0 -0.0020647000846098561 0.00043872585050013337 0 -0.0021344161799133035 0.00044913128731405527 0 -0.0020224106495409866 0.00038763325319295219 0 -0.0020772459121244516 0.00039807363699163601 0 -0.0020647000846098561 0.00043872585050013337 0 -0.0020647000846098561 0.00043872585050013337 0 -0.0021144141777599073 0.00053003241975629618 0 -0.0021344161799133035 0.00044913128731405527 0 -0.0021144141777599073 0.00053003241975629618 0 -0.0021344161799133035 0.00044913128731405527 0 -0.0021677011986740977 0.00053227518227537125 0 -0.0021344161799133035 0.00044913128731405527 0 -0.0022714803964116095 0.00051309312298545467 0 -0.0021677011986740977 0.00053227518227537125 0 -0.0022094596357897373 0.00043121465622043988 0 -0.0021344161799133035 0.00044913128731405527 0 -0.0022714803964116095 0.00051309312298545467 0 -0.0021891439991189353 0.00063442412809328877 0 -0.0023671732315544295 0.00061102582248784385 0 -0.0023479677039382049 0.00075166986536132877 0 -0.0022714803964116095 0.00051309312298545467 0 -0.0021891439991189353 0.00063442412809328877 0 -0.0023671732315544295 0.00061102582248784385 0 -0.0022714803964116095 0.00051309312298545467 0 -0.0021677011986740977 0.00053227518227537125 0 -0.0021891439991189353 0.00063442412809328877 0 -0.001976206972790915 0.00045662085436977271 0 -0.0049931070999258333 0.00047808456242227188 0 -0.0020939961059827611 0.00075529949956107986 0 -0.0021144141777599073 0.00053003241975629618 0 -0.0023797884466815848 0.00062706034489067204 0 -0.0021144141777599073 0.00053003241975629618 0 -0.0021677011986740977 0.00053227518227537125 0 -0.0021891439991189353 0.00063442412809328877 0 -0.0022441436066539485 0.00060921420705614627 0 -0.001976206972790915 0.00045662085436977271 0 -0.0049198264295055288 0.0004169462167641307 0 -0.0043061654445189831 0.00047711433155197847 0 -0.0025406160650588978 0.00068331534888197928 0 -0.0023671732315544295 0.00061102582248784385 0 -0.0023479677039382049 0.00075166986536132877 0 -0.0049198264295055288 0.0004169462167641307 0 -0.0049931070999258333 0.00047808456242227188 0 -0.0025406160650588978 0.00068331534888197928 0 -0.0023671732315544295 0.00061102582248784385 0 -0.0024421407546182674 0.00042112088808725091 0 -0.0022094596357897373 0.00043121465622043988 0 -0.0022714803964116095 0.00051309312298545467 0 -0.0024421407546182674 0.00042112088808725091 0 -0.0022714803964116095 0.00051309312298545467 0 -0.0023671732315544295 0.00061102582248784385 0 -0.0024421407546182674 0.00042112088808725091 0 -0.0022539701795153033 0.00054039854656965866 0 -0.0023768867501140554 0.00047661876644663077 0 -0.0024929774119683838 0.0007173007350545664 0 -0.0020093228277924388 0.00043844518131758208 0 -0.0043061654445189831 0.00047711433155197847 0 -0.0025406160650588978 0.00068331534888197928 0 -0.0024421407546182674 0.00042112088808725091 0 -0.0027636731153835139 0.00059196096380861245 0 -0.0022539701795153033 0.00054039854656965866 0 -0.0023768867501140554 0.00047661876644663077 0 -0.0022824042136453003 0.00037880644133833397 0 -0.0022923971969507849 0.00042284618357643037 0 -0.0020093228277924388 0.00043844518131758208 0 -0.0022539701795153033 0.00054039854656965866 0 -0.0021800232369723152 0.00035504163144393875 0 -0.0022824042136453003 0.00037880644133833397 0 -0.0021379122210102427 0.00037431996690772041 0 -0.0022094596357897373 0.00043121465622043988 0 -0.0024421407546182674 0.00042112088808725091 0 -0.0021379122210102427 0.00037431996690772041 0 -0.0022539701795153033 0.00054039854656965866 0 -0.0021800232369723152 0.00035504163144393875 0 -0.0021800232369723152 0.00035504163144393875 0 -0.0022824042136453003 0.00037880644133833397 0 -0.0022099248442895075 0.000293991264197739 0 -0.0023768867501140554 0.00047661876644663077 0 -0.0022824042136453003 0.00037880644133833397 0 -0.0024644075739553646 0.00037625832965854794 0 -0.0022824042136453003 0.00037880644133833397 0 -0.0024644075739553646 0.00037625832965854794 0 -0.0023094643673262642 0.0002887029468863528 0 -0.0022824042136453003 0.00037880644133833397 0 -0.0022099248442895075 0.000293991264197739 0 -0.0023094643673262642 0.0002887029468863528 0 -0.0024644075739553646 0.00037625832965854794 0 -0.0026505090280577208 0.00037856323510971712 0 -0.002560876312164481 0.00030310153456248776 0 -0.0024644075739553646 0.00037625832965854794 0 -0.0026505090280577208 0.00037856323510971712 0 -0.0026277729984919623 0.00044071769234377679 0 -0.0026505090280577208 0.00037856323510971712 0 -0.0026880742952645345 0.00035835453978553069 0 -0.002560876312164481 0.00030310153456248776 0 -0.0026277729984919623 0.00044071769234377679 0 -0.0025243209072433603 0.00051647470794312952 0 -0.0027089808690980836 0.00063259187391342432 0 -0.0026277729984919623 0.00044071769234377679 0 -0.0028072562606937211 0.00038164666633971813 0 -0.0027089808690980836 0.00063259187391342432 0 -0.0026505090280577208 0.00037856323510971712 0 -0.0026277729984919623 0.00044071769234377679 0 -0.0028072562606937211 0.00038164666633971813 0 -0.0023768867501140554 0.00047661876644663077 0 -0.0024644075739553646 0.00037625832965854794 0 -0.0025243209072433603 0.00051647470794312952 0 -0.0024644075739553646 0.00037625832965854794 0 -0.0026277729984919623 0.00044071769234377679 0 -0.0025243209072433603 0.00051647470794312952 0 -0.00016215600194057294 -1.6713100822076754e-09 0 1.2334345626695655e-05 4.3176317479139943e-05 0 -0.0020640730619862161 5.3579401283410204e-05 0 -0.0027945668018427598 0.00053324378234516378 0 -0.002758724689614335 0.0004219377099692088 0 -0.002729272802938624 0.00035769917666816751 0 -0.0027945668018427598 0.00053324378234516378 0 -0.0027891203001797898 0.00043247527242706364 0 -0.002758724689614335 0.0004219377099692088 0 -0.0027945668018427598 0.00053324378234516378 0 -0.0027891203001797898 0.00043247527242706364 0 -0.0027001512585656585 0.00034440223964671626 0 -0.0027891203001797898 0.00043247527242706364 0 -0.0027709611848389039 0.00039447420062973745 0 -0.0028630123174137106 0.00034802020661941422 0 -0.0027891203001797898 0.00043247527242706364 0 -0.002758724689614335 0.0004219377099692088 0 -0.0027709611848389039 0.00039447420062973745 0 -0.0026505090280577208 0.00037856323510971712 0 -0.0026880742952645345 0.00035835453978553069 0 -0.0027709611848389039 0.00039447420062973745 0 -0.002758724689614335 0.0004219377099692088 0 -0.0026880742952645345 0.00035835453978553069 0 -0.0027709611848389039 0.00039447420062973745 0 -0.0026505090280577208 0.00037856323510971712 0 -0.0027709611848389039 0.00039447420062973745 0 -0.0028072562606937211 0.00038164666633971813 0 -0.0028072562606937211 0.00038164666633971813 0 -0.0028630123174137106 0.00034802020661941422 0 -0.0031304703175657313 0.00035039280809929786 0 -0.0027709611848389039 0.00039447420062973745 0 -0.0028072562606937211 0.00038164666633971813 0 -0.0028630123174137106 0.00034802020661941422 0 -0.00016215600194057294 -1.6713100822076754e-09 0 -0.0020640730619862161 5.3579401283410204e-05 0 -0.0021966755683698212 1.1405404596784872e-06 0 -0.0027945668018427598 0.00053324378234516378 0 -0.0027001512585656585 0.00034440223964671626 0 -0.0020640730619862161 5.3579401283410204e-05 0 -0.0013353749072374161 0.00015812865551410288 0 -0.0018989226163853064 -2.5791364616543332e-05 0 -0.0027891203001797898 0.00043247527242706364 0 -0.0028630123174137106 0.00034802020661941422 0 -0.0027001512585656585 0.00034440223964671626 0 -0.0028630123174137106 0.00034802020661941422 0 -0.0027001512585656585 0.00034440223964671626 0 -0.0026423845469656726 0.00023290849663342236 0 -0.0028630123174137106 0.00034802020661941422 0 -0.0031304703175657313 0.00035039280809929786 0 -0.0026423845469656726 0.00023290849663342236 0 -0.0026423845469656726 0.00023290849663342236 0 -0.0020640730619862161 5.3579401283410204e-05 0 -0.0021966755683698212 1.1405404596784872e-06 0 -0.0031304703175657313 0.00035039280809929786 0 -0.0026423845469656726 0.00023290849663342236 0 -0.0021966755683698212 1.1405404596784872e-06 0 -0.0027001512585656585 0.00034440223964671626 0 -0.0026423845469656726 0.00023290849663342236 0 -0.0020640730619862161 5.3579401283410204e-05 0 -0.0021966755683698212 1.1405404596784872e-06 0 -0.0040554739245206427 2.5909238770929707e-05 0 -0.0042278637134068701 -1.0881296183884117e-06 0 -0.0031304703175657313 0.00035039280809929786 0 -0.0021966755683698212 1.1405404596784872e-06 0 -0.0040554739245206427 2.5909238770929707e-05 0 -0.0032888825058547547 0.00040549890822517601 0 -0.0037244059761001561 0.00050840649213207769 0 -0.0031304703175657313 0.00035039280809929786 0 -0.0040554739245206427 2.5909238770929707e-05 0 -0.0049108688866587426 0.00045055744480392262 0 -0.0028072562606937211 0.00038164666633971813 0 -0.0031304703175657313 0.00035039280809929786 0 -0.0027089808690980836 0.00063259187391342432 0 -0.0040554739245206427 2.5909238770929707e-05 0 -0.0049108688866587426 0.00045055744480392262 0 -0.0053117435900760287 6.8720923342768651e-05 0 -0.0040554739245206427 2.5909238770929707e-05 0 -0.0053117435900760287 6.8720923342768651e-05 0 -0.0046353867422500783 -0.00027389496814777197 0 -0.0040554739245206427 2.5909238770929707e-05 0 -0.0042278637134068701 -1.0881296183884117e-06 0 -0.0046353867422500783 -0.00027389496814777197 0 -0.0023768867501140554 0.00047661876644663077 0 -0.0025243209072433603 0.00051647470794312952 0 -0.0024929774119683838 0.0007173007350545664 0 -0.0025243209072433603 0.00051647470794312952 0 -0.0027089808690980836 0.00063259187391342432 0 -0.0024929774119683838 0.0007173007350545664 0 -0.0037244059761001561 0.00050840649213207769 0 -0.0043061654445189831 0.00047711433155197847 0 -0.0049108688866587426 0.00045055744480392262 0 -0.0053117435900760287 6.8720923342768651e-05 0 -0.0054726250030820564 0.00029070736084830698 0 -0.0059559426593039063 0.00028313022108284114 0 -0.0043061654445189831 0.00047711433155197847 0 -0.0072572785180624643 9.1022068448305885e-05 0 -0.0069830156759201657 0.00069782540205250371 0 -0.0072156514921222362 -0.00020765971278847252 0 -0.0053117435900760287 6.8720923342768651e-05 0 -0.0069830156759201657 0.00069782540205250371 0 -0.0072156514921222362 -0.00020765971278847252 0 -0.0072156514921222362 -0.00020765971278847252 0 -0.0075463285306230843 0.00079175390453610679 0 -0.0070771919857715564 0.00012400694296544766 0 -0.0072050186147885322 -0.00011987280361949799 0 -0.0068896764198228006 0.0001578025673502677 0 -0.0072156514921222362 -0.00020765971278847252 0 -0.0082631985802511382 0.00052202322410819829 0 -0.009070757738500284 0.00086432507686353658 0 -0.0053117435900760287 6.8720923342768651e-05 0 -0.0072156514921222362 -0.00020765971278847252 0 -0.0047028587658480741 -0.00045309743055810823 0 -0.008828028259261024 0.0008562141399685334 0 -0.009070757738500284 0.00086432507686353658 0 -0.0090389286695983645 0.00047356711604309331 0 -0.0082631985802511382 0.00052202322410819829 0 -0.008828028259261024 0.0008562141399685334 0 -0.009070757738500284 0.00086432507686353658 0 -0.008828028259261024 0.0008562141399685334 0 -0.0096268097907324223 0.00053882370305191325 0 -0.0092783325573795577 0.00041620185444532737 0 -0.008828028259261024 0.0008562141399685334 0 -0.0092783325573795577 0.00041620185444532737 0 -0.0090389286695983645 0.00047356711604309331 0 -0.0072156514921222362 -0.00020765971278847252 0 -0.0082631985802511382 0.00052202322410819829 0 -0.0075463285306230843 0.00079175390453610679 0 -0.0089120910107921784 0.00087202422489827491 0 -0.0089658635945473811 0.00078616715032247045 0 -0.008828028259261024 0.0008562141399685334 0 -0.0096268097907324223 0.00053882370305191325 0 -0.010537771448029247 0.0011546901900965844 0 -0.0096563072407397123 0.00089222018844433218 0 -0.0089658635945473811 0.00078616715032247045 0 -0.0082631985802511382 0.00052202322410819829 0 -0.008828028259261024 0.0008562141399685334 0 -0.0075463285306230843 0.00079175390453610679 0 -0.0042278637134068701 -1.0881296183884117e-06 0 -0.0046353867422500783 -0.00027389496814777197 0 -0.0062563317397540457 5.00337732876784e-07 0 -0.0053117435900760287 6.8720923342768651e-05 0 -0.0046353867422500783 -0.00027389496814777197 0 -0.0047028587658480741 -0.00045309743055810823 0 -0.009070757738500284 0.00086432507686353658 0 -0.0082273004845844055 3.5062974389517298e-05 0 -0.0090389286695983645 0.00047356711604309331 0 -0.0046353867422500783 -0.00027389496814777197 0 -0.0047028587658480741 -0.00045309743055810823 0 -0.0062563317397540457 5.00337732876784e-07 0 -0.0068896764198228006 0.0001578025673502677 0 -0.0062594670318195465 3.730439974326202e-08 0 -0.009070757738500284 0.00086432507686353658 0 -0.006263660880726587 2.7222051728588178e-06 0 -0.0082273004845844055 3.5062974389517298e-05 0 -0.0082273004845844055 3.5062974389517298e-05 0 -0.0088971507026812027 -2.7710289449767229e-05 0 -0.0080400723615456776 -1.0478105928507462e-06 0 -0.006263660880726587 2.7222051728588178e-06 0 -0.0082273004845844055 3.5062974389517298e-05 0 -0.0080400723615456776 -1.0478105928507462e-06 0 -0.0082273004845844055 3.5062974389517298e-05 0 -0.0089957190155219753 7.258571678314427e-05 0 -0.0088971507026812027 -2.7710289449767229e-05 0 -0.0082273004845844055 3.5062974389517298e-05 0 -0.0089957190155219753 7.258571678314427e-05 0 -0.0090389286695983645 0.00047356711604309331 0 -0.010089663740648153 -0.00020823913757435318 0 -0.0097738357569773834 -0.00018706464496227605 0 -0.0094726847481974262 -8.156525261875142e-05 0 -0.0097738357569773834 -0.00018706464496227605 0 -0.0094726847481974262 -8.156525261875142e-05 0 -0.0088971507026812027 -2.7710289449767229e-05 0 -0.0089957190155219753 7.258571678314427e-05 0 -0.0094726847481974262 -8.156525261875142e-05 0 -0.0088971507026812027 -2.7710289449767229e-05 0 -0.0097738357569773834 -0.00018706464496227605 0 -0.0088971507026812027 -2.7710289449767229e-05 0 -0.0080400723615456776 -1.0478105928507462e-06 0 -0.0097596839885011766 0.00020809423831787781 0 -0.010237060743874213 0.00019613261908520241 0 -0.010011414249014224 -7.6979598026321696e-05 0 -0.0096268097907324223 0.00053882370305191325 0 -0.0099984592221280047 0.00064351673488329756 0 -0.010237060743874213 0.00019613261908520241 0 -0.0096268097907324223 0.00053882370305191325 0 -0.0097596839885011766 0.00020809423831787781 0 -0.010237060743874213 0.00019613261908520241 0 -0.0097596839885011766 0.00020809423831787781 0 -0.0092783325573795577 0.00041620185444532737 0 -0.00940744604748215 0.00015988534800998229 0 -0.0096268097907324223 0.00053882370305191325 0 -0.0097596839885011766 0.00020809423831787781 0 -0.0092783325573795577 0.00041620185444532737 0 -0.0089957190155219753 7.258571678314427e-05 0 -0.0090389286695983645 0.00047356711604309331 0 -0.00940744604748215 0.00015988534800998229 0 -0.0092783325573795577 0.00041620185444532737 0 -0.0090389286695983645 0.00047356711604309331 0 -0.00940744604748215 0.00015988534800998229 0 -0.0089957190155219753 7.258571678314427e-05 0 -0.0094726847481974262 -8.156525261875142e-05 0 -0.00940744604748215 0.00015988534800998229 0 -0.0097596839885011766 0.00020809423831787781 0 -0.00940744604748215 0.00015988534800998229 0 -0.010011414249014224 -7.6979598026321696e-05 0 -0.010089663740648153 -0.00020823913757435318 0 -0.0094726847481974262 -8.156525261875142e-05 0 -0.010011414249014224 -7.6979598026321696e-05 0 -0.0094726847481974262 -8.156525261875142e-05 0 -0.00940744604748215 0.00015988534800998229 0 -0.010011414249014224 -7.6979598026321696e-05 0 -0.010445323321223561 -0.00026388263051626204 0 -0.010089663740648153 -0.00020823913757435318 0 -0.010011414249014224 -7.6979598026321696e-05 0 -0.010445323321223561 -0.00026388263051626204 0 -0.010011414249014224 -7.6979598026321696e-05 0 -0.010503000586258086 -0.00016156277063274132 0 -0.010237060743874213 0.00019613261908520241 0 -0.010011414249014224 -7.6979598026321696e-05 0 -0.010503000586258086 -0.00016156277063274132 0 -0.010237060743874213 0.00019613261908520241 0 -0.010503000586258086 -0.00016156277063274132 0 -0.010658015370474252 9.5999880667590529e-05 0 -0.01071145518718517 -0.00012829691308563241 0 -0.010503000586258086 -0.00016156277063274132 0 -0.010658015370474252 9.5999880667590529e-05 0 -0.010237060743874213 0.00019613261908520241 0 -0.010658015370474252 9.5999880667590529e-05 0 -0.010637303315441488 0.00041870545111654485 0 -0.010658015370474252 9.5999880667590529e-05 0 -0.010798641187403001 0.00015560308395754288 0 -0.010637303315441488 0.00041870545111654485 0 -0.010658015370474252 9.5999880667590529e-05 0 -0.010806212707860391 1.4144416304097532e-05 0 -0.010798641187403001 0.00015560308395754288 0 -0.01071145518718517 -0.00012829691308563241 0 -0.010658015370474252 9.5999880667590529e-05 0 -0.010806212707860391 1.4144416304097532e-05 0 -0.010806212707860391 1.4144416304097532e-05 0 -0.01081562328305141 9.8994880141020688e-05 0 -0.010798641187403001 0.00015560308395754288 0 -0.010803408124596806 9.6890673812694309e-05 0 -0.010803611380156508 0.00011531494144066181 0 -0.01081562328305141 9.8994880141020688e-05 0 -0.010803408124596806 9.6890673812694309e-05 0 -0.010806212707860391 1.4144416304097532e-05 0 -0.01081562328305141 9.8994880141020688e-05 0 -0.01081562328305141 9.8994880141020688e-05 0 -0.010807062892290577 0.00015663435632225979 0 -0.010798641187403001 0.00015560308395754288 0 -0.010801171647442844 0.00012712283198437933 0 -0.01081562328305141 9.8994880141020688e-05 0 -0.010807062892290577 0.00015663435632225979 0 -0.010807062892290577 0.00015663435632225979 0 -0.010798641187403001 0.00015560308395754288 0 -0.01080002216467596 0.00022843020418541966 0 -0.0069570501197266854 0.00094154775433885304 0 -0.0067935670240208872 0.00061719920398467249 0 -0.0073931815098528236 0.00070699384604971385 0 -0.010798641187403001 0.00015560308395754288 0 -0.01080002216467596 0.00022843020418541966 0 -0.010637303315441488 0.00041870545111654485 0 -0.010786481453994416 0.00012954436613760124 0 -0.010807062892290577 0.00015663435632225979 0 -0.01080002216467596 0.00022843020418541966 0 -0.0061887884475300865 0.00088795077293239407 0 -0.0069570501197266854 0.00094154775433885304 0 -0.0067935670240208872 0.00061719920398467249 0 -0.0068922431565058544 0.00070847465687112971 0 -0.0091989945181547034 0.00057609198516276629 0 -0.0068922431565058544 0.00070847465687112971 0 -0.0040773421532587064 0.00091112255654968036 0 -0.0020939961059827611 0.00075529949956107986 0 -0.0020793836189873234 0.0010330207268827404 0 -0.0023317697352590104 0.00089164022793188427 0 -0.0020939961059827611 0.00075529949956107986 0 -0.0023797884466815848 0.00062706034489067204 0 -0.0023317697352590104 0.00089164022793188427 0 -0.0040773421532587064 0.00091112255654968036 0 -0.0049931070999258333 0.00047808456242227188 0 -0.0023797884466815848 0.00062706034489067204 0 -0.0023317697352590104 0.00089164022793188427 0 -0.0026384290593451918 0.00076507581328579075 0 -0.0067935670240208872 0.00061719920398467249 0 -0.0073931815098528236 0.00070699384604971385 0 -0.0074340728810151869 0.00031357290706272986 0 -0.0072572785180624643 9.1022068448305885e-05 0 -0.0070997141317083118 0.00010682167869143546 0 -0.0070771919857715564 0.00012400694296544766 0 -0.0049931070999258333 0.00047808456242227188 0 -0.0077709856989824156 0.00050266637366422275 0 -0.0073931815098528236 0.00070699384604971385 0 -0.0074340728810151869 0.00031357290706272986 0 -0.0080310799065254103 0.00066763024813988538 0 -0.0072572785180624643 9.1022068448305885e-05 0 -0.0072156514921222362 -0.00020765971278847252 0 -0.0070771919857715564 0.00012400694296544766 0 -0.0099984592221280047 0.00064351673488329756 0 -0.010237060743874213 0.00019613261908520241 0 -0.010637303315441488 0.00041870545111654485 0 -0.0089658635945473811 0.00078616715032247045 0 -0.0077709856989824156 0.00050266637366422275 0 -0.0089658635945473811 0.00078616715032247045 0 -0.0091926923567039603 0.00071503478351061525 0 -0.0086346758586329977 0.0010396539592209245 0 -0.0080310799065254103 0.00066763024813988538 0 -0.0077791370758977969 0.00099532813351723391 0 -0.0073931815098528236 0.00070699384604971385 0 -0.0080310799065254103 0.00066763024813988538 0 -0.0077791370758977969 0.00099532813351723391 0 -0.0091989945181547034 0.00057609198516276629 0 -0.0091926923567039603 0.00071503478351061525 0 -0.0069570501197266854 0.00094154775433885304 0 -0.0073931815098528236 0.00070699384604971385 0 -0.0077791370758977969 0.00099532813351723391 0 -0.00022266085187022796 0.0038863349436696784 0 -0.00017924159114052852 0.0036172246902110429 0 -0.00042721106966812146 0.0039644955360588641 0 -0.00022266085187022796 0.0038863349436696784 0 0.00017657872284697839 0.0035979729409447228 0 -0.00017924159114052852 0.0036172246902110429 0 0.00017657872284697839 0.0035979729409447228 0 -0.00032926859977005303 0.0042269664908677809 0 0.0013223299961144721 0.0038496155308147622 0 -0.00022266085187022796 0.0038863349436696784 0 0.00017657872284697839 0.0035979729409447228 0 -0.00032926859977005303 0.0042269664908677809 0 0.00017657872284697839 0.0035979729409447228 0 0.00075896092330371694 0.0032098760503724792 0 0.00037597108655578387 0.0030929075102502832 0 0.00075896092330371694 0.0032098760503724792 0 0.00037597108655578387 0.0030929075102502832 0 0.00082843290370672451 0.0027747333333989692 0 0.00037597108655578387 0.0030929075102502832 0 0.00011560494490166115 0.0031569434671935674 0 8.8828760829512358e-05 0.0033794915458305523 0 0.00017657872284697839 0.0035979729409447228 0 0.00037597108655578387 0.0030929075102502832 0 8.8828760829512358e-05 0.0033794915458305523 0 0.00017657872284697839 0.0035979729409447228 0 8.8828760829512358e-05 0.0033794915458305523 0 -0.00017924159114052852 0.0036172246902110429 0 -0.00017924159114052852 0.0036172246902110429 0 -0.00013047644403116273 0.0033352008156530086 0 -0.00065598455308086721 0.0034590060221425046 0 8.8828760829512358e-05 0.0033794915458305523 0 -0.00017924159114052852 0.0036172246902110429 0 -0.00013047644403116273 0.0033352008156530086 0 0.00011560494490166115 0.0031569434671935674 0 -0.00013047644403116273 0.0033352008156530086 0 0.00012397647642776175 0.0028067239808395538 0 0.00011560494490166115 0.0031569434671935674 0 8.8828760829512358e-05 0.0033794915458305523 0 -0.00013047644403116273 0.0033352008156530086 0 -0.00065598455308086721 0.0034590060221425046 0 -0.0010457650241324991 0.0030725452904503642 0 -0.0010442270669147689 0.003829369345817085 0 -0.00017924159114052852 0.0036172246902110429 0 -0.00065598455308086721 0.0034590060221425046 0 -0.0010442270669147689 0.003829369345817085 0 -0.00013047644403116273 0.0033352008156530086 0 -0.00050912847038368607 0.0030672259378557473 0 -0.00065598455308086721 0.0034590060221425046 0 -0.00050912847038368607 0.0030672259378557473 0 -0.00065598455308086721 0.0034590060221425046 0 -0.0010457650241324991 0.0030725452904503642 0 -0.0010457650241324991 0.0030725452904503642 0 -0.0010442270669147689 0.003829369345817085 0 -0.0016822066557087225 0.0033984212325559151 0 -0.0010457650241324991 0.0030725452904503642 0 -0.0015518460579796271 0.0029001567241407644 0 -0.0016822066557087225 0.0033984212325559151 0 -0.0010442270669147689 0.003829369345817085 0 -0.002015433747468849 0.0040733011473287157 0 -0.0016822066557087225 0.0033984212325559151 0 -0.00063623299089325333 0.0039046754297867212 0 -0.0020145235154607555 0.0028143851783774985 0 -0.00050966811653865114 0.0038115572117098052 0 -0.00048074603981382161 0.0038810562177803609 0 -0.0005019521407198332 0.0038598903003010218 0 -0.00025685534903746734 0.0036249708596495351 0 -0.00063623299089325333 0.0039046754297867212 0 -0.00017924159114052852 0.0036172246902110429 0 -0.00050966811653865114 0.0038115572117098052 0 -0.00042721106966812146 0.0039644955360588641 0 -0.00050966811653865114 0.0038115572117098052 0 -0.00042721106966812146 0.0039644955360588641 0 -0.00048074603981382161 0.0038810562177803609 0 -0.00042721106966812146 0.0039644955360588641 0 -0.00048074603981382161 0.0038810562177803609 0 -0.00057574897181995779 0.0037847869264386325 0 -0.00048074603981382161 0.0038810562177803609 0 -0.00041599998526857231 0.003810869727977595 0 -0.0005019521407198332 0.0038598903003010218 0 -0.00041599998526857231 0.003810869727977595 0 -0.00057574897181995779 0.0037847869264386325 0 -0.00072619256296663247 0.0033219449892471667 0 -0.00048074603981382161 0.0038810562177803609 0 -0.00041599998526857231 0.003810869727977595 0 -0.00057574897181995779 0.0037847869264386325 0 -0.00042721106966812146 0.0039644955360588641 0 -0.00057574897181995779 0.0037847869264386325 0 -0.00070011261947808788 0.0037720364853423742 0 -0.00042721106966812146 0.0039644955360588641 0 -0.00070011261947808788 0.0037720364853423742 0 -0.00032926859977005303 0.0042269664908677809 0 -0.00022266085187022796 0.0038863349436696784 0 -0.00042721106966812146 0.0039644955360588641 0 -0.00032926859977005303 0.0042269664908677809 0 -0.00070011261947808788 0.0037720364853423742 0 -0.00032926859977005303 0.0042269664908677809 0 -0.00099526993099260117 0.0037853582177175987 0 -0.00032926859977005303 0.0042269664908677809 0 -0.00099526993099260117 0.0037853582177175987 0 -0.0014562546405222877 0.0040264156163554781 0 -0.00099526993099260117 0.0037853582177175987 0 -0.0014562546405222877 0.0040264156163554781 0 -0.0017644153801622416 0.0036904974926679625 0 -0.0019355073969644537 0.0039918943004446554 0 -0.002294279935511226 0.0039138527068714197 0 -0.0017644153801622416 0.0036904974926679625 0 -0.0014562546405222877 0.0040264156163554781 0 -0.0019355073969644537 0.0039918943004446554 0 -0.0017644153801622416 0.0036904974926679625 0 -0.0019355073969644537 0.0039918943004446554 0 -0.0019815919621776735 0.0043239788522226865 0 -0.0022382997630155193 0.00414931162958284 0 -0.0014562546405222877 0.0040264156163554781 0 -0.0019355073969644537 0.0039918943004446554 0 -0.0019815919621776735 0.0043239788522226865 0 -0.0014562546405222877 0.0040264156163554781 0 -0.0019815919621776735 0.0043239788522226865 0 -0.0016533398309985078 0.0048182406022947355 0 -0.0019815919621776735 0.0043239788522226865 0 -0.0022387927898286923 0.0046032928929908281 0 -0.0016533398309985078 0.0048182406022947355 0 -0.00032926859977005303 0.0042269664908677809 0 -0.0014562546405222877 0.0040264156163554781 0 -0.0016533398309985078 0.0048182406022947355 0 -0.0028303185057636077 0.0041426318022030149 0 -0.0026609577790188536 0.003899296591279109 0 -0.0029774768767554167 0.0039705786271018563 0 -0.0028303185057636077 0.0041426318022030149 0 -0.0025404615691612424 0.0041528734962269038 0 -0.0026609577790188536 0.003899296591279109 0 -0.0028303185057636077 0.0041426318022030149 0 -0.0025404615691612424 0.0041528734962269038 0 -0.0027517674568244702 0.0043734754579124596 0 -0.0025404615691612424 0.0041528734962269038 0 -0.002294279935511226 0.0039138527068714197 0 -0.0026609577790188536 0.003899296591279109 0 -0.0019355073969644537 0.0039918943004446554 0 -0.002294279935511226 0.0039138527068714197 0 -0.0022382997630155193 0.00414931162958284 0 -0.0025404615691612424 0.0041528734962269038 0 -0.002294279935511226 0.0039138527068714197 0 -0.0022382997630155193 0.00414931162958284 0 -0.0019815919621776735 0.0043239788522226865 0 -0.0022382997630155193 0.00414931162958284 0 -0.0024130354933212554 0.0043885946239559433 0 -0.0019815919621776735 0.0043239788522226865 0 -0.0024130354933212554 0.0043885946239559433 0 -0.0022387927898286923 0.0046032928929908281 0 -0.0024130354933212554 0.0043885946239559433 0 -0.0025922876995523683 0.00459814203750461 0 -0.0022387927898286923 0.0046032928929908281 0 -0.0025404615691612424 0.0041528734962269038 0 -0.0024130354933212554 0.0043885946239559433 0 -0.0027517674568244702 0.0043734754579124596 0 -0.0025404615691612424 0.0041528734962269038 0 -0.0022382997630155193 0.00414931162958284 0 -0.0024130354933212554 0.0043885946239559433 0 -0.0024130354933212554 0.0043885946239559433 0 -0.0027517674568244702 0.0043734754579124596 0 -0.0025922876995523683 0.00459814203750461 0 -0.0027517674568244702 0.0043734754579124596 0 -0.0028463823928864523 0.0045549026610229104 0 -0.0030041907445090008 0.0044161184040619229 0 -0.0027517674568244702 0.0043734754579124596 0 -0.0030041907445090008 0.0044161184040619229 0 -0.0029356944508853087 0.0043023524753050251 0 -0.0028303185057636077 0.0041426318022030149 0 -0.0027517674568244702 0.0043734754579124596 0 -0.0029356944508853087 0.0043023524753050251 0 -0.0029028612278661986 0.0046635223986442433 0 -0.0028463823928864523 0.0045549026610229104 0 -0.00272541273371389 0.0047247221609520345 0 -0.0028463823928864523 0.0045549026610229104 0 -0.0025922876995523683 0.00459814203750461 0 -0.00272541273371389 0.0047247221609520345 0 -0.0027517674568244702 0.0043734754579124596 0 -0.0028463823928864523 0.0045549026610229104 0 -0.0025922876995523683 0.00459814203750461 0 -0.0025922876995523683 0.00459814203750461 0 -0.00272541273371389 0.0047247221609520345 0 -0.0025091473673326085 0.0048696120721864466 0 -0.0025922876995523683 0.00459814203750461 0 -0.0022387927898286923 0.0046032928929908281 0 -0.0025091473673326085 0.0048696120721864466 0 0.0018409924735945627 0.0032254526452949223 0 0.0020351292713849055 0.0033386397241257542 0 0.0016357211035910911 0.0033746767518697111 0 0.0018409924735945627 0.0032254526452949223 0 0.0020038125637903111 0.003325641843800005 0 0.0018937642125404328 0.0029685152260266138 0 0.0018409924735945627 0.0032254526452949223 0 0.0020038125637903111 0.003325641843800005 0 0.0020351292713849055 0.0033386397241257542 0 -0.00272541273371389 0.0047247221609520345 0 -0.0025091473673326085 0.0048696120721864466 0 -0.0030791473923179025 0.0047348469858675135 0 -0.0029028612278661986 0.0046635223986442433 0 -0.00272541273371389 0.0047247221609520345 0 -0.0030791473923179025 0.0047348469858675135 0 0.0020351292713849055 0.0033386397241257542 0 0.001750499808046408 0.0034810608465787526 0 0.001508032717295132 0.0033435562593671143 0 0.0020343410112939908 0.0033094185093051681 0 0.0020360614587736688 0.0033150972959420121 0 0.0020038125637903111 0.003325641843800005 0 0.0020351292713849055 0.0033386397241257542 0 0.001750499808046408 0.0034810608465787526 0 -0.00022268936909575532 0.0040964475613893027 0 -0.00085979013282699499 0.0041044075669933525 0 0.00017657872284697839 0.0035979729409447228 0 0.00075896092330371694 0.0032098760503724792 0 0.0013223299961144721 0.0038496155308147622 0 -0.00029869136175453612 0.0042514908535409993 0 -0.00017916324727912112 0.004301454719107106 0 0.0020351292713849055 0.0033386397241257542 0 0.0013223299961144721 0.0038496155308147622 0 0.0016357211035910911 0.0033746767518697111 0 -0.0022387927898286923 0.0046032928929908281 0 -0.0025091473673326085 0.0048696120721864466 0 -0.0016533398309985078 0.0048182406022947355 0 -0.00022268936909575532 0.0040964475613893027 0 -0.00017916324727912112 0.004301454719107106 0 0.0016357211035910911 0.0033746767518697111 0 0.0012111806664395989 0.0030289961153695203 0 0.0015726545433411667 0.0029379060375841208 0 0.0013223299961144721 0.0038496155308147622 0 0.0016357211035910911 0.0033746767518697111 0 0.0012111806664395989 0.0030289961153695203 0 0.0018409924735945627 0.0032254526452949223 0 0.0016357211035910911 0.0033746767518697111 0 0.0015726545433411667 0.0029379060375841208 0 0.00075896092330371694 0.0032098760503724792 0 0.0013223299961144721 0.0038496155308147622 0 0.0012111806664395989 0.0030289961153695203 0 0.0012381010399508654 0.0027468484473425225 0 0.0012111806664395989 0.0030289961153695203 0 0.00082843290370672451 0.0027747333333989692 0 0.00075896092330371694 0.0032098760503724792 0 0.0012111806664395989 0.0030289961153695203 0 0.00082843290370672451 0.0027747333333989692 0 0.0012381010399508654 0.0027468484473425225 0 0.0012143448566967802 0.002525134616934958 0 0.00082843290370672451 0.0027747333333989692 0 0.0012381010399508654 0.0027468484473425225 0 0.0015726545433411667 0.0029379060375841208 0 0.001501929650627908 0.0026200726727533628 0 0.0012381010399508654 0.0027468484473425225 0 0.0012111806664395989 0.0030289961153695203 0 0.0015726545433411667 0.0029379060375841208 0 0.0018409924735945627 0.0032254526452949223 0 0.0015726545433411667 0.0029379060375841208 0 0.0018937642125404328 0.0029685152260266138 0 0.0015726545433411667 0.0029379060375841208 0 0.0017624785641107204 0.0027592683521669632 0 0.0018937642125404328 0.0029685152260266138 0 0.0015726545433411667 0.0029379060375841208 0 0.0017624785641107204 0.0027592683521669632 0 0.001501929650627908 0.0026200726727533628 0 0.0017794642810061432 0.0025066195467427031 0 0.0014582678921893914 0.0024094467821114312 0 0.001501929650627908 0.0026200726727533628 0 0.0017624785641107204 0.0027592683521669632 0 0.0017794642810061432 0.0025066195467427031 0 0.001501929650627908 0.0026200726727533628 0 0.0014582678921893914 0.0024094467821114312 0 0.0012143448566967802 0.002525134616934958 0 0.001240075222159186 0.0022976557022466918 0 0.0014582678921893914 0.0024094467821114312 0 0.0012143448566967802 0.002525134616934958 0 0.001501929650627908 0.0026200726727533628 0 0.0012381010399508654 0.0027468484473425225 0 0.0012143448566967802 0.002525134616934958 0 0.001501929650627908 0.0026200726727533628 0 0.0020038125637903111 0.003325641843800005 0 0.0024460390664999398 0.0030709240811375663 0 0.002150808394940406 0.0030176088356067758 0 0.0024542072942333811 0.0027804553635184925 0 0.0024460390664999398 0.0030709240811375663 0 0.002150808394940406 0.0030176088356067758 0 0.0024542072942333811 0.0027804553635184925 0 0.002150808394940406 0.0030176088356067758 0 0.0020989269339366234 0.0027042038211886679 0 0.002150808394940406 0.0030176088356067758 0 0.0018937642125404328 0.0029685152260266138 0 0.0020989269339366234 0.0027042038211886679 0 0.0020038125637903111 0.003325641843800005 0 0.002150808394940406 0.0030176088356067758 0 0.0018937642125404328 0.0029685152260266138 0 0.0017624785641107204 0.0027592683521669632 0 0.0018937642125404328 0.0029685152260266138 0 0.0020989269339366234 0.0027042038211886679 0 0.0017624785641107204 0.0027592683521669632 0 0.0017794642810061432 0.0025066195467427031 0 0.0020989269339366234 0.0027042038211886679 0 0.0017794642810061432 0.0025066195467427031 0 0.0020989269339366234 0.0027042038211886679 0 0.0021072212897229451 0.0024551292850033147 0 0.0020989269339366234 0.0027042038211886679 0 0.0022859109783330833 0.0025856120159223378 0 0.0021072212897229451 0.0024551292850033147 0 0.0023753439137201848 0.0027342457083515195 0 0.0020989269339366234 0.0027042038211886679 0 0.0022859109783330833 0.0025856120159223378 0 0.002443754562123888 0.0027758369427734035 0 0.0021287201243276816 0.0027065678360609965 0 0.0022859109783330833 0.0025856120159223378 0 0.0023576918404811225 0.0024308933787271069 0 0.0024795432333186576 0.002572610950656955 0 0.0023753439137201848 0.0027342457083515195 0 0.0022859109783330833 0.0025856120159223378 0 0.0024795432333186576 0.002572610950656955 0 0.0023576918404811225 0.0024308933787271069 0 0.0021072212897229451 0.0024551292850033147 0 0.0022717288244914272 0.0022663038037881865 0 0.0023576918404811225 0.0024308933787271069 0 0.0022717288244914272 0.0022663038037881865 0 0.0024946192929020039 0.0022688530273941372 0 0.0022859109783330833 0.0025856120159223378 0 0.0023576918404811225 0.0024308933787271069 0 0.0021072212897229451 0.0024551292850033147 0 0.0017794642810061432 0.0025066195467427031 0 0.0021072212897229451 0.0024551292850033147 0 0.0019700938910930288 0.0022729321802995345 0 0.0021072212897229451 0.0024551292850033147 0 0.0019700938910930288 0.0022729321802995345 0 0.0022717288244914272 0.0022663038037881865 0 0.0019700938910930288 0.0022729321802995345 0 0.002203818615581922 0.0021142253469993628 0 0.0019658016665439703 0.0020930978113948492 0 0.0019700938910930288 0.0022729321802995345 0 0.0022717288244914272 0.0022663038037881865 0 0.002203818615581922 0.0021142253469993628 0 0.0022717288244914272 0.0022663038037881865 0 0.0024916643983798645 0.0021331386333072748 0 0.002203818615581922 0.0021142253469993628 0 0.0022717288244914272 0.0022663038037881865 0 0.0024946192929020039 0.0022688530273941372 0 0.0024916643983798645 0.0021331386333072748 0 0.0014582678921893914 0.0024094467821114312 0 0.001508701857116435 0.0021930209338301872 0 0.0016932235566610354 0.0022985320096939642 0 0.0014582678921893914 0.0024094467821114312 0 0.001508701857116435 0.0021930209338301872 0 0.001240075222159186 0.0022976557022466918 0 0.0017794642810061432 0.0025066195467427031 0 0.0019700938910930288 0.0022729321802995345 0 0.0016932235566610354 0.0022985320096939642 0 0.0017794642810061432 0.0025066195467427031 0 0.0014582678921893914 0.0024094467821114312 0 0.0016932235566610354 0.0022985320096939642 0 0.0019700938910930288 0.0022729321802995345 0 0.0017661699744856759 0.0021659813519383261 0 0.0019658016665439703 0.0020930978113948492 0 0.0017661699744856759 0.0021659813519383261 0 0.0019658016665439703 0.0020930978113948492 0 0.0016938154220661836 0.002020316626489532 0 0.0019700938910930288 0.0022729321802995345 0 0.0016932235566610354 0.0022985320096939642 0 0.0017661699744856759 0.0021659813519383261 0 0.001508701857116435 0.0021930209338301872 0 0.0017661699744856759 0.0021659813519383261 0 0.0016938154220661836 0.002020316626489532 0 0.001508701857116435 0.0021930209338301872 0 0.0014643143015048877 0.0020867150224219647 0 0.0016938154220661836 0.002020316626489532 0 0.001508701857116435 0.0021930209338301872 0 0.0016932235566610354 0.0022985320096939642 0 0.0017661699744856759 0.0021659813519383261 0 0.0014643143015048877 0.0020867150224219647 0 0.0013872702806859989 0.0020419941564428033 0 0.0015266793228837787 0.0019592112333311029 0 0.0014643143015048877 0.0020867150224219647 0 0.0013746958042218228 0.0021833542709211169 0 0.0013013634408802672 0.0021587677958004735 0 0.0014643143015048877 0.0020867150224219647 0 0.0013872702806859989 0.0020419941564428033 0 0.0013013634408802672 0.0021587677958004735 0 0.001508701857116435 0.0021930209338301872 0 0.0014643143015048877 0.0020867150224219647 0 0.0013746958042218228 0.0021833542709211169 0 0.0013315945278285172 0.0020383766053914333 0 0.0013872702806859989 0.0020419941564428033 0 0.0014803544900805102 0.0018987378411172533 0 0.0013872702806859989 0.0020419941564428033 0 0.0012488816054967986 0.0021359223501791896 0 0.0013013634408802672 0.0021587677958004735 0 0.0013315945278285172 0.0020383766053914333 0 0.0013872702806859989 0.0020419941564428033 0 0.0012488816054967986 0.0021359223501791896 0 0.0013315945278285172 0.0020383766053914333 0 0.0012488816054967986 0.0021359223501791896 0 0.0012340556281200958 0.0021166238285398008 0 0.0012488816054967986 0.0021359223501791896 0 0.0011639394052243518 0.0022263714286156174 0 0.0011286713616093028 0.0022284351098357984 0 0.0012488816054967986 0.0021359223501791896 0 0.0011286713616093028 0.0022284351098357984 0 0.0012340556281200958 0.0021166238285398008 0 0.0012488816054967986 0.0021359223501791896 0 0.0011639394052243518 0.0022263714286156174 0 0.0013013634408802672 0.0021587677958004735 0 0.0011639394052243518 0.0022263714286156174 0 0.0011286713616093028 0.0022284351098357984 0 0.0010342581286990951 0.0023247516758488317 0 0.0011286713616093028 0.0022284351098357984 0 0.0010342581286990951 0.0023247516758488317 0 0.0010011792580847903 0.0023231460524515959 0 0.001508701857116435 0.0021930209338301872 0 0.0013746958042218228 0.0021833542709211169 0 0.001240075222159186 0.0022976557022466918 0 0.0013746958042218228 0.0021833542709211169 0 0.0013013634408802672 0.0021587677958004735 0 0.001240075222159186 0.0022976557022466918 0 0.0011639394052243518 0.0022263714286156174 0 0.0013013634408802672 0.0021587677958004735 0 0.001240075222159186 0.0022976557022466918 0 0.0011639394052243518 0.0022263714286156174 0 0.001240075222159186 0.0022976557022466918 0 0.0010342581286990951 0.0023247516758488317 0 0.0012143448566967802 0.002525134616934958 0 0.001240075222159186 0.0022976557022466918 0 0.001012843452112136 0.0024677868834959427 0 0.0012143448566967802 0.002525134616934958 0 0.001012843452112136 0.0024677868834959427 0 0.00082843290370672451 0.0027747333333989692 0 0.001012843452112136 0.0024677868834959427 0 0.00080586198639114482 0.0024610552108796716 0 0.00082843290370672451 0.0027747333333989692 0 0.001240075222159186 0.0022976557022466918 0 0.001012843452112136 0.0024677868834959427 0 0.0010342581286990951 0.0023247516758488317 0 0.001012843452112136 0.0024677868834959427 0 0.0010342581286990951 0.0023247516758488317 0 0.00080586198639114482 0.0024610552108796716 0 0.0010342581286990951 0.0023247516758488317 0 0.00089902347400554054 0.002376557032001402 0 0.00080586198639114482 0.0024610552108796716 0 0.0010342581286990951 0.0023247516758488317 0 0.0010011792580847903 0.0023231460524515959 0 0.00089902347400554054 0.002376557032001402 0 0.0010011792580847903 0.0023231460524515959 0 0.00089902347400554054 0.002376557032001402 0 0.00093368063804746891 0.0023643062726833729 0 0.00076021925033234992 0.0024219796164095028 0 0.00046526299464259385 0.0026186446263634423 0 0.00078800896899319036 0.0023945052406309487 0 0.00093368063804746891 0.0023643062726833729 0 0.00076021925033234992 0.0024219796164095028 0 0.00094900931859767993 0.0023172415210825342 0 0.00089902347400554054 0.002376557032001402 0 0.00093368063804746891 0.0023643062726833729 0 0.00076021925033234992 0.0024219796164095028 0 0.00072984550867148884 0.0022549174161718443 0 0.00044449441309315498 0.002202775018919387 0 0.00089902347400554054 0.002376557032001402 0 0.00076021925033234992 0.0024219796164095028 0 0.00080586198639114482 0.0024610552108796716 0 0.00076021925033234992 0.0024219796164095028 0 0.00080586198639114482 0.0024610552108796716 0 0.00046526299464259385 0.0026186446263634423 0 0.00080586198639114482 0.0024610552108796716 0 0.00046526299464259385 0.0026186446263634423 0 0.00082843290370672451 0.0027747333333989692 0 -0.00013047644403116273 0.0033352008156530086 0 0.00012397647642776175 0.0028067239808395538 0 -0.00023042628700466468 0.0022769605289063694 0 0.00053275763739307508 0.0025456286038542794 0 0.00044449441309315498 0.002202775018919387 0 0.00046526299464259385 0.0026186446263634423 0 0.00012397647642776175 0.0028067239808395538 0 -6.1431008231195851e-05 0.002259031399977786 0 0.00037597108655578387 0.0030929075102502832 0 0.00011560494490166115 0.0031569434671935674 0 0.00012397647642776175 0.0028067239808395538 0 0.00037597108655578387 0.0030929075102502832 0 0.00046526299464259385 0.0026186446263634423 0 0.00012397647642776175 0.0028067239808395538 0 0.00037597108655578387 0.0030929075102502832 0 0.00046526299464259385 0.0026186446263634423 0 0.00082843290370672451 0.0027747333333989692 0 -0.0010457650241324991 0.0030725452904503642 0 -0.000832800693197926 0.0026547942009069844 0 -0.0014613176321600764 0.0022915511283892959 0 -0.0010457650241324991 0.0030725452904503642 0 -0.0015518460579796271 0.0029001567241407644 0 -0.0014613176321600764 0.0022915511283892959 0 -0.00050912847038368607 0.0030672259378557473 0 -0.000832800693197926 0.0026547942009069844 0 -0.00055871594680632843 0.002205298792120483 0 -0.000832800693197926 0.0026547942009069844 0 -0.00055871594680632843 0.002205298792120483 0 -0.0014613176321600764 0.0022915511283892959 0 -0.00017017150078079327 0.0033739752033969672 0 -0.00015485958619256376 0.0020046026533770494 0 -0.00013047644403116273 0.0033352008156530086 0 -0.00050912847038368607 0.0030672259378557473 0 -0.00055871594680632843 0.002205298792120483 0 -0.00050912847038368607 0.0030672259378557473 0 -0.0010457650241324991 0.0030725452904503642 0 -0.000832800693197926 0.0026547942009069844 0 0.00012397647642776175 0.0028067239808395538 0 -6.1431008231195851e-05 0.002259031399977786 0 -0.00023042628700466468 0.0022769605289063694 0 -0.00033856360417561807 0.0011428849480898838 0 -0.00033509246492329436 0.0011499349254427353 0 -0.00030619926815548328 0.0011358135816072 0 0.00093368063804746891 0.0023643062726833729 0 0.00094900931859767993 0.0023172415210825342 0 0.00102436432451397 0.0023274115219685861 0 0.00044449441309315498 0.002202775018919387 0 -0.00015485958619256376 0.0020046026533770494 0 0.00044449441309315498 0.002202775018919387 0 0.00013890631823518847 0.0018040426968003623 0 -0.00015485958619256376 0.0020046026533770494 0 0.00013890631823518847 0.0018040426968003623 0 0.00019869594877619447 0.0019934953862958296 0 0.00012092798821027671 0.0020004821751316037 0 8.1752199348578822e-05 0.0019013455904075742 0 0.0010011792580847903 0.0023231460524515959 0 0.00093368063804746891 0.0023643062726833729 0 0.00102436432451397 0.0023274115219685861 0 0.0010011792580847903 0.0023231460524515959 0 0.00102436432451397 0.0023274115219685861 0 0.0010708751742960303 0.0022745957486721403 0 -0.00033509246492329436 0.0011499349254427353 0 -0.00030619926815548328 0.0011358135816072 0 -0.00029175665837630243 0.0011398514264077601 0 -0.00015485958619256376 0.0020046026533770494 0 -0.00095250614246023902 0.0017227204849550239 0 0.00013890631823518847 0.0018040426968003623 0 -0.00021965857895110409 0.001248446316123401 0 -0.00033509246492329436 0.0011499349254427353 0 -0.00031126519338091439 0.0011802490916436974 0 -0.00029175665837630243 0.0011398514264077601 0 0.00020236679264324411 0.0016510275590102029 0 -1.4086779596905571e-05 0.0014748308543019054 0 0.00010460532959160418 0.0014101442755841311 0 0.00013890631823518847 0.0018040426968003623 0 0.0012011051303420816 0.0017610978128982198 0 0.00102436432451397 0.0023274115219685861 0 0.0011415984884769886 0.0021957708842407983 0 0.0012127984215504475 0.0020665605136189827 0 0.00102436432451397 0.0023274115219685861 0 0.0010708751742960303 0.0022745957486721403 0 0.0011415984884769886 0.0021957708842407983 0 0.0011286713616093028 0.0022284351098357984 0 0.0010708751742960303 0.0022745957486721403 0 0.0011415984884769886 0.0021957708842407983 0 0.0011286713616093028 0.0022284351098357984 0 0.0010011792580847903 0.0023231460524515959 0 0.0010708751742960303 0.0022745957486721403 0 0.0011415984884769886 0.0021957708842407983 0 0.0012139782431605283 0.0020927579915351988 0 0.0012127984215504475 0.0020665605136189827 0 0.0011415984884769886 0.0021957708842407983 0 0.0012139782431605283 0.0020927579915351988 0 0.0012340556281200958 0.0021166238285398008 0 0.0011286713616093028 0.0022284351098357984 0 0.0011415984884769886 0.0021957708842407983 0 0.0012340556281200958 0.0021166238285398008 0 0.0013322561354937722 0.0020026469462949147 0 0.0012621600774343094 0.0020380536716578614 0 0.0014759559699256454 0.0018803815310096676 0 0.0013315945278285172 0.0020383766053914333 0 0.0012340556281200958 0.0021166238285398008 0 0.0013322561354937722 0.0020026469462949147 0 0.0012139782431605283 0.0020927579915351988 0 0.0012340556281200958 0.0021166238285398008 0 0.0013322561354937722 0.0020026469462949147 0 0.0012139782431605283 0.0020927579915351988 0 0.0013322561354937722 0.0020026469462949147 0 0.0012621600774343094 0.0020380536716578614 0 0.0013315945278285172 0.0020383766053914333 0 0.0013322561354937722 0.0020026469462949147 0 0.0014803544900805102 0.0018987378411172533 0 -1.4086779596905571e-05 0.0014748308543019054 0 0.00010460532959160418 0.0014101442755841311 0 -6.6173476249095355e-05 0.0013270962824089665 0 0.0020482486700391582 0.0016748129782098993 0 0.0021220201024659451 0.0017128281789638704 0 0.0021123708198624216 0.0017606979949848084 0 0.0012011051303420816 0.0017610978128982198 0 0.00099777123194055698 0.0014969894010443863 0 0.0012750477988355097 0.00187673207013213 0 0.0012011051303420816 0.0017610978128982198 0 -0.00031126519338091439 0.0011802490916436974 0 -0.00017697484835763646 0.0012415358988405562 0 -0.00015497674114704296 0.0013260205444074133 0 -0.00021965857895110409 0.001248446316123401 0 -0.00012595551741732776 0.0013591550985957886 0 -1.4086779596905571e-05 0.0014748308543019054 0 -6.6173476249095355e-05 0.0013270962824089665 0 -0.00015497674114704296 0.0013260205444074133 0 -0.00031126519338091439 0.0011802490916436974 0 -0.000264516844900717 0.0011611842061054758 0 -0.00021908135434606883 0.0011870515194491271 0 -0.00031126519338091439 0.0011802490916436974 0 -0.00021908135434606883 0.0011870515194491271 0 -0.00017697484835763646 0.0012415358988405562 0 -0.000264516844900717 0.0011611842061054758 0 -0.00029175665837630243 0.0011398514264077601 0 -0.00023021834842084518 0.0011361959321470657 0 -0.000264516844900717 0.0011611842061054758 0 -0.00021908135434606883 0.0011870515194491271 0 -0.00023021834842084518 0.0011361959321470657 0 -0.00031126519338091439 0.0011802490916436974 0 -0.000264516844900717 0.0011611842061054758 0 -0.00029175665837630243 0.0011398514264077601 0 -0.00018029286960746704 0.0011480787991664247 0 -0.00012856088330687337 0.0011473360976955323 0 -0.00015750831803910858 0.001121197092558661 0 -0.00018029286960746704 0.0011480787991664247 0 -0.00018744844600174527 0.0011155724671583953 0 -0.00015750831803910858 0.001121197092558661 0 -0.00018029286960746704 0.0011480787991664247 0 -0.00021908135434606883 0.0011870515194491271 0 -0.00023021834842084518 0.0011361959321470657 0 -0.00018029286960746704 0.0011480787991664247 0 -0.00023021834842084518 0.0011361959321470657 0 -0.00018744844600174527 0.0011155724671583953 0 -0.00021908135434606883 0.0011870515194491271 0 -0.00016411579548204088 0.00119190549762074 0 -0.00017697484835763646 0.0012415358988405562 0 -0.00018029286960746704 0.0011480787991664247 0 -0.00021908135434606883 0.0011870515194491271 0 -0.00016411579548204088 0.00119190549762074 0 -0.00016411579548204088 0.00119190549762074 0 -0.00012623572109268224 0.0012322831686153047 0 -0.00017697484835763646 0.0012415358988405562 0 -0.00018029286960746704 0.0011480787991664247 0 -0.00016411579548204088 0.00119190549762074 0 -0.00012856088330687337 0.0011473360976955323 0 -0.00016411579548204088 0.00119190549762074 0 -0.00012856088330687337 0.0011473360976955323 0 -0.00012623572109268224 0.0012322831686153047 0 -0.00017697484835763646 0.0012415358988405562 0 -0.00015497674114704296 0.0013260205444074133 0 -0.00011514361996951319 0.0012861733793558261 0 -0.00012623572109268224 0.0012322831686153047 0 -0.00017697484835763646 0.0012415358988405562 0 -0.00011514361996951319 0.0012861733793558261 0 -0.00015497674114704296 0.0013260205444074133 0 -0.00011514361996951319 0.0012861733793558261 0 -6.7719312042483114e-05 0.0013086376772583628 0 -5.7813226692997927e-05 0.001254671085073443 0 1.2729489394508874e-05 0.0013211436158166454 0 -0.00012623572109268224 0.0012322831686153047 0 -6.7719312042483114e-05 0.0013086376772583628 0 4.0324066810326093e-05 0.0012532681462241544 0 -0.00012623572109268224 0.0012322831686153047 0 0.00021913329938333371 0.001405456802588688 0 3.4474569083122838e-05 0.0011912406351773815 0 -6.7719312042483114e-05 0.0013086376772583628 0 4.0324066810326093e-05 0.0012532681462241544 0 -8.4065189674623866e-06 0.0013703040818473333 0 0.00021913329938333371 0.001405456802588688 0 0.00018874306003907661 0.001170112099919881 0 3.4474569083122838e-05 0.0011912406351773815 0 -0.00012623572109268224 0.0012322831686153047 0 -0.00011514361996951319 0.0012861733793558261 0 -6.7719312042483114e-05 0.0013086376772583628 0 0.00021913329938333371 0.001405456802588688 0 0.00067132488011270022 0.0016091370176165201 0 0.00055136274835720857 0.0012784290472760134 0 1.2729489394508874e-05 0.0013211436158166454 0 0.0011817900331318803 0.0010963244450513049 0 4.0324066810326093e-05 0.0012532681462241544 0 0.00021852869817412445 0.0013027752865001985 0 0.00010469055006656934 0.0013928059211745531 0 0.00021913329938333371 0.001405456802588688 0 0.00034199900156479197 0.0011577878047229582 0 0.00055136274835720857 0.0012784290472760134 0 0.00034199900156479197 0.0011577878047229582 0 0.00055136274835720857 0.0012784290472760134 0 0.0005494757155493278 0.0010398384590641233 0 0.00021913329938333371 0.001405456802588688 0 0.00034199900156479197 0.0011577878047229582 0 0.00018874306003907661 0.001170112099919881 0 0.00034199900156479197 0.0011577878047229582 0 0.00018874306003907661 0.001170112099919881 0 0.0002470821335480361 0.001027632995490304 0 0.00034199900156479197 0.0011577878047229582 0 0.0002470821335480361 0.001027632995490304 0 0.00039022469542653732 0.00095605085827384746 0 0.0002470821335480361 0.001027632995490304 0 0.00015013906639348268 0.00089171195123059082 0 0.00028175076286878804 0.00087976937866005391 0 0.0002470821335480361 0.001027632995490304 0 0.00039022469542653732 0.00095605085827384746 0 0.00028175076286878804 0.00087976937866005391 0 0.00039022469542653732 0.00095605085827384746 0 0.00050746775397844299 0.00086051363683807374 0 0.0005494757155493278 0.0010398384590641233 0 0.00034199900156479197 0.0011577878047229582 0 0.00039022469542653732 0.00095605085827384746 0 0.0005494757155493278 0.0010398384590641233 0 -0.00012856088330687337 0.0011473360976955323 0 8.2556422972639285e-06 0.0010999602929314268 0 3.4474569083122838e-05 0.0011912406351773815 0 -0.00012856088330687337 0.0011473360976955323 0 -0.00012623572109268224 0.0012322831686153047 0 3.4474569083122838e-05 0.0011912406351773815 0 0.00018874306003907661 0.001170112099919881 0 3.4474569083122838e-05 0.0011912406351773815 0 0.00010803382300636853 0.0010674635330228165 0 0.00018874306003907661 0.001170112099919881 0 0.0002470821335480361 0.001027632995490304 0 0.00010803382300636853 0.0010674635330228165 0 8.2556422972639285e-06 0.0010999602929314268 0 3.4474569083122838e-05 0.0011912406351773815 0 0.00010803382300636853 0.0010674635330228165 0 8.2556422972639285e-06 0.0010999602929314268 0 0.00010803382300636853 0.0010674635330228165 0 1.9343769991594442e-05 0.00099155719404908985 0 0.0002470821335480361 0.001027632995490304 0 0.00010803382300636853 0.0010674635330228165 0 0.00015013906639348268 0.00089171195123059082 0 0.00010803382300636853 0.0010674635330228165 0 1.9343769991594442e-05 0.00099155719404908985 0 0.00015013906639348268 0.00089171195123059082 0 -0.00014600004981625946 0.0011442543467243588 0 -6.7262860738818823e-05 0.00084698192110795848 0 -0.00012856088330687337 0.0011473360976955323 0 1.9343769991594442e-05 0.00099155719404908985 0 -5.5906540852744987e-06 0.00079493703729124345 0 -0.00012856088330687337 0.0011473360976955323 0 -0.00015415187729722802 0.001101808411122288 0 -0.00015750831803910858 0.001121197092558661 0 -0.00012856088330687337 0.0011473360976955323 0 8.2556422972639285e-06 0.0010999602929314268 0 1.9343769991594442e-05 0.00099155719404908985 0 -0.00015415187729722802 0.001101808411122288 0 -0.00015750831803910858 0.001121197092558661 0 -0.0001657638846734966 0.0011016743340332921 0 -0.00015415187729722802 0.001101808411122288 0 -0.00016399371713206662 0.0010879205747831029 0 -0.0001657638846734966 0.0011016743340332921 0 -5.5906540852744987e-06 0.00079493703729124345 0 0.00015013906639348268 0.00089171195123059082 0 0.00016077789011532129 0.00069846091982053791 0 1.9343769991594442e-05 0.00099155719404908985 0 -5.5906540852744987e-06 0.00079493703729124345 0 0.00015013906639348268 0.00089171195123059082 0 -5.5906540852744987e-06 0.00079493703729124345 0 0.00016077789011532129 0.00069846091982053791 0 0.00015988869535870308 0.00049284346449981282 0 -0.00015415187729722802 0.001101808411122288 0 -0.00016399371713206662 0.0010879205747831029 0 -0.0001591989716239663 0.0010710258567429379 0 -6.7262860738818823e-05 0.00084698192110795848 0 -0.0016705850461510797 0.0006927326934469233 0 -0.00016399371713206662 0.0010879205747831029 0 -0.0001657638846734966 0.0011016743340332921 0 -0.00018104888713020342 0.0010847003479547729 0 -0.00016399371713206662 0.0010879205747831029 0 -0.00017435077556929789 0.0010619768529144995 0 -0.00018104888713020342 0.0010847003479547729 0 -0.00083119346383091262 0.0014166822804458821 0 -0.0018261583013746074 0.00097244414343875115 0 0.00050746775397844299 0.00086051363683807374 0 0.0003691569182015295 0.00080669826765827771 0 0.00044430184499369071 0.00071984126676431282 0 0.00039022469542653732 0.00095605085827384746 0 0.00050746775397844299 0.00086051363683807374 0 0.0003691569182015295 0.00080669826765827771 0 0.00015013906639348268 0.00089171195123059082 0 0.00016077789011532129 0.00069846091982053791 0 0.0002530758131151347 0.00075284027977710476 0 0.0003691569182015295 0.00080669826765827771 0 0.0002530758131151347 0.00075284027977710476 0 0.00033119501064788145 0.00066957192457078516 0 0.0003691569182015295 0.00080669826765827771 0 0.00028175076286878804 0.00087976937866005391 0 0.0002530758131151347 0.00075284027977710476 0 0.00039022469542653732 0.00095605085827384746 0 0.0003691569182015295 0.00080669826765827771 0 0.00028175076286878804 0.00087976937866005391 0 0.00015013906639348268 0.00089171195123059082 0 0.00028175076286878804 0.00087976937866005391 0 0.0002530758131151347 0.00075284027977710476 0 0.00016077789011532129 0.00069846091982053791 0 0.0002493814858343534 0.00060151843687360099 0 0.00015988869535870308 0.00049284346449981282 0 0.00016077789011532129 0.00069846091982053791 0 0.0002530758131151347 0.00075284027977710476 0 0.0002493814858343534 0.00060151843687360099 0 0.0002493814858343534 0.00060151843687360099 0 0.00033119501064788145 0.00066957192457078516 0 0.00035003252918598075 0.00052586474505406816 0 0.0002530758131151347 0.00075284027977710476 0 0.0002493814858343534 0.00060151843687360099 0 0.00033119501064788145 0.00066957192457078516 0 0.00033119501064788145 0.00066957192457078516 0 0.00044430184499369071 0.00071984126676431282 0 0.00035003252918598075 0.00052586474505406816 0 0.00044430184499369071 0.00071984126676431282 0 0.00035003252918598075 0.00052586474505406816 0 0.00060784453362176523 0.00075960993303561953 0 0.0003691569182015295 0.00080669826765827771 0 0.00033119501064788145 0.00066957192457078516 0 0.00044430184499369071 0.00071984126676431282 0 -0.0028181814161128533 0.00036013792136141973 0 -0.0029099059948610039 0.00058548775423460835 0 -0.0027109111636393324 0.0006939517229014485 0 -0.0028181814161128533 0.00036013792136141973 0 -0.0025222143741456481 0.00033363636352083952 0 -0.0027109111636393324 0.0006939517229014485 0 -0.0016705850461510797 0.0006927326934469233 0 -0.0035850855098109443 0.00091026799702559899 0 0.00038783751492526701 0.00049423562864906541 0 0.00035003252918598075 0.00052586474505406816 0 0.00015988869535870308 0.00049284346449981282 0 -0.0011000803103099429 0.00043031251238697646 0 -0.0016705850461510797 0.0006927326934469233 0 0.0002493814858343534 0.00060151843687360099 0 0.00035003252918598075 0.00052586474505406816 0 0.00015988869535870308 0.00049284346449981282 0 -0.0040081862885829479 0.00045330365273236795 0 -0.0038578695307201474 0.00077472886167444894 0 -0.0043062994181351935 0.0010241556246739772 0 -0.0036073759902996859 0.00041914780859672097 0 -0.0040081862885829479 0.00045330365273236795 0 -0.0038578695307201474 0.00077472886167444894 0 -0.00016399371713206662 0.0010879205747831029 0 -0.0001796699951263145 0.0010739622652899154 0 -0.0001591989716239663 0.0010710258567429379 0 -0.0018261583013746074 0.00097244414343875115 0 -0.0016705850461510797 0.0006927326934469233 0 -0.0036073759902996859 0.00041914780859672097 0 -0.0038578695307201474 0.00077472886167444894 0 -0.0034511672510527357 0.0007080221106090138 0 -0.0018261583013746074 0.00097244414343875115 0 -0.0038477034047582352 0.0013252006613883457 0 -0.00017435077556929789 0.0010619768529144995 0 -0.0002232816392597972 0.0010566737758770873 0 -0.00018104888713020342 0.0010847003479547729 0 -0.0025682088044448421 0.0010936219958265516 0 -0.0023816056727156056 0.0014323093453370021 0 -0.0020698059525895095 0.0010477622500401711 0 -0.0018261583013746074 0.00097244414343875115 0 -0.00127358962319903 0.0013419829928248844 0 -0.0038477034047582352 0.0013252006613883457 0 -0.00127358962319903 0.0013419829928248844 0 -0.0027238913878483658 0.0028175477519930274 0 -0.0023499688009043628 0.0023614030791771173 0 -0.0020966007941444951 0.0028952817671517935 0 -0.0014613176321600764 0.0022915511283892959 0 -0.0023499688009043628 0.0023614030791771173 0 -0.0020966007941444951 0.0028952817671517935 0 -0.00095250614246023902 0.0017227204849550239 0 -0.00127358962319903 0.0013419829928248844 0 -0.0015518460579796271 0.0029001567241407644 0 -0.0014613176321600764 0.0022915511283892959 0 -0.0020966007941444951 0.0028952817671517935 0 -0.00030619926815548328 0.0011358135816072 0 -0.00030806682988980484 0.0011419218043443053 0 -0.00029175665837630243 0.0011398514264077601 0 -0.0002232816392597972 0.0010566737758770873 0 -0.00029175665837630243 0.0011398514264077601 0 -0.00023021834842084518 0.0011361959321470657 0 -0.00127358962319903 0.0013419829928248844 0 -5.7135502822031605e-05 0.0009351163723879428 0 -0.0002232816392597972 0.0010566737758770873 0 -0.00023021834842084518 0.0011361959321470657 0 -0.00018744844600174527 0.0011155724671583953 0 -0.00018744844600174527 0.0011155724671583953 0 -0.0001657638846734966 0.0011016743340332921 0 -0.00018104888713020342 0.0010847003479547729 0 -0.00018744844600174527 0.0011155724671583953 0 -0.00015750831803910858 0.001121197092558661 0 -0.0001657638846734966 0.0011016743340332921 0 -0.0002232816392597972 0.0010566737758770873 0 -0.00018744844600174527 0.0011155724671583953 0 -0.00018104888713020342 0.0010847003479547729 0 0.0013140803145583267 0.00039316692679827254 0 0.00099866541783077208 0.00051233167538047018 0 0.00091135659873001153 0.0007588403942351649 0 0.0011083386674380278 0.00032907792085786635 0 0.00099866541783077208 0.00051233167538047018 0 0.00068366398879735686 0.0003939883991220006 0 2.796052808105686e-05 0.00031835072318613035 0 0.00052086783590701543 0.00019630158368092541 0 0.00099866541783077208 0.00051233167538047018 0 0.00068366398879735686 0.0003939883991220006 0 0.00091135659873001153 0.0007588403942351649 0 0.0053040415048701325 -0.00016395827824815953 0 0.0052206079892757832 0.00019956227992300974 0 0.0054353786704645843 0.00022495579235113494 0 0.0053040415048701325 -0.00016395827824815953 0 0.0050583080912669637 6.7362642952399475e-05 0 0.0052206079892757832 0.00019956227992300974 0 0.0027985449439431268 0.00031905702541197009 0 0.0034788885896969543 0.00048718685996444402 0 0.0019197255451267575 0.00087905379153302508 0 0.0017835220332187392 0.00098137902297641363 0 0.0016967751599322358 0.00090822191551336029 0 0.0017835220332187392 0.00098137902297641363 0 0.0016593731848514271 0.00098150095075046745 0 0.0016752330645555232 0.0010691773007997507 0 0.0017835220332187392 0.00098137902297641363 0 0.0016967751599322358 0.00090822191551336029 0 0.0016593731848514271 0.00098150095075046745 0 0.0019197255451267575 0.00087905379153302508 0 0.0016813887952234219 0.0007705876847368436 0 0.0016986318189057019 0.00080396289068055738 0 0.0027985449439431268 0.00031905702541197009 0 0.00069253801655941457 0.00056940255555180128 0 0.0019197255451267575 0.00087905379153302508 0 0.0016967751599322358 0.00090822191551336029 0 0.0016986318189057019 0.00080396289068055738 0 0.00068366398879735686 0.0003939883991220006 0 0.00091135659873001153 0.0007588403942351649 0 0.00026007506616644496 0.0004452366184818732 0 0.0016813887952234219 0.0007705876847368436 0 0.0016986318189057019 0.00080396289068055738 0 0.0013342466697402904 0.00097279975474993442 0 0.0011354646972767009 0.00077597438053700026 0 0.00085130308617087217 0.0010982301957951082 0 0.00083791915703249368 0.00034574682825682881 0 0.0016813887952234219 0.0007705876847368436 0 0.0011354646972767009 0.00077597438053700026 0 0.0013342466697402904 0.00097279975474993442 0 0.0011354646972767009 0.00077597438053700026 0 0.0013342466697402904 0.00097279975474993442 0 0.00085130308617087217 0.0010982301957951082 0 0.0013342466697402904 0.00097279975474993442 0 0.0011182637307468374 0.0013082551148980667 0 0.00085130308617087217 0.0010982301957951082 0 0.0016793136071205971 0.00082667982879853065 0 0.0013443755801156863 0.0011258796648164304 0 0.0016967751599322358 0.00090822191551336029 0 0.0016986318189057019 0.00080396289068055738 0 0.0016105775650567344 0.00091621226834078613 0 0.0016986318189057019 0.00080396289068055738 0 0.0013342466697402904 0.00097279975474993442 0 0.0011182637307468374 0.0013082551148980667 0 0.0016967751599322358 0.00090822191551336029 0 0.0016593731848514271 0.00098150095075046745 0 0.0016105775650567344 0.00091621226834078613 0 0.0016593731848514271 0.00098150095075046745 0 0.0016105775650567344 0.00091621226834078613 0 0.0015045482250383071 0.0010100037570055602 0 0.0016593731848514271 0.00098150095075046745 0 0.0015045482250383071 0.0010100037570055602 0 0.0016752330645555232 0.0010691773007997507 0 0.0013443755801156863 0.0011258796648164304 0 0.0011817900331318803 0.0010963244450513049 0 0.0011182637307468374 0.0013082551148980667 0 0.00076974826155982339 0.0013393465519259697 0 0.00067132488011270022 0.0016091370176165201 0 0.00076974826155982339 0.0013393465519259697 0 0.00067132488011270022 0.0016091370176165201 0 0.00055136274835720857 0.0012784290472760134 0 0.00086514588946676424 0.0010787173309012102 0 0.00040570854411221152 0.00042909436362974159 0 0.00055136274835720857 0.0012784290472760134 0 0.00085130308617087217 0.0010982301957951082 0 0.0005494757155493278 0.0010398384590641233 0 0.00085130308617087217 0.0010982301957951082 0 0.00066914100980225856 0.00090158657096085987 0 0.00081725291060660518 0.00070682471724787827 0 0.0011182637307468374 0.0013082551148980667 0 0.00076974826155982339 0.0013393465519259697 0 0.00085130308617087217 0.0010982301957951082 0 0.00076974826155982339 0.0013393465519259697 0 0.00055136274835720857 0.0012784290472760134 0 0.00085130308617087217 0.0010982301957951082 0 0.00085130308617087217 0.0010982301957951082 0 0.00066914100980225856 0.00090158657096085987 0 0.0005494757155493278 0.0010398384590641233 0 0.00050746775397844299 0.00086051363683807374 0 0.00066914100980225856 0.00090158657096085987 0 0.0005494757155493278 0.0010398384590641233 0 0.00035003252918598075 0.00052586474505406816 0 0.00060784453362176523 0.00075960993303561953 0 0.00081725291060660518 0.00070682471724787827 0 0.00047289191120604272 0.00058985529597997731 0 0.00040570854411221152 0.00042909436362974159 0 0.00050746775397844299 0.00086051363683807374 0 0.00044430184499369071 0.00071984126676431282 0 0.00060784453362176523 0.00075960993303561953 0 0.00050746775397844299 0.00086051363683807374 0 0.00066914100980225856 0.00090158657096085987 0 0.00060784453362176523 0.00075960993303561953 0 0.00066914100980225856 0.00090158657096085987 0 0.00060784453362176523 0.00075960993303561953 0 0.00081725291060660518 0.00070682471724787827 0 0.00040570854411221152 0.00042909436362974159 0 -0.00089603594688997593 0.00012832889583632779 0 -0.0011000803103099429 0.00043031251238697646 0 -0.0016162788946905082 0.00063766118159263186 0 0.00038783751492526701 0.00049423562864906541 0 0.00035003252918598075 0.00052586474505406816 0 0.00045142130456515703 0.00055319685861181949 0 -0.0028181814161128533 0.00036013792136141973 0 -0.0031059263915999826 0.00038846416078043068 0 -0.0029099059948610039 0.00058548775423460835 0 0.00038783751492526701 0.00049423562864906541 0 0.00045142130456515703 0.00055319685861181949 0 0.00044500127505508964 0.00051212903224715162 0 -0.0016162788946905082 0.00063766118159263186 0 -0.00089603594688997593 0.00012832889583632779 0 0.00038783751492526701 0.00049423562864906541 0 0.00044115724321784524 0.00049459128136332192 0 0.00044500127505508964 0.00051212903224715162 0 -0.002150421508549087 0.00037190185576397688 0 -0.0021204896225581042 0.00034803069724915353 0 -0.0020371025957526875 0.00040930347567308986 0 -0.0021591582677143945 0.00035278344828770076 0 -0.0021204896225581042 0.00034803069724915353 0 -0.0021693963587075481 0.00025081831925303892 0 -0.0021204896225581042 0.00034803069724915353 0 -0.0020438000023690604 0.00032624546144424546 0 -0.0020980783828168266 0.00029251579255458736 0 -0.0021499703090686806 0.00035247303974675093 0 -0.002150421508549087 0.00037190185576397688 0 -0.0021204896225581042 0.00034803069724915353 0 -0.0016162788946905082 0.00063766118159263186 0 -0.0020785644728777263 0.00053560588308386111 0 -0.00089603594688997593 0.00012832889583632779 0 -0.00099718892788689317 0.00023378048451510038 0 0.00069253801655941457 0.00056940255555180128 0 0.00040570854411221152 0.00042909436362974159 0 0.0016813887952234219 0.0007705876847368436 0 0.0011354646972767009 0.00077597438053700026 0 0.00083791915703249368 0.00034574682825682881 0 -0.00037435228714857699 0.00013759302996545138 0 -0.00037588888054708057 -0.00014381788010293942 0 0.00035796669375860436 9.0528553945941537e-05 0 0.00026007506616644496 0.0004452366184818732 0 -0.00037435228714857699 0.00013759302996545138 0 0.00035796669375860436 9.0528553945941537e-05 0 0.00068366398879735686 0.0003939883991220006 0 0.00026007506616644496 0.0004452366184818732 0 0.00035796669375860436 9.0528553945941537e-05 0 -0.0020371025957526875 0.00040930347567308986 0 -0.0020438000023690604 0.00032624546144424546 0 -0.0019559085105346468 0.00036180563739018987 0 -0.0021204896225581042 0.00034803069724915353 0 -0.0020371025957526875 0.00040930347567308986 0 -0.0020438000023690604 0.00032624546144424546 0 -0.0020438000023690604 0.00032624546144424546 0 -0.0019559085105346468 0.00036180563739018987 0 -0.0019540416875252057 0.00023552207718062287 0 -0.0019098399371909821 0.00044640337162422266 0 -0.0020371025957526875 0.00040930347567308986 0 -0.0019559085105346468 0.00036180563739018987 0 0.0011083386674380278 0.00032907792085786635 0 0.00068366398879735686 0.0003939883991220006 0 0.00035796669375860436 9.0528553945941537e-05 0 2.796052808105686e-05 0.00031835072318613035 0 -0.00099718892788689317 0.00023378048451510038 0 -0.0048929335588598502 0.0004050279067652025 0 -0.0063758959262587662 0.00058638892220863018 0 -0.0076889185906379833 0.00086537562033031645 0 -0.0077972712753433156 0.00069744302377534851 0 -0.0073543229776237892 0.00075020290922456114 0 -0.0048929335588598502 0.0004050279067652025 0 -0.0030430100807048712 0.00032852678183271033 0 -0.0020438000023690604 0.00032624546144424546 0 -0.0019540416875252057 0.00023552207718062287 0 -0.0020596863058701394 0.00024440347004851365 0 -0.0020438000023690604 0.00032624546144424546 0 -0.0020596863058701394 0.00024440347004851365 0 -0.0020980783828168266 0.00029251579255458736 0 -0.0049247124995341948 0.00045441148704682962 0 -0.0046711766903605187 0.00043244539334699175 0 -0.0046744379121601096 0.00049497708693517484 0 -0.0087217070301953154 0.00070508928458780991 0 -0.0093360112339409256 0.00053140114069723102 0 -0.0090394570777599884 0.00044181835592243981 0 -0.0076889185906379833 0.00086537562033031645 0 -0.0073543229776237892 0.00075020290922456114 0 -0.0072912315643585152 0.00093180296818539191 0 -0.0081736187170702457 0.00077708515759132134 0 -0.0084003846759718951 0.00071135216835761599 0 -0.0046744379121601096 0.00049497708693517484 0 -0.0044155838427109642 0.00041743741219136968 0 -0.0044217990879600383 0.00054393210714383743 0 -0.0073543229776237892 0.00075020290922456114 0 -0.0072912315643585152 0.00093180296818539191 0 -0.0068546217185058251 0.00084036098185254736 0 -0.0084003846759718951 0.00071135216835761599 0 -0.0076162647912248662 0.00083894758808990234 0 -0.0072912315643585152 0.00093180296818539191 0 -0.0068546217185058251 0.00084036098185254736 0 -0.0068580890637742909 0.0009971107829571215 0 -0.0063758959262587662 0.00058638892220863018 0 -0.0052894241213092856 0.00086943656030952828 0 -0.0020596863058701394 0.00024440347004851365 0 -0.0020980783828168266 0.00029251579255458736 0 -0.0021693963587075481 0.00025081831925303892 0 -0.0021204896225581042 0.00034803069724915353 0 -0.0020980783828168266 0.00029251579255458736 0 -0.0021693963587075481 0.00025081831925303892 0 -0.0046711766903605187 0.00043244539334699175 0 -0.0046744379121601096 0.00049497708693517484 0 -0.0044155838427109642 0.00041743741219136968 0 -0.0030430100807048712 0.00032852678183271033 0 -0.0034298159683647843 0.00028665266994578589 0 -0.0031059263915999826 0.00038846416078043068 0 -0.0031256428724500671 0.00078339049763435063 0 -0.0030323484883029695 0.00068787406150666109 0 -0.0031059263915999826 0.00038846416078043068 0 -0.0030323484883029695 0.00068787406150666109 0 -0.0029099059948610039 0.00058548775423460835 0 -0.0016162788946905082 0.00063766118159263186 0 -0.0034298159683647843 0.00028665266994578589 0 -0.0031256428724500671 0.00078339049763435063 0 -0.0030255720724976167 0.00078130827272608692 0 -0.0030358536247290699 0.00086720887048996208 0 -0.0031256428724500671 0.00078339049763435063 0 -0.0030255720724976167 0.00078130827272608692 0 -0.0030323484883029695 0.00068787406150666109 0 -0.0030323484883029695 0.00068787406150666109 0 -0.0029099059948610039 0.00058548775423460835 0 -0.002920065290331327 0.00078721703523684404 0 -0.0030255720724976167 0.00078130827272608692 0 -0.0030323484883029695 0.00068787406150666109 0 -0.002920065290331327 0.00078721703523684404 0 -0.0030255720724976167 0.00078130827272608692 0 -0.002920065290331327 0.00078721703523684404 0 -0.0030358536247290699 0.00086720887048996208 0 -0.002920065290331327 0.00078721703523684404 0 -0.0030358536247290699 0.00086720887048996208 0 -0.0028994107770693588 0.001049032334650751 0 -0.0030358536247290699 0.00086720887048996208 0 -0.0031378288172449554 0.0010003303388310277 0 -0.0028994107770693588 0.001049032334650751 0 -0.0034298159683647843 0.00028665266994578589 0 -0.0052894241213092856 0.00086943656030952828 0 -0.0031256428724500671 0.00078339049763435063 0 -0.0030358536247290699 0.00086720887048996208 0 -0.0031378288172449554 0.0010003303388310277 0 -0.0062231733244280281 0.00080319736790123862 0 -0.0058904739869666952 0.0011107333941615233 0 -0.0062277429233067814 0.001058716129827881 0 -0.0052894241213092856 0.00086943656030952828 0 -0.0076162647912248662 0.00083894758808990234 0 -0.0052894241213092856 0.00086943656030952828 0 -0.0044983678230249673 0.00097824547661405983 0 -0.0062231733244280281 0.00080319736790123862 0 -0.0057814295008212615 0.00089024969082813511 0 -0.0058904739869666952 0.0011107333941615233 0 -0.0046211661740765599 0.0015965650808295595 0 -0.0047233696812934252 0.0018016553016033704 0 -0.0044412381753597824 0.0016349088677644749 0 -0.0044983678230249673 0.00097824547661405983 0 -0.0067285936167173002 0.0014662876434654211 0 -0.0080488566359447414 0.0017797216749208646 0 -0.0082775769133160669 0.0022367081679655278 0 -0.0076347230048299129 0.0019375672221917423 0 -0.0067285936167173002 0.0014662876434654211 0 -0.009838744362638388 0.0010128562997538729 0 -0.0081076813126721992 0.0010347440265397665 0 -0.0082633659535436711 0.0011386923406391523 0 -0.0082395327403825564 0.0012949365104829844 0 -0.0083688999594100713 0.0009940336673291872 0 -0.0082633659535436711 0.0011386923406391523 0 -0.0083767229652889613 0.0013306382022953514 0 -0.0067285936167173002 0.0014662876434654211 0 -0.0076162647912248662 0.00083894758808990234 0 -0.0081076813126721992 0.0010347440265397665 0 -0.0083688999594100713 0.0009940336673291872 0 -0.0082633659535436711 0.0011386923406391523 0 -0.0094366053996162973 0.00038147166779209564 0 -0.0093658648840521923 0.00036447505072073367 0 -0.0094049913540296352 0.00036954608579078225 0 -0.0076162647912248662 0.00083894758808990234 0 -0.0093963591832798444 0.00074411199592761673 0 -0.0082633659535436711 0.0011386923406391523 0 -0.0083767229652889613 0.0013306382022953514 0 -0.0082395327403825564 0.0012949365104829844 0 -0.0093963591832798444 0.00074411199592761673 0 -0.009838744362638388 0.0010128562997538729 0 -0.012975217924176219 -0.00066416214943501594 0 -0.013010823704618587 -0.00062461904551362659 0 -0.012939769802073266 -0.00064843570308727042 0 -0.013961224822388377 -0.00032717233716258375 0 -0.01347280372318585 -0.0005192192499013608 0 -0.013799274433195657 -0.00021736249154617195 0 -0.012994645129430394 -0.00069630892401630745 0 -0.012975217924176219 -0.00066416214943501594 0 -0.012921420443871129 -0.00069604835329935939 0 -0.012915242907251687 -0.00017702511736053921 0 -0.013281607990821528 -0.00056305382525901541 0 -0.011786366507226351 0.00021827639463087 0 -0.011782567475959169 -0.00013670753483483266 0 -0.011979809934492 0.00027129304374158949 0 -0.012975217924176219 -0.00066416214943501594 0 -0.013010823704618587 -0.00062461904551362659 0 -0.013009251104926414 -0.00065296330141558748 0 -0.012915242907251687 -0.00017702511736053921 0 -0.011211882232804483 3.4662295573439145e-05 0 -0.012994645129430394 -0.00069630892401630745 0 -0.012975217924176219 -0.00066416214943501594 0 -0.013009251104926414 -0.00065296330141558748 0 -0.009838744362638388 0.0010128562997538729 0 -0.011211882232804483 3.4662295573439145e-05 0 -0.0094582870919193759 0.00042655427231306603 0 -0.0094636202084341352 0.00043617392923483772 0 -0.009469187939376256 0.0004363924898517146 0 -0.010273517465279958 0.00051600420858880175 0 -0.010325876938581367 0.00053093267314239352 0 -0.010277576301281368 0.00041601989462658739 0 -0.0093963591832798444 0.00074411199592761673 0 -0.011211882232804483 3.4662295573439145e-05 0 -0.0094582870919193759 0.00042655427231306603 0 -0.009487462563489658 0.00043486360976830178 0 -0.0095150730040866448 0.00040192767539853647 0 -0.0093963591832798444 0.00074411199592761673 0 -0.0095055516842693314 0.00030284218606639639 0 -0.0094676044211332525 0.00045224688475076463 0 -0.009487462563489658 0.00043486360976830178 0 -0.0095104810118926669 0.00050147089647801135 0 -0.0094582870919193759 0.00042655427231306603 0 -0.009469187939376256 0.0004363924898517146 0 -0.009487462563489658 0.00043486360976830178 0 -0.009469187939376256 0.0004363924898517146 0 -0.0094676044211332525 0.00045224688475076463 0 -0.009487462563489658 0.00043486360976830178 0 -0.0094636202084341352 0.00043617392923483772 0 -0.009469187939376256 0.0004363924898517146 0 -0.0094676044211332525 0.00045224688475076463 0 -0.011211882232804483 3.4662295573439145e-05 0 -0.012061241009364926 -3.9035186436067175e-05 0 -0.012915242907251687 -0.00017702511736053921 0 -0.012061241009364926 -3.9035186436067175e-05 0 -0.0093658648840521923 0.00036447505072073367 0 -0.0094015768050256712 0.00034756821207316765 0 -0.0095150730040866448 0.00040192767539853647 0 -0.0093360112339409256 0.00053140114069723102 0 -0.0094366053996162973 0.00038147166779209564 0 -0.0094001331817857546 0.00038757082659923882 0 -0.0094015768050256712 0.00034756821207316765 0 -0.0094001331817857546 0.00038757082659923882 0 -0.0094102287659589001 0.00032144072245477259 0 -0.0093658648840521923 0.00036447505072073367 0 -0.0094015768050256712 0.00034756821207316765 0 -0.0094049913540296352 0.00036954608579078225 0 -0.0094015768050256712 0.00034756821207316765 0 -0.0094049913540296352 0.00036954608579078225 0 -0.0094001331817857546 0.00038757082659923882 0 -0.0094366053996162973 0.00038147166779209564 0 -0.0094049913540296352 0.00036954608579078225 0 -0.0094001331817857546 0.00038757082659923882 0 -0.0093360112339409256 0.00053140114069723102 0 -0.0094001331817857546 0.00038757082659923882 0 -0.0094102287659589001 0.00032144072245477259 0 -0.0090394570777599884 0.00044181835592243981 0 -0.0094102287659589001 0.00032144072245477259 0 -0.0086353821148512713 0.00021808031948900611 0 -0.0094015768050256712 0.00034756821207316765 0 -0.0094102287659589001 0.00032144072245477259 0 -0.0095150730040866448 0.00040192767539853647 0 -0.009388365781161043 0.00029912735134307198 0 -0.0091554640168160385 0.0002501170177470566 0 -0.0094102287659589001 0.00032144072245477259 0 -0.0095962528608872829 0.00035088769667863945 0 -0.0096739491112564652 0.00024993293529224374 0 -0.0093360112339409256 0.00053140114069723102 0 -0.0090394570777599884 0.00044181835592243981 0 -0.0094102287659589001 0.00032144072245477259 0 -0.0094102287659589001 0.00032144072245477259 0 -0.0095150730040866448 0.00040192767539853647 0 -0.0095962528608872829 0.00035088769667863945 0 -0.009487462563489658 0.00043486360976830178 0 -0.0095150730040866448 0.00040192767539853647 0 -0.0095104810118926669 0.00050147089647801135 0 -0.0095150730040866448 0.00040192767539853647 0 -0.009595224546026529 0.00049775926296364529 0 -0.0095104810118926669 0.00050147089647801135 0 -0.0095150730040866448 0.00040192767539853647 0 -0.0095962528608872829 0.00035088769667863945 0 -0.0096703612046932126 0.00044409611413099794 0 -0.0095150730040866448 0.00040192767539853647 0 -0.0096703612046932126 0.00044409611413099794 0 -0.009595224546026529 0.00049775926296364529 0 -0.0096703612046932126 0.00044409611413099794 0 -0.009595224546026529 0.00049775926296364529 0 -0.0096600658687087428 0.00051641245764715287 0 -0.0095962528608872829 0.00035088769667863945 0 -0.0096703612046932126 0.00044409611413099794 0 -0.0097324790851297423 0.00035712476289244627 0 -0.0098299868238495153 0.00042404695514205206 0 -0.0096703612046932126 0.00044409611413099794 0 -0.0097324790851297423 0.00035712476289244627 0 -0.0098354289760055301 0.00032329624928127991 0 -0.0097324790851297423 0.00035712476289244627 0 -0.0096739491112564652 0.00024993293529224374 0 -0.0095962528608872829 0.00035088769667863945 0 -0.0097324790851297423 0.00035712476289244627 0 -0.0096739491112564652 0.00024993293529224374 0 -0.0087217070301953154 0.00070508928458780991 0 -0.0090394570777599884 0.00044181835592243981 0 -0.0086353821148512713 0.00021808031948900611 0 -0.008322843521389468 0.00050585942260351555 0 -0.0087217070301953154 0.00070508928458780991 0 -0.0086353821148512713 0.00021808031948900611 0 -0.0057226253488542279 0.0015976457968584262 0 -0.0063936012753307118 0.0014116117518115708 0 -0.0069962593810708427 0.0019169473906288747 0 -0.0060214091220453236 0.0011369564442366995 0 -0.0056923710190609706 0.0014085420619257293 0 -0.0057421400265956941 0.00082157812712924734 0 -0.0060214091220453236 0.0011369564442366995 0 -0.0057226253488542279 0.0015976457968584262 0 -0.0063936012753307118 0.0014116117518115708 0 -0.0060214091220453236 0.0011369564442366995 0 -0.0056923710190609706 0.0014085420619257293 0 -0.0057226253488542279 0.0015976457968584262 0 -0.0069570800108305431 0.00095423081094763091 0 -0.0071526258959815261 0.00061849317621649465 0 -0.0071526258959815261 0.00061849317621649465 0 -0.0020145235154607555 0.0028143851783774985 0 -0.002015433747468849 0.0040733011473287157 0 -0.0016822066557087225 0.0033984212325559151 0 -0.00237233005260704 0.0034461678154924444 0 -0.0056923710190609706 0.0014085420619257293 0 -0.0057186056541483577 0.0015980765593932422 0 -0.0053477046584975542 0.0015046510625408161 0 -0.0056923710190609706 0.0014085420619257293 0 -0.0053477046584975542 0.0015046510625408161 0 -0.0057421400265956941 0.00082157812712924734 0 -0.0020145235154607555 0.0028143851783774985 0 -0.0041242023001392828 0.0019870281092279176 0 -0.0020966007941444951 0.0028952817671517935 0 -0.0016822066557087225 0.0033984212325559151 0 -0.00237233005260704 0.0034461678154924444 0 -0.0015518460579796271 0.0029001567241407644 0 -0.0020966007941444951 0.0028952817671517935 0 -0.0016822066557087225 0.0033984212325559151 0 -0.0061132288971075203 0.00014655607165441509 0 -0.0060214091220453236 0.0011369564442366995 0 -0.0057421400265956941 0.00082157812712924734 0 -0.0061132288971075203 0.00014655607165441509 0 -0.0060214091220453236 0.0011369564442366995 0 -0.006832354018762656 0.00099811906447721892 0 -0.0038477034047582352 0.0013252006613883457 0 -0.0041242023001392828 0.0019870281092279176 0 -0.0027238913878483658 0.0028175477519930274 0 -0.0020966007941444951 0.0028952817671517935 0 -0.00237233005260704 0.0034461678154924444 0 -0.0038578695307201474 0.00077472886167444894 0 -0.0043062994181351935 0.0010241556246739772 0 -0.0039198458863837328 0.0012716189043084187 0 -0.0038477034047582352 0.0013252006613883457 0 -0.0054696367614202705 0.001067978412094082 0 -0.0038578695307201474 0.00077472886167444894 0 -0.0034511672510527357 0.0007080221106090138 0 -0.0039198458863837328 0.0012716189043084187 0 -0.0029099059948610039 0.00058548775423460835 0 -0.002920065290331327 0.00078721703523684404 0 -0.0027109111636393324 0.0006939517229014485 0 -0.0043062994181351935 0.0010241556246739772 0 -0.004310870154432018 0.0014395795850849439 0 -0.0039198458863837328 0.0012716189043084187 0 -0.0044983678230249673 0.00097824547661405983 0 -0.0035850855098109443 0.00091026799702559899 0 -0.002920065290331327 0.00078721703523684404 0 -0.0028994107770693588 0.001049032334650751 0 -0.0027109111636393324 0.0006939517229014485 0 -0.006832354018762656 0.00099811906447721892 0 -0.0069962593810708427 0.0019169473906288747 0 -0.007568839339813037 0.001860636127206391 0 -0.0054696367614202705 0.001067978412094082 0 -0.0059811587755725345 0.0016764163837742466 0 -0.004310870154432018 0.0014395795850849439 0 -0.0039198458863837328 0.0012716189043084187 0 -0.0043975960444333035 0.0018471991022582729 0 -0.0046055581323456059 0.001600686357185245 0 -0.0043062994181351935 0.0010241556246739772 0 -0.004310870154432018 0.0014395795850849439 0 -0.0046055581323456059 0.001600686357185245 0 -0.004310870154432018 0.0014395795850849439 0 -0.0044412381753597824 0.0016349088677644749 0 -0.004310870154432018 0.0014395795850849439 0 -0.0044412381753597824 0.0016349088677644749 0 -0.0043975960444333035 0.0018471991022582729 0 -0.0044983678230249673 0.00097824547661405983 0 -0.004447097604620703 0.0011538922612287675 0 -0.0060214091220453236 0.0011369564442366995 0 -0.006832354018762656 0.00099811906447721892 0 -0.0063936012753307118 0.0014116117518115708 0 -0.006832354018762656 0.00099811906447721892 0 -0.0063936012753307118 0.0014116117518115708 0 -0.0069962593810708427 0.0019169473906288747 0 -0.012854902103086912 -0.00082090510229930805 0 -0.012921420443871129 -0.00069604835329935939 0 -0.012847996667209038 -0.00063261248190523258 0 -0.012854902103086912 -0.00082090510229930805 0 -0.012847996667209038 -0.00063261248190523258 0 -0.012619545860389653 -0.00074035761499962954 0 -0.0082775769133160669 0.0022367081679655278 0 -0.0069962593810708427 0.0019169473906288747 0 -0.0076347230048299129 0.0019375672221917423 0 -0.009838744362638388 0.0010128562997538729 0 -0.01046139012416092 0.00052785914897254533 0 -0.012994645129430394 -0.00069630892401630745 0 -0.012854902103086912 -0.00082090510229930805 0 -0.012921420443871129 -0.00069604835329935939 0 -0.0080488566359447414 0.0017797216749208646 0 -0.0075696449418645746 0.0018574771653227823 0 -0.0076347230048299129 0.0019375672221917423 0 -0.0047233696812934252 0.0018016553016033704 0 -0.0044412381753597824 0.0016349088677644749 0 -0.0043975960444333035 0.0018471991022582729 0 -0.0067285936167173002 0.0014662876434654211 0 -0.0059811587755725345 0.0016764163837742466 0 -0.0059811587755725345 0.0016764163837742466 0 -0.0061436489412452031 0.0017994606803713013 0 -0.0069962593810708427 0.0019169473906288747 0 -0.007568839339813037 0.001860636127206391 0 -0.0076347230048299129 0.0019375672221917423 0 -0.01347280372318585 -0.0005192192499013608 0 -0.012847996667209038 -0.00063261248190523258 0 -0.013349882111156834 -0.00022356171730160076 0 -0.013281607990821528 -0.00056305382525901541 0 -0.012859374000617192 -0.00064417669063326444 0 -0.012921420443871129 -0.00069604835329935939 0 -0.012939769802073266 -0.00064843570308727042 0 -0.012847996667209038 -0.00063261248190523258 0 -0.012975217924176219 -0.00066416214943501594 0 -0.012921420443871129 -0.00069604835329935939 0 -0.012939769802073266 -0.00064843570308727042 0 -0.012847996667209038 -0.00063261248190523258 0 -0.012407246889531915 -0.00045276925839262707 0 -0.012714650795538567 -0.00022484546170522323 0 -0.012847996667209038 -0.00063261248190523258 0 -0.012407246889531915 -0.00045276925839262707 0 -0.012619545860389653 -0.00074035761499962954 0 -0.0013651512768407229 0.0024017957000595108 0 -0.0013672935759175308 0.002889388670353041 0 -0.001197254349502738 0.0026499317861784833 0 -0.0071526258959815261 0.00061849317621649465 0 -0.0068334610553484262 0.0012322715205119522 0 -0.0071526258959815261 0.00061849317621649465 0 -0.01046139012416092 0.00052785914897254533 0 -0.012317556648101111 -0.0010174780980358909 0 -0.012407246889531915 -0.00045276925839262707 0 -0.012619545860389653 -0.00074035761499962954 0 -0.012317556648101111 -0.0010174780980358909 0 -0.012854902103086912 -0.00082090510229930805 0 -0.012619545860389653 -0.00074035761499962954 0 -0.00095700477924554267 0.0027980042946517524 0 -0.0012176253084310847 0.0023689379054694314 0 -0.001197254349502738 0.0026499317861784833 0 -0.0013651512768407229 0.0024017957000595108 0 -0.0012176253084310847 0.0023689379054694314 0 -0.001197254349502738 0.0026499317861784833 0 -0.00049633826809783888 0.0034148488755465722 0 -0.0020145235154607555 0.0028143851783774985 0 -0.00095700477924554267 0.0027980042946517524 0 -0.0013672935759175308 0.002889388670353041 0 -0.0010932547212695691 0.0031123664398365497 0 -0.00095700477924554267 0.0027980042946517524 0 -0.0013672935759175308 0.002889388670353041 0 -0.001197254349502738 0.0026499317861784833 0 -0.0012951752004192216 0.0031925029463111933 0 -0.0011787201130985269 0.0032391200112008205 0 -0.0010124149500771794 0.0032448342447482991 0 -0.0010932547212695691 0.0031123664398365497 0 -0.0012951752004192216 0.0031925029463111933 0 -0.0010124149500771794 0.0032448342447482991 0 -0.0068334610553484262 0.0012322715205119522 0 -0.0069945358798934858 0.0016946722207295299 0 -0.0013672935759175308 0.002889388670353041 0 -0.0010932547212695691 0.0031123664398365497 0 -0.0012951752004192216 0.0031925029463111933 0 -0.012407246889531915 -0.00045276925839262707 0 -0.012540307297764744 0.00028155114640936651 0 -0.012714650795538567 -0.00022484546170522323 0 -0.012847996667209038 -0.00063261248190523258 0 -0.013051720487834458 -7.7905881197739201e-05 0 -0.013349882111156834 -0.00022356171730160076 0 -0.012847996667209038 -0.00063261248190523258 0 -0.012714650795538567 -0.00022484546170522323 0 -0.013051720487834458 -7.7905881197739201e-05 0 -0.012540307297764744 0.00028155114640936651 0 -0.012714650795538567 -0.00022484546170522323 0 -0.013051720487834458 -7.7905881197739201e-05 0 -0.013349882111156834 -0.00022356171730160076 0 -0.013616513255935407 -2.4705042499699006e-05 0 -0.013632713116027099 -0.00019859286197644854 0 -0.01347280372318585 -0.0005192192499013608 0 -0.013349882111156834 -0.00022356171730160076 0 -0.013632713116027099 -0.00019859286197644854 0 -0.013051720487834458 -7.7905881197739201e-05 0 -0.013349882111156834 -0.00022356171730160076 0 -0.013392139225424191 5.4093302683048891e-05 0 -0.013392139225424191 5.4093302683048891e-05 0 -0.013616513255935407 -2.4705042499699006e-05 0 -0.013620958213835297 0.00018801298748438348 0 -0.013349882111156834 -0.00022356171730160076 0 -0.013392139225424191 5.4093302683048891e-05 0 -0.013616513255935407 -2.4705042499699006e-05 0 -0.013051720487834458 -7.7905881197739201e-05 0 -0.013392139225424191 5.4093302683048891e-05 0 -0.013240021468529052 0.00036869029276835776 0 -0.013392139225424191 5.4093302683048891e-05 0 -0.013620958213835297 0.00018801298748438348 0 -0.013240021468529052 0.00036869029276835776 0 -0.013620958213835297 0.00018801298748438348 0 -0.013240021468529052 0.00036869029276835776 0 -0.013692674476685443 0.00044679969789166699 0 -0.012540307297764744 0.00028155114640936651 0 -0.013051720487834458 -7.7905881197739201e-05 0 -0.013240021468529052 0.00036869029276835776 0 -0.012540307297764744 0.00028155114640936651 0 -0.013240021468529052 0.00036869029276835776 0 -0.012692084214905296 0.001047392156329101 0 -0.013240021468529052 0.00036869029276835776 0 -0.0135367461172745 0.00072312310756074232 0 -0.012692084214905296 0.001047392156329101 0 -0.0135367461172745 0.00072312310756074232 0 -0.013692674476685443 0.00044679969789166699 0 -0.013916226197198402 0.00077826328290426291 0 -0.013240021468529052 0.00036869029276835776 0 -0.0135367461172745 0.00072312310756074232 0 -0.013692674476685443 0.00044679969789166699 0 -0.0135367461172745 0.00072312310756074232 0 -0.013546335628634356 0.001108955319492135 0 -0.013916226197198402 0.00077826328290426291 0 -0.0135367461172745 0.00072312310756074232 0 -0.013546335628634356 0.001108955319492135 0 -0.012692084214905296 0.001047392156329101 0 -0.013546335628634356 0.001108955319492135 0 -0.012692084214905296 0.001047392156329101 0 -0.01344104684061167 0.0017497507720805859 0 -0.0012573798125117954 0.0032274572798507125 0 -0.0012045833117312436 0.0032315716983700028 0 -0.0011787201130985269 0.0032391200112008205 0 -0.0012573798125117954 0.0032274572798507125 0 -0.0012045833117312436 0.0032315716983700028 0 -0.0012544132612584723 0.0031934413258575324 0 -0.0012045833117312436 0.0032315716983700028 0 -0.0012426486890115089 0.0031856276919793084 0 -0.0012544132612584723 0.0031934413258575324 0 -0.0012045833117312436 0.0032315716983700028 0 -0.0012426486890115089 0.0031856276919793084 0 -0.0011674334116819642 0.0032409300610769009 0 -0.0012045833117312436 0.0032315716983700028 0 -0.0011674334116819642 0.0032409300610769009 0 -0.0010936235195271233 0.003229994945523462 0 -0.0011787201130985269 0.0032391200112008205 0 -0.0010936235195271233 0.003229994945523462 0 -0.0010124149500771794 0.0032448342447482991 0 -0.0012045833117312436 0.0032315716983700028 0 -0.0011787201130985269 0.0032391200112008205 0 -0.0010936235195271233 0.003229994945523462 0 -0.0069945358798934858 0.0016946722207295299 0 -0.0064663732035451279 0.0023000637747027535 0 -0.0012951752004192216 0.0031925029463111933 0 -0.0012573798125117954 0.0032274572798507125 0 -0.0011787201130985269 0.0032391200112008205 0 -0.013854320691305853 0.00014465819737922563 0 -0.01383577605150573 0.00011030745205624294 0 -0.013830942121818231 0.0001264441794755503 0 -0.013854320691305853 0.00014465819737922563 0 -0.013830942121818231 0.0001264441794755503 0 -0.013835959030670255 0.00016031622661746519 0 -0.013900949861236363 0.00014935639948338044 0 -0.013854320691305853 0.00014465819737922563 0 -0.01383577605150573 0.00011030745205624294 0 -0.009775005145923641 0.00053618296006627676 0 -0.0096763375647914464 0.00060354356794963893 0 -0.0096954079175613651 0.0005629594065016465 0 -0.009775005145923641 0.00053618296006627676 0 -0.0096954079175613651 0.0005629594065016465 0 -0.0096600658687087428 0.00051641245764715287 0 -0.009775005145923641 0.00053618296006627676 0 -0.0096703612046932126 0.00044409611413099794 0 -0.0096600658687087428 0.00051641245764715287 0 -0.0096763375647914464 0.00060354356794963893 0 -0.0096954079175613651 0.0005629594065016465 0 -0.0096600658687087428 0.00051641245764715287 0 -0.0096763375647914464 0.00060354356794963893 0 -0.009595224546026529 0.00049775926296364529 0 -0.0096600658687087428 0.00051641245764715287 0 -0.01383577605150573 0.00011030745205624294 0 -0.013819150212433412 0.00011575946900467146 0 -0.013830942121818231 0.0001264441794755503 0 -0.0096763375647914464 0.00060354356794963893 0 -0.009595224546026529 0.00049775926296364529 0 -0.0095104810118926669 0.00050147089647801135 0 -0.011901805224278987 0.00038932408304782402 0 -0.011585172947020233 0.00030515136109003773 0 -0.013819150212433412 0.00011575946900467146 0 -0.013830942121818231 0.0001264441794755503 0 -0.01382924685917898 0.00011854435470691912 0 -0.013830942121818231 0.0001264441794755503 0 -0.013838395207464108 0.00012705470593616259 0 -0.013835959030670255 0.00016031622661746519 0 -0.013830942121818231 0.0001264441794755503 0 -0.013838395207464108 0.00012705470593616259 0 -0.01382924685917898 0.00011854435470691912 0 -0.013838395207464108 0.00012705470593616259 0 -0.013837472196632368 0.00010417789902344503 0 -0.013848820251980641 0.0001107140019000576 0 -0.01410847736807961 0.00030346920180537743 0 -0.013856520614290631 0.00012498874162752055 0 -0.013838395207464108 0.00012705470593616259 0 -0.01382924685917898 0.00011854435470691912 0 -0.013848820251980641 0.0001107140019000576 0 -0.013819150212433412 0.00011575946900467146 0 -0.01382924685917898 0.00011854435470691912 0 -0.013823374255041364 0.00011672581604326384 0 -0.013821015533230743 0.00011677330289960117 0 -0.013819150212433412 0.00011575946900467146 0 -0.013823374255041364 0.00011672581604326384 0 -0.012061241009364926 -3.9035186436067175e-05 0 -0.011585172947020233 0.00030515136109003773 0 -0.01381977534516508 0.00011793688820836306 0 -0.013823374255041364 0.00011672581604326384 0 -0.013831579105190691 0.00011577647403141609 0 -0.01381977534516508 0.00011793688820836306 0 -0.013820920184362017 0.00011675959545050334 0 -0.013823374255041364 0.00011672581604326384 0 -0.012061241009364926 -3.9035186436067175e-05 0 -0.012380942542702509 0.00019942022672517611 0 -0.01382924685917898 0.00011854435470691912 0 -0.013823374255041364 0.00011672581604326384 0 -0.013831579105190691 0.00011577647403141609 0 -0.01382924685917898 0.00011854435470691912 0 -0.013831579105190691 0.00011577647403141609 0 -0.013848820251980641 0.0001107140019000576 0 -0.013835075423116036 -7.225412569018919e-05 0 -0.013837472196632368 0.00010417789902344503 0 -0.013848820251980641 0.0001107140019000576 0 -0.01381977534516508 0.00011793688820836306 0 -0.013831579105190691 0.00011577647403141609 0 -0.013848820251980641 0.0001107140019000576 0 -0.013961224822388377 -0.00032717233716258375 0 -0.013835075423116036 -7.225412569018919e-05 0 -0.013848820251980641 0.0001107140019000576 0 -0.012915242907251687 -0.00017702511736053921 0 -0.01394990340800709 0.00010815555011794066 0 -0.013961224822388377 -0.00032717233716258375 0 -0.013835075423116036 -7.225412569018919e-05 0 -0.013799274433195657 -0.00021736249154617195 0 -0.01347280372318585 -0.0005192192499013608 0 -0.013799274433195657 -0.00021736249154617195 0 -0.013632713116027099 -0.00019859286197644854 0 -0.013799274433195657 -0.00021736249154617195 0 -0.013632713116027099 -0.00019859286197644854 0 -0.013760534847029181 -6.1675605945200627e-05 0 -0.013835075423116036 -7.225412569018919e-05 0 -0.013799274433195657 -0.00021736249154617195 0 -0.013760534847029181 -6.1675605945200627e-05 0 -0.013616513255935407 -2.4705042499699006e-05 0 -0.013632713116027099 -0.00019859286197644854 0 -0.013760534847029181 -6.1675605945200627e-05 0 -0.013835075423116036 -7.225412569018919e-05 0 -0.013760534847029181 -6.1675605945200627e-05 0 -0.013837472196632368 0.00010417789902344503 0 -0.013616513255935407 -2.4705042499699006e-05 0 -0.013760534847029181 -6.1675605945200627e-05 0 -0.013837472196632368 0.00010417789902344503 0 -0.01441127454409989 0.00049361814563850476 0 -0.013837472196632368 0.00010417789902344503 0 -0.014030757694813786 0.00053136067595229526 0 -0.013616513255935407 -2.4705042499699006e-05 0 -0.013620958213835297 0.00018801298748438348 0 -0.013837472196632368 0.00010417789902344503 0 -0.013620958213835297 0.00018801298748438348 0 -0.013837472196632368 0.00010417789902344503 0 -0.013692674476685443 0.00044679969789166699 0 -0.013837472196632368 0.00010417789902344503 0 -0.013692674476685443 0.00044679969789166699 0 -0.014030757694813786 0.00053136067595229526 0 -0.013692674476685443 0.00044679969789166699 0 -0.014030757694813786 0.00053136067595229526 0 -0.013916226197198402 0.00077826328290426291 0 -0.014030757694813786 0.00053136067595229526 0 -0.013916226197198402 0.00077826328290426291 0 -0.014292244891766321 0.00080863754248835682 0 -0.013916226197198402 0.00077826328290426291 0 -0.01419907547436868 0.0010918515147555579 0 -0.014292244891766321 0.00080863754248835682 0 -0.013546335628634356 0.001108955319492135 0 -0.01419907547436868 0.0010918515147555579 0 -0.014199095522182147 0.0014129018196392402 0 -0.013546335628634356 0.001108955319492135 0 -0.013916226197198402 0.00077826328290426291 0 -0.01419907547436868 0.0010918515147555579 0 -0.01419907547436868 0.0010918515147555579 0 -0.014467341036964523 0.0010584629079753145 0 -0.01436206380228776 0.0012767232307502342 0 -0.01419907547436868 0.0010918515147555579 0 -0.014467341036964523 0.0010584629079753145 0 -0.014292244891766321 0.00080863754248835682 0 -0.01441127454409989 0.00049361814563850476 0 -0.014030757694813786 0.00053136067595229526 0 -0.014292244891766321 0.00080863754248835682 0 -0.01441127454409989 0.00049361814563850476 0 -0.014292244891766321 0.00080863754248835682 0 -0.014721685147237601 0.00077504208641576851 0 -0.01410847736807961 0.00030346920180537743 0 -0.014294963859467734 0.00047292336161389365 0 -0.014467341036964523 0.0010584629079753145 0 -0.014292244891766321 0.00080863754248835682 0 -0.014721685147237601 0.00077504208641576851 0 -0.014467341036964523 0.0010584629079753145 0 -0.014706084383403328 0.0011044540008356117 0 -0.014721685147237601 0.00077504208641576851 0 -0.014467341036964523 0.0010584629079753145 0 -0.014706084383403328 0.0011044540008356117 0 -0.014505766406312787 0.0012159799151514109 0 -0.014962155343695816 0.00094747964004134738 0 -0.014706084383403328 0.0011044540008356117 0 -0.014863350111014906 0.001241168303815164 0 -0.014962155343695816 0.00094747964004134738 0 -0.014706084383403328 0.0011044540008356117 0 -0.014721685147237601 0.00077504208641576851 0 -0.014353304866009485 0.00053289198176533577 0 -0.014294963859467734 0.00047292336161389365 0 -0.013885458305913281 0.00021531084390622788 0 -0.013854320691305853 0.00014465819737922563 0 -0.013835959030670255 0.00016031622661746519 0 -0.014646227225971257 0.0013305184181053825 0 -0.014547303426568865 0.0015841830677301885 0 -0.014842193484046794 0.0015621624300031127 0 -0.014863350111014906 0.001241168303815164 0 -0.014646227225971257 0.0013305184181053825 0 -0.014842193484046794 0.0015621624300031127 0 -0.014706084383403328 0.0011044540008356117 0 -0.014863350111014906 0.001241168303815164 0 -0.014646227225971257 0.0013305184181053825 0 -0.014706084383403328 0.0011044540008356117 0 -0.014505766406312787 0.0012159799151514109 0 -0.014646227225971257 0.0013305184181053825 0 -0.014505766406312787 0.0012159799151514109 0 -0.014437442110646822 0.0013414580298559665 0 -0.014646227225971257 0.0013305184181053825 0 -0.014437442110646822 0.0013414580298559665 0 -0.014646227225971257 0.0013305184181053825 0 -0.014547303426568865 0.0015841830677301885 0 -0.014437033534423294 0.0013529694560723852 0 -0.014450066111659927 0.0013684534735776792 0 -0.014437442110646822 0.0013414580298559665 0 -0.014428976922886184 0.0012433311977491505 0 -0.014343324940303402 0.0012176788336598998 0 -0.014437442110646822 0.0013414580298559665 0 -0.014380264899932899 0.0013256996409809077 0 -0.014428976922886184 0.0012433311977491505 0 -0.014380264899932899 0.0013256996409809077 0 -0.014517930800015167 0.0012209059305213414 0 -0.014428976922886184 0.0012433311977491505 0 -0.014437442110646822 0.0013414580298559665 0 -0.01436206380228776 0.0012767232307502342 0 -0.014380264899932899 0.0013256996409809077 0 -0.014505766406312787 0.0012159799151514109 0 -0.014437442110646822 0.0013414580298559665 0 -0.01436206380228776 0.0012767232307502342 0 -0.014467341036964523 0.0010584629079753145 0 -0.014505766406312787 0.0012159799151514109 0 -0.01436206380228776 0.0012767232307502342 0 -0.014199095522182147 0.0014129018196392402 0 -0.014380264899932899 0.0013256996409809077 0 -0.014502412739160395 0.0012735265959835252 0 -0.01419907547436868 0.0010918515147555579 0 -0.01436206380228776 0.0012767232307502342 0 -0.014199095522182147 0.0014129018196392402 0 -0.01436206380228776 0.0012767232307502342 0 -0.014199095522182147 0.0014129018196392402 0 -0.014380264899932899 0.0013256996409809077 0 -0.014380264899932899 0.0013256996409809077 0 -0.014517930800015167 0.0012209059305213414 0 -0.014502412739160395 0.0012735265959835252 0 -0.014517930800015167 0.0012209059305213414 0 -0.014498519705397343 0.0011175665470542237 0 -0.014777321270631848 0.0010867359683569503 0 -0.01464032378703891 0.00095861921124230334 0 -0.014498519705397343 0.0011175665470542237 0 -0.014777321270631848 0.0010867359683569503 0 -0.01464032378703891 0.00095861921124230334 0 -0.014424382152668053 0.0010207981979440794 0 -0.014498519705397343 0.0011175665470542237 0 -0.015598380981592639 0.00082093970779952138 0 -0.016271767749724071 0.00068196257934901173 0 -0.014424382152668053 0.0010207981979440794 0 -0.014498519705397343 0.0011175665470542237 0 -0.014383906136628259 0.0011276245170007138 0 -0.014498519705397343 0.0011175665470542237 0 -0.014428976922886184 0.0012433311977491505 0 -0.014383906136628259 0.0011276245170007138 0 -0.014517930800015167 0.0012209059305213414 0 -0.014498519705397343 0.0011175665470542237 0 -0.014428976922886184 0.0012433311977491505 0 -0.014428976922886184 0.0012433311977491505 0 -0.014343324940303402 0.0012176788336598998 0 -0.014383906136628259 0.0011276245170007138 0 -0.014343324940303402 0.0012176788336598998 0 -0.014383906136628259 0.0011276245170007138 0 -0.014307243710953953 0.0010912256359669858 0 -0.014450066111659927 0.0013684534735776792 0 -0.015206886710479926 0.0013191866698946655 0 -0.016271767749724071 0.00068196257934901173 0 -0.017020163529746453 0.0014238214984742261 0 -0.018096930377087071 0.00040829182712131114 0 -0.01968445650669191 0.00030337365845694696 0 -0.018955203819975702 0.0012647066210460822 0 -0.014424382152668053 0.0010207981979440794 0 -0.014383906136628259 0.0011276245170007138 0 -0.014320673868455345 0.0010759286960276312 0 -0.014424382152668053 0.0010207981979440794 0 -0.014320673868455345 0.0010759286960276312 0 -0.014301190756439845 0.0010544065141899124 0 -0.014320673868455345 0.0010759286960276312 0 -0.014313404301522649 0.0010866486098364977 0 -0.014301190756439845 0.0010544065141899124 0 -0.015206886710479926 0.0013191866698946655 0 -0.017020163529746453 0.0014238214984742261 0 -0.014383906136628259 0.0011276245170007138 0 -0.014320673868455345 0.0010759286960276312 0 -0.014307243710953953 0.0010912256359669858 0 -0.015107365932491054 0.0013529993937884015 0 -0.015206886710479926 0.0013191866698946655 0 -0.01613706355292209 0.0015370679994485426 0 -0.016197383371280068 0.0015344530958112913 0 -0.016166621178919229 0.0015568241090550439 0 -0.017388548101403958 0.0015767575936962003 0 -0.017966629141278678 0.0015466398420698039 0 -0.01768321249508838 0.0013839163094446609 0 -0.016201037707819541 0.0015496400533754878 0 -0.016197383371280068 0.0015344530958112913 0 -0.016166621178919229 0.0015568241090550439 0 -0.016774995352686162 0.001567851393072696 0 -0.017020163529746453 0.0014238214984742261 0 -0.015206886710479926 0.0013191866698946655 0 -0.015499742361510048 0.0016180821355700828 0 -0.016201037707819541 0.0015496400533754878 0 -0.016166621178919229 0.0015568241090550439 0 -0.016162210606301384 0.0015928106963914409 0 -0.014547303426568865 0.0015841830677301885 0 -0.014639627825134685 0.0018006889732526223 0 -0.014842193484046794 0.0015621624300031127 0 -0.0062897684997042583 0.00095606714953470461 0 -0.010794726973270644 0.0016568359667218204 0 -0.012610698815561237 -0.0014342608560582077 0 -0.014192471671269229 -0.0019523165782604377 0 -0.013263293159611236 -0.00038106687884706088 0 -0.0013020406007106266 0.0031130261977637993 0 -0.0012757648608269423 0.0031530461555470124 0 -0.001308502057866389 0.0031464275233341107 0 -0.0013020406007106266 0.0031130261977637993 0 -0.0013597054142615661 0.0030564880007298866 0 -0.0013066486287186443 0.0031244624719834941 0 -0.0062897684997042583 0.00095606714953470461 0 -0.0069510698113499454 0.00048776789249953728 0 -0.0013020406007106266 0.0031130261977637993 0 -0.0012757648608269423 0.0031530461555470124 0 -0.0013066486287186443 0.0031244624719834941 0 -0.0012757648608269423 0.0031530461555470124 0 -0.0012426486890115089 0.0031856276919793084 0 -0.0013066486287186443 0.0031244624719834941 0 -0.0012757648608269423 0.0031530461555470124 0 -0.0012426486890115089 0.0031856276919793084 0 -0.0012544132612584723 0.0031934413258575324 0 -0.0012573798125117954 0.0032274572798507125 0 -0.0012544132612584723 0.0031934413258575324 0 -0.001308502057866389 0.0031464275233341107 0 -0.0064663732035451279 0.0023000637747027535 0 -0.010794726973270644 0.0016568359667218204 0 -0.0012757648608269423 0.0031530461555470124 0 -0.0012544132612584723 0.0031934413258575324 0 -0.001308502057866389 0.0031464275233341107 0 -0.012692084214905296 0.001047392156329101 0 -0.01344104684061167 0.0017497507720805859 0 -0.012815817689456711 0.001972376246094725 0 -0.014594370019868901 0.0014016341338742079 0 -0.010794726973270644 0.0016568359667218204 0 -0.014007768500840763 0.001511865845166521 0 -0.014594370019868901 0.0014016341338742079 0 -0.014199095522182147 0.0014129018196392402 0 -0.014675454664301184 0.0013989904350416669 0 -0.014502412739160395 0.0012735265959835252 0 -0.013546335628634356 0.001108955319492135 0 -0.014199095522182147 0.0014129018196392402 0 -0.01344104684061167 0.0017497507720805859 0 -0.014517930800015167 0.0012209059305213414 0 -0.014502412739160395 0.0012735265959835252 0 -0.014705461848765948 0.0011477815514120175 0 -0.014675454664301184 0.0013989904350416669 0 -0.014502412739160395 0.0012735265959835252 0 -0.014705461848765948 0.0011477815514120175 0 -0.014675454664301184 0.0013989904350416669 0 -0.014705461848765948 0.0011477815514120175 0 -0.014901722988366764 0.0013092333683624383 0 -0.014705461848765948 0.0011477815514120175 0 -0.014901722988366764 0.0013092333683624383 0 -0.014858849738179306 0.00092225542549791725 0 -0.010794726973270644 0.0016568359667218204 0 -0.015179884115608309 0.00019877994569656338 0 -0.014705461848765948 0.0011477815514120175 0 -0.014858849738179306 0.00092225542549791725 0 -0.014777321270631848 0.0010867359683569503 0 -0.014517930800015167 0.0012209059305213414 0 -0.014705461848765948 0.0011477815514120175 0 -0.014777321270631848 0.0010867359683569503 0 -0.015598380981592639 0.00082093970779952138 0 -0.015120160802540042 0.00097764615764095951 0 -0.01464032378703891 0.00095861921124230334 0 -0.014777321270631848 0.0010867359683569503 0 -0.015060501189428402 0.0010449569661546395 0 -0.014858849738179306 0.00092225542549791725 0 -0.014777321270631848 0.0010867359683569503 0 -0.015060501189428402 0.0010449569661546395 0 -0.014538194932549806 0.0002561766420206672 0 -0.01406013145904529 0.0011972810901002971 0 -0.014771112040774749 0.0018046364079982234 0 -0.014858849738179306 0.00092225542549791725 0 -0.015060501189428402 0.0010449569661546395 0 -0.014771112040774749 0.0018046364079982234 0 -0.015179884115608309 0.00019877994569656338 0 -0.014660757160573227 0.0019201302960662379 0 -0.01406013145904529 0.0011972810901002971 0 -0.012709946188935841 0.00068657192185174985 0 -0.012260370537827423 0.0015073379653906497 0 -0.013601584201168509 0.00045724554965314538 0 -0.013263293159611236 -0.00038106687884706088 0 -0.012709946188935841 0.00068657192185174985 0 -0.01406013145904529 0.0011972810901002971 0 -0.013601584201168509 0.00045724554965314538 0 -0.012709946188935841 0.00068657192185174985 0 -0.014538194932549806 0.0002561766420206672 0 -0.01406013145904529 0.0011972810901002971 0 -0.013601584201168509 0.00045724554965314538 0 -0.014192471671269229 -0.0019523165782604377 0 -0.014538194932549806 0.0002561766420206672 0 -0.013263293159611236 -0.00038106687884706088 0 -0.014538194932549806 0.0002561766420206672 0 -0.013601584201168509 0.00045724554965314538 0 -0.013263293159611236 -0.00038106687884706088 0 -0.012610698815561237 -0.0014342608560582077 0 -0.011879235507761925 -0.00033636720729629413 0 -0.010978732878781596 -0.0009010275330785958 0 -0.013263293159611236 -0.00038106687884706088 0 -0.011879235507761925 -0.00033636720729629413 0 -0.012709946188935841 0.00068657192185174985 0 -0.012610698815561237 -0.0014342608560582077 0 -0.013263293159611236 -0.00038106687884706088 0 -0.011879235507761925 -0.00033636720729629413 0 -0.011879235507761925 -0.00033636720729629413 0 -0.011804175984608541 0.00054134892516199355 0 -0.012709946188935841 0.00068657192185174985 0 -0.011804175984608541 0.00054134892516199355 0 -0.012709946188935841 0.00068657192185174985 0 -0.012260370537827423 0.0015073379653906497 0 -0.011804175984608541 0.00054134892516199355 0 -0.01135026401664028 0.0012017378972588651 0 -0.012260370537827423 0.0015073379653906497 0 -0.01135026401664028 0.0012017378972588651 0 -0.0108397306650023 0.0002190377206467863 0 -0.010560868343597669 0.0015042734434367001 0 -0.011804175984608541 0.00054134892516199355 0 -0.01135026401664028 0.0012017378972588651 0 -0.0108397306650023 0.0002190377206467863 0 -0.0093223862862138029 0.00066663601001114227 0 -0.0108397306650023 0.0002190377206467863 0 -0.010560868343597669 0.0015042734434367001 0 -0.0093223862862138029 0.00066663601001114227 0 -0.010560868343597669 0.0015042734434367001 0 -0.0094210477256937326 0.0018532735335829609 0 -0.0093223862862138029 0.00066663601001114227 0 -0.0096475341404357613 -0.00048371129850745623 0 -0.0083207927441166143 -1.6601766769177078e-05 0 -0.0093223862862138029 0.00066663601001114227 0 -0.0096475341404357613 -0.00048371129850745623 0 -0.0108397306650023 0.0002190377206467863 0 -0.0055046681962309428 0.0013004046499073528 0 -0.0051915563569555215 0.0014092113014274961 0 -0.0054540687886491116 0.00096365756712057037 0 -0.0080560427989279978 0.00023887865217383974 0 -0.0069510698113499454 0.00048776789249953728 0 -0.0096475341404357613 -0.00048371129850745623 0 -0.010966107470006377 -0.00094213623700582219 0 -0.0108397306650023 0.0002190377206467863 0 -0.011830724285382784 0.00045350912310711142 0 -0.0069510698113499454 0.00048776789249953728 0 -0.011879235507761925 -0.00033636720729629413 0 -0.010966107470006377 -0.00094213623700582219 0 -0.0108397306650023 0.0002190377206467863 0 -0.011879235507761925 -0.00033636720729629413 0 -0.011804175984608541 0.00054134892516199355 0 -0.0108397306650023 0.0002190377206467863 0 -0.006944977129355062 0.0011640094440039717 0 -0.0073055040009300147 0.00022386521430829465 0 -0.0059319361085755111 0.0011760018588780139 0 -0.0071174837165183229 0.0010425760547494742 0 -0.0074595104768912391 0.0013544254239443684 0 -0.006944977129355062 0.0011640094440039717 0 -0.0079533433694200899 0.00069281271525981807 0 -0.0073482324191590362 0.0017089853265799409 0 -0.0044089111858594404 0.001477540584628931 0 -0.0071174837165183229 0.0010425760547494742 0 -0.006944977129355062 0.0011640094440039717 0 -0.0073055040009300147 0.00022386521430829465 0 -0.0079533433694200899 0.00069281271525981807 0 -0.0071174837165183229 0.0010425760547494742 0 -0.009571806893441219 0.0018639907256771428 0 -0.0093223862862138029 0.00066663601001114227 0 -0.0078386823100394919 0.00077537650340696112 0 -0.0094210477256937326 0.0018532735335829609 0 -0.0093223862862138029 0.00066663601001114227 0 -0.0078386823100394919 0.00077537650340696112 0 -0.0083207927441166143 -1.6601766769177078e-05 0 -0.0071174837165183229 0.0010425760547494742 0 -0.0052900806058083895 0.0013066785284963482 0 -0.0055799979447853712 0.0012846201213325579 0 -0.0056667190553492345 0.0013428352399564691 0 -0.0057327140751913903 0.0012331337531226484 0 -0.00205438321737562 0.0021794715972277283 0 -0.0021957968479741257 0.0022702635233733631 0 -0.002097408647460941 0.0024221227326884256 0 -0.0052900806058083895 0.0013066785284963482 0 -0.0024455831714763404 0.0023481271423396693 0 -0.0080560427989279978 0.00023887865217383974 0 -0.0052900806058083895 0.0013066785284963482 0 -0.0044089111858594404 0.001477540584628931 0 -0.0025634611923800615 0.00225179401191735 0 -0.0021957968479741257 0.0022702635233733631 0 -0.0022337028440411566 0.0023988735617768583 0 -0.0024328996956779893 0.002278688303249322 0 -0.0022230270851030447 0.0021215825854918957 0 -0.0021957968479741257 0.0022702635233733631 0 -0.0024328996956779893 0.002278688303249322 0 -0.0022230270851030447 0.0021215825854918957 0 -0.00205438321737562 0.0021794715972277283 0 -0.0021957968479741257 0.0022702635233733631 0 -0.0044089111858594404 0.001477540584628931 0 -0.0052900806058083895 0.0013066785284963482 0 -0.0022065716964041176 0.0025386630511754446 0 -0.002097408647460941 0.0024221227326884256 0 -0.0020917450706124342 0.0026796641784917617 0 -0.0022337028440411566 0.0023988735617768583 0 -0.0022065716964041176 0.0025386630511754446 0 -0.002391410609112023 0.0024926635138156207 0 -0.0021957968479741257 0.0022702635233733631 0 -0.0022337028440411566 0.0023988735617768583 0 -0.002097408647460941 0.0024221227326884256 0 -0.0022337028440411566 0.0023988735617768583 0 -0.0022065716964041176 0.0025386630511754446 0 -0.002097408647460941 0.0024221227326884256 0 -0.00205438321737562 0.0021794715972277283 0 -0.002097408647460941 0.0024221227326884256 0 -0.0018555376331889284 0.0024903656296103235 0 -0.002097408647460941 0.0024221227326884256 0 -0.0020917450706124342 0.0026796641784917617 0 -0.0018555376331889284 0.0024903656296103235 0 -0.0019325283422173096 0.002758613438417672 0 -0.0024455831714763404 0.0023481271423396693 0 -0.0019964391978338413 0.0028591465979256807 0 -0.0016071634610925636 0.0026112490513293478 0 -0.0016910833142297543 0.0029083817332463085 0 -0.0019964391978338413 0.0028591465979256807 0 -0.0016910833142297543 0.0029083817332463085 0 -0.0016344429180307886 0.0031638609647991743 0 -0.0020917450706124342 0.0026796641784917617 0 -0.0023418687949431373 0.0029374249699017385 0 -0.0023177400183128382 0.0026762162823582812 0 -0.0022065716964041176 0.0025386630511754446 0 -0.0020917450706124342 0.0026796641784917617 0 -0.0023177400183128382 0.0026762162823582812 0 -0.0022065716964041176 0.0025386630511754446 0 -0.0023177400183128382 0.0026762162823582812 0 -0.002391410609112023 0.0024926635138156207 0 -0.0013597054142615661 0.0030564880007298866 0 -0.0013066486287186443 0.0031244624719834941 0 -0.0014121560921524379 0.0030963142064078042 0 -0.0055046681962309428 0.0013004046499073528 0 -0.0058258139872422229 0.0011886520989941706 0 -0.0054540687886491116 0.00096365756712057037 0 -0.0069510698113499454 0.00048776789249953728 0 -0.0024455831714763404 0.0023481271423396693 0 -0.0016071634610925636 0.0026112490513293478 0 -0.0016910833142297543 0.0029083817332463085 0 -0.0013174825813703705 0.0031715152463726603 0 -0.0024455831714763404 0.0023481271423396693 0 -0.0010059599241245836 0.0034183112424597561 0 -0.0014121560921524379 0.0030963142064078042 0 -0.0012825826696391031 0.003156389463088135 0 -0.0013174825813703705 0.0031715152463726603 0 -0.0013066486287186443 0.0031244624719834941 0 -0.0014121560921524379 0.0030963142064078042 0 -0.0012825826696391031 0.003156389463088135 0 -0.0012426486890115089 0.0031856276919793084 0 -0.0013066486287186443 0.0031244624719834941 0 -0.0012825826696391031 0.003156389463088135 0 -0.0012426486890115089 0.0031856276919793084 0 -0.0012825826696391031 0.003156389463088135 0 -0.0011674334116819642 0.0032409300610769009 0 -0.0011674334116819642 0.0032409300610769009 0 -0.0013174825813703705 0.0031715152463726603 0 -0.0016344429180307886 0.0031638609647991743 0 -0.0011674334116819642 0.0032409300610769009 0 -0.0010029968300112209 0.0032015582520489878 0 -0.00090561700549700763 0.0031722271748725055 0 -0.0012825826696391031 0.003156389463088135 0 -0.0011674334116819642 0.0032409300610769009 0 -0.0013174825813703705 0.0031715152463726603 0 -0.001166873718094963 0.0032262046096963402 0 -0.0012784246863698906 0.0031581269678998113 0 -0.0011674334116819642 0.0032409300610769009 0 -0.0010029968300112209 0.0032015582520489878 0 -0.0010936235195271233 0.003229994945523462 0 -0.0010936235195271233 0.003229994945523462 0 -0.00096193219425364418 0.0032241587783885428 0 -0.0010124149500771794 0.0032448342447482991 0 -0.00096193219425364418 0.0032241587783885428 0 -0.0010124149500771794 0.0032448342447482991 0 -0.00083528224186773148 0.0032610058368676724 0 -0.0010029968300112209 0.0032015582520489878 0 -0.0010936235195271233 0.003229994945523462 0 -0.00096193219425364418 0.0032241587783885428 0 -0.00090825306015168662 0.0031835909487422315 0 -0.00093789286882631792 0.003227611746383181 0 -0.00083528224186773148 0.0032610058368676724 0 -0.00096193219425364418 0.0032241587783885428 0 -0.00090825306015168662 0.0031835909487422315 0 -0.00083528224186773148 0.0032610058368676724 0 -0.0010029968300112209 0.0032015582520489878 0 -0.00096193219425364418 0.0032241587783885428 0 -0.00090825306015168662 0.0031835909487422315 0 -0.00090825306015168662 0.0031835909487422315 0 -0.00090561700549700763 0.0031722271748725055 0 -0.00096660422661814941 0.0031216647130531544 0 -0.0016910833142297543 0.0029083817332463085 0 -0.0013174825813703705 0.0031715152463726603 0 -0.0016344429180307886 0.0031638609647991743 0 -0.0010029968300112209 0.0032015582520489878 0 -0.00090825306015168662 0.0031835909487422315 0 -0.00090561700549700763 0.0031722271748725055 0 -0.0019964391978338413 0.0028591465979256807 0 -0.0016344429180307886 0.0031638609647991743 0 -0.0020800865098709372 0.0030707456503602337 0 -0.0012784246863698906 0.0031581269678998113 0 -0.0016004551771226141 0.0029975706475660999 0 -0.00090561700549700763 0.0031722271748725055 0 -0.0011013071292831286 0.0029222776689320803 0 -0.00096660422661814941 0.0031216647130531544 0 -0.0019964391978338413 0.0028591465979256807 0 -0.0020800865098709372 0.0030707456503602337 0 -0.0023418687949431373 0.0029374249699017385 0 -0.0019325283422173096 0.002758613438417672 0 -0.0023739759827088903 0.0029523371998526533 0 -0.0011013071292831286 0.0029222776689320803 0 -0.0011048893969176205 0.0031355721577136274 0 -0.0013712994890376878 0.0030253282740577698 0 -0.0011048893969176205 0.0031355721577136274 0 -0.0013402109267354446 0.0031902314388099831 0 -0.0013712994890376878 0.0030253282740577698 0 -0.0011013071292831286 0.0029222776689320803 0 -0.0011048893969176205 0.0031355721577136274 0 -0.00096660422661814941 0.0031216647130531544 0 -0.0011048893969176205 0.0031355721577136274 0 -0.0013402109267354446 0.0031902314388099831 0 -0.0010701363812209569 0.0033159926325330895 0 -0.00090825306015168662 0.0031835909487422315 0 -0.00096660422661814941 0.0031216647130531544 0 -0.00093789286882631792 0.003227611746383181 0 -0.0011048893969176205 0.0031355721577136274 0 -0.00096660422661814941 0.0031216647130531544 0 -0.00093789286882631792 0.003227611746383181 0 -0.0011048893969176205 0.0031355721577136274 0 -0.00093789286882631792 0.003227611746383181 0 -0.0010701363812209569 0.0033159926325330895 0 -0.00093789286882631792 0.003227611746383181 0 -0.00087708060344345322 0.0034427319050350995 0 -0.0010701363812209569 0.0033159926325330895 0 -0.00093789286882631792 0.003227611746383181 0 -0.00087708060344345322 0.0034427319050350995 0 -0.00083528224186773148 0.0032610058368676724 0 -0.0013402109267354446 0.0031902314388099831 0 -0.0010701363812209569 0.0033159926325330895 0 -0.0015431406663983401 0.003382404811249008 0 -0.0010701363812209569 0.0033159926325330895 0 -0.0012120943089333248 0.0035190165742090464 0 -0.0015431406663983401 0.003382404811249008 0 -0.00087708060344345322 0.0034427319050350995 0 -0.0010701363812209569 0.0033159926325330895 0 -0.0012120943089333248 0.0035190165742090464 0 -0.00099526993099260117 0.0037853582177175987 0 -0.00087708060344345322 0.0034427319050350995 0 -0.0012120943089333248 0.0035190165742090464 0 -0.00070011261947808788 0.0037720364853423742 0 -0.00099526993099260117 0.0037853582177175987 0 -0.00087708060344345322 0.0034427319050350995 0 -0.00070011261947808788 0.0037720364853423742 0 -0.00087708060344345322 0.0034427319050350995 0 -0.00072619256296663247 0.0033219449892471667 0 -0.00057574897181995779 0.0037847869264386325 0 -0.00070011261947808788 0.0037720364853423742 0 -0.00072619256296663247 0.0033219449892471667 0 -0.00049633826809783888 0.0034148488755465722 0 -0.00078784996536983211 0.0032604039811296504 0 -0.00095700477924554267 0.0027980042946517524 0 -0.0010932547212695691 0.0031123664398365497 0 -0.00072619256296663247 0.0033219449892471667 0 -0.0010932547212695691 0.0031123664398365497 0 -0.00072619256296663247 0.0033219449892471667 0 -0.0010124149500771794 0.0032448342447482991 0 -0.00072619256296663247 0.0033219449892471667 0 -0.0010124149500771794 0.0032448342447482991 0 -0.00083528224186773148 0.0032610058368676724 0 -0.00087708060344345322 0.0034427319050350995 0 -0.00072619256296663247 0.0033219449892471667 0 -0.00083528224186773148 0.0032610058368676724 0 -0.0024173372632702878 0.0036244225636507419 0 -0.0021398289483372996 0.003362612331538937 0 -0.0027201530111298855 0.0032920868577060699 0 -0.0024173372632702878 0.0036244225636507419 0 -0.0028388970112220866 0.003653910555308506 0 -0.0027201530111298855 0.0032920868577060699 0 -0.0028388970112220866 0.003653910555308506 0 -0.0027201530111298855 0.0032920868577060699 0 -0.0030185018067784386 0.0033872228357880963 0 -0.0024173372632702878 0.0036244225636507419 0 -0.0028388970112220866 0.003653910555308506 0 -0.0026609577790188536 0.003899296591279109 0 -0.0028388970112220866 0.003653910555308506 0 -0.0026609577790188536 0.003899296591279109 0 -0.0029774768767554167 0.0039705786271018563 0 -0.002294279935511226 0.0039138527068714197 0 -0.0024173372632702878 0.0036244225636507419 0 -0.0026609577790188536 0.003899296591279109 0 -0.002294279935511226 0.0039138527068714197 0 -0.0024173372632702878 0.0036244225636507419 0 -0.0017644153801622416 0.0036904974926679625 0 -0.0012120943089333248 0.0035190165742090464 0 -0.0017644153801622416 0.0036904974926679625 0 -0.0015431406663983401 0.003382404811249008 0 -0.00099526993099260117 0.0037853582177175987 0 -0.0012120943089333248 0.0035190165742090464 0 -0.0017644153801622416 0.0036904974926679625 0 -0.0024173372632702878 0.0036244225636507419 0 -0.0017644153801622416 0.0036904974926679625 0 -0.0021398289483372996 0.003362612331538937 0 -0.0015431406663983401 0.003382404811249008 0 -0.0021398289483372996 0.003362612331538937 0 -0.0017317230515793353 0.0031530405528011189 0 -0.0017644153801622416 0.0036904974926679625 0 -0.0015431406663983401 0.003382404811249008 0 -0.0021398289483372996 0.003362612331538937 0 -0.0021398289483372996 0.003362612331538937 0 -0.0017317230515793353 0.0031530405528011189 0 -0.0026300820609060399 0.0029355790695930724 0 -0.0017317230515793353 0.0031530405528011189 0 -0.0017039904718647296 0.0027624045440603462 0 -0.0026300820609060399 0.0029355790695930724 0 -0.0013402109267354446 0.0031902314388099831 0 -0.0015431406663983401 0.003382404811249008 0 -0.0017317230515793353 0.0031530405528011189 0 -0.0013402109267354446 0.0031902314388099831 0 -0.0017317230515793353 0.0031530405528011189 0 -0.0013712994890376878 0.0030253282740577698 0 -0.0017317230515793353 0.0031530405528011189 0 -0.0013712994890376878 0.0030253282740577698 0 -0.0017039904718647296 0.0027624045440603462 0 -0.0016004551771226141 0.0029975706475660999 0 -0.0020979447045352396 0.0028785654699014763 0 -0.0020800865098709372 0.0030707456503602337 0 -0.0024837889689182657 0.0029456329534867749 0 -0.0023418687949431373 0.0029374249699017385 0 -0.0011013071292831286 0.0029222776689320803 0 -0.0013712994890376878 0.0030253282740577698 0 -0.0017039904718647296 0.0027624045440603462 0 -0.0024837889689182657 0.0029456329534867749 0 -0.0024654285950387249 0.0028169791476309273 0 -0.0023418687949431373 0.0029374249699017385 0 -0.0020979447045352396 0.0028785654699014763 0 -0.0025862256219024078 0.0029189273067499757 0 -0.0024837889689182657 0.0029456329534867749 0 -0.0025931575107553204 0.0028537756102254798 0 -0.0026300820609060399 0.0029355790695930724 0 -0.0024837889689182657 0.0029456329534867749 0 -0.0024654285950387249 0.0028169791476309273 0 -0.0025931575107553204 0.0028537756102254798 0 -0.0025931575107553204 0.0028537756102254798 0 -0.0026300820609060399 0.0029355790695930724 0 -0.0030757523210076135 0.0026047251780962092 0 -0.0026300820609060399 0.0029355790695930724 0 -0.0031169206993753706 0.0029535245443599936 0 -0.0030757523210076135 0.0026047251780962092 0 -0.0021398289483372996 0.003362612331538937 0 -0.0026300820609060399 0.0029355790695930724 0 -0.0027201530111298855 0.0032920868577060699 0 -0.0026300820609060399 0.0029355790695930724 0 -0.0027201530111298855 0.0032920868577060699 0 -0.0031169206993753706 0.0029535245443599936 0 -0.0027201530111298855 0.0032920868577060699 0 -0.0030185018067784386 0.0033872228357880963 0 -0.0031169206993753706 0.0029535245443599936 0 -0.0031169206993753706 0.0029535245443599936 0 -0.0030757523210076135 0.0026047251780962092 0 -0.0033788492581893078 0.0025371321384514158 0 -0.0025931575107553204 0.0028537756102254798 0 -0.0030757523210076135 0.0026047251780962092 0 -0.0027064566693676168 0.0026315868295033245 0 -0.0030757523210076135 0.0026047251780962092 0 -0.0027064566693676168 0.0026315868295033245 0 -0.0026738496759508464 0.0024162297436781405 0 -0.0030811178920617959 0.0025813854072460739 0 -0.0030306456150674685 0.0024704095248070639 0 -0.0030757523210076135 0.0026047251780962092 0 -0.0032961351734271688 0.0024498798181403093 0 -0.0034100774121315095 0.002373453369611242 0 -0.0030757523210076135 0.0026047251780962092 0 -0.0033788492581893078 0.0025371321384514158 0 -0.0034100774121315095 0.002373453369611242 0 -0.0033788492581893078 0.0025371321384514158 0 -0.0034100774121315095 0.002373453369611242 0 -0.0036260499481775401 0.0022760715737648891 0 -0.0024654285950387249 0.0028169791476309273 0 -0.0023418687949431373 0.0029374249699017385 0 -0.0023177400183128382 0.0026762162823582812 0 -0.0024654285950387249 0.0028169791476309273 0 -0.0023177400183128382 0.0026762162823582812 0 -0.0025308038627946368 0.0026512055602928232 0 -0.0023177400183128382 0.0026762162823582812 0 -0.0025308038627946368 0.0026512055602928232 0 -0.002391410609112023 0.0024926635138156207 0 -0.0024654285950387249 0.0028169791476309273 0 -0.0025931575107553204 0.0028537756102254798 0 -0.0025308038627946368 0.0026512055602928232 0 -0.0025931575107553204 0.0028537756102254798 0 -0.0025308038627946368 0.0026512055602928232 0 -0.0027064566693676168 0.0026315868295033245 0 -0.0025308038627946368 0.0026512055602928232 0 -0.0027064566693676168 0.0026315868295033245 0 -0.0026738496759508464 0.0024162297436781405 0 -0.0025308038627946368 0.0026512055602928232 0 -0.0026738496759508464 0.0024162297436781405 0 -0.002391410609112023 0.0024926635138156207 0 -0.0030306456150674685 0.0024704095248070639 0 -0.0025634611923800615 0.00225179401191735 0 -0.0022337028440411566 0.0023988735617768583 0 -0.002391410609112023 0.0024926635138156207 0 -0.0024328996956779893 0.002278688303249322 0 -0.0026738496759508464 0.0024162297436781405 0 -0.002391410609112023 0.0024926635138156207 0 -0.0024328996956779893 0.002278688303249322 0 -0.0029792928961189145 0.0021617731616720222 0 -0.003176123797450772 0.0023095545368480241 0 -0.0031675801454593405 0.0021868618855493413 0 -0.003176123797450772 0.0023095545368480241 0 -0.0031675801454593405 0.0021868618855493413 0 -0.0032897990695629478 0.0022263067935995116 0 -0.0032961351734271688 0.0024498798181403093 0 -0.0032897990695629478 0.0022263067935995116 0 -0.00349351891986578 0.0022281696417315098 0 -0.0032961351734271688 0.0024498798181403093 0 -0.003176123797450772 0.0023095545368480241 0 -0.0032897990695629478 0.0022263067935995116 0 -0.0044000363805294833 0.0014790648585122027 0 -0.0037938918517077956 0.0018504565334160725 0 -0.0032897990695629478 0.0022263067935995116 0 -0.0032334688168785559 0.0020465268539178617 0 -0.00349351891986578 0.0022281696417315098 0 -0.0032334688168785559 0.0020465268539178617 0 -0.00349351891986578 0.0022281696417315098 0 -0.0038365870523159925 0.0018889892328086554 0 -0.0073055040009300147 0.00022386521430829465 0 -0.0051790973566638518 0.00099409724772245973 0 -0.0059319361085755111 0.0011760018588780139 0 -0.0044089111858594404 0.001477540584628931 0 -0.0044000363805294833 0.0014790648585122027 0 -0.0029792928961189145 0.0021617731616720222 0 -0.0031675801454593405 0.0021868618855493413 0 -0.0032334688168785559 0.0020465268539178617 0 -0.0031675801454593405 0.0021868618855493413 0 -0.0032897990695629478 0.0022263067935995116 0 -0.0032334688168785559 0.0020465268539178617 0 -0.0051790973566638518 0.00099409724772245973 0 -0.0059319361085755111 0.0011760018588780139 0 -0.0047025144920049122 0.0017943283690554565 0 -0.0034100774121315095 0.002373453369611242 0 -0.0037105986019805772 0.0021109332400144477 0 -0.0036260499481775401 0.0022760715737648891 0 -0.0034100774121315095 0.002373453369611242 0 -0.00349351891986578 0.0022281696417315098 0 -0.0037105986019805772 0.0021109332400144477 0 -0.0032961351734271688 0.0024498798181403093 0 -0.0034100774121315095 0.002373453369611242 0 -0.00349351891986578 0.0022281696417315098 0 -0.00349351891986578 0.0022281696417315098 0 -0.0037105986019805772 0.0021109332400144477 0 -0.0038365870523159925 0.0018889892328086554 0 -0.0037105986019805772 0.0021109332400144477 0 -0.0038085935568894836 0.0021183152719710095 0 -0.0036260499481775401 0.0022760715737648891 0 -0.0037105986019805772 0.0021109332400144477 0 -0.0039244415746653837 0.0020783216489642432 0 -0.0038085935568894836 0.0021183152719710095 0 -0.0037105986019805772 0.0021109332400144477 0 -0.0039244415746653837 0.0020783216489642432 0 -0.0038365870523159925 0.0018889892328086554 0 -0.0039244415746653837 0.0020783216489642432 0 -0.0038365870523159925 0.0018889892328086554 0 -0.0043107210638206918 0.0022098695107305413 0 -0.0039244415746653837 0.0020783216489642432 0 -0.0042509548476568175 0.0023011771865148818 0 -0.0043107210638206918 0.0022098695107305413 0 -0.0039244415746653837 0.0020783216489642432 0 -0.0040382437958948495 0.002201212019359907 0 -0.0042509548476568175 0.0023011771865148818 0 -0.0039244415746653837 0.0020783216489642432 0 -0.0040382437958948495 0.002201212019359907 0 -0.0039100693579850829 0.002115412485547192 0 -0.0040382437958948495 0.002201212019359907 0 -0.0042772518922070714 0.0023467225322681192 0 -0.0042509548476568175 0.0023011771865148818 0 -0.0040382437958948495 0.002201212019359907 0 -0.0042772518922070714 0.0023467225322681192 0 -0.0041600256599638591 0.0023393238046903143 0 -0.0042509548476568175 0.0023011771865148818 0 -0.0043946643146076485 0.0024031210212605413 0 -0.0045438848663789562 0.00246465190864653 0 -0.0042772518922070714 0.0023467225322681192 0 -0.0042509548476568175 0.0023011771865148818 0 -0.0043946643146076485 0.0024031210212605413 0 -0.0044563648043185571 0.0024152023517468352 0 -0.0043920743438769809 0.0025615864732777324 0 -0.0049429244062833746 0.0025886104781748511 0 -0.0042772518922070714 0.0023467225322681192 0 -0.0043946643146076485 0.0024031210212605413 0 -0.0044563648043185571 0.0024152023517468352 0 -0.0043946643146076485 0.0024031210212605413 0 -0.0044563648043185571 0.0024152023517468352 0 -0.0044771931071406496 0.0024445719313893255 0 -0.0020816991232898274 0.00087085565286647271 0 -0.015572764775232152 0.0015477820477621024 0 -0.0044563648043185571 0.0024152023517468352 0 -0.0044771931071406496 0.0024445719313893255 0 -0.0045105228099326863 0.0024549821741108131 0 -0.0044563648043185571 0.0024152023517468352 0 -0.004286711017286263 0.0024304091686065399 0 -0.0043920743438769809 0.0025615864732777324 0 -0.004286711017286263 0.0024304091686065399 0 -0.0041600256599638591 0.0023393238046903143 0 -0.0042089836922771266 0.002495790697799483 0 -0.0042772518922070714 0.0023467225322681192 0 -0.004286711017286263 0.0024304091686065399 0 -0.0041600256599638591 0.0023393238046903143 0 -0.0042772518922070714 0.0023467225322681192 0 -0.0044563648043185571 0.0024152023517468352 0 -0.004286711017286263 0.0024304091686065399 0 -0.011229033946511017 0.0040263700561066025 0 -0.015572764775232152 0.0015477820477621024 0 -0.006886500492477389 0.0055662253848404279 0 -0.0056249840549039993 0.0044140241168863781 0 -0.0053361336287178433 0.005771800650523436 0 -0.0044771931071406496 0.0024445719313893255 0 -0.0045438848663789562 0.00246465190864653 0 -0.0045105228099326863 0.0024549821741108131 0 -0.0038991676779085954 0.0043181764419068271 0 -0.015572764775232152 0.0015477820477621024 0 -0.0043946643146076485 0.0024031210212605413 0 -0.0044771931071406496 0.0024445719313893255 0 -0.0045438848663789562 0.00246465190864653 0 -0.006886500492477389 0.0055662253848404279 0 -0.0056249840549039993 0.0044140241168863781 0 -0.0069302832222712558 0.004442218916751681 0 -0.0056249840549039993 0.0044140241168863781 0 -0.0067073953289841053 0.0034397088271394156 0 -0.0069302832222712558 0.004442218916751681 0 -0.0067073953289841053 0.0034397088271394156 0 -0.0058633734718625072 0.0029098118351106018 0 -0.0066759503620141322 0.0022269025241178375 0 -0.0056249840549039993 0.0044140241168863781 0 -0.0067073953289841053 0.0034397088271394156 0 -0.0058633734718625072 0.0029098118351106018 0 -0.0042509548476568175 0.0023011771865148818 0 -0.0045438848663789562 0.00246465190864653 0 -0.0043107210638206918 0.0022098695107305413 0 -0.0038991676779085954 0.0043181764419068271 0 -0.0055728990565687697 0.0022763362502880645 0 -0.0045438848663789562 0.00246465190864653 0 -0.0049129693905340804 0.0022644979532765812 0 -0.0043107210638206918 0.0022098695107305413 0 -0.0051790973566638518 0.00099409724772245973 0 -0.0038365870523159925 0.0018889892328086554 0 -0.0047025144920049122 0.0017943283690554565 0 -0.0049129693905340804 0.0022644979532765812 0 -0.0043107210638206918 0.0022098695107305413 0 -0.0047025144920049122 0.0017943283690554565 0 -0.0038365870523159925 0.0018889892328086554 0 -0.0043107210638206918 0.0022098695107305413 0 -0.0047025144920049122 0.0017943283690554565 0 -0.0058507809942224724 0.0013151759678569751 0 -0.0055728990565687697 0.0022763362502880645 0 -0.0059319361085755111 0.0011760018588780139 0 -0.0058633734718625072 0.0029098118351106018 0 -0.0066759503620141322 0.0022269025241178375 0 -0.0059319361085755111 0.0011760018588780139 0 -0.0049129693905340804 0.0022644979532765812 0 -0.0047025144920049122 0.0017943283690554565 0 -0.006944977129355062 0.0011640094440039717 0 -0.0059319361085755111 0.0011760018588780139 0 -0.0066759503620141322 0.0022269025241178375 0 -0.006944977129355062 0.0011640094440039717 0 -0.0066759503620141322 0.0022269025241178375 0 -0.0073482324191590362 0.0017089853265799409 0 -0.0079257350529832824 0.00077576682147509248 0 -0.0073482324191590362 0.0017089853265799409 0 -0.0083316967423538151 0.0025715022908758918 0 -0.0066759503620141322 0.0022269025241178375 0 -0.0073482324191590362 0.0017089853265799409 0 -0.0073530475662116285 0.0027466174684679166 0 -0.0073482324191590362 0.0017089853265799409 0 -0.0083316967423538151 0.0025715022908758918 0 -0.0073530475662116285 0.0027466174684679166 0 -0.0079257350529832824 0.00077576682147509248 0 -0.0083316967423538151 0.0025715022908758918 0 -0.0094452796225526995 0.0018251450451341382 0 -0.0083316967423538151 0.0025715022908758918 0 -0.0096645153700773822 0.003091891424222116 0 -0.0088629987035173264 0.0040116111870155576 0 -0.0083316967423538151 0.0025715022908758918 0 -0.0077256174901439599 0.0037006513352376442 0 -0.0088629987035173264 0.0040116111870155576 0 -0.0067073953289841053 0.0034397088271394156 0 -0.0066759503620141322 0.0022269025241178375 0 -0.0073530475662116285 0.0027466174684679166 0 -0.0067073953289841053 0.0034397088271394156 0 -0.0077256174901439599 0.0037006513352376442 0 -0.0073530475662116285 0.0027466174684679166 0 -0.0083316967423538151 0.0025715022908758918 0 -0.0077256174901439599 0.0037006513352376442 0 -0.0073530475662116285 0.0027466174684679166 0 -0.011447010436044368 0.0020325311073072015 0 -0.010560868343597669 0.0015042734434367001 0 -0.010961750692443571 0.0028943252382002335 0 -0.011447010436044368 0.0020325311073072015 0 -0.010961750692443571 0.0028943252382002335 0 -0.01212064222774204 0.0028045602186262146 0 -0.01135026401664028 0.0012017378972588651 0 -0.011447010436044368 0.0020325311073072015 0 -0.010560868343597669 0.0015042734434367001 0 -0.0094452796225526995 0.0018251450451341382 0 -0.0096645153700773822 0.003091891424222116 0 -0.010961750692443571 0.0028943252382002335 0 -0.010560868343597669 0.0015042734434367001 0 -0.0094210477256937326 0.0018532735335829609 0 -0.010961750692443571 0.0028943252382002335 0 -0.009571806893441219 0.0018639907256771428 0 -0.010812150397292162 0.0028067393518949302 0 -0.0083316967423538151 0.0025715022908758918 0 -0.0094452796225526995 0.0018251450451341382 0 -0.0096645153700773822 0.003091891424222116 0 -0.0096645153700773822 0.003091891424222116 0 -0.010339597373708549 0.0041450767528115467 0 -0.0088629987035173264 0.0040116111870155576 0 -0.0096645153700773822 0.003091891424222116 0 -0.010961750692443571 0.0028943252382002335 0 -0.010339597373708549 0.0041450767528115467 0 -0.010961750692443571 0.0028943252382002335 0 -0.010339597373708549 0.0041450767528115467 0 -0.01212064222774204 0.0028045602186262146 0 -0.013509335386989074 0.0027646514806054573 0 -0.01364181912643388 0.0022173538051168235 0 -0.013688675208837205 0.0026858569385088482 0 -0.010645934357717542 0.0039626749727814017 0 -0.013189861922944964 0.0023067496607479957 0 -0.013509335386989074 0.0027646514806054573 0 -0.013567662603810387 0.0028310198679389097 0 -0.013688675208837205 0.0026858569385088482 0 -0.013509335386989074 0.0027646514806054573 0 -0.013567662603810387 0.0028310198679389097 0 -0.013652056459894176 0.0027928877639868651 0 -0.010339597373708549 0.0041450767528115467 0 -0.0088629987035173264 0.0040116111870155576 0 -0.0087267054325442066 0.0053918261923636022 0 -0.010645934357717542 0.0039626749727814017 0 -0.017681690954515841 0.0028066535550557042 0 -0.029078127084531419 0.00075954879970145509 0 -0.030350017550821701 0.0013027594082913971 0 -0.02991667312320918 0.00019737195113629817 0 -0.021986605563973985 0.0020513631474219215 0 -0.017681690954515841 0.0028066535550557042 0 -0.029078127084531419 0.00075954879970145509 0 -0.02845809142974887 0.0015932192378268878 0 -0.030350017550821701 0.0013027594082913971 0 -0.029078127084531419 0.00075954879970145509 0 -0.02845809142974887 0.0015932192378268878 0 -0.027825790919020713 0.00078594335961462995 0 -0.0067073953289841053 0.0034397088271394156 0 -0.0077256174901439599 0.0037006513352376442 0 -0.0069302832222712558 0.004442218916751681 0 -0.0077256174901439599 0.0037006513352376442 0 -0.007813882766966946 0.0046511096119774206 0 -0.0069302832222712558 0.004442218916751681 0 -0.0077256174901439599 0.0037006513352376442 0 -0.007813882766966946 0.0046511096119774206 0 -0.0088629987035173264 0.0040116111870155576 0 -0.007813882766966946 0.0046511096119774206 0 -0.0088629987035173264 0.0040116111870155576 0 -0.0087267054325442066 0.0053918261923636022 0 -0.030350017550821701 0.0013027594082913971 0 -0.031323385967907499 0.00046070580703960019 0 -0.02991667312320918 0.00019737195113629817 0 -0.017681690954515841 0.0028066535550557042 0 -0.025685006639663433 0.0006998715570308929 0 -0.006886500492477389 0.0055662253848404279 0 -0.007813882766966946 0.0046511096119774206 0 -0.0087267054325442066 0.0053918261923636022 0 -0.018754459870805255 0.0015535893906353409 0 -0.01947395222141831 0.0014869785030358063 0 -0.01914012577151953 0.0017560679779203201 0 -0.006886500492477389 0.0055662253848404279 0 -0.007813882766966946 0.0046511096119774206 0 -0.0069302832222712558 0.004442218916751681 0 -0.011229033946511017 0.0040263700561066025 0 -0.017681690954515841 0.0028066535550557042 0 -0.025685006639663433 0.0006998715570308929 0 -0.028054862833908664 -0.00020873006264469015 0 -0.031323385967907499 0.00046070580703960019 0 -0.031266565829199608 -0.00083743544375042701 0 -0.032197469004628929 -0.00032363736974608243 0 -0.018754459870805255 0.0015535893906353409 0 -0.01914012577151953 0.0017560679779203201 0 -0.018800241421975124 0.0020821907525341247 0 -0.031323385967907499 0.00046070580703960019 0 -0.030507442755578998 -0.00056104652921039712 0 -0.02991667312320918 0.00019737195113629817 0 -0.031323385967907499 0.00046070580703960019 0 -0.030507442755578998 -0.00056104652921039712 0 -0.031266565829199608 -0.00083743544375042701 0 -0.030507442755578998 -0.00056104652921039712 0 -0.030383497602099165 -0.0014638893288496169 0 -0.031266565829199608 -0.00083743544375042701 0 -0.030342914681170615 -0.0015559530227945814 0 -0.031510707022333849 -0.0010203987564690032 0 -0.030383497602099165 -0.0014638893288496169 0 -0.031158193592777488 -0.0016645654131591328 0 -0.031147101437399752 -0.0018216013717214871 0 -0.031243774440368504 -0.0018860371171997875 0 -0.031158193592777488 -0.0016645654131591328 0 -0.031147101437399752 -0.0018216013717214871 0 -0.031243774440368504 -0.0018860371171997875 0 -0.031290735450541972 -0.0019354946677697549 0 -0.031147101437399752 -0.0018216013717214871 0 -0.031510707022333849 -0.0010203987564690032 0 -0.028054862833908664 -0.00020873006264469015 0 -0.031243774440368504 -0.0018860371171997875 0 -0.031158193592777488 -0.0016645654131591328 0 -0.031230562302122931 -0.0020258104227167269 0 -0.029078127084531419 0.00075954879970145509 0 -0.027825790919020713 0.00078594335961462995 0 -0.02857830863368737 -5.7005269095016012e-05 0 -0.02857830863368737 -5.7005269095016012e-05 0 -0.028081989730607753 -0.00072325571195193102 0 -0.027462335057290333 -3.8999208907963937e-05 0 -0.027825790919020713 0.00078594335961462995 0 -0.02857830863368737 -5.7005269095016012e-05 0 -0.027462335057290333 -3.8999208907963937e-05 0 -0.02857830863368737 -5.7005269095016012e-05 0 -0.02991667312320918 0.00019737195113629817 0 -0.029320435877755638 -0.0008737030653901438 0 -0.029078127084531419 0.00075954879970145509 0 -0.02857830863368737 -5.7005269095016012e-05 0 -0.02991667312320918 0.00019737195113629817 0 -0.030507442755578998 -0.00056104652921039712 0 -0.02991667312320918 0.00019737195113629817 0 -0.029320435877755638 -0.0008737030653901438 0 -0.029505269041596997 -0.0016083430356672703 0 -0.029320435877755638 -0.0008737030653901438 0 -0.028196534756685331 -0.0018271116411110731 0 -0.030507442755578998 -0.00056104652921039712 0 -0.030383497602099165 -0.0014638893288496169 0 -0.029320435877755638 -0.0008737030653901438 0 -0.030383497602099165 -0.0014638893288496169 0 -0.029505269041596997 -0.0016083430356672703 0 -0.029320435877755638 -0.0008737030653901438 0 -0.029320435877755638 -0.0008737030653901438 0 -0.028081989730607753 -0.00072325571195193102 0 -0.028196534756685331 -0.0018271116411110731 0 -0.02857830863368737 -5.7005269095016012e-05 0 -0.029320435877755638 -0.0008737030653901438 0 -0.028081989730607753 -0.00072325571195193102 0 -0.033524826220405382 -0.0026152311955284064 0 -0.033261171835317523 -0.0019084313916464455 0 -0.033723290447993097 -0.002200828377683798 0 -0.033524826220405382 -0.0026152311955284064 0 -0.032728481889838221 -0.0025045120029939965 0 -0.033261171835317523 -0.0019084313916464455 0 -0.029505269041596997 -0.0016083430356672703 0 -0.028196534756685331 -0.0018271116411110731 0 -0.03007102224943135 -0.0022813765805986645 0 -0.031218829925273604 -0.0023722269282475325 0 -0.031293249833319957 -0.0023237358793336336 0 -0.030383497602099165 -0.0014638893288496169 0 -0.029505269041596997 -0.0016083430356672703 0 -0.03007102224943135 -0.0022813765805986645 0 -0.032728481889838221 -0.0025045120029939965 0 -0.033261171835317523 -0.0019084313916464455 0 -0.032462519407568349 -0.0017536254708475695 0 -0.033261171835317523 -0.0019084313916464455 0 -0.033723290447993097 -0.002200828377683798 0 -0.033916256898323144 -0.0018499261506959136 0 -0.033261171835317523 -0.0019084313916464455 0 -0.033916256898323144 -0.0018499261506959136 0 -0.03372533258601465 -0.0015273954168858956 0 -0.031290735450541972 -0.0019354946677697549 0 -0.031523327613217779 -0.0021668040541727536 0 -0.031274277710857626 -0.001919962718564625 0 -0.031290735450541972 -0.0019354946677697549 0 -0.031147101437399752 -0.0018216013717214871 0 -0.031523327613217779 -0.0021668040541727536 0 -0.031293249833319957 -0.0023237358793336336 0 -0.031516995782155742 -0.0022252374740071613 0 -0.03007102224943135 -0.0022813765805986645 0 -0.031147101437399752 -0.0018216013717214871 0 -0.031523327613217779 -0.0021668040541727536 0 -0.030383497602099165 -0.0014638893288496169 0 -0.03007102224943135 -0.0022813765805986645 0 -0.031147101437399752 -0.0018216013717214871 0 -0.032728481889838221 -0.0025045120029939965 0 -0.032462519407568349 -0.0017536254708475695 0 -0.031523327613217779 -0.0021668040541727536 0 -0.032462519407568349 -0.0017536254708475695 0 -0.031523327613217779 -0.0021668040541727536 0 -0.031618807361422779 -0.0016872428610877118 0 -0.031523327613217779 -0.0021668040541727536 0 -0.031274277710857626 -0.001919962718564625 0 -0.031618807361422779 -0.0016872428610877118 0 -0.031164752775008849 -0.0016473370664414752 0 -0.031274277710857626 -0.001919962718564625 0 -0.031618807361422779 -0.0016872428610877118 0 -0.031164752775008849 -0.0016473370664414752 0 -0.031032929277837046 -0.001815220888513158 0 -0.031274277710857626 -0.001919962718564625 0 -0.031290735450541972 -0.0019354946677697549 0 -0.031274277710857626 -0.001919962718564625 0 -0.031050717009753957 -0.0018801356218070852 0 -0.031032929277837046 -0.001815220888513158 0 -0.031274277710857626 -0.001919962718564625 0 -0.031050717009753957 -0.0018801356218070852 0 -0.031290735450541972 -0.0019354946677697549 0 -0.031050717009753957 -0.0018801356218070852 0 -0.031119053115739821 -0.0019340085642021027 0 -0.030794360529015713 -0.0018318943129021666 0 -0.030832644228173993 -0.0017519521385418152 0 -0.030744765832833688 -0.001911493040841337 0 -0.030662842913930687 -0.0015722087005514177 0 -0.029474515089241603 -0.0012291273419057953 0 -0.030794360529015713 -0.0018318943129021666 0 -0.030403344907959613 -0.0018348311587649286 0 -0.03054157503246771 -0.0018784975180254023 0 -0.031050717009753957 -0.0018801356218070852 0 -0.030794360529015713 -0.0018318943129021666 0 -0.030823393044170713 -0.0019181736749119454 0 -0.031032929277837046 -0.001815220888513158 0 -0.030794360529015713 -0.0018318943129021666 0 -0.030832644228173993 -0.0017519521385418152 0 -0.031032929277837046 -0.001815220888513158 0 -0.031050717009753957 -0.0018801356218070852 0 -0.030794360529015713 -0.0018318943129021666 0 -0.031164752775008849 -0.0016473370664414752 0 -0.030832644228173993 -0.0017519521385418152 0 -0.030754701463265467 -0.0013712780908765254 0 -0.031164752775008849 -0.0016473370664414752 0 -0.031032929277837046 -0.001815220888513158 0 -0.030832644228173993 -0.0017519521385418152 0 -0.030832644228173993 -0.0017519521385418152 0 -0.030579080657417254 -0.0016724120363014344 0 -0.030754701463265467 -0.0013712780908765254 0 -0.033160324418406932 -0.0017116684919527151 0 -0.033252360861863305 -0.0018744094863191142 0 -0.033329738525127932 -0.0017182374478053885 0 -0.033160324418406932 -0.0017116684919527151 0 -0.033313423658620861 -0.0015773633696698241 0 -0.033329738525127932 -0.0017182374478053885 0 -0.030874811529159111 -0.00099475089140790016 0 -0.029797164634039936 -0.00081090090781496559 0 -0.027627079436440924 0.001426407053696921 0 -0.026418783304896748 -2.7994324184420716e-05 0 -0.027470609825893066 -0.00074714508747052882 0 -0.026418783304896748 -2.7994324184420716e-05 0 -0.027470609825893066 -0.00074714508747052882 0 -0.025172207264382938 -0.0015021327408181856 0 -0.027627079436440924 0.001426407053696921 0 -0.027470609825893066 -0.00074714508747052882 0 -0.028966197347010308 -0.0010320326561364611 0 -0.030832644228173993 -0.0017519521385418152 0 -0.030579080657417254 -0.0016724120363014344 0 -0.030744765832833688 -0.001911493040841337 0 -0.030874811529159111 -0.00099475089140790016 0 -0.029474515089241603 -0.0012291273419057953 0 -0.029474515089241603 -0.0012291273419057953 0 -0.02794110761827457 -0.0017361585896460154 0 -0.027470609825893066 -0.00074714508747052882 0 -0.028966197347010308 -0.0010320326561364611 0 -0.027394702501719267 -0.0021667027477539945 0 -0.029370023861843186 -0.00017675881516226606 0 -0.028842262715893456 -0.0019417661651179338 0 -0.026606568664631701 -0.0019295987571305757 0 -0.028842262715893456 -0.0019417661651179338 0 -0.026606568664631701 -0.0019295987571305757 0 -0.028166325310683932 -0.002802781127263133 0 -0.028842262715893456 -0.0019417661651179338 0 -0.029731147399723708 -0.0027165805925086629 0 -0.030213324253015841 -0.0018956417276926574 0 -0.029370023861843186 -0.00017675881516226606 0 -0.028842262715893456 -0.0019417661651179338 0 -0.030213324253015841 -0.0018956417276926574 0 -0.027394702501719267 -0.0021667027477539945 0 -0.025771661313823049 -0.0033192353069318938 0 -0.025172207264382938 -0.0015021327408181856 0 -0.027470609825893066 -0.00074714508747052882 0 -0.027394702501719267 -0.0021667027477539945 0 -0.025172207264382938 -0.0015021327408181856 0 -0.004286711017286263 0.0024304091686065399 0 -0.0043920743438769809 0.0025615864732777324 0 -0.0042089836922771266 0.002495790697799483 0 -0.015663375182999383 -0.00098175065290135297 0 -0.016878198001000311 -0.0013192143003117004 0 -0.02794110761827457 -0.0017361585896460154 0 -0.016878198001000311 -0.0013192143003117004 0 -0.026606568664631701 -0.0019295987571305757 0 -0.026994713967711206 -0.0044027450817223255 0 -0.02370561498986962 -0.0038967180057958126 0 -0.015663375182999383 -0.00098175065290135297 0 -0.015572764775232152 0.0015477820477621024 0 -0.026994713967711206 -0.0044027450817223255 0 -0.02872332190160002 -0.0036517339998038962 0 -0.030247074724480016 -0.0047442969314381413 0 -0.028842262715893456 -0.0019417661651179338 0 -0.028166325310683932 -0.002802781127263133 0 -0.029731147399723708 -0.0027165805925086629 0 -0.028166325310683932 -0.002802781127263133 0 -0.02872332190160002 -0.0036517339998038962 0 -0.029731147399723708 -0.0027165805925086629 0 -0.026606568664631701 -0.0019295987571305757 0 -0.028166325310683932 -0.002802781127263133 0 -0.026994713967711206 -0.0044027450817223255 0 -0.028166325310683932 -0.002802781127263133 0 -0.026994713967711206 -0.0044027450817223255 0 -0.02872332190160002 -0.0036517339998038962 0 -0.015572764775232152 0.0015477820477621024 0 -0.027929633406022954 -0.0057605376207566115 0 -0.02872332190160002 -0.0036517339998038962 0 -0.030247074724480016 -0.0047442969314381413 0 -0.029731147399723708 -0.0027165805925086629 0 -0.030295635242404785 -0.0025235400314419054 0 -0.029731147399723708 -0.0027165805925086629 0 -0.030213324253015841 -0.0018956417276926574 0 -0.030058529452187999 -0.0033066408583577 0 -0.030295635242404785 -0.0025235400314419054 0 -0.029731147399723708 -0.0027165805925086629 0 -0.030058529452187999 -0.0033066408583577 0 -0.030295635242404785 -0.0025235400314419054 0 -0.030749435873471974 -0.0024158142157369722 0 -0.030058529452187999 -0.0033066408583577 0 -0.031451818094110615 -0.002302992042177866 0 -0.030749435873471974 -0.0024158142157369722 0 -0.018754459870805255 0.0015535893906353409 0 -0.017927607889342199 0.0016835698788679205 0 -0.018800241421975124 0.0020821907525341247 0 -0.015572764775232152 0.0015477820477621024 0 -0.028054862833908664 -0.00020873006264469015 0 -0.031451818094110615 -0.002302992042177866 0 -0.030749435873471974 -0.0024158142157369722 0 -0.031209188415491699 -0.002101261874585912 0 -0.028054862833908664 -0.00020873006264469015 0 -0.03003871606046352 -0.0017010669169697382 0 -0.030901617814427108 -0.0020813255137862507 0 -0.031209188415491699 -0.002101261874585912 0 -0.031119053115739821 -0.0019340085642021027 0 -0.030749435873471974 -0.0024158142157369722 0 -0.030901617814427108 -0.0020813255137862507 0 -0.031209188415491699 -0.002101261874585912 0 -0.030749435873471974 -0.0024158142157369722 0 -0.030901617814427108 -0.0020813255137862507 0 -0.030610056521409107 -0.0020682773642662251 0 -0.031243774440368504 -0.0018860371171997875 0 -0.031209188415491699 -0.002101261874585912 0 -0.031119053115739821 -0.0019340085642021027 0 -0.031243774440368504 -0.0018860371171997875 0 -0.031230562302122931 -0.0020258104227167269 0 -0.031209188415491699 -0.002101261874585912 0 -0.031243774440368504 -0.0018860371171997875 0 -0.031290735450541972 -0.0019354946677697549 0 -0.031119053115739821 -0.0019340085642021027 0 -0.031050717009753957 -0.0018801356218070852 0 -0.031119053115739821 -0.0019340085642021027 0 -0.030823393044170713 -0.0019181736749119454 0 -0.030901617814427108 -0.0020813255137862507 0 -0.031119053115739821 -0.0019340085642021027 0 -0.030823393044170713 -0.0019181736749119454 0 -0.030794360529015713 -0.0018318943129021666 0 -0.030823393044170713 -0.0019181736749119454 0 -0.03054157503246771 -0.0018784975180254023 0 -0.030823393044170713 -0.0019181736749119454 0 -0.03054157503246771 -0.0018784975180254023 0 -0.030610056521409107 -0.0020682773642662251 0 -0.029474515089241603 -0.0012291273419057953 0 -0.030046509976969032 -0.0017506332696157903 0 -0.030403344907959613 -0.0018348311587649286 0 -0.03054157503246771 -0.0018784975180254023 0 -0.030213324253015841 -0.0018956417276926574 0 -0.030295635242404785 -0.0025235400314419054 0 -0.030213324253015841 -0.0018956417276926574 0 -0.030610056521409107 -0.0020682773642662251 0 -0.03054157503246771 -0.0018784975180254023 0 -0.030213324253015841 -0.0018956417276926574 0 -0.030610056521409107 -0.0020682773642662251 0 -0.030295635242404785 -0.0025235400314419054 0 -0.030749435873471974 -0.0024158142157369722 0 -0.030610056521409107 -0.0020682773642662251 0 -0.030901617814427108 -0.0020813255137862507 0 -0.030823393044170713 -0.0019181736749119454 0 -0.030610056521409107 -0.0020682773642662251 0 -0.021594127402334278 0.00072389989650640813 0 -0.021689197945330706 0.0012527295328828476 0 -0.022038688723545728 0.00037976037081293411 0 -0.021401560820039987 0.0016108018215007108 0 -0.021825849423621806 0.00044151979772634784 0 -0.021281428772615036 0.00048335157200428029 0 -0.021594127402334278 0.00072389989650640813 0 -0.022038688723545728 0.00037976037081293411 0 -0.021354150992425356 0.0010484135344422485 0 -0.021594127402334278 0.00072389989650640813 0 -0.021689197945330706 0.0012527295328828476 0 -0.021354150992425356 0.0010484135344422485 0 -0.021594127402334278 0.00072389989650640813 0 -0.021318048832347863 0.00076424092983061736 0 -0.021281428772615036 0.00048335157200428029 0 -0.021594127402334278 0.00072389989650640813 0 -0.021318048832347863 0.00076424092983061736 0 -0.022270376752191866 0.0012132569929045362 0 -0.020896967054625508 0.0017777956057340785 0 -0.021600403506349872 0.00051249983941161685 0 -0.022270376752191866 0.0012132569929045362 0 -0.022838610741685493 0.00040527127394330051 0 -0.021600403506349872 0.00051249983941161685 0 -0.022270376752191866 0.0012132569929045362 0 -0.020896967054625508 0.0017777956057340785 0 -0.022297364495475931 0.0024309919777687613 0 -0.020896967054625508 0.0017777956057340785 0 -0.020564706927720777 0.0026192828586149791 0 -0.022297364495475931 0.0024309919777687613 0 -0.021401560820039987 0.0016108018215007108 0 -0.019364708526356543 0.0016239347472576915 0 -0.021129289463499814 0.0014631838682574545 0 -0.021689197945330706 0.0012527295328828476 0 -0.021364181211456473 0.0020973134265726877 0 -0.020896967054625508 0.0017777956057340785 0 -0.020564706927720777 0.0026192828586149791 0 -0.020443382209926374 0.0027460413444118214 0 -0.021129289463499814 0.0014631838682574545 0 -0.021354150992425356 0.0010484135344422485 0 -0.021689197945330706 0.0012527295328828476 0 -0.020564706927720777 0.0026192828586149791 0 -0.020443382209926374 0.0027460413444118214 0 -0.019848691846555307 0.0022270407922598203 0 -0.020443382209926374 0.0027460413444118214 0 -0.019848691846555307 0.0022270407922598203 0 -0.020182749052582053 0.0014805570145776036 0 -0.019364708526356543 0.0016239347472576915 0 -0.018969789028063223 0.001381086588048992 0 -0.017546198489939727 0.0012286170274763623 0 -0.017702037835923529 0.00085030186332728101 0 -0.01782694099962567 0.0011881041912631817 0 -0.019848691846555307 0.0022270407922598203 0 -0.020182749052582053 0.0014805570145776036 0 -0.018955203819975702 0.0012647066210460822 0 -0.017020163529746453 0.0014238214984742261 0 -0.018969789028063223 0.001381086588048992 0 -0.017966629141278678 0.0015466398420698039 0 -0.01782694099962567 0.0011881041912631817 0 -0.01768321249508838 0.0013839163094446609 0 -0.017546198489939727 0.0012286170274763623 0 -0.01782694099962567 0.0011881041912631817 0 -0.01768321249508838 0.0013839163094446609 0 -0.01968445650669191 0.00030337365845694696 0 -0.020182749052582053 0.0014805570145776036 0 -0.018955203819975702 0.0012647066210460822 0 -0.019848691846555307 0.0022270407922598203 0 -0.018955203819975702 0.0012647066210460822 0 -0.018664810502245232 0.0021450739203610057 0 -0.020564706927720777 0.0026192828586149791 0 -0.019848691846555307 0.0022270407922598203 0 -0.018354948404266797 0.0032250221684122383 0 -0.019848691846555307 0.0022270407922598203 0 -0.018664810502245232 0.0021450739203610057 0 -0.018354948404266797 0.0032250221684122383 0 -0.020545792438727818 0.002660062509775346 0 -0.020324305254194271 0.0027959854964312724 0 -0.017520541350249493 0.0018740831614953897 0 -0.016354642813151229 0.0033343148773280068 0 -0.018354948404266797 0.0032250221684122383 0 -0.018664810502245232 0.0021450739203610057 0 -0.017520541350249493 0.0018740831614953897 0 -0.018354948404266797 0.0032250221684122383 0 -0.018955203819975702 0.0012647066210460822 0 -0.018664810502245232 0.0021450739203610057 0 -0.017520541350249493 0.0018740831614953897 0 -0.0165301930969389 0.0006264553332955763 0 -0.018096930377087071 0.00040829182712131114 0 -0.017520541350249493 0.0018740831614953897 0 -0.018096930377087071 0.00040829182712131114 0 -0.018955203819975702 0.0012647066210460822 0 -0.017520541350249493 0.0018740831614953897 0 -0.0165301930969389 0.0006264553332955763 0 -0.017520541350249493 0.0018740831614953897 0 -0.015869162005293973 0.0018755941454009543 0 -0.017520541350249493 0.0018740831614953897 0 -0.016354642813151229 0.0033343148773280068 0 -0.015869162005293973 0.0018755941454009543 0 -0.023713901446086622 0.0021265104356414741 0 -0.022297364495475931 0.0024309919777687613 0 -0.023407551569404658 0.0010537829765885423 0 -0.020042053326375191 0.0027288311125597785 0 -0.020324305254194271 0.0027959854964312724 0 -0.022270376752191866 0.0012132569929045362 0 -0.022297364495475931 0.0024309919777687613 0 -0.023407551569404658 0.0010537829765885423 0 -0.022270376752191866 0.0012132569929045362 0 -0.023407551569404658 0.0010537829765885423 0 -0.022838610741685493 0.00040527127394330051 0 -0.023713901446086622 0.0021265104356414741 0 -0.023407551569404658 0.0010537829765885423 0 -0.024634064411243235 0.00074015398751981919 0 -0.024634064411243235 0.00074015398751981919 0 -0.02507203195812021 0.0019317200757819086 0 -0.025859912721882233 0.00090377888424496744 0 -0.020042053326375191 0.0027288311125597785 0 -0.020051219134379544 0.0025492160114038579 0 -0.023713901446086622 0.0021265104356414741 0 -0.024634064411243235 0.00074015398751981919 0 -0.02507203195812021 0.0019317200757819086 0 -0.016354642813151229 0.0033343148773280068 0 -0.014876205380826076 0.0031807547403571983 0 -0.015262949614389086 0.0025494931450807832 0 -0.015262949614389086 0.0025494931450807832 0 -0.015869162005293973 0.0018755941454009543 0 -0.014771112040774749 0.0018046364079982234 0 -0.016354642813151229 0.0033343148773280068 0 -0.015262949614389086 0.0025494931450807832 0 -0.015869162005293973 0.0018755941454009543 0 -0.0165301930969389 0.0006264553332955763 0 -0.015060501189428402 0.0010449569661546395 0 -0.015869162005293973 0.0018755941454009543 0 -0.015060501189428402 0.0010449569661546395 0 -0.015869162005293973 0.0018755941454009543 0 -0.014771112040774749 0.0018046364079982234 0 -0.015262949614389086 0.0025494931450807832 0 -0.014771112040774749 0.0018046364079982234 0 -0.014183169248427632 0.0024938198448876125 0 -0.014876205380826076 0.0031807547403571983 0 -0.015262949614389086 0.0025494931450807832 0 -0.014183169248427632 0.0024938198448876125 0 -0.014183169248427632 0.0024938198448876125 0 -0.014123353832159621 0.0019327496691355969 0 -0.01364181912643388 0.0022173538051168235 0 -0.014771112040774749 0.0018046364079982234 0 -0.014183169248427632 0.0024938198448876125 0 -0.014123353832159621 0.0019327496691355969 0 -0.013921925488110467 0.0013461926282831731 0 -0.013189861922944964 0.0023067496607479957 0 -0.01406013145904529 0.0011972810901002971 0 -0.014123353832159621 0.0019327496691355969 0 -0.01364181912643388 0.0022173538051168235 0 -0.01406013145904529 0.0011972810901002971 0 -0.014771112040774749 0.0018046364079982234 0 -0.014123353832159621 0.0019327496691355969 0 -0.011447010436044368 0.0020325311073072015 0 -0.012260370537827423 0.0015073379653906497 0 -0.01212064222774204 0.0028045602186262146 0 -0.01406013145904529 0.0011972810901002971 0 -0.012260370537827423 0.0015073379653906497 0 -0.01212064222774204 0.0028045602186262146 0 -0.01135026401664028 0.0012017378972588651 0 -0.011447010436044368 0.0020325311073072015 0 -0.012260370537827423 0.0015073379653906497 0 -0.014183169248427632 0.0024938198448876125 0 -0.01364181912643388 0.0022173538051168235 0 -0.013688675208837205 0.0026858569385088482 0 -0.014183169248427632 0.0024938198448876125 0 -0.013948079525028509 0.0029882139591612495 0 -0.013688675208837205 0.0026858569385088482 0 -0.013567662603810387 0.0028310198679389097 0 -0.013948079525028509 0.0029882139591612495 0 -0.013688675208837205 0.0026858569385088482 0 -0.014876205380826076 0.0031807547403571983 0 -0.014183169248427632 0.0024938198448876125 0 -0.013948079525028509 0.0029882139591612495 0 -0.020051219134379544 0.0025492160114038579 0 -0.020109646951969509 0.0024230191539548508 0 -0.026643397903504954 0.0017878899942282893 0 -0.025859912721882233 0.00090377888424496744 0 -0.026874393330904415 0.00069479753642654732 0 -0.02507203195812021 0.0019317200757819086 0 -0.026643397903504954 0.0017878899942282893 0 -0.025859912721882233 0.00090377888424496744 0 -0.027825790919020713 0.00078594335961462995 0 -0.026643397903504954 0.0017878899942282893 0 -0.026874393330904415 0.00069479753642654732 0 -0.02845809142974887 0.0015932192378268878 0 -0.027825790919020713 0.00078594335961462995 0 -0.026643397903504954 0.0017878899942282893 0 -0.021986605563973985 0.0020513631474219215 0 -0.020109646951969509 0.0024230191539548508 0 -0.027462335057290333 -3.8999208907963937e-05 0 -0.026654622119146251 9.1891213952910105e-06 0 -0.026928785402719511 -0.00072762607645413631 0 -0.027825790919020713 0.00078594335961462995 0 -0.026874393330904415 0.00069479753642654732 0 -0.027462335057290333 -3.8999208907963937e-05 0 -0.026874393330904415 0.00069479753642654732 0 -0.027462335057290333 -3.8999208907963937e-05 0 -0.026654622119146251 9.1891213952910105e-06 0 -0.025859912721882233 0.00090377888424496744 0 -0.02592997325397263 -9.438179668030116e-05 0 -0.026654622119146251 9.1891213952910105e-06 0 -0.025859912721882233 0.00090377888424496744 0 -0.026874393330904415 0.00069479753642654732 0 -0.026654622119146251 9.1891213952910105e-06 0 -0.02592997325397263 -9.438179668030116e-05 0 -0.026654622119146251 9.1891213952910105e-06 0 -0.026928785402719511 -0.00072762607645413631 0 -0.02592997325397263 -9.438179668030116e-05 0 -0.026510409969349988 -0.0011053404373912016 0 -0.026928785402719511 -0.00072762607645413631 0 -0.026276069600156573 -0.00052576192721290099 0 -0.025457828762420386 -0.0013366956292577914 0 -0.024871780190552337 -0.00017595134032424603 0 -0.028714671795581039 -0.0010364036159780546 0 -0.02444026965680024 -0.00026418083558361855 0 -0.02592997325397263 -9.438179668030116e-05 0 -0.026510409969349988 -0.0011053404373912016 0 -0.025031131430315531 -0.00053658631598311373 0 -0.031218829925273604 -0.0023722269282475325 0 -0.028714671795581039 -0.0010364036159780546 0 -0.028081989730607753 -0.00072325571195193102 0 -0.027462335057290333 -3.8999208907963937e-05 0 -0.026928785402719511 -0.00072762607645413631 0 -0.028081989730607753 -0.00072325571195193102 0 -0.028196534756685331 -0.0018271116411110731 0 -0.026928785402719511 -0.00072762607645413631 0 -0.028196534756685331 -0.0018271116411110731 0 -0.02643367821799714 -0.0012488848967405787 0 -0.026928785402719511 -0.00072762607645413631 0 -0.028714671795581039 -0.0010364036159780546 0 -0.027197853887418227 -0.0013819686045975796 0 -0.033524826220405382 -0.0026152311955284064 0 -0.034116533892793156 -0.0022758449439823593 0 -0.033723290447993097 -0.002200828377683798 0 -0.033524826220405382 -0.0026152311955284064 0 -0.034167838202110772 -0.002742541595935382 0 -0.034116533892793156 -0.0022758449439823593 0 -0.034116533892793156 -0.0022758449439823593 0 -0.033916256898323144 -0.0018499261506959136 0 -0.034374031831095476 -0.0018690381818343084 0 -0.034116533892793156 -0.0022758449439823593 0 -0.033723290447993097 -0.002200828377683798 0 -0.033916256898323144 -0.0018499261506959136 0 -0.034116533892793156 -0.0022758449439823593 0 -0.034374031831095476 -0.0018690381818343084 0 -0.034581390662768982 -0.0023074558923144111 0 -0.034374031831095476 -0.0018690381818343084 0 -0.034581390662768982 -0.0023074558923144111 0 -0.034669613861250011 -0.0016931010909036238 0 -0.033916256898323144 -0.0018499261506959136 0 -0.034374031831095476 -0.0018690381818343084 0 -0.034212132763589587 -0.0015482378900494578 0 -0.034167838202110772 -0.002742541595935382 0 -0.034116533892793156 -0.0022758449439823593 0 -0.034581390662768982 -0.0023074558923144111 0 -0.028714671795581039 -0.0010364036159780546 0 -0.030332949947748277 -0.0017341435253645004 0 -0.024725955185478449 -0.0011107316748393008 0 -0.025457828762420386 -0.0013366956292577914 0 -0.024675344341291167 -0.0021516228164281627 0 -0.024725955185478449 -0.0011107316748393008 0 -0.025457828762420386 -0.0013366956292577914 0 -0.024871780190552337 -0.00017595134032424603 0 -0.034581390662768982 -0.0023074558923144111 0 -0.034950732744085507 -0.0018835045729110327 0 -0.034669613861250011 -0.0016931010909036238 0 -0.030332949947748277 -0.0017341435253645004 0 -0.028229617535792156 -0.0016860840435147597 0 -0.023756632716887435 -0.0012447380897313166 0 -0.024025907085308548 -0.001280826711742687 0 -0.023713690481218113 -0.0015110217820783595 0 -0.023756632716887435 -0.0012447380897313166 0 -0.024025907085308548 -0.001280826711742687 0 -0.023891700645942829 -0.00080977009195418127 0 -0.024725955185478449 -0.0011107316748393008 0 -0.024675344341291167 -0.0021516228164281627 0 -0.023891700645942829 -0.00080977009195418127 0 -0.028229617535792156 -0.0016860840435147597 0 -0.022758988442670575 -0.00056440526726557613 0 -0.024725955185478449 -0.0011107316748393008 0 -0.023891700645942829 -0.00080977009195418127 0 -0.024871780190552337 -0.00017595134032424603 0 -0.023891700645942829 -0.00080977009195418127 0 -0.024871780190552337 -0.00017595134032424603 0 -0.023729777828482783 -1.1162310577520615e-05 0 -0.02444026965680024 -0.00026418083558361855 0 -0.02402862292033842 -8.4462950583300366e-05 0 -0.024634064411243235 0.00074015398751981919 0 -0.02592997325397263 -9.438179668030116e-05 0 -0.025031131430315531 -0.00053658631598311373 0 -0.024634064411243235 0.00074015398751981919 0 -0.025859912721882233 0.00090377888424496744 0 -0.02592997325397263 -9.438179668030116e-05 0 -0.024634064411243235 0.00074015398751981919 0 -0.025031131430315531 -0.00053658631598311373 0 -0.023729777828482783 -1.1162310577520615e-05 0 -0.023407551569404658 0.0010537829765885423 0 -0.023729777828482783 -1.1162310577520615e-05 0 -0.022838610741685493 0.00040527127394330051 0 -0.023407551569404658 0.0010537829765885423 0 -0.024634064411243235 0.00074015398751981919 0 -0.023729777828482783 -1.1162310577520615e-05 0 -0.023729777828482783 -1.1162310577520615e-05 0 -0.022838610741685493 0.00040527127394330051 0 -0.023079588727619012 -0.00019939626125127467 0 -0.022838610741685493 0.00040527127394330051 0 -0.023079588727619012 -0.00019939626125127467 0 -0.022603374020200118 -0.00014988292850406397 0 -0.023079588727619012 -0.00019939626125127467 0 -0.022603374020200118 -0.00014988292850406397 0 -0.022894651180119272 -0.00056574092914822853 0 -0.022603374020200118 -0.00014988292850406397 0 -0.022894651180119272 -0.00056574092914822853 0 -0.022645225490634743 -0.00047907148677543796 0 -0.022894651180119272 -0.00056574092914822853 0 -0.022836061918338393 -0.00087336191019802461 0 -0.022661057561188646 -0.0006832041266279247 0 -0.022894651180119272 -0.00056574092914822853 0 -0.022661057561188646 -0.0006832041266279247 0 -0.022645225490634743 -0.00047907148677543796 0 -0.023079588727619012 -0.00019939626125127467 0 -0.022894651180119272 -0.00056574092914822853 0 -0.023324401614194579 -0.00060006145213401191 0 -0.022894651180119272 -0.00056574092914822853 0 -0.023324401614194579 -0.00060006145213401191 0 -0.023082071144456665 -0.00083846203954313493 0 -0.023891700645942829 -0.00080977009195418127 0 -0.023729777828482783 -1.1162310577520615e-05 0 -0.023324401614194579 -0.00060006145213401191 0 -0.023729777828482783 -1.1162310577520615e-05 0 -0.023079588727619012 -0.00019939626125127467 0 -0.023324401614194579 -0.00060006145213401191 0 -0.023891700645942829 -0.00080977009195418127 0 -0.023340507406010888 -0.0009630712150882491 0 -0.023529957890791067 -0.0011686704621020605 0 -0.023891700645942829 -0.00080977009195418127 0 -0.023324401614194579 -0.00060006145213401191 0 -0.023340507406010888 -0.0009630712150882491 0 -0.023756632716887435 -0.0012447380897313166 0 -0.023891700645942829 -0.00080977009195418127 0 -0.023529957890791067 -0.0011686704621020605 0 -0.023340507406010888 -0.0009630712150882491 0 -0.023529957890791067 -0.0011686704621020605 0 -0.023235198317307856 -0.0011721025102832132 0 -0.023529957890791067 -0.0011686704621020605 0 -0.023356855570175385 -0.001314994378986693 0 -0.023235198317307856 -0.0011721025102832132 0 -0.023529957890791067 -0.0011686704621020605 0 -0.023566554657351326 -0.0013436277670351403 0 -0.023356855570175385 -0.001314994378986693 0 -0.023756632716887435 -0.0012447380897313166 0 -0.023529957890791067 -0.0011686704621020605 0 -0.023566554657351326 -0.0013436277670351403 0 -0.023146040444590382 -0.0012942958173726244 0 -0.023356855570175385 -0.001314994378986693 0 -0.023235198317307856 -0.0011721025102832132 0 -0.023146040444590382 -0.0012942958173726244 0 -0.023235198317307856 -0.0011721025102832132 0 -0.022996038901066562 -0.0011722465375261846 0 -0.023235198317307856 -0.0011721025102832132 0 -0.023028236439468559 -0.001044305438662879 0 -0.022996038901066562 -0.0011722465375261846 0 -0.023028236439468559 -0.001044305438662879 0 -0.022836061918338393 -0.00087336191019802461 0 -0.022826695939256746 -0.0010133383687172517 0 -0.023340507406010888 -0.0009630712150882491 0 -0.023235198317307856 -0.0011721025102832132 0 -0.023028236439468559 -0.001044305438662879 0 -0.023340507406010888 -0.0009630712150882491 0 -0.023028236439468559 -0.001044305438662879 0 -0.023082071144456665 -0.00083846203954313493 0 -0.023324401614194579 -0.00060006145213401191 0 -0.023340507406010888 -0.0009630712150882491 0 -0.023082071144456665 -0.00083846203954313493 0 -0.022894651180119272 -0.00056574092914822853 0 -0.023082071144456665 -0.00083846203954313493 0 -0.022836061918338393 -0.00087336191019802461 0 -0.023028236439468559 -0.001044305438662879 0 -0.023082071144456665 -0.00083846203954313493 0 -0.022836061918338393 -0.00087336191019802461 0 -0.022836061918338393 -0.00087336191019802461 0 -0.022622237700085479 -0.00091399280489086205 0 -0.022661057561188646 -0.0006832041266279247 0 -0.022836061918338393 -0.00087336191019802461 0 -0.022622237700085479 -0.00091399280489086205 0 -0.022826695939256746 -0.0010133383687172517 0 -0.022622237700085479 -0.00091399280489086205 0 -0.022760838172801581 -0.001018451831851579 0 -0.022826695939256746 -0.0010133383687172517 0 -0.022622237700085479 -0.00091399280489086205 0 -0.022760838172801581 -0.001018451831851579 0 -0.022753480752145411 -0.0010091284553251189 0 -0.022760838172801581 -0.001018451831851579 0 -0.022826695939256746 -0.0010133383687172517 0 -0.022859827667820538 -0.0011371229336832004 0 -0.022760838172801581 -0.001018451831851579 0 -0.022859827667820538 -0.0011371229336832004 0 -0.022786473573118641 -0.0010857164852696654 0 -0.023028236439468559 -0.001044305438662879 0 -0.022826695939256746 -0.0010133383687172517 0 -0.022996038901066562 -0.0011722465375261846 0 -0.022996038901066562 -0.0011722465375261846 0 -0.022859827667820538 -0.0011371229336832004 0 -0.02299028154116084 -0.00127701517752395 0 -0.022826695939256746 -0.0010133383687172517 0 -0.022996038901066562 -0.0011722465375261846 0 -0.022859827667820538 -0.0011371229336832004 0 -0.022859827667820538 -0.0011371229336832004 0 -0.022899747316427545 -0.0012708949971880381 0 -0.02299028154116084 -0.00127701517752395 0 -0.022859827667820538 -0.0011371229336832004 0 -0.022899747316427545 -0.0012708949971880381 0 -0.022829128701046746 -0.001177378943406227 0 -0.023146040444590382 -0.0012942958173726244 0 -0.022996038901066562 -0.0011722465375261846 0 -0.02299028154116084 -0.00127701517752395 0 -0.022785389006918684 -0.0012627267060193999 0 -0.022835510096709297 -0.0012592225423221492 0 -0.022785484934765548 -0.0011625473570715526 0 -0.022835510096709297 -0.0012592225423221492 0 -0.022829128701046746 -0.001177378943406227 0 -0.022785484934765548 -0.0011625473570715526 0 -0.022899747316427545 -0.0012708949971880381 0 -0.022835510096709297 -0.0012592225423221492 0 -0.022829128701046746 -0.001177378943406227 0 -0.022859827667820538 -0.0011371229336832004 0 -0.022829128701046746 -0.001177378943406227 0 -0.022786473573118641 -0.0010857164852696654 0 -0.022829128701046746 -0.001177378943406227 0 -0.022785484934765548 -0.0011625473570715526 0 -0.022786473573118641 -0.0010857164852696654 0 -0.022785484934765548 -0.0011625473570715526 0 -0.022766167964668658 -0.0010794562938559961 0 -0.022786473573118641 -0.0010857164852696654 0 -0.022760838172801581 -0.001018451831851579 0 -0.022786473573118641 -0.0010857164852696654 0 -0.022753480752145411 -0.0010091284553251189 0 -0.022766167964668658 -0.0010794562938559961 0 -0.022786473573118641 -0.0010857164852696654 0 -0.022753480752145411 -0.0010091284553251189 0 -0.022766167964668658 -0.0010794562938559961 0 -0.022753480752145411 -0.0010091284553251189 0 -0.022762117774832991 -0.0010474728396262678 0 -0.021664090530024705 -0.00067065601457115174 0 -0.022160933395180219 -0.00074647176689744471 0 -0.021776578276733793 -0.00038017301476599554 0 -0.022283093954212792 -0.00086087263330687064 0 -0.022196800167439933 -0.00065701476522717355 0 -0.022750881430861163 -0.0010362284620272309 0 -0.022762117774832991 -0.0010474728396262678 0 -0.022745962488249727 -0.0010606789467916223 0 -0.022753480752145411 -0.0010091284553251189 0 -0.022762117774832991 -0.0010474728396262678 0 -0.022745962488249727 -0.0010606789467916223 0 -0.022622237700085479 -0.00091399280489086205 0 -0.021763923791194861 -0.00040465147958532665 0 -0.02230330336749773 -0.00045912678769149354 0 -0.022562101696040567 -0.00091775637556919015 0 -0.022196800167439933 -0.00065701476522717355 0 -0.022622237700085479 -0.00091399280489086205 0 -0.022753480752145411 -0.0010091284553251189 0 -0.022745962488249727 -0.0010606789467916223 0 -0.02239806119309035 -0.00051122200239860712 0 -0.02230330336749773 -0.00045912678769149354 0 -0.022038688723545728 0.00037976037081293411 0 -0.022622237700085479 -0.00091399280489086205 0 -0.02239806119309035 -0.00051122200239860712 0 -0.02230330336749773 -0.00045912678769149354 0 -0.022622237700085479 -0.00091399280489086205 0 -0.022661057561188646 -0.0006832041266279247 0 -0.02239806119309035 -0.00051122200239860712 0 -0.022661057561188646 -0.0006832041266279247 0 -0.02239806119309035 -0.00051122200239860712 0 -0.022645225490634743 -0.00047907148677543796 0 -0.022603374020200118 -0.00014988292850406397 0 -0.02239806119309035 -0.00051122200239860712 0 -0.022645225490634743 -0.00047907148677543796 0 -0.022196800167439933 -0.00065701476522717355 0 -0.022126113014671454 -0.00053275750678849704 0 -0.022838610741685493 0.00040527127394330051 0 -0.022603374020200118 -0.00014988292850406397 0 -0.021600403506349872 0.00051249983941161685 0 -0.022309119092747808 -0.0004252361270189726 0 -0.021825849423621806 0.00044151979772634784 0 -0.022603374020200118 -0.00014988292850406397 0 -0.02239806119309035 -0.00051122200239860712 0 -0.021600403506349872 0.00051249983941161685 0 -0.021876053541393894 -0.00040878553351549063 0 -0.02230330336749773 -0.00045912678769149354 0 -0.022038688723545728 0.00037976037081293411 0 -0.021876053541393894 -0.00040878553351549063 0 -0.022038688723545728 0.00037976037081293411 0 -0.021320583982969037 8.9862201555735048e-05 0 -0.021281428772615036 0.00048335157200428029 0 -0.022038688723545728 0.00037976037081293411 0 -0.021320583982969037 8.9862201555735048e-05 0 -0.022196800167439933 -0.00065701476522717355 0 -0.021563977048158916 -0.00016447039441869839 0 -0.034718735099006678 -0.00036847421241714337 0 -0.033974499921151188 -0.00063853270442539413 0 -0.034777434613191063 -0.00036243301348888574 0 -0.034847394857112995 -0.00028206093752350132 0 -0.034889507468100885 -0.00033692767340395499 0 -0.034887287390466301 -0.00019541527756148803 0 -0.034777434613191063 -0.00036243301348888574 0 -0.034847394857112995 -0.00028206093752350132 0 -0.034847394857112995 -0.00028206093752350132 0 -0.034889507468100885 -0.00033692767340395499 0 -0.034891922040529995 -0.00027671498214092388 0 -0.034886278167815962 -0.00031213830494565461 0 -0.034889507468100885 -0.00033692767340395499 0 -0.034891922040529995 -0.00027671498214092388 0 -0.034886278167815962 -0.00031213830494565461 0 -0.034889507468100885 -0.00033692767340395499 0 -0.034868152799392899 -0.00038219558947004336 0 -0.033075580946449773 -0.00090353066610179204 0 -0.034157003173172322 -0.0016936776321773567 0 -0.032568842034839687 -0.0020715068906129782 0 -0.034777434613191063 -0.00036243301348888574 0 -0.033075580946449773 -0.00090353066610179204 0 -0.034157003173172322 -0.0016936776321773567 0 -0.022822276939428652 -0.0014438869771230968 0 -0.022950553606936187 -0.0015682715111144262 0 -0.022898133455713728 -0.0014532523870032566 0 -0.022950553606936187 -0.0015682715111144262 0 -0.022898133455713728 -0.0014532523870032566 0 -0.022992616416395009 -0.001497253693002371 0 -0.022898133455713728 -0.0014532523870032566 0 -0.02290543719141459 -0.0013692469576736005 0 -0.022835742794150828 -0.0013460956583188583 0 -0.022898133455713728 -0.0014532523870032566 0 -0.02290543719141459 -0.0013692469576736005 0 -0.022992616416395009 -0.001497253693002371 0 -0.022899747316427545 -0.0012708949971880381 0 -0.022835510096709297 -0.0012592225423221492 0 -0.02290543719141459 -0.0013692469576736005 0 -0.022785389006918684 -0.0012627267060193999 0 -0.022835510096709297 -0.0012592225423221492 0 -0.022835742794150828 -0.0013460956583188583 0 -0.022835510096709297 -0.0012592225423221492 0 -0.02290543719141459 -0.0013692469576736005 0 -0.022835742794150828 -0.0013460956583188583 0 -0.02299028154116084 -0.00127701517752395 0 -0.02300278074187927 -0.001406046854023449 0 -0.02311729762172797 -0.0014125541144341398 0 -0.023146040444590382 -0.0012942958173726244 0 -0.02299028154116084 -0.00127701517752395 0 -0.02311729762172797 -0.0014125541144341398 0 -0.022899747316427545 -0.0012708949971880381 0 -0.02290543719141459 -0.0013692469576736005 0 -0.02300278074187927 -0.001406046854023449 0 -0.022899747316427545 -0.0012708949971880381 0 -0.02299028154116084 -0.00127701517752395 0 -0.02300278074187927 -0.001406046854023449 0 -0.02290543719141459 -0.0013692469576736005 0 -0.02300278074187927 -0.001406046854023449 0 -0.022992616416395009 -0.001497253693002371 0 -0.02300278074187927 -0.001406046854023449 0 -0.023090754317011873 -0.0015091042422252967 0 -0.02311729762172797 -0.0014125541144341398 0 -0.023090754317011873 -0.0015091042422252967 0 -0.022992616416395009 -0.001497253693002371 0 -0.023125735386258991 -0.0016275434571166418 0 -0.022950553606936187 -0.0015682715111144262 0 -0.022992616416395009 -0.001497253693002371 0 -0.023125735386258991 -0.0016275434571166418 0 -0.028109608281102795 -0.0017883946649336401 0 -0.027706810282658423 -0.0018316841842375108 0 -0.023090754317011873 -0.0015091042422252967 0 -0.023125735386258991 -0.0016275434571166418 0 -0.023230521479248988 -0.0015420820673823826 0 -0.02300278074187927 -0.001406046854023449 0 -0.023090754317011873 -0.0015091042422252967 0 -0.022992616416395009 -0.001497253693002371 0 -0.027706810282658423 -0.0018316841842375108 0 -0.028536029144907153 -0.0023550267685143052 0 -0.023125735386258991 -0.0016275434571166418 0 -0.023230521479248988 -0.0015420820673823826 0 -0.023436709620026048 -0.0016739915350052353 0 -0.032568842034839687 -0.0020715068906129782 0 -0.03144814735016354 -0.0019352543126678287 0 -0.030999682176780383 -0.0023799650173098887 0 -0.03144814735016354 -0.0019352543126678287 0 -0.031160880523433129 -0.0022074964810937002 0 -0.031368247895995245 -0.001634464473485342 0 -0.030642549542664398 -0.0014345276971494774 0 -0.028536029144907153 -0.0023550267685143052 0 -0.023230521479248988 -0.0015420820673823826 0 -0.023386669570285415 -0.0015411222223597016 0 -0.023436709620026048 -0.0016739915350052353 0 -0.023230521479248988 -0.0015420820673823826 0 -0.02311729762172797 -0.0014125541144341398 0 -0.023265517174807671 -0.0014276619589747058 0 -0.023090754317011873 -0.0015091042422252967 0 -0.023230521479248988 -0.0015420820673823826 0 -0.02311729762172797 -0.0014125541144341398 0 -0.023265517174807671 -0.0014276619589747058 0 -0.023440277660595532 -0.0014386237794180969 0 -0.023386669570285415 -0.0015411222223597016 0 -0.023230521479248988 -0.0015420820673823826 0 -0.023265517174807671 -0.0014276619589747058 0 -0.023386669570285415 -0.0015411222223597016 0 -0.023146040444590382 -0.0012942958173726244 0 -0.023356855570175385 -0.001314994378986693 0 -0.023265517174807671 -0.0014276619589747058 0 -0.023356855570175385 -0.001314994378986693 0 -0.023265517174807671 -0.0014276619589747058 0 -0.023440277660595532 -0.0014386237794180969 0 -0.023146040444590382 -0.0012942958173726244 0 -0.02311729762172797 -0.0014125541144341398 0 -0.023265517174807671 -0.0014276619589747058 0 -0.023756632716887435 -0.0012447380897313166 0 -0.023566554657351326 -0.0013436277670351403 0 -0.023713690481218113 -0.0015110217820783595 0 -0.023440277660595532 -0.0014386237794180969 0 -0.023386669570285415 -0.0015411222223597016 0 -0.023713690481218113 -0.0015110217820783595 0 -0.023566554657351326 -0.0013436277670351403 0 -0.023440277660595532 -0.0014386237794180969 0 -0.023713690481218113 -0.0015110217820783595 0 -0.023566554657351326 -0.0013436277670351403 0 -0.023356855570175385 -0.001314994378986693 0 -0.023440277660595532 -0.0014386237794180969 0 -0.029681704679470074 -0.0024241782498282015 0 -0.030079845643853766 -0.0023409610199917183 0 -0.030037546657266812 -0.0021044052959288597 0 -0.031160880523433129 -0.0022074964810937002 0 -0.030850679908923279 -0.0020879949886183679 0 -0.030467021538845215 -0.0022613014749032329 0 -0.028536029144907153 -0.0023550267685143052 0 -0.030604335857479487 -0.0022218330073437115 0 -0.023386669570285415 -0.0015411222223597016 0 -0.023436709620026048 -0.0016739915350052353 0 -0.023713690481218113 -0.0015110217820783595 0 -0.033164007203633973 -0.0010464060946031755 0 -0.032326759223968188 -0.0014070950060505372 0 -0.030850679908923279 -0.0020879949886183679 0 -0.031368247895995245 -0.001634464473485342 0 -0.030428748801638515 -0.0021668948519606326 0 -0.028536029144907153 -0.0023550267685143052 0 -0.026548706621932563 -0.0019677002362019471 0 -0.031160880523433129 -0.0022074964810937002 0 -0.030850679908923279 -0.0020879949886183679 0 -0.031368247895995245 -0.001634464473485342 0 -0.034773837582812335 -0.00053216408176969888 0 -0.034734605999741444 -0.00057159249903846723 0 -0.034701816020967106 -0.00064603734850538343 0 -0.034773837582812335 -0.00053216408176969888 0 -0.03474726339419467 -0.00051995602033252475 0 -0.034734605999741444 -0.00057159249903846723 0 -0.034773837582812335 -0.00053216408176969888 0 -0.034847876748024476 -0.00047760190433076898 0 -0.034701816020967106 -0.00064603734850538343 0 -0.034773837582812335 -0.00053216408176969888 0 -0.034789360953673409 -0.00048724488964044092 0 -0.03474726339419467 -0.00051995602033252475 0 -0.03474726339419467 -0.00051995602033252475 0 -0.034786580975078335 -0.00043730995417856405 0 -0.034741602957553845 -0.00044891124107375229 0 -0.034789360953673409 -0.00048724488964044092 0 -0.03474726339419467 -0.00051995602033252475 0 -0.034786580975078335 -0.00043730995417856405 0 -0.034786580975078335 -0.00043730995417856405 0 -0.034820842162596365 -0.00045029799674550211 0 -0.034828447696175498 -0.00038752193706155025 0 -0.034820842162596365 -0.00045029799674550211 0 -0.034841739123933207 -0.0004236629684286283 0 -0.034828447696175498 -0.00038752193706155025 0 -0.034789360953673409 -0.00048724488964044092 0 -0.034786580975078335 -0.00043730995417856405 0 -0.034820842162596365 -0.00045029799674550211 0 -0.034820842162596365 -0.00045029799674550211 0 -0.034809415581787857 -0.00048687879049915078 0 -0.034847876748024476 -0.00047760190433076898 0 -0.034773837582812335 -0.00053216408176969888 0 -0.034809415581787857 -0.00048687879049915078 0 -0.034847876748024476 -0.00047760190433076898 0 -0.034773837582812335 -0.00053216408176969888 0 -0.034789360953673409 -0.00048724488964044092 0 -0.034809415581787857 -0.00048687879049915078 0 -0.034789360953673409 -0.00048724488964044092 0 -0.034820842162596365 -0.00045029799674550211 0 -0.034809415581787857 -0.00048687879049915078 0 -0.033075580946449773 -0.00090353066610179204 0 -0.032568842034839687 -0.0020715068906129782 0 -0.031368247895995245 -0.001634464473485342 0 -0.034889507468100885 -0.00033692767340395499 0 -0.034847876748024476 -0.00047760190433076898 0 -0.034868152799392899 -0.00038219558947004336 0 -0.032568842034839687 -0.0020715068906129782 0 -0.03144814735016354 -0.0019352543126678287 0 -0.031368247895995245 -0.001634464473485342 0 -0.033974499921151188 -0.00063853270442539413 0 -0.033164007203633973 -0.0010464060946031755 0 -0.034847876748024476 -0.00047760190433076898 0 -0.034868152799392899 -0.00038219558947004336 0 -0.034841739123933207 -0.0004236629684286283 0 -0.034868152799392899 -0.00038219558947004336 0 -0.034841739123933207 -0.0004236629684286283 0 -0.034828447696175498 -0.00038752193706155025 0 -0.034820842162596365 -0.00045029799674550211 0 -0.034847876748024476 -0.00047760190433076898 0 -0.034841739123933207 -0.0004236629684286283 0 -0.034868152799392899 -0.00038219558947004336 0 -0.034859410128048524 -0.00031512425834062115 0 -0.034828447696175498 -0.00038752193706155025 0 -0.034886278167815962 -0.00031213830494565461 0 -0.034868152799392899 -0.00038219558947004336 0 -0.034859410128048524 -0.00031512425834062115 0 -0.034779704499257671 -0.00039017192470778845 0 -0.034828447696175498 -0.00038752193706155025 0 -0.034798166252608398 -0.00031312638667276385 0 -0.034859410128048524 -0.00031512425834062115 0 -0.034828447696175498 -0.00038752193706155025 0 -0.034798166252608398 -0.00031312638667276385 0 -0.034779704499257671 -0.00039017192470778845 0 -0.034734189503316124 -0.00037118604303129063 0 -0.034798166252608398 -0.00031312638667276385 0 -0.034786580975078335 -0.00043730995417856405 0 -0.034779704499257671 -0.00039017192470778845 0 -0.034741602957553845 -0.00044891124107375229 0 -0.034786580975078335 -0.00043730995417856405 0 -0.034779704499257671 -0.00039017192470778845 0 -0.034828447696175498 -0.00038752193706155025 0 -0.034664276004736698 -0.00039892384060496479 0 -0.034734189503316124 -0.00037118604303129063 0 -0.034680238664310449 -0.00047503064263291247 0 -0.034779704499257671 -0.00039017192470778845 0 -0.034734189503316124 -0.00037118604303129063 0 -0.034741602957553845 -0.00044891124107375229 0 -0.034734189503316124 -0.00037118604303129063 0 -0.034680238664310449 -0.00047503064263291247 0 -0.034741602957553845 -0.00044891124107375229 0 -0.034734189503316124 -0.00037118604303129063 0 -0.03470865628156318 -0.00029638272340364979 0 -0.034798166252608398 -0.00031312638667276385 0 -0.034664276004736698 -0.00039892384060496479 0 -0.034734189503316124 -0.00037118604303129063 0 -0.03470865628156318 -0.00029638272340364979 0 -0.034664276004736698 -0.00039892384060496479 0 -0.034574967921519484 -0.00034589221876585844 0 -0.03470865628156318 -0.00029638272340364979 0 -0.034664276004736698 -0.00039892384060496479 0 -0.034574967921519484 -0.00034589221876585844 0 -0.034604170130559879 -0.00054374990640912793 0 -0.034604170130559879 -0.00054374990640912793 0 -0.034588943748053866 -0.00065019262482963916 0 -0.034407757553214902 -0.00063320114573171165 0 -0.034574967921519484 -0.00034589221876585844 0 -0.034604170130559879 -0.00054374990640912793 0 -0.034407757553214902 -0.00063320114573171165 0 -0.034604170130559879 -0.00054374990640912793 0 -0.034656640836623946 -0.00059752807967464855 0 -0.034588943748053866 -0.00065019262482963916 0 -0.034604170130559879 -0.00054374990640912793 0 -0.034656640836623946 -0.00059752807967464855 0 -0.034661330483332545 -0.00053667781031314975 0 -0.034656640836623946 -0.00059752807967464855 0 -0.034661330483332545 -0.00053667781031314975 0 -0.034703110913723544 -0.00052992481223624818 0 -0.034604170130559879 -0.00054374990640912793 0 -0.034661330483332545 -0.00053667781031314975 0 -0.034680238664310449 -0.00047503064263291247 0 -0.034664276004736698 -0.00039892384060496479 0 -0.034604170130559879 -0.00054374990640912793 0 -0.034680238664310449 -0.00047503064263291247 0 -0.034661330483332545 -0.00053667781031314975 0 -0.034680238664310449 -0.00047503064263291247 0 -0.034703110913723544 -0.00052992481223624818 0 -0.034680238664310449 -0.00047503064263291247 0 -0.034741602957553845 -0.00044891124107375229 0 -0.034703110913723544 -0.00052992481223624818 0 -0.03474726339419467 -0.00051995602033252475 0 -0.034741602957553845 -0.00044891124107375229 0 -0.034703110913723544 -0.00052992481223624818 0 -0.03474726339419467 -0.00051995602033252475 0 -0.034703110913723544 -0.00052992481223624818 0 -0.03470933314489219 -0.00057224896994313799 0 -0.034656640836623946 -0.00059752807967464855 0 -0.034703110913723544 -0.00052992481223624818 0 -0.03470933314489219 -0.00057224896994313799 0 -0.03474726339419467 -0.00051995602033252475 0 -0.03470933314489219 -0.00057224896994313799 0 -0.034734605999741444 -0.00057159249903846723 0 -0.030079845643853766 -0.0023409610199917183 0 -0.030219393770727396 -0.0021604211538112654 0 -0.030403263994973988 -0.0022170638960814079 0 -0.030850679908923279 -0.0020879949886183679 0 -0.030428748801638515 -0.0021668948519606326 0 -0.030467021538845215 -0.0022613014749032329 0 -0.03470933314489219 -0.00057224896994313799 0 -0.034734605999741444 -0.00057159249903846723 0 -0.034701816020967106 -0.00064603734850538343 0 -0.030604335857479487 -0.0022218330073437115 0 -0.030284197249178333 -0.0022626755708598342 0 -0.030428748801638515 -0.0021668948519606326 0 -0.030467021538845215 -0.0022613014749032329 0 -0.030403263994973988 -0.0022170638960814079 0 -0.034656640836623946 -0.00059752807967464855 0 -0.03470933314489219 -0.00057224896994313799 0 -0.034701816020967106 -0.00064603734850538343 0 -0.034656640836623946 -0.00059752807967464855 0 -0.034701816020967106 -0.00064603734850538343 0 -0.034588943748053866 -0.00065019262482963916 0 -0.030308993874260465 -0.0019082947369112964 0 -0.030219393770727396 -0.0021604211538112654 0 -0.030403263994973988 -0.0022170638960814079 0 -0.030308993874260465 -0.0019082947369112964 0 -0.030037546657266812 -0.0021044052959288597 0 -0.030219393770727396 -0.0021604211538112654 0 -0.030079845643853766 -0.0023409610199917183 0 -0.030037546657266812 -0.0021044052959288597 0 -0.030219393770727396 -0.0021604211538112654 0 -0.028229617535792156 -0.0016860840435147597 0 -0.026548706621932563 -0.0019677002362019471 0 -0.034950732744085507 -0.0018835045729110327 0 -0.034669613861250011 -0.0016931010909036238 0 -0.034681062938685968 -0.0013185671133728158 0 -0.030308993874260465 -0.0019082947369112964 0 -0.030403263994973988 -0.0022170638960814079 0 -0.030422655291088663 -0.002227934354786092 0 -0.028229617535792156 -0.0016860840435147597 0 -0.033809019942682692 -0.0018433925526578636 0 -0.034669613861250011 -0.0016931010909036238 0 -0.034681062938685968 -0.0013185671133728158 0 -0.034534960811602539 -0.0013790855337412391 0 -0.033809019942682692 -0.0018433925526578636 0 -0.034501730823071584 -0.0014915583490248854 0 -0.034701816020967106 -0.00064603734850538343 0 -0.034521086385037758 -0.00075825478924601412 0 -0.034588943748053866 -0.00065019262482963916 0 -0.030428748801638515 -0.0021668948519606326 0 -0.030403263994973988 -0.0022170638960814079 0 -0.030422655291088663 -0.002227934354786092 0 -0.032326759223968188 -0.0014070950060505372 0 -0.033809019942682692 -0.0018433925526578636 0 -0.034521086385037758 -0.00075825478924601412 0 -0.034588943748053866 -0.00065019262482963916 0 -0.034407757553214902 -0.00063320114573171165 0 -0.034726370513709443 -0.0012966749087285276 0 -0.034324472761058648 -0.0010820660508345642 0 -0.034407757553214902 -0.00063320114573171165 0 -0.034324472761058648 -0.0010820660508345642 0 -0.034013102016936782 -0.00084884633639789272 0 -0.034407757553214902 -0.00063320114573171165 0 -0.033809019942682692 -0.0018433925526578636 0 -0.034561537608883607 -0.0004201200381304586 0 -0.034726370513709443 -0.0012966749087285276 0 -0.034324472761058648 -0.0010820660508345642 0 -0.034534960811602539 -0.0013790855337412391 0 -0.034324472761058648 -0.0010820660508345642 0 -0.034534960811602539 -0.0013790855337412391 0 -0.034212132763589587 -0.0015482378900494578 0 -0.034534960811602539 -0.0013790855337412391 0 -0.034212132763589587 -0.0015482378900494578 0 -0.034449366341037846 -0.0016223351497879469 0 -0.034374031831095476 -0.0018690381818343084 0 -0.034212132763589587 -0.0015482378900494578 0 -0.034449366341037846 -0.0016223351497879469 0 -0.034669613861250011 -0.0016931010909036238 0 -0.034534960811602539 -0.0013790855337412391 0 -0.034449366341037846 -0.0016223351497879469 0 -0.034374031831095476 -0.0018690381818343084 0 -0.034669613861250011 -0.0016931010909036238 0 -0.034449366341037846 -0.0016223351497879469 0 -0.033916256898323144 -0.0018499261506959136 0 -0.034212132763589587 -0.0015482378900494578 0 -0.03372533258601465 -0.0015273954168858956 0 -0.034212132763589587 -0.0015482378900494578 0 -0.034010844668100851 -0.001241103846537192 0 -0.03372533258601465 -0.0015273954168858956 0 -0.034010844668100851 -0.001241103846537192 0 -0.034013102016936782 -0.00084884633639789272 0 -0.033491015085248176 -0.0012085002094958555 0 -0.034324472761058648 -0.0010820660508345642 0 -0.034212132763589587 -0.0015482378900494578 0 -0.034010844668100851 -0.001241103846537192 0 -0.034324472761058648 -0.0010820660508345642 0 -0.034010844668100851 -0.001241103846537192 0 -0.034013102016936782 -0.00084884633639789272 0 -0.034013102016936782 -0.00084884633639789272 0 -0.034059775751009713 -0.00047577640681137226 0 -0.033703191706298846 -0.00069741289507602373 0 -0.034013102016936782 -0.00084884633639789272 0 -0.034407757553214902 -0.00063320114573171165 0 -0.034059775751009713 -0.00047577640681137226 0 -0.034574967921519484 -0.00034589221876585844 0 -0.034407757553214902 -0.00063320114573171165 0 -0.034364985756966171 -0.00029273847067016686 0 -0.034407757553214902 -0.00063320114573171165 0 -0.034059775751009713 -0.00047577640681137226 0 -0.034364985756966171 -0.00029273847067016686 0 -0.034059775751009713 -0.00047577640681137226 0 -0.034364985756966171 -0.00029273847067016686 0 -0.034099676402648646 -0.00021855053185443658 0 -0.034364985756966171 -0.00029273847067016686 0 -0.034388910945775591 -0.00014063816373953344 0 -0.034099676402648646 -0.00021855053185443658 0 -0.034364985756966171 -0.00029273847067016686 0 -0.034534990605710705 -0.00016346251814391229 0 -0.034388910945775591 -0.00014063816373953344 0 -0.034574967921519484 -0.00034589221876585844 0 -0.034364985756966171 -0.00029273847067016686 0 -0.034534990605710705 -0.00016346251814391229 0 -0.034534990605710705 -0.00016346251814391229 0 -0.034388910945775591 -0.00014063816373953344 0 -0.034601281082569789 -3.4586488475600379e-05 0 -0.034534990605710705 -0.00016346251814391229 0 -0.034601281082569789 -3.4586488475600379e-05 0 -0.034616290489568699 -0.00010664334425708684 0 -0.034388910945775591 -0.00014063816373953344 0 -0.034601281082569789 -3.4586488475600379e-05 0 -0.034225580964304975 -5.4877798315441879e-05 0 -0.034601281082569789 -3.4586488475600379e-05 0 -0.034999982852858401 4.6752414812572272e-08 0 -0.034623371146896904 4.7100433167638456e-05 0 -0.034999982852858401 4.6752414812572272e-08 0 -0.034623371146896904 4.7100433167638456e-05 0 -0.034998693522542007 3.3983609860310295e-07 0 -0.034601281082569789 -3.4586488475600379e-05 0 -0.034999982852858401 4.6752414812572272e-08 0 -0.034955468905881124 -3.7247068982602695e-05 0 -0.034630277297569852 -4.5568422377402695e-05 0 -0.034778652555657215 -3.610571194133225e-05 0 -0.034601281082569789 -3.4586488475600379e-05 0 -0.03461407245254261 -5.5437627570948142e-05 0 -0.034616290489568699 -0.00010664334425708684 0 -0.03461407245254261 -5.5437627570948142e-05 0 -0.03472302170138785 -8.5465944333786294e-05 0 -0.034616290489568699 -0.00010664334425708684 0 -0.03461407245254261 -5.5437627570948142e-05 0 -0.034752881517908299 -3.9199372451209163e-06 0 -0.03472302170138785 -8.5465944333786294e-05 0 -0.03472302170138785 -8.5465944333786294e-05 0 -0.034720011277938778 -0.00013910984565901468 0 -0.034616290489568699 -0.00010664334425708684 0 -0.034778652555657215 -3.610571194133225e-05 0 -0.034876196848071153 -1.4210408161190409e-05 0 -0.034999982852858401 4.6752414812572272e-08 0 -0.034955468905881124 -3.7247068982602695e-05 0 -0.034999982562047706 -2.2776057185490832e-08 0 -0.034955468905881124 -3.7247068982602695e-05 0 -0.034999982562047706 -2.2776057185490832e-08 0 -0.035002491469356904 -1.070965576156054e-05 0 -0.034876196848071153 -1.4210408161190409e-05 0 -0.034999946856086053 -4.2514181088520262e-10 0 -0.034999982562047706 -2.2776057185490832e-08 0 -0.035002491469356904 -1.070965576156054e-05 0 -0.035000018338724959 6.7198503245593532e-09 0 -0.034752881517908299 -3.9199372451209163e-06 0 -0.03472302170138785 -8.5465944333786294e-05 0 -0.034847410645643638 -8.2816593537775001e-05 0 -0.03472302170138785 -8.5465944333786294e-05 0 -0.034797876262055563 -0.00014186882299446407 0 -0.034720011277938778 -0.00013910984565901468 0 -0.03472302170138785 -8.5465944333786294e-05 0 -0.034797876262055563 -0.00014186882299446407 0 -0.034847410645643638 -8.2816593537775001e-05 0 -0.034720011277938778 -0.00013910984565901468 0 -0.034658768511147811 -0.00019681308145553606 0 -0.034787974491841026 -0.00020501494420440195 0 -0.034797876262055563 -0.00014186882299446407 0 -0.034720011277938778 -0.00013910984565901468 0 -0.034787974491841026 -0.00020501494420440195 0 -0.034534990605710705 -0.00016346251814391229 0 -0.034616290489568699 -0.00010664334425708684 0 -0.034658768511147811 -0.00019681308145553606 0 -0.034720011277938778 -0.00013910984565901468 0 -0.034616290489568699 -0.00010664334425708684 0 -0.034658768511147811 -0.00019681308145553606 0 -0.034574967921519484 -0.00034589221876585844 0 -0.034534990605710705 -0.00016346251814391229 0 -0.034658768511147811 -0.00019681308145553606 0 -0.034574967921519484 -0.00034589221876585844 0 -0.034658768511147811 -0.00019681308145553606 0 -0.03470865628156318 -0.00029638272340364979 0 -0.034658768511147811 -0.00019681308145553606 0 -0.03470865628156318 -0.00029638272340364979 0 -0.034787974491841026 -0.00020501494420440195 0 -0.03470865628156318 -0.00029638272340364979 0 -0.034798166252608398 -0.00031312638667276385 0 -0.034787974491841026 -0.00020501494420440195 0 -0.034845080117661707 -0.00024336035149112039 0 -0.034798166252608398 -0.00031312638667276385 0 -0.034787974491841026 -0.00020501494420440195 0 -0.034859410128048524 -0.00031512425834062115 0 -0.034845080117661707 -0.00024336035149112039 0 -0.034798166252608398 -0.00031312638667276385 0 -0.034886278167815962 -0.00031213830494565461 0 -0.034859410128048524 -0.00031512425834062115 0 -0.034898164112177645 -0.00023343360673849811 0 -0.034859410128048524 -0.00031512425834062115 0 -0.034845080117661707 -0.00024336035149112039 0 -0.034898164112177645 -0.00023343360673849811 0 -0.034845080117661707 -0.00024336035149112039 0 -0.034898164112177645 -0.00023343360673849811 0 -0.034864884265148659 -0.00015129272202087663 0 -0.034898164112177645 -0.00023343360673849811 0 -0.034864884265148659 -0.00015129272202087663 0 -0.034929730563227061 -0.00015001134701781821 0 -0.034845080117661707 -0.00024336035149112039 0 -0.034864884265148659 -0.00015129272202087663 0 -0.034787974491841026 -0.00020501494420440195 0 -0.034797876262055563 -0.00014186882299446407 0 -0.034864884265148659 -0.00015129272202087663 0 -0.034787974491841026 -0.00020501494420440195 0 -0.034864884265148659 -0.00015129272202087663 0 -0.034847410645643638 -8.2816593537775001e-05 0 -0.034951259649870309 -6.3775356491984456e-05 0 -0.034797876262055563 -0.00014186882299446407 0 -0.034864884265148659 -0.00015129272202087663 0 -0.034847410645643638 -8.2816593537775001e-05 0 -0.034847410645643638 -8.2816593537775001e-05 0 -0.034999467204827724 1.0161382882408071e-07 0 -0.034951259649870309 -6.3775356491984456e-05 0 -0.034752881517908299 -3.9199372451209163e-06 0 -0.034847410645643638 -8.2816593537775001e-05 0 -0.034999467204827724 1.0161382882408071e-07 0 -0.034999467204827724 1.0161382882408071e-07 0 -0.034951259649870309 -6.3775356491984456e-05 0 -0.035000210443141312 -1.3902555170380534e-07 0 -0.034864884265148659 -0.00015129272202087663 0 -0.034951259649870309 -6.3775356491984456e-05 0 -0.034929730563227061 -0.00015001134701781821 0 -0.034929730563227061 -0.00015001134701781821 0 -0.034986293952365841 -0.00011898160558317567 0 -0.03493585247031699 -0.0001920773014731521 0 -0.034951259649870309 -6.3775356491984456e-05 0 -0.034929730563227061 -0.00015001134701781821 0 -0.034986293952365841 -0.00011898160558317567 0 -0.034944698727213931 2.1321548035128479e-05 0 -0.034995011834005878 -9.7116825864694615e-07 0 -0.034999975541169424 -3.4701045593640585e-08 0 -0.034951259649870309 -6.3775356491984456e-05 0 -0.034986293952365841 -0.00011898160558317567 0 -0.035000210443141312 -1.3902555170380534e-07 0 -0.034972130353640329 -5.9467919110912174e-05 0 -0.034999973482713068 4.8537570379943894e-09 0 -0.034944698727213931 2.1321548035128479e-05 0 -0.034995011834005878 -9.7116825864694615e-07 0 -0.034876870679118419 1.5148479143623647e-05 0 -0.035000000127587694 1.1966374688415798e-08 0 -0.034995011834005878 -9.7116825864694615e-07 0 -0.034999881911235528 3.6696834250674908e-07 0 -0.034995011834005878 -9.7116825864694615e-07 0 -0.034999881911235528 3.6696834250674908e-07 0 -0.035005454851251318 6.2360442941081873e-06 0 -0.034985063824128165 -2.7756431979189995e-07 0 -0.034938596096979475 1.7364435023023048e-05 0 -0.035000000127587694 1.1966374688415798e-08 0 -0.034995011834005878 -9.7116825864694615e-07 0 -0.034999975541169424 -3.4701045593640585e-08 0 -0.034994235306254354 -6.5193770752996156e-07 0 -0.034999881911235528 3.6696834250674908e-07 0 -0.035005454851251318 6.2360442941081873e-06 0 -0.034944698727213931 2.1321548035128479e-05 0 -0.034876870679118419 1.5148479143623647e-05 0 -0.034862214215222689 0.00015701260309570266 0 -0.034929047209859954 -0.00022799320635012325 0 -0.03493585247031699 -0.0001920773014731521 0 -0.034891922040529995 -0.00027671498214092388 0 -0.034972130353640329 -5.9467919110912174e-05 0 -0.03483610046928199 3.5848509251123773e-05 0 -0.034713820270632009 0.00013901894095097624 0 -0.034876870679118419 1.5148479143623647e-05 0 -0.034862214215222689 0.00015701260309570266 0 -0.034986293952365841 -0.00011898160558317567 0 -0.034929047209859954 -0.00022799320635012325 0 -0.03493585247031699 -0.0001920773014731521 0 -0.034898164112177645 -0.00023343360673849811 0 -0.034929730563227061 -0.00015001134701781821 0 -0.03493585247031699 -0.0001920773014731521 0 -0.034898164112177645 -0.00023343360673849811 0 -0.03493585247031699 -0.0001920773014731521 0 -0.034891922040529995 -0.00027671498214092388 0 -0.034886278167815962 -0.00031213830494565461 0 -0.034898164112177645 -0.00023343360673849811 0 -0.034891922040529995 -0.00027671498214092388 0 -0.035261116004147913 -0.00015937132031340867 0 -0.03483610046928199 3.5848509251123773e-05 0 -0.034887287390466301 -0.00019541527756148803 0 -0.034847394857112995 -0.00028206093752350132 0 -0.034929047209859954 -0.00022799320635012325 0 -0.034847394857112995 -0.00028206093752350132 0 -0.034929047209859954 -0.00022799320635012325 0 -0.034891922040529995 -0.00027671498214092388 0 -0.033547335759287311 -0.0019176488694336927 0 -0.033472459975834409 -0.00196582929505589 0 -0.033541862007320074 -0.0020156375667828392 0 -0.033630491075794959 -0.0019329458092991194 0 -0.033547335759287311 -0.0019176488694336927 0 -0.033541862007320074 -0.0020156375667828392 0 -0.03253402104045558 -0.0011740448423184805 0 -0.032345508218001882 -0.0014272761063661625 0 -0.031628285444070439 -0.00028098116558121207 0 -0.031127546775481536 -0.00089017577371147617 0 -0.031752450645154723 -0.00083900482237199306 0 -0.033630491075794959 -0.0019329458092991194 0 -0.033547335759287311 -0.0019176488694336927 0 -0.033597771972524955 -0.0018477529247863753 0 -0.033630491075794959 -0.0019329458092991194 0 -0.033710293311976405 -0.001833309396828485 0 -0.033597771972524955 -0.0018477529247863753 0 -0.033547335759287311 -0.0019176488694336927 0 -0.033490128090221762 -0.0019007638473212071 0 -0.033543780305355195 -0.0018296439681239267 0 -0.033490128090221762 -0.0019007638473212071 0 -0.033410990822528498 -0.0019576060036343846 0 -0.033472459975834409 -0.00196582929505589 0 -0.033490128090221762 -0.0019007638473212071 0 -0.033410990822528498 -0.0019576060036343846 0 -0.033495505480632022 -0.0018281862366141012 0 -0.033547335759287311 -0.0019176488694336927 0 -0.033490128090221762 -0.0019007638473212071 0 -0.033472459975834409 -0.00196582929505589 0 -0.033410990822528498 -0.0019576060036343846 0 -0.03340940110442886 -0.0020068830022226545 0 -0.033472459975834409 -0.00196582929505589 0 -0.03340940110442886 -0.0020068830022226545 0 -0.033472459975834409 -0.00196582929505589 0 -0.033440989475714854 -0.0020254387443510787 0 -0.033472459975834409 -0.00196582929505589 0 -0.033440989475714854 -0.0020254387443510787 0 -0.033541862007320074 -0.0020156375667828392 0 -0.033440989475714854 -0.0020254387443510787 0 -0.033402947016173933 -0.0020687047463757453 0 -0.033467817799180677 -0.0020682783427582326 0 -0.033440989475714854 -0.0020254387443510787 0 -0.033467817799180677 -0.0020682783427582326 0 -0.033541862007320074 -0.0020156375667828392 0 -0.033440989475714854 -0.0020254387443510787 0 -0.033402947016173933 -0.0020687047463757453 0 -0.033386647570231652 -0.0020200695804418745 0 -0.03340940110442886 -0.0020068830022226545 0 -0.033440989475714854 -0.0020254387443510787 0 -0.033386647570231652 -0.0020200695804418745 0 -0.033517911891332519 -0.0022739722126900392 0 -0.033314220158118205 -0.0019078255686755077 0 -0.030874811529159111 -0.00099475089140790016 0 -0.033517911891332519 -0.0022739722126900392 0 -0.033410500828796763 -0.0021024180915254977 0 -0.033402947016173933 -0.0020687047463757453 0 -0.033467817799180677 -0.0020682783427582326 0 -0.030874811529159111 -0.00099475089140790016 0 -0.032213153900088248 -0.0017964658947012045 0 -0.031164752775008849 -0.0016473370664414752 0 -0.030754701463265467 -0.0013712780908765254 0 -0.031476869571796504 -0.001262619202557621 0 -0.032213153900088248 -0.0017964658947012045 0 -0.032345508218001882 -0.0014272761063661625 0 -0.030754701463265467 -0.0013712780908765254 0 -0.031127546775481536 -0.00089017577371147617 0 -0.031476869571796504 -0.001262619202557621 0 -0.031127546775481536 -0.00089017577371147617 0 -0.031476869571796504 -0.001262619202557621 0 -0.031752450645154723 -0.00083900482237199306 0 -0.031164752775008849 -0.0016473370664414752 0 -0.031476869571796504 -0.001262619202557621 0 -0.031618807361422779 -0.0016872428610877118 0 -0.031476869571796504 -0.001262619202557621 0 -0.031618807361422779 -0.0016872428610877118 0 -0.032222779254065304 -0.0011726463485259482 0 -0.032462519407568349 -0.0017536254708475695 0 -0.031618807361422779 -0.0016872428610877118 0 -0.032222779254065304 -0.0011726463485259482 0 -0.032462519407568349 -0.0017536254708475695 0 -0.032222779254065304 -0.0011726463485259482 0 -0.032886935823838913 -0.0013351347127575877 0 -0.032222779254065304 -0.0011726463485259482 0 -0.032886935823838913 -0.0013351347127575877 0 -0.033127307983546794 -0.0007726735691150939 0 -0.031476869571796504 -0.001262619202557621 0 -0.032222779254065304 -0.0011726463485259482 0 -0.031752450645154723 -0.00083900482237199306 0 -0.032222779254065304 -0.0011726463485259482 0 -0.032392949119606815 -0.0005372354371339156 0 -0.031752450645154723 -0.00083900482237199306 0 -0.034010844668100851 -0.001241103846537192 0 -0.03372533258601465 -0.0015273954168858956 0 -0.033491015085248176 -0.0012085002094958555 0 -0.033261171835317523 -0.0019084313916464455 0 -0.03372533258601465 -0.0015273954168858956 0 -0.033491015085248176 -0.0012085002094958555 0 -0.033261171835317523 -0.0019084313916464455 0 -0.032462519407568349 -0.0017536254708475695 0 -0.032886935823838913 -0.0013351347127575877 0 -0.033261171835317523 -0.0019084313916464455 0 -0.032886935823838913 -0.0013351347127575877 0 -0.033491015085248176 -0.0012085002094958555 0 -0.032886935823838913 -0.0013351347127575877 0 -0.033491015085248176 -0.0012085002094958555 0 -0.033127307983546794 -0.0007726735691150939 0 -0.033491015085248176 -0.0012085002094958555 0 -0.033703191706298846 -0.00069741289507602373 0 -0.033127307983546794 -0.0007726735691150939 0 -0.034013102016936782 -0.00084884633639789272 0 -0.033491015085248176 -0.0012085002094958555 0 -0.033703191706298846 -0.00069741289507602373 0 -0.033703191706298846 -0.00069741289507602373 0 -0.033127307983546794 -0.0007726735691150939 0 -0.033706889290364389 -0.00033850642292340721 0 -0.033706889290364389 -0.00033850642292340721 0 -0.033255668588488968 -0.00022157637838676462 0 -0.033738240125580007 -0.0001640661002836713 0 -0.033127307983546794 -0.0007726735691150939 0 -0.033706889290364389 -0.00033850642292340721 0 -0.033255668588488968 -0.00022157637838676462 0 -0.034059775751009713 -0.00047577640681137226 0 -0.033706889290364389 -0.00033850642292340721 0 -0.034099676402648646 -0.00021855053185443658 0 -0.034059775751009713 -0.00047577640681137226 0 -0.033703191706298846 -0.00069741289507602373 0 -0.033706889290364389 -0.00033850642292340721 0 -0.031628285444070439 -0.00028098116558121207 0 -0.032392949119606815 -0.0005372354371339156 0 -0.031752450645154723 -0.00083900482237199306 0 -0.033127307983546794 -0.0007726735691150939 0 -0.032392949119606815 -0.0005372354371339156 0 -0.033255668588488968 -0.00022157637838676462 0 -0.032222779254065304 -0.0011726463485259482 0 -0.033127307983546794 -0.0007726735691150939 0 -0.032392949119606815 -0.0005372354371339156 0 -0.032392949119606815 -0.0005372354371339156 0 -0.033255668588488968 -0.00022157637838676462 0 -0.032262000036539673 0.00044998456861785441 0 -0.032907074425074553 4.5367252802700392e-05 0 -0.033626668678349007 -0.00051434881973112334 0 -0.03253402104045558 -0.0011740448423184805 0 -0.033626668678349007 -0.00051434881973112334 0 -0.031628285444070439 -0.00028098116558121207 0 -0.032392949119606815 -0.0005372354371339156 0 -0.032262000036539673 0.00044998456861785441 0 -0.034980421298173768 -3.5681756262230329e-05 0 -0.034987642654370155 -1.7853944150425115e-05 0 -0.034978370006066795 -2.907247303293038e-05 0 -0.033626668678349007 -0.00051434881973112334 0 -0.034437429229348747 -0.00098826749471790524 0 -0.033418123684778742 -0.00018352417998691644 0 -0.033482921410312463 -0.0001678367521881308 0 -0.033602342670393748 -3.6739760585041436e-05 0 -0.033255668588488968 -0.00022157637838676462 0 -0.033418123684778742 -0.00018352417998691644 0 -0.033482921410312463 -0.0001678367521881308 0 -0.033626668678349007 -0.00051434881973112334 0 -0.034414100364315699 6.3867078083531655e-05 0 -0.034994811657915931 -1.6903545965817011e-05 0 -0.034987642654370155 -1.7853944150425115e-05 0 -0.034994907464872313 -5.727358505347708e-06 0 -0.034980421298173768 -3.5681756262230329e-05 0 -0.034994811657915931 -1.6903545965817011e-05 0 -0.034987642654370155 -1.7853944150425115e-05 0 -0.034099676402648646 -0.00021855053185443658 0 -0.033738240125580007 -0.0001640661002836713 0 -0.034225580964304975 -5.4877798315441879e-05 0 -0.033706889290364389 -0.00033850642292340721 0 -0.034099676402648646 -0.00021855053185443658 0 -0.033738240125580007 -0.0001640661002836713 0 -0.033482921410312463 -0.0001678367521881308 0 -0.033602342670393748 -3.6739760585041436e-05 0 -0.033738240125580007 -0.0001640661002836713 0 -0.033255668588488968 -0.00022157637838676462 0 -0.033482921410312463 -0.0001678367521881308 0 -0.033738240125580007 -0.0001640661002836713 0 -0.033602342670393748 -3.6739760585041436e-05 0 -0.034225580964304975 -5.4877798315441879e-05 0 -0.034195314013585866 0.00013007529938655163 0 -0.033602342670393748 -3.6739760585041436e-05 0 -0.033738240125580007 -0.0001640661002836713 0 -0.034225580964304975 -5.4877798315441879e-05 0 -0.034388910945775591 -0.00014063816373953344 0 -0.034099676402648646 -0.00021855053185443658 0 -0.034225580964304975 -5.4877798315441879e-05 0 -0.034225580964304975 -5.4877798315441879e-05 0 -0.034623371146896904 4.7100433167638456e-05 0 -0.034195314013585866 0.00013007529938655163 0 -0.034601281082569789 -3.4586488475600379e-05 0 -0.034225580964304975 -5.4877798315441879e-05 0 -0.034623371146896904 4.7100433167638456e-05 0 -0.034414100364315699 6.3867078083531655e-05 0 -0.034564848982409781 -1.996067165814514e-07 0 -0.034999903537240425 -5.3512323465331995e-06 0 -0.035000003682447482 -1.3580995479939501e-09 0 -0.034999996812179218 -3.3312475424119837e-09 0 -0.034623371146896904 4.7100433167638456e-05 0 -0.034195314013585866 0.00013007529938655163 0 -0.034998693522542007 3.3983609860310295e-07 0 -0.034564848982409781 -1.996067165814514e-07 0 -0.034999810212290476 -1.7624539896977223e-11 0 -0.034987642654370155 -1.7853944150425115e-05 0 -0.034994907464872313 -5.727358505347708e-06 0 -0.034985159995604954 -1.015133850389288e-05 0 -0.034994907464872313 -5.727358505347708e-06 0 -0.034994224856809017 -5.1180412492191562e-06 0 -0.034985159995604954 -1.015133850389288e-05 0 -0.034994811657915931 -1.6903545965817011e-05 0 -0.034999903537240425 -5.3512323465331995e-06 0 -0.034994907464872313 -5.727358505347708e-06 0 -0.034999903537240425 -5.3512323465331995e-06 0 -0.034994907464872313 -5.727358505347708e-06 0 -0.034999996812179218 -3.3312475424119837e-09 0 -0.034994907464872313 -5.727358505347708e-06 0 -0.034999996812179218 -3.3312475424119837e-09 0 -0.034999986969274977 -2.8141767197972102e-09 0 -0.034994907464872313 -5.727358505347708e-06 0 -0.034999986969274977 -2.8141767197972102e-09 0 -0.034994224856809017 -5.1180412492191562e-06 0 -0.034999986969274977 -2.8141767197972102e-09 0 -0.034994224856809017 -5.1180412492191562e-06 0 -0.034999996888425602 -1.1103515309123012e-08 0 -0.034994224856809017 -5.1180412492191562e-06 0 -0.034999996888425602 -1.1103515309123012e-08 0 -0.03499411466797684 -7.3978805870860966e-06 0 -0.03499411466797684 -7.3978805870860966e-06 0 -0.034990420713497991 -5.4398986920050586e-06 0 -0.034998138585969306 -8.1500539501160013e-06 0 -0.034999996888425602 -1.1103515309123012e-08 0 -0.03499411466797684 -7.3978805870860966e-06 0 -0.034998138585969306 -8.1500539501160013e-06 0 -0.034994224856809017 -5.1180412492191562e-06 0 -0.03499411466797684 -7.3978805870860966e-06 0 -0.034985159995604954 -1.015133850389288e-05 0 -0.034987642654370155 -1.7853944150425115e-05 0 -0.034985159995604954 -1.015133850389288e-05 0 -0.034978370006066795 -2.907247303293038e-05 0 -0.03499411466797684 -7.3978805870860966e-06 0 -0.034985159995604954 -1.015133850389288e-05 0 -0.034990420713497991 -5.4398986920050586e-06 0 -0.034985159995604954 -1.015133850389288e-05 0 -0.034965213462150042 -2.1990762554787789e-05 0 -0.034978370006066795 -2.907247303293038e-05 0 -0.034503686559092306 -0.00039385258322195628 0 -0.034437429229348747 -0.00098826749471790524 0 -0.035121814981882681 8.5035994255933933e-05 0 -0.034503686559092306 -0.00039385258322195628 0 -0.035009253107096301 -4.1961541902133342e-05 0 -0.035007882824479031 -4.4629627383456272e-05 0 -0.035007666468803406 -4.6169275141000848e-05 0 -0.034503686559092306 -0.00039385258322195628 0 -0.03452720538353507 -0.0011035782844010748 0 -0.034503686559092306 -0.00039385258322195628 0 -0.035064989240715209 -1.1981414736864297e-05 0 -0.035009253107096301 -4.1961541902133342e-05 0 -0.035007882824479031 -4.4629627383456272e-05 0 -0.035011989234730596 -3.4560019772491568e-05 0 -0.03358023928510627 -0.0017517425999939969 0 -0.033543780305355195 -0.0018296439681239267 0 -0.033500598864445681 -0.0018162127939313534 0 -0.03358023928510627 -0.0017517425999939969 0 -0.033543780305355195 -0.0018296439681239267 0 -0.033597771972524955 -0.0018477529247863753 0 -0.033547335759287311 -0.0019176488694336927 0 -0.033543780305355195 -0.0018296439681239267 0 -0.033597771972524955 -0.0018477529247863753 0 -0.033509791936202828 -0.0014729651710050434 0 -0.03452720538353507 -0.0011035782844010748 0 -0.033710293311976405 -0.001833309396828485 0 -0.033597771972524955 -0.0018477529247863753 0 -0.03364375204597829 -0.0017952425912067069 0 -0.03358023928510627 -0.0017517425999939969 0 -0.033597771972524955 -0.0018477529247863753 0 -0.03364375204597829 -0.0017952425912067069 0 -0.035623478553003615 -0.00069824377464005336 0 -0.035599300542759359 -0.00047702459625715557 0 -0.035805652203588542 -0.00054016631748167422 0 -0.035476981874804157 -0.00017629852404574354 0 -0.03452720538353507 -0.0011035782844010748 0 -0.034543030903772753 -0.0013379088824215372 0 -0.03452720538353507 -0.0011035782844010748 0 -0.033490128090221762 -0.0019007638473212071 0 -0.033543780305355195 -0.0018296439681239267 0 -0.033495505480632022 -0.0018281862366141012 0 -0.035009253107096301 -4.1961541902133342e-05 0 -0.035007666468803406 -4.6169275141000848e-05 0 -0.035008776270119737 -3.9586280215413315e-05 0 -0.035009253107096301 -4.1961541902133342e-05 0 -0.035008776270119737 -3.9586280215413315e-05 0 -0.035011989234730596 -3.4560019772491568e-05 0 -0.035008493044288332 -4.0385294340209866e-05 0 -0.035008776270119737 -3.9586280215413315e-05 0 -0.03500557620870054 -3.12793915658781e-05 0 -0.035008493044288332 -4.0385294340209866e-05 0 -0.035007666468803406 -4.6169275141000848e-05 0 -0.035008776270119737 -3.9586280215413315e-05 0 -0.035008776270119737 -3.9586280215413315e-05 0 -0.035005100822604461 -1.5116744126300518e-05 0 -0.03500557620870054 -3.12793915658781e-05 0 -0.035008776270119737 -3.9586280215413315e-05 0 -0.035005100822604461 -1.5116744126300518e-05 0 -0.035011989234730596 -3.4560019772491568e-05 0 -0.034985656679999783 -1.0835567881892539e-05 0 -0.035064989240715209 -1.1981414736864297e-05 0 -0.034999996888425602 -1.1103515309123012e-08 0 -0.035005100822604461 -1.5116744126300518e-05 0 -0.034998138585969306 -8.1500539501160013e-06 0 -0.034999996888425602 -1.1103515309123012e-08 0 -0.035005100822604461 -1.5116744126300518e-05 0 -0.035000012867154942 -1.4657903978119528e-08 0 -0.035005100822604461 -1.5116744126300518e-05 0 -0.035000012867154942 -1.4657903978119528e-08 0 -0.035003968970989348 -1.6050072591681381e-05 0 -0.035000012867154942 -1.4657903978119528e-08 0 -0.035003968970989348 -1.6050072591681381e-05 0 -0.035000009832719614 -2.0175364273805819e-08 0 -0.035000009832719614 -2.0175364273805819e-08 0 -0.035004814118006322 -2.9660532499609935e-05 0 -0.035008283154850349 -4.2739489229885179e-05 0 -0.035003968970989348 -1.6050072591681381e-05 0 -0.035000009832719614 -2.0175364273805819e-08 0 -0.035004814118006322 -2.9660532499609935e-05 0 -0.035004814118006322 -2.9660532499609935e-05 0 -0.035008283154850349 -4.2739489229885179e-05 0 -0.035007986127072011 -4.5653537832065361e-05 0 -0.035003968970989348 -1.6050072591681381e-05 0 -0.035004814118006322 -2.9660532499609935e-05 0 -0.03500557620870054 -3.12793915658781e-05 0 -0.035005100822604461 -1.5116744126300518e-05 0 -0.035003968970989348 -1.6050072591681381e-05 0 -0.03500557620870054 -3.12793915658781e-05 0 -0.035004814118006322 -2.9660532499609935e-05 0 -0.03500557620870054 -3.12793915658781e-05 0 -0.035007986127072011 -4.5653537832065361e-05 0 -0.035000029974756729 -5.4185031019986403e-08 0 -0.035008283154850349 -4.2739489229885179e-05 0 -0.034998639684488402 -6.7491412883391344e-05 0 -0.035000009832719614 -2.0175364273805819e-08 0 -0.035000029974756729 -5.4185031019986403e-08 0 -0.035008283154850349 -4.2739489229885179e-05 0 -0.035008283154850349 -4.2739489229885179e-05 0 -0.034998639684488402 -6.7491412883391344e-05 0 -0.03500845622611963 -8.2219259899329333e-05 0 -0.034998639684488402 -6.7491412883391344e-05 0 -0.03500845622611963 -8.2219259899329333e-05 0 -0.034941121864104953 -0.00018470728318741305 0 -0.035064040339212704 -0.00030570765210362024 0 -0.034952415001001484 -0.00045723758163052986 0 -0.034941121864104953 -0.00018470728318741305 0 -0.035008283154850349 -4.2739489229885179e-05 0 -0.03500845622611963 -8.2219259899329333e-05 0 -0.035007986127072011 -4.5653537832065361e-05 0 -0.035038219746301627 -0.00019312985231584976 0 -0.035133325580104541 -0.00022417670487239456 0 -0.035064040339212704 -0.00030570765210362024 0 -0.035164502585964826 -0.0004818991754421668 0 -0.035335814968312562 -0.00038691609928492702 0 -0.035164502585964826 -0.0004818991754421668 0 -0.035355192089095794 -0.00064241311092128538 0 -0.035065146632907968 -0.00067629931666999513 0 -0.035064040339212704 -0.00030570765210362024 0 -0.035164502585964826 -0.0004818991754421668 0 -0.034952415001001484 -0.00045723758163052986 0 -0.035164502585964826 -0.0004818991754421668 0 -0.034952415001001484 -0.00045723758163052986 0 -0.035065146632907968 -0.00067629931666999513 0 -0.035476981874804157 -0.00017629852404574354 0 -0.035133325580104541 -0.00022417670487239456 0 -0.035008493044288332 -4.0385294340209866e-05 0 -0.03500557620870054 -3.12793915658781e-05 0 -0.035007986127072011 -4.5653537832065361e-05 0 -0.035164502585964826 -0.0004818991754421668 0 -0.035335814968312562 -0.00038691609928492702 0 -0.035355192089095794 -0.00064241311092128538 0 -0.035599300542759359 -0.00047702459625715557 0 -0.035335814968312562 -0.00038691609928492702 0 -0.035355192089095794 -0.00064241311092128538 0 -0.035623478553003615 -0.00069824377464005336 0 -0.035599300542759359 -0.00047702459625715557 0 -0.035355192089095794 -0.00064241311092128538 0 -0.035623478553003615 -0.00069824377464005336 0 -0.035411355380348716 -0.00092762147409124326 0 -0.035355192089095794 -0.00064241311092128538 0 -0.03340940110442886 -0.0020068830022226545 0 -0.033470552268663835 -0.002082279603113408 0 -0.033386647570231652 -0.0020200695804418745 0 -0.033410990822528498 -0.0019576060036343846 0 -0.03340940110442886 -0.0020068830022226545 0 -0.033470552268663835 -0.002082279603113408 0 -0.034543030903772753 -0.0013379088824215372 0 -0.03444338491154051 -0.0015054695696315389 0 -0.035411355380348716 -0.00092762147409124326 0 -0.035355192089095794 -0.00064241311092128538 0 -0.035168784234373786 -0.00090704176486960085 0 -0.035355192089095794 -0.00064241311092128538 0 -0.035065146632907968 -0.00067629931666999513 0 -0.035168784234373786 -0.00090704176486960085 0 -0.034952415001001484 -0.00045723758163052986 0 -0.035065146632907968 -0.00067629931666999513 0 -0.0348339589213894 -0.00063531195966121134 0 -0.035065146632907968 -0.00067629931666999513 0 -0.034836255066813968 -0.00094803661593033351 0 -0.0348339589213894 -0.00063531195966121134 0 -0.035065146632907968 -0.00067629931666999513 0 -0.034836255066813968 -0.00094803661593033351 0 -0.035168784234373786 -0.00090704176486960085 0 -0.034836255066813968 -0.00094803661593033351 0 -0.035168784234373786 -0.00090704176486960085 0 -0.035096489097668986 -0.0012915260300094479 0 -0.035411355380348716 -0.00092762147409124326 0 -0.035168784234373786 -0.00090704176486960085 0 -0.035096489097668986 -0.0012915260300094479 0 -0.03444338491154051 -0.0015054695696315389 0 -0.034437166999572756 -0.0016805842133011514 0 -0.035096489097668986 -0.0012915260300094479 0 -0.034381471020833311 -0.0017664092235563221 0 -0.034380555254604504 -0.0013374125012156155 0 -0.034836255066813968 -0.00094803661593033351 0 -0.035096489097668986 -0.0012915260300094479 0 -0.034380555254604504 -0.0013374125012156155 0 -0.034437166999572756 -0.0016805842133011514 0 -0.034388354266735234 -0.0017593938886619682 0 -0.033781845239903789 -0.0020892771653121577 0 -0.03393521462179868 -0.0018314924667679809 0 -0.034381471020833311 -0.0017664092235563221 0 -0.03393521462179868 -0.0018314924667679809 0 -0.034381471020833311 -0.0017664092235563221 0 -0.034160817310438407 -0.0017662139462600267 0 -0.033781845239903789 -0.0020892771653121577 0 -0.033665524161801852 -0.0018342046518254513 0 -0.033506920247014543 -0.0019780924727947364 0 -0.033781845239903789 -0.0020892771653121577 0 -0.03393521462179868 -0.0018314924667679809 0 -0.033665524161801852 -0.0018342046518254513 0 -0.03339101407811438 -0.0018734512128039272 0 -0.033506920247014543 -0.0019780924727947364 0 -0.033460723452382865 -0.0017587680393185518 0 -0.033665524161801852 -0.0018342046518254513 0 -0.033506920247014543 -0.0019780924727947364 0 -0.033460723452382865 -0.0017587680393185518 0 -0.033252360861863305 -0.0018744094863191142 0 -0.03339101407811438 -0.0018734512128039272 0 -0.033386647570231652 -0.0020200695804418745 0 -0.03339101407811438 -0.0018734512128039272 0 -0.033460723452382865 -0.0017587680393185518 0 -0.033329738525127932 -0.0017182374478053885 0 -0.033252360861863305 -0.0018744094863191142 0 -0.03339101407811438 -0.0018734512128039272 0 -0.033329738525127932 -0.0017182374478053885 0 -0.03339101407811438 -0.0018734512128039272 0 -0.033386647570231652 -0.0020200695804418745 0 -0.033506920247014543 -0.0019780924727947364 0 -0.033470552268663835 -0.002082279603113408 0 -0.033386647570231652 -0.0020200695804418745 0 -0.033506920247014543 -0.0019780924727947364 0 -0.033470552268663835 -0.002082279603113408 0 -0.033781845239903789 -0.0020892771653121577 0 -0.033506920247014543 -0.0019780924727947364 0 -0.034512516248156572 -0.001333199110070891 0 -0.034726902000335652 -0.0011481339885640531 0 -0.034657349999568238 -0.0010199945301438038 0 -0.034370692509510893 -0.001446775018021012 0 -0.034657349999568238 -0.0010199945301438038 0 -0.034532183397583259 -0.0010263574836536895 0 -0.034088196372592118 -0.0012998927305935676 0 -0.034512516248156572 -0.001333199110070891 0 -0.034657349999568238 -0.0010199945301438038 0 -0.034225849541257874 -0.0013733189437174246 0 -0.034628558354122804 -0.0010501703771696401 0 -0.034370692509510893 -0.001446775018021012 0 -0.034532183397583259 -0.0010263574836536895 0 -0.0342339306949365 -0.0011623313527036716 0 -0.034088196372592118 -0.0012998927305935676 0 -0.034328006044323449 -0.0015109247373045181 0 -0.034112000424278484 -0.0017340481097751204 0 -0.034088196372592118 -0.0012998927305935676 0 -0.034328006044323449 -0.0015109247373045181 0 -0.034512516248156572 -0.001333199110070891 0 -0.034328006044323449 -0.0015109247373045181 0 -0.034512516248156572 -0.001333199110070891 0 -0.034498433872854686 -0.0015402844850323941 0 -0.034692468847719669 -0.0014811198139770612 0 -0.034653833080893016 -0.0014061963712767981 0 -0.034876179138871151 -0.0012102965730886523 0 -0.034498433872854686 -0.0015402844850323941 0 -0.034653833080893016 -0.0014061963712767981 0 -0.034593133207759239 -0.0016210236580958958 0 -0.034692468847719669 -0.0014811198139770612 0 -0.034653833080893016 -0.0014061963712767981 0 -0.034593133207759239 -0.0016210236580958958 0 -0.034512516248156572 -0.001333199110070891 0 -0.034498433872854686 -0.0015402844850323941 0 -0.034653833080893016 -0.0014061963712767981 0 -0.034627836995873559 -0.0012812688894820741 0 -0.034487927359475284 -0.0017064759764222968 0 -0.034692468847719669 -0.0014811198139770612 0 -0.034876179138871151 -0.0012102965730886523 0 -0.034678012883055442 -0.0016430323867429812 0 -0.034381471020833311 -0.0017664092235563221 0 -0.034380555254604504 -0.0013374125012156155 0 -0.034306280749765473 -0.0018460211978688123 0 -0.034876179138871151 -0.0012102965730886523 0 -0.034726902000335652 -0.0011481339885640531 0 -0.034910036843731104 -0.00078328213498647312 0 -0.034512516248156572 -0.001333199110070891 0 -0.034653833080893016 -0.0014061963712767981 0 -0.034726902000335652 -0.0011481339885640531 0 -0.034653833080893016 -0.0014061963712767981 0 -0.034876179138871151 -0.0012102965730886523 0 -0.034726902000335652 -0.0011481339885640531 0 -0.034910036843731104 -0.00078328213498647312 0 -0.034674993106594457 -0.00084571952265742318 0 -0.034657349999568238 -0.0010199945301438038 0 -0.034726902000335652 -0.0011481339885640531 0 -0.034910036843731104 -0.00078328213498647312 0 -0.034657349999568238 -0.0010199945301438038 0 -0.034627836995873559 -0.0012812688894820741 0 -0.0347458538722469 -0.00079418430436083197 0 -0.034836255066813968 -0.00094803661593033351 0 -0.034380555254604504 -0.0013374125012156155 0 -0.034578285446001715 -0.00077989954155739162 0 -0.0348339589213894 -0.00063531195966121134 0 -0.034578285446001715 -0.00077989954155739162 0 -0.034843421173299145 -0.00043168122348064485 0 -0.034836255066813968 -0.00094803661593033351 0 -0.0348339589213894 -0.00063531195966121134 0 -0.034578285446001715 -0.00077989954155739162 0 -0.034910036843731104 -0.00078328213498647312 0 -0.034721940820024756 -0.00062863536339151339 0 -0.034843421173299145 -0.00043168122348064485 0 -0.034910036843731104 -0.00078328213498647312 0 -0.034721940820024756 -0.00062863536339151339 0 -0.034674993106594457 -0.00084571952265742318 0 -0.0347458538722469 -0.00079418430436083197 0 -0.03482022605754076 -0.00047186088614259723 0 -0.034721940820024756 -0.00062863536339151339 0 -0.034674993106594457 -0.00084571952265742318 0 -0.034583401094991709 -0.00078408709549250544 0 -0.034674993106594457 -0.00084571952265742318 0 -0.034532183397583259 -0.0010263574836536895 0 -0.034583401094991709 -0.00078408709549250544 0 -0.034674993106594457 -0.00084571952265742318 0 -0.034657349999568238 -0.0010199945301438038 0 -0.034532183397583259 -0.0010263574836536895 0 -0.034532183397583259 -0.0010263574836536895 0 -0.034583401094991709 -0.00078408709549250544 0 -0.034474921105481539 -0.00082294125381699151 0 -0.034533061603314652 -0.001016154105558576 0 -0.034265044110784904 -0.00087862141390096797 0 -0.034532183397583259 -0.0010263574836536895 0 -0.034049096533298996 -0.000903899048333073 0 -0.0342339306949365 -0.0011623313527036716 0 -0.034609680209699116 -0.00059288272826113421 0 -0.034583401094991709 -0.00078408709549250544 0 -0.034474921105481539 -0.00082294125381699151 0 -0.034721940820024756 -0.00062863536339151339 0 -0.034609680209699116 -0.00059288272826113421 0 -0.034583401094991709 -0.00078408709549250544 0 -0.034609680209699116 -0.00059288272826113421 0 -0.03478037266968325 -0.00037845802223319209 0 -0.034700611003475768 -0.00030234346670840825 0 -0.034721940820024756 -0.00062863536339151339 0 -0.034609680209699116 -0.00059288272826113421 0 -0.03478037266968325 -0.00037845802223319209 0 -0.034721940820024756 -0.00062863536339151339 0 -0.03478037266968325 -0.00037845802223319209 0 -0.034843421173299145 -0.00043168122348064485 0 -0.03478037266968325 -0.00037845802223319209 0 -0.03486367902266696 -0.00027787233041511766 0 -0.034892116385212245 -0.00012687032769315206 0 -0.03478037266968325 -0.00037845802223319209 0 -0.034700611003475768 -0.00030234346670840825 0 -0.034892116385212245 -0.00012687032769315206 0 -0.034952415001001484 -0.00045723758163052986 0 -0.0348339589213894 -0.00063531195966121134 0 -0.034843421173299145 -0.00043168122348064485 0 -0.03478037266968325 -0.00037845802223319209 0 -0.034843421173299145 -0.00043168122348064485 0 -0.03486367902266696 -0.00027787233041511766 0 -0.03486367902266696 -0.00027787233041511766 0 -0.034941121864104953 -0.00018470728318741305 0 -0.034892116385212245 -0.00012687032769315206 0 -0.034843421173299145 -0.00043168122348064485 0 -0.03486367902266696 -0.00027787233041511766 0 -0.034941121864104953 -0.00018470728318741305 0 -0.035038219746301627 -0.00019312985231584976 0 -0.034931700922283496 -0.00018129044943769056 0 -0.034952415001001484 -0.00045723758163052986 0 -0.034843421173299145 -0.00043168122348064485 0 -0.034941121864104953 -0.00018470728318741305 0 -0.034998639684488402 -6.7491412883391344e-05 0 -0.034941121864104953 -0.00018470728318741305 0 -0.034999927833450961 -2.8537186550036381e-08 0 -0.034941121864104953 -0.00018470728318741305 0 -0.034999927833450961 -2.8537186550036381e-08 0 -0.034892116385212245 -0.00012687032769315206 0 -0.035000029974756729 -5.4185031019986403e-08 0 -0.034998639684488402 -6.7491412883391344e-05 0 -0.034999927833450961 -2.8537186550036381e-08 0 -0.034700611003475768 -0.00030234346670840825 0 -0.034892116385212245 -0.00012687032769315206 0 -0.03480530313425325 -1.8738827306228816e-05 0 -0.034999927833450961 -2.8537186550036381e-08 0 -0.034892116385212245 -0.00012687032769315206 0 -0.034999859620257763 -7.4704161058539738e-08 0 -0.034892116385212245 -0.00012687032769315206 0 -0.034999859620257763 -7.4704161058539738e-08 0 -0.03480530313425325 -1.8738827306228816e-05 0 -0.034999859620257763 -7.4704161058539738e-08 0 -0.03480530313425325 -1.8738827306228816e-05 0 -0.034999464160280956 1.9382787957817383e-07 0 -0.03480530313425325 -1.8738827306228816e-05 0 -0.034653658813286685 0.00017360012762697986 0 -0.03444080383938735 -0.0002539866200618564 0 -0.03480530313425325 -1.8738827306228816e-05 0 -0.034653658813286685 0.00017360012762697986 0 -0.034999464160280956 1.9382787957817383e-07 0 -0.034653658813286685 0.00017360012762697986 0 -0.034999464160280956 1.9382787957817383e-07 0 -0.034999719927945601 -6.613577763911974e-08 0 -0.034653658813286685 0.00017360012762697986 0 -0.034999719927945601 -6.613577763911974e-08 0 -0.035001093937994637 9.9032505625192428e-05 0 -0.034999719927945601 -6.613577763911974e-08 0 -0.035001093937994637 9.9032505625192428e-05 0 -0.035000259769247685 1.3729597985866315e-07 0 -0.034653658813286685 0.00017360012762697986 0 -0.033376229397445133 0.00053246201830015267 0 -0.033803485962513105 -0.00010521715061334244 0 -0.034656794400573378 0.00019623096646069027 0 -0.034043436175652343 0.00032894280953190818 0 -0.034653658813286685 0.00017360012762697986 0 -0.033803485962513105 -0.00010521715061334244 0 -0.03444080383938735 -0.0002539866200618564 0 -0.033376229397445133 0.00053246201830015267 0 -0.033803485962513105 -0.00010521715061334244 0 -0.032784714370584521 -0.0001121995807114088 0 -0.033803485962513105 -0.00010521715061334244 0 -0.033297195631791787 -0.00056800597630291601 0 -0.032784714370584521 -0.0001121995807114088 0 -0.033803485962513105 -0.00010521715061334244 0 -0.03444080383938735 -0.0002539866200618564 0 -0.034149303761325842 -0.0008012377128174084 0 -0.033803485962513105 -0.00010521715061334244 0 -0.033297195631791787 -0.00056800597630291601 0 -0.034149303761325842 -0.0008012377128174084 0 -0.034487338727886556 -0.00056388601713635081 0 -0.03444080383938735 -0.0002539866200618564 0 -0.034149303761325842 -0.0008012377128174084 0 -0.034609680209699116 -0.00059288272826113421 0 -0.034700611003475768 -0.00030234346670840825 0 -0.034487338727886556 -0.00056388601713635081 0 -0.034700611003475768 -0.00030234346670840825 0 -0.034487338727886556 -0.00056388601713635081 0 -0.03444080383938735 -0.0002539866200618564 0 -0.034700611003475768 -0.00030234346670840825 0 -0.03480530313425325 -1.8738827306228816e-05 0 -0.03444080383938735 -0.0002539866200618564 0 -0.034971442540774271 -1.4628650878985843e-05 0 -0.034999947150498055 3.7444046168204351e-09 0 -0.034999911726029849 -4.853919653674732e-08 0 -0.034971442540774271 -1.4628650878985843e-05 0 -0.034965465250648656 -2.646072789643246e-05 0 -0.034923536196917918 -5.0487687940542395e-05 0 -0.034971442540774271 -1.4628650878985843e-05 0 -0.034999947150498055 3.7444046168204351e-09 0 -0.034965465250648656 -2.646072789643246e-05 0 -0.034999947150498055 3.7444046168204351e-09 0 -0.034965465250648656 -2.646072789643246e-05 0 -0.034995358930897009 -1.6963332132847209e-05 0 -0.035230812419450343 -1.9393306635145293e-05 0 -0.034305226805493062 4.1463564199891524e-05 0 -0.034305226805493062 4.1463564199891524e-05 0 -0.035000528113804399 3.0486830917823496e-07 0 -0.034999947150498055 3.7444046168204351e-09 0 -0.034995358930897009 -1.6963332132847209e-05 0 -0.035000031210908084 -1.1842959428378999e-08 0 -0.035001093937994637 9.9032505625192428e-05 0 -0.035039709654391883 7.9149287157121809e-05 0 -0.035000259769247685 1.3729597985866315e-07 0 -0.034043436175652343 0.00032894280953190818 0 -0.034305226805493062 4.1463564199891524e-05 0 -0.033376229397445133 0.00053246201830015267 0 -0.032405683616820453 0.0005303516147835976 0 -0.032784714370584521 -0.0001121995807114088 0 -0.033297195631791787 -0.00056800597630291601 0 -0.032784714370584521 -0.0001121995807114088 0 -0.032330219708870046 -0.00065770301051883292 0 -0.032784714370584521 -0.0001121995807114088 0 -0.031988699237127459 -0.00011066804019657727 0 -0.032330219708870046 -0.00065770301051883292 0 -0.032405683616820453 0.0005303516147835976 0 -0.032784714370584521 -0.0001121995807114088 0 -0.031988699237127459 -0.00011066804019657727 0 -0.034305226805493062 4.1463564199891524e-05 0 -0.03338352030833059 -6.8451616610568891e-05 0 -0.034965465250648656 -2.646072789643246e-05 0 -0.034967714833677034 -8.0111247580048442e-05 0 -0.034878997362753524 -9.5976401139241037e-05 0 -0.034965465250648656 -2.646072789643246e-05 0 -0.034990393782251661 -2.7994174512908464e-05 0 -0.034967714833677034 -8.0111247580048442e-05 0 -0.034967714833677034 -8.0111247580048442e-05 0 -0.034785284351278027 -0.00022098952881630706 0 -0.0348396987329068 -0.00027623160609284442 0 -0.03338352030833059 -6.8451616610568891e-05 0 -0.033276215257749188 -0.00055287601328696148 0 -0.031988699237127459 -0.00011066804019657727 0 -0.031523028539796986 -0.00063456011217031475 0 -0.032330219708870046 -0.00065770301051883292 0 -0.034967714833677034 -8.0111247580048442e-05 0 -0.034878997362753524 -9.5976401139241037e-05 0 -0.034785284351278027 -0.00022098952881630706 0 -0.034787784583137867 -0.00021750759109256799 0 -0.034625063644854931 -6.224045610517411e-05 0 -0.034878997362753524 -9.5976401139241037e-05 0 -0.034785284351278027 -0.00022098952881630706 0 -0.034889349438952562 -7.0066880747009791e-05 0 -0.034878997362753524 -9.5976401139241037e-05 0 -0.034923536196917918 -5.0487687940542395e-05 0 -0.034889349438952562 -7.0066880747009791e-05 0 -0.034965465250648656 -2.646072789643246e-05 0 -0.034878997362753524 -9.5976401139241037e-05 0 -0.034923536196917918 -5.0487687940542395e-05 0 -0.031523028539796986 -0.00063456011217031475 0 -0.031302448090895954 -0.0011254678491504583 0 -0.031090645024668941 -0.0010959216641460074 0 -0.033276215257749188 -0.00055287601328696148 0 -0.032014052144250987 -0.00030072210413150665 0 -0.034785284351278027 -0.00022098952881630706 0 -0.0348396987329068 -0.00027623160609284442 0 -0.03455404057020995 -0.00072307728587572839 0 -0.031523028539796986 -0.00063456011217031475 0 -0.031783047643617418 -0.0010406609835834526 0 -0.032330219708870046 -0.00065770301051883292 0 -0.031523028539796986 -0.00063456011217031475 0 -0.031783047643617418 -0.0010406609835834526 0 -0.031302448090895954 -0.0011254678491504583 0 -0.032256556360253492 -0.0011854994603321628 0 -0.032330219708870046 -0.00065770301051883292 0 -0.032767654475405104 -0.0010381047218070497 0 -0.031783047643617418 -0.0010406609835834526 0 -0.032256556360253492 -0.0011854994603321628 0 -0.032330219708870046 -0.00065770301051883292 0 -0.033297195631791787 -0.00056800597630291601 0 -0.032330219708870046 -0.00065770301051883292 0 -0.032767654475405104 -0.0010381047218070497 0 -0.032256556360253492 -0.0011854994603321628 0 -0.032767654475405104 -0.0010381047218070497 0 -0.032537533056171339 -0.0014514855659905179 0 -0.032767654475405104 -0.0010381047218070497 0 -0.032537533056171339 -0.0014514855659905179 0 -0.032904016885623583 -0.0014403164157845705 0 -0.032537533056171339 -0.0014514855659905179 0 -0.032620459292016762 -0.0017467747350326337 0 -0.032904016885623583 -0.0014403164157845705 0 -0.032620459292016762 -0.0017467747350326337 0 -0.032897465420727134 -0.0019619326853115735 0 -0.032399250496663021 -0.0021195899923096288 0 -0.032620459292016762 -0.0017467747350326337 0 -0.032219469341117475 -0.0016955118942456016 0 -0.032399250496663021 -0.0021195899923096288 0 -0.032537533056171339 -0.0014514855659905179 0 -0.032620459292016762 -0.0017467747350326337 0 -0.032219469341117475 -0.0016955118942456016 0 -0.032219469341117475 -0.0016955118942456016 0 -0.032042819077420438 -0.0020387640861498882 0 -0.032399250496663021 -0.0021195899923096288 0 -0.032219469341117475 -0.0016955118942456016 0 -0.031812748163372047 -0.001416745563580772 0 -0.03173390656384114 -0.0018552274011500859 0 -0.032219469341117475 -0.0016955118942456016 0 -0.032042819077420438 -0.0020387640861498882 0 -0.03173390656384114 -0.0018552274011500859 0 -0.032256556360253492 -0.0011854994603321628 0 -0.032537533056171339 -0.0014514855659905179 0 -0.032219469341117475 -0.0016955118942456016 0 -0.032256556360253492 -0.0011854994603321628 0 -0.032219469341117475 -0.0016955118942456016 0 -0.031812748163372047 -0.001416745563580772 0 -0.031783047643617418 -0.0010406609835834526 0 -0.032256556360253492 -0.0011854994603321628 0 -0.031812748163372047 -0.001416745563580772 0 -0.031783047643617418 -0.0010406609835834526 0 -0.031471564738375382 -0.0013460839527350533 0 -0.031812748163372047 -0.001416745563580772 0 -0.031783047643617418 -0.0010406609835834526 0 -0.031471564738375382 -0.0013460839527350533 0 -0.031302448090895954 -0.0011254678491504583 0 -0.031471564738375382 -0.0013460839527350533 0 -0.031812748163372047 -0.001416745563580772 0 -0.031261662808141237 -0.0016355051528957343 0 -0.031812748163372047 -0.001416745563580772 0 -0.03173390656384114 -0.0018552274011500859 0 -0.031261662808141237 -0.0016355051528957343 0 -0.032042819077420438 -0.0020387640861498882 0 -0.03173390656384114 -0.0018552274011500859 0 -0.031658854608183941 -0.0022126490932867266 0 -0.03173390656384114 -0.0018552274011500859 0 -0.031237339145942934 -0.0020731000838552127 0 -0.031658854608183941 -0.0022126490932867266 0 -0.03173390656384114 -0.0018552274011500859 0 -0.031237339145942934 -0.0020731000838552127 0 -0.031261662808141237 -0.0016355051528957343 0 -0.031237339145942934 -0.0020731000838552127 0 -0.031261662808141237 -0.0016355051528957343 0 -0.03077416560327061 -0.0018016391512168676 0 -0.031261662808141237 -0.0016355051528957343 0 -0.03077416560327061 -0.0018016391512168676 0 -0.030924372905792689 -0.0013909160032487566 0 -0.031237339145942934 -0.0020731000838552127 0 -0.030754065789388774 -0.0021880784387648387 0 -0.03077416560327061 -0.0018016391512168676 0 -0.030754065789388774 -0.0021880784387648387 0 -0.03077416560327061 -0.0018016391512168676 0 -0.030216163874049167 -0.0020957642658129784 0 -0.03077416560327061 -0.0018016391512168676 0 -0.030924372905792689 -0.0013909160032487566 0 -0.030156143899889604 -0.0015719625018620449 0 -0.030924372905792689 -0.0013909160032487566 0 -0.030692157615900741 -0.00095266637418710655 0 -0.030156143899889604 -0.0015719625018620449 0 -0.031471564738375382 -0.0013460839527350533 0 -0.031261662808141237 -0.0016355051528957343 0 -0.030924372905792689 -0.0013909160032487566 0 -0.031471564738375382 -0.0013460839527350533 0 -0.030924372905792689 -0.0013909160032487566 0 -0.031302448090895954 -0.0011254678491504583 0 -0.030924372905792689 -0.0013909160032487566 0 -0.031302448090895954 -0.0011254678491504583 0 -0.030692157615900741 -0.00095266637418710655 0 -0.031055739663556431 -0.00081677905586855664 0 -0.032014052144250987 -0.00030072210413150665 0 -0.034049096533298996 -0.000903899048333073 0 -0.033561941275552967 -0.00073942645048510306 0 -0.033575833813464913 -0.0013086644254390336 0 -0.034049096533298996 -0.000903899048333073 0 -0.033987071989469243 -0.0012995355990459638 0 -0.0342339306949365 -0.0011623313527036716 0 -0.034609680209699116 -0.00059288272826113421 0 -0.034487338727886556 -0.00056388601713635081 0 -0.034474921105481539 -0.00082294125381699151 0 -0.034265044110784904 -0.00087862141390096797 0 -0.033837868692489254 -0.00075794852624551021 0 -0.034487338727886556 -0.00056388601713635081 0 -0.034474921105481539 -0.00082294125381699151 0 -0.034149303761325842 -0.0008012377128174084 0 -0.03332575449517141 -0.00057257393955765601 0 -0.033837868692489254 -0.00075794852624551021 0 -0.033297195631791787 -0.00056800597630291601 0 -0.033561941275552967 -0.00073942645048510306 0 -0.03323933684711454 -0.0010535585534570456 0 -0.033297195631791787 -0.00056800597630291601 0 -0.032767654475405104 -0.0010381047218070497 0 -0.03323933684711454 -0.0010535585534570456 0 -0.032767654475405104 -0.0010381047218070497 0 -0.03323933684711454 -0.0010535585534570456 0 -0.032904016885623583 -0.0014403164157845705 0 -0.033561941275552967 -0.00073942645048510306 0 -0.03323933684711454 -0.0010535585534570456 0 -0.033575833813464913 -0.0013086644254390336 0 -0.03323933684711454 -0.0010535585534570456 0 -0.033208669975981382 -0.0015848282346055981 0 -0.033575833813464913 -0.0013086644254390336 0 -0.03323933684711454 -0.0010535585534570456 0 -0.032904016885623583 -0.0014403164157845705 0 -0.033208669975981382 -0.0015848282346055981 0 -0.032620459292016762 -0.0017467747350326337 0 -0.032904016885623583 -0.0014403164157845705 0 -0.032897465420727134 -0.0019619326853115735 0 -0.032904016885623583 -0.0014403164157845705 0 -0.032897465420727134 -0.0019619326853115735 0 -0.033208669975981382 -0.0015848282346055981 0 -0.033376783504213435 -0.0019028513882668296 0 -0.033208669975981382 -0.0015848282346055981 0 -0.033575833813464913 -0.0013086644254390336 0 -0.032897465420727134 -0.0019619326853115735 0 -0.033376783504213435 -0.0019028513882668296 0 -0.033208669975981382 -0.0015848282346055981 0 -0.033376783504213435 -0.0019028513882668296 0 -0.033575833813464913 -0.0013086644254390336 0 -0.033813242163219404 -0.0019113852864157067 0 -0.033575833813464913 -0.0013086644254390336 0 -0.033987071989469243 -0.0012995355990459638 0 -0.033813242163219404 -0.0019113852864157067 0 -0.034049096533298996 -0.000903899048333073 0 -0.033575833813464913 -0.0013086644254390336 0 -0.033987071989469243 -0.0012995355990459638 0 -0.034370692509510893 -0.001446775018021012 0 -0.033987071989469243 -0.0012995355990459638 0 -0.0342339306949365 -0.0011623313527036716 0 -0.034225849541257874 -0.0013733189437174246 0 -0.033714785218814679 -0.0017897220445088455 0 -0.034370692509510893 -0.001446775018021012 0 -0.033987071989469243 -0.0012995355990459638 0 -0.033813242163219404 -0.0019113852864157067 0 -0.034088196372592118 -0.0012998927305935676 0 -0.033615294322323505 -0.0016558209050476173 0 -0.034112000424278484 -0.0017340481097751204 0 -0.033796129642781558 -0.0019426347823687865 0 -0.033615294322323505 -0.0016558209050476173 0 -0.034112000424278484 -0.0017340481097751204 0 -0.033796129642781558 -0.0019426347823687865 0 -0.034112000424278484 -0.0017340481097751204 0 -0.034010107367937567 -0.0019789776505071072 0 -0.024275375858463923 -0.0012225473894209313 0 -0.024311955922020536 -0.0014527882709279274 0 -0.025703058734189498 -0.0011264430692865121 0 -0.033796129642781558 -0.0019426347823687865 0 -0.033716356139204359 -0.0022173744760021438 0 -0.034010107367937567 -0.0019789776505071072 0 -0.033796129642781558 -0.0019426347823687865 0 -0.033716356139204359 -0.0022173744760021438 0 -0.033495440753595569 -0.0021000265483002716 0 -0.024275375858463923 -0.0012225473894209313 0 -0.023604746609353064 -0.0013287972911641844 0 -0.023607194995542195 -0.0013664694838517377 0 -0.028818029672126134 -0.0017175477569994588 0 -0.029209390791711785 -0.001865372225831869 0 -0.033716356139204359 -0.0022173744760021438 0 -0.033495440753595569 -0.0021000265483002716 0 -0.033202990683994862 -0.0024300882873275896 0 -0.024275375858463923 -0.0012225473894209313 0 -0.023607194995542195 -0.0013664694838517377 0 -0.024311955922020536 -0.0014527882709279274 0 -0.033796129642781558 -0.0019426347823687865 0 -0.033495440753595569 -0.0021000265483002716 0 -0.033615294322323505 -0.0016558209050476173 0 -0.033714785218814679 -0.0017897220445088455 0 -0.033217419589651388 -0.0022093628322378015 0 -0.033495440753595569 -0.0021000265483002716 0 -0.033615294322323505 -0.0016558209050476173 0 -0.033182472096705141 -0.0022517467156382776 0 -0.033376783504213435 -0.0019028513882668296 0 -0.033813242163219404 -0.0019113852864157067 0 -0.033182472096705141 -0.0022517467156382776 0 -0.033376783504213435 -0.0019028513882668296 0 -0.033096163558291328 -0.0021177466785254374 0 -0.033182472096705141 -0.0022517467156382776 0 -0.032897465420727134 -0.0019619326853115735 0 -0.033376783504213435 -0.0019028513882668296 0 -0.033096163558291328 -0.0021177466785254374 0 -0.032897465420727134 -0.0019619326853115735 0 -0.032931536843748506 -0.0023237751539722574 0 -0.032624351359915718 -0.0023307888589119284 0 -0.032897465420727134 -0.0019619326853115735 0 -0.033096163558291328 -0.0021177466785254374 0 -0.032931536843748506 -0.0023237751539722574 0 -0.033096163558291328 -0.0021177466785254374 0 -0.032931536843748506 -0.0023237751539722574 0 -0.033182472096705141 -0.0022517467156382776 0 -0.018034969170583327 -0.0020233278072496158 0 -0.02444482772520102 -0.0023372254451160613 0 -0.014711514638753335 -0.0028596998021019359 0 -0.014951185816088154 -0.0027643525930951519 0 -0.015401283344473944 -0.0030310859227373321 0 -0.029209390791711785 -0.001865372225831869 0 -0.02444482772520102 -0.0023372254451160613 0 -0.032931536843748506 -0.0023237751539722574 0 -0.033202990683994862 -0.0024300882873275896 0 -0.032593190303689887 -0.0026902194940016163 0 -0.023604746609353064 -0.0013287972911641844 0 -0.023607194995542195 -0.0013664694838517377 0 -0.023483286259154856 -0.0014551852288419583 0 -0.033495440753595569 -0.0021000265483002716 0 -0.033182472096705141 -0.0022517467156382776 0 -0.033202990683994862 -0.0024300882873275896 0 -0.032931536843748506 -0.0023237751539722574 0 -0.033182472096705141 -0.0022517467156382776 0 -0.033202990683994862 -0.0024300882873275896 0 -0.014711514638753335 -0.0028596998021019359 0 -0.014595308076216567 -0.0026497126473172508 0 -0.014426496005493557 -0.0025961628937546284 0 -0.014711514638753335 -0.0028596998021019359 0 -0.014595308076216567 -0.0026497126473172508 0 -0.014759944901053552 -0.0027037787932354951 0 -0.014711514638753335 -0.0028596998021019359 0 -0.014759944901053552 -0.0027037787932354951 0 -0.014951185816088154 -0.0027643525930951519 0 -0.014759944901053552 -0.0027037787932354951 0 -0.01478134855031577 -0.0025480840261264208 0 -0.014951185816088154 -0.0027643525930951519 0 -0.014595308076216567 -0.0026497126473172508 0 -0.014759944901053552 -0.0027037787932354951 0 -0.01478134855031577 -0.0025480840261264208 0 -0.014595308076216567 -0.0026497126473172508 0 -0.01478134855031577 -0.0025480840261264208 0 -0.014407048075596741 -0.002475528674751318 0 -0.01478134855031577 -0.0025480840261264208 0 -0.015133075442400942 -0.0026695719836873706 0 -0.015207741702829 -0.0023707509923212512 0 -0.014951185816088154 -0.0027643525930951519 0 -0.015133075442400942 -0.0026695719836873706 0 -0.015401283344473944 -0.0030310859227373321 0 -0.01478134855031577 -0.0025480840261264208 0 -0.014951185816088154 -0.0027643525930951519 0 -0.015133075442400942 -0.0026695719836873706 0 -0.013709352341053554 -0.0023078561510746602 0 -0.013798143066138928 -0.0022310356417610477 0 -0.013719118453366928 -0.002270032266210943 0 -0.014464707066083261 -0.0023495999936718032 0 -0.014234511983544118 -0.0022462194211139057 0 -0.01478134855031577 -0.0025480840261264208 0 -0.015207741702829 -0.0023707509923212512 0 -0.014672081147450137 -0.002237806166365864 0 -0.01478134855031577 -0.0025480840261264208 0 -0.014672081147450137 -0.002237806166365864 0 -0.014407048075596741 -0.002475528674751318 0 -0.014234511983544118 -0.0022462194211139057 0 -0.014098544450685034 -0.0022371897269495007 0 -0.014672081147450137 -0.002237806166365864 0 -0.014083585936150946 -0.0022422927686004874 0 -0.014407048075596741 -0.002475528674751318 0 -0.014083585936150946 -0.0022422927686004874 0 -0.014171766828654269 -0.0023892239741759489 0 -0.014407048075596741 -0.002475528674751318 0 -0.014083585936150946 -0.0022422927686004874 0 -0.014075017558714271 -0.002311962891712279 0 -0.014109196033822312 -0.0022919599233401726 0 -0.014083585936150946 -0.0022422927686004874 0 -0.014171766828654269 -0.0023892239741759489 0 -0.014109196033822312 -0.0022919599233401726 0 -0.014171766828654269 -0.0023892239741759489 0 -0.014138935393037328 -0.0023379658251659234 0 -0.014109196033822312 -0.0022919599233401726 0 -0.014171766828654269 -0.0023892239741759489 0 -0.014148014952243462 -0.0024945885864264094 0 -0.014287661668678765 -0.0024986255668972002 0 -0.014171766828654269 -0.0023892239741759489 0 -0.014148014952243462 -0.0024945885864264094 0 -0.014138935393037328 -0.0023379658251659234 0 -0.018034969170583327 -0.0020233278072496158 0 -0.01950984104588736 -0.0020069351096074785 0 -0.014148014952243462 -0.0024945885864264094 0 -0.014426496005493557 -0.0025961628937546284 0 -0.014287661668678765 -0.0024986255668972002 0 -0.014711514638753335 -0.0028596998021019359 0 -0.014148014952243462 -0.0024945885864264094 0 -0.014426496005493557 -0.0025961628937546284 0 -0.014595308076216567 -0.0026497126473172508 0 -0.014426496005493557 -0.0025961628937546284 0 -0.014407048075596741 -0.002475528674751318 0 -0.014426496005493557 -0.0025961628937546284 0 -0.014407048075596741 -0.002475528674751318 0 -0.014287661668678765 -0.0024986255668972002 0 -0.014171766828654269 -0.0023892239741759489 0 -0.014407048075596741 -0.002475528674751318 0 -0.014287661668678765 -0.0024986255668972002 0 -0.016531796098861944 -0.0034716733621115111 0 -0.016592973105431522 -0.0029616417184634993 0 -0.017063974220382899 -0.0031057572645084722 0 -0.016531796098861944 -0.0034716733621115111 0 -0.016232845980650858 -0.0031644751782422533 0 -0.016592973105431522 -0.0029616417184634993 0 -0.030751567930039848 -0.0031455938082905095 0 -0.030492374271238659 -0.00298434755665359 0 -0.030844641662789225 -0.0031321284856193751 0 -0.030492374271238659 -0.00298434755665359 0 -0.030826676966491995 -0.0026013712455573582 0 -0.030260246077279843 -0.0025785324219384045 0 -0.030751567930039848 -0.0031455938082905095 0 -0.030492374271238659 -0.00298434755665359 0 -0.030826676966491995 -0.0026013712455573582 0 -0.030754065789388774 -0.0021880784387648387 0 -0.030826676966491995 -0.0026013712455573582 0 -0.030260246077279843 -0.0025785324219384045 0 -0.031237339145942934 -0.0020731000838552127 0 -0.030754065789388774 -0.0021880784387648387 0 -0.030826676966491995 -0.0026013712455573582 0 -0.031237339145942934 -0.0020731000838552127 0 -0.030826676966491995 -0.0026013712455573582 0 -0.03127942754572198 -0.0024621935209216549 0 -0.031053503178948026 -0.002709174385721914 0 -0.030826676966491995 -0.0026013712455573582 0 -0.03127942754572198 -0.0024621935209216549 0 -0.030751567930039848 -0.0031455938082905095 0 -0.031053503178948026 -0.002709174385721914 0 -0.031256264690036589 -0.002696081500356399 0 -0.030751567930039848 -0.0031455938082905095 0 -0.031053503178948026 -0.002709174385721914 0 -0.030826676966491995 -0.0026013712455573582 0 -0.030751567930039848 -0.0031455938082905095 0 -0.031256264690036589 -0.002696081500356399 0 -0.031498119927401529 -0.0027499271208498485 0 -0.031256264690036589 -0.002696081500356399 0 -0.03127942754572198 -0.0024621935209216549 0 -0.031621999147616299 -0.0025130795651050627 0 -0.031053503178948026 -0.002709174385721914 0 -0.031256264690036589 -0.002696081500356399 0 -0.03127942754572198 -0.0024621935209216549 0 -0.031237339145942934 -0.0020731000838552127 0 -0.03127942754572198 -0.0024621935209216549 0 -0.031658854608183941 -0.0022126490932867266 0 -0.03127942754572198 -0.0024621935209216549 0 -0.031658854608183941 -0.0022126490932867266 0 -0.031621999147616299 -0.0025130795651050627 0 -0.031658854608183941 -0.0022126490932867266 0 -0.031621999147616299 -0.0025130795651050627 0 -0.031950614974221275 -0.0023704018281904956 0 -0.031256264690036589 -0.002696081500356399 0 -0.031621999147616299 -0.0025130795651050627 0 -0.031498119927401529 -0.0027499271208498485 0 -0.031621999147616299 -0.0025130795651050627 0 -0.031498119927401529 -0.0027499271208498485 0 -0.031850256077636432 -0.002646988737910483 0 -0.031498119927401529 -0.0027499271208498485 0 -0.031527995770760438 -0.0028489359504814756 0 -0.031850256077636432 -0.002646988737910483 0 -0.030751567930039848 -0.0031455938082905095 0 -0.031527995770760438 -0.0028489359504814756 0 -0.031957860512012971 -0.0029029267224498674 0 -0.031527995770760438 -0.0028489359504814756 0 -0.031957860512012971 -0.0029029267224498674 0 -0.031850256077636432 -0.002646988737910483 0 -0.030276704740250224 -0.0030285059985229491 0 -0.031706237517072577 -0.0030104787706958522 0 -0.016531796098861944 -0.0034716733621115111 0 -0.016232845980650858 -0.0031644751782422533 0 -0.015809832650484332 -0.0031652283377330607 0 -0.016232845980650858 -0.0031644751782422533 0 -0.015809832650484332 -0.0031652283377330607 0 -0.01609117228590758 -0.00297453559508392 0 -0.023794702872984637 -0.0033098210727215975 0 -0.021893269833490412 -0.0029507500309145403 0 -0.030751567930039848 -0.0031455938082905095 0 -0.02945295026605807 -0.0026771627316468827 0 -0.029258516075269081 -0.0028780196368967362 0 -0.030751567930039848 -0.0031455938082905095 0 -0.030844641662789225 -0.0031321284856193751 0 -0.02945295026605807 -0.0026771627316468827 0 -0.030751567930039848 -0.0031455938082905095 0 -0.031498119927401529 -0.0027499271208498485 0 -0.031527995770760438 -0.0028489359504814756 0 -0.021893269833490412 -0.0029507500309145403 0 -0.02444482772520102 -0.0023372254451160613 0 -0.031957860512012971 -0.0029029267224498674 0 -0.032245605990434044 -0.0025398086416511126 0 -0.032593190303689887 -0.0026902194940016163 0 -0.02945295026605807 -0.0026771627316468827 0 -0.029258516075269081 -0.0028780196368967362 0 -0.026800140391259074 -0.0023056158263062899 0 -0.031706237517072577 -0.0030104787706958522 0 -0.02444482772520102 -0.0023372254451160613 0 -0.015809832650484332 -0.0031652283377330607 0 -0.015401283344473944 -0.0030310859227373321 0 -0.015599203120688843 -0.0029499438881381169 0 -0.015809832650484332 -0.0031652283377330607 0 -0.015599203120688843 -0.0029499438881381169 0 -0.015724545010165694 -0.0029293306300351247 0 -0.015809832650484332 -0.0031652283377330607 0 -0.015724545010165694 -0.0029293306300351247 0 -0.015846235817044977 -0.0029393356339969929 0 -0.031957860512012971 -0.0029029267224498674 0 -0.031850256077636432 -0.002646988737910483 0 -0.032245605990434044 -0.0025398086416511126 0 -0.031621999147616299 -0.0025130795651050627 0 -0.031850256077636432 -0.002646988737910483 0 -0.031950614974221275 -0.0023704018281904956 0 -0.031850256077636432 -0.002646988737910483 0 -0.031950614974221275 -0.0023704018281904956 0 -0.032245605990434044 -0.0025398086416511126 0 -0.032042819077420438 -0.0020387640861498882 0 -0.031658854608183941 -0.0022126490932867266 0 -0.031950614974221275 -0.0023704018281904956 0 -0.032042819077420438 -0.0020387640861498882 0 -0.031950614974221275 -0.0023704018281904956 0 -0.032399250496663021 -0.0021195899923096288 0 -0.031950614974221275 -0.0023704018281904956 0 -0.032245605990434044 -0.0025398086416511126 0 -0.032399250496663021 -0.0021195899923096288 0 -0.032897465420727134 -0.0019619326853115735 0 -0.032399250496663021 -0.0021195899923096288 0 -0.032624351359915718 -0.0023307888589119284 0 -0.032245605990434044 -0.0025398086416511126 0 -0.032399250496663021 -0.0021195899923096288 0 -0.032624351359915718 -0.0023307888589119284 0 -0.032931536843748506 -0.0023237751539722574 0 -0.032624351359915718 -0.0023307888589119284 0 -0.032593190303689887 -0.0026902194940016163 0 -0.032245605990434044 -0.0025398086416511126 0 -0.032624351359915718 -0.0023307888589119284 0 -0.032593190303689887 -0.0026902194940016163 0 -0.015133075442400942 -0.0026695719836873706 0 -0.015401283344473944 -0.0030310859227373321 0 -0.01542414504243019 -0.0026686560231652806 0 -0.015401283344473944 -0.0030310859227373321 0 -0.01542414504243019 -0.0026686560231652806 0 -0.015599203120688843 -0.0029499438881381169 0 -0.01542414504243019 -0.0026686560231652806 0 -0.015613099111180636 -0.0027213281085731985 0 -0.015599203120688843 -0.0029499438881381169 0 -0.015133075442400942 -0.0026695719836873706 0 -0.015207741702829 -0.0023707509923212512 0 -0.01542414504243019 -0.0026686560231652806 0 -0.015207741702829 -0.0023707509923212512 0 -0.01542414504243019 -0.0026686560231652806 0 -0.015639496833372433 -0.0025223353186500526 0 -0.013709352341053554 -0.0023078561510746602 0 -0.014282864052452314 -0.0025567967577811391 0 -0.013950200647445092 -0.0021442522318442531 0 -0.014464707066083261 -0.0023495999936718032 0 -0.014991863614486468 -0.0025127340589789029 0 -0.014282864052452314 -0.0025567967577811391 0 -0.015492466690622195 -0.0018756999476833311 0 -0.014622298353731692 -0.0018755752967227301 0 -0.014282864052452314 -0.0025567967577811391 0 -0.014622298353731692 -0.0018755752967227301 0 -0.013950200647445092 -0.0021442522318442531 0 -0.015639496833372433 -0.0025223353186500526 0 -0.015748304402881136 -0.0027897325311665396 0 -0.015895019095930382 -0.0027945492893572859 0 -0.015748304402881136 -0.0027897325311665396 0 -0.015613099111180636 -0.0027213281085731985 0 -0.015724545010165694 -0.0029293306300351247 0 -0.01542414504243019 -0.0026686560231652806 0 -0.015639496833372433 -0.0025223353186500526 0 -0.015613099111180636 -0.0027213281085731985 0 -0.015639496833372433 -0.0025223353186500526 0 -0.015748304402881136 -0.0027897325311665396 0 -0.015613099111180636 -0.0027213281085731985 0 -0.015613099111180636 -0.0027213281085731985 0 -0.015599203120688843 -0.0029499438881381169 0 -0.015724545010165694 -0.0029293306300351247 0 -0.015748304402881136 -0.0027897325311665396 0 -0.015724545010165694 -0.0029293306300351247 0 -0.015846235817044977 -0.0029393356339969929 0 -0.01609117228590758 -0.00297453559508392 0 -0.015895019095930382 -0.0027945492893572859 0 -0.015911731695796884 -0.0025371940465738507 0 -0.015846235817044977 -0.0029393356339969929 0 -0.01609117228590758 -0.00297453559508392 0 -0.015895019095930382 -0.0027945492893572859 0 -0.015748304402881136 -0.0027897325311665396 0 -0.015846235817044977 -0.0029393356339969929 0 -0.015895019095930382 -0.0027945492893572859 0 -0.015809832650484332 -0.0031652283377330607 0 -0.015846235817044977 -0.0029393356339969929 0 -0.01609117228590758 -0.00297453559508392 0 -0.015639496833372433 -0.0025223353186500526 0 -0.015895019095930382 -0.0027945492893572859 0 -0.015911731695796884 -0.0025371940465738507 0 -0.014991863614486468 -0.0025127340589789029 0 -0.015824286996331458 -0.0025517711686496255 0 -0.014282864052452314 -0.0025567967577811391 0 -0.015911731695796884 -0.0025371940465738507 0 -0.015492466690622195 -0.0018756999476833311 0 -0.015911731695796884 -0.0025371940465738507 0 -0.016366231968352164 -0.0016688853191273868 0 -0.015492466690622195 -0.0018756999476833311 0 -0.015911731695796884 -0.0025371940465738507 0 -0.016366231968352164 -0.0016688853191273868 0 -0.01693625740784321 -0.0024558879401325182 0 -0.01609117228590758 -0.00297453559508392 0 -0.015911731695796884 -0.0025371940465738507 0 -0.016592973105431522 -0.0029616417184634993 0 -0.015911731695796884 -0.0025371940465738507 0 -0.016592973105431522 -0.0029616417184634993 0 -0.01693625740784321 -0.0024558879401325182 0 -0.016232845980650858 -0.0031644751782422533 0 -0.01609117228590758 -0.00297453559508392 0 -0.016592973105431522 -0.0029616417184634993 0 -0.016479979900461735 -0.00049658160757512591 0 -0.016366231968352164 -0.0016688853191273868 0 -0.015763524022254467 -0.0010779021154113441 0 -0.016479979900461735 -0.00049658160757512591 0 -0.015763524022254467 -0.0010779021154113441 0 -0.01560768013490303 -0.00033317447038532747 0 -0.015492466690622195 -0.0018756999476833311 0 -0.015167287753362457 -0.0013472354636081517 0 -0.015763524022254467 -0.0010779021154113441 0 -0.016366231968352164 -0.0016688853191273868 0 -0.015492466690622195 -0.0018756999476833311 0 -0.015763524022254467 -0.0010779021154113441 0 -0.015492466690622195 -0.0018756999476833311 0 -0.015167287753362457 -0.0013472354636081517 0 -0.014622298353731692 -0.0018755752967227301 0 -0.015167287753362457 -0.0013472354636081517 0 -0.015763524022254467 -0.0010779021154113441 0 -0.015002848677625894 -0.00064634756176514734 0 -0.015763524022254467 -0.0010779021154113441 0 -0.015002848677625894 -0.00064634756176514734 0 -0.01560768013490303 -0.00033317447038532747 0 -0.015002848677625894 -0.00064634756176514734 0 -0.014087013693878886 -0.00060025222521840947 0 -0.014480381241436377 -6.0972739295100383e-05 0 -0.015167287753362457 -0.0013472354636081517 0 -0.015002848677625894 -0.00064634756176514734 0 -0.014269882616804827 -0.0013084343124640115 0 -0.015002848677625894 -0.00064634756176514734 0 -0.014087013693878886 -0.00060025222521840947 0 -0.014269882616804827 -0.0013084343124640115 0 -0.015167287753362457 -0.0013472354636081517 0 -0.014622298353731692 -0.0018755752967227301 0 -0.014269882616804827 -0.0013084343124640115 0 -0.014622298353731692 -0.0018755752967227301 0 -0.014269882616804827 -0.0013084343124640115 0 -0.013950200647445092 -0.0021442522318442531 0 -0.013950200647445092 -0.0021442522318442531 0 -0.013682675462731008 -0.0023221547617593014 0 -0.013719118453366928 -0.002270032266210943 0 -0.013894663717477268 -0.0021339871399186465 0 -0.013380577128416902 -0.0015810225908830489 0 -0.013709352341053554 -0.0023078561510746602 0 -0.013950200647445092 -0.0021442522318442531 0 -0.013719118453366928 -0.002270032266210943 0 -0.014269882616804827 -0.0013084343124640115 0 -0.013950200647445092 -0.0021442522318442531 0 -0.013026317337833547 -0.00081477971109546871 0 -0.014087013693878886 -0.00060025222521840947 0 -0.013026317337833547 -0.00081477971109546871 0 -0.013591273795485342 -1.2244608611545313e-06 0 -0.014087013693878886 -0.00060025222521840947 0 -0.014269882616804827 -0.0013084343124640115 0 -0.013026317337833547 -0.00081477971109546871 0 -0.013591273795485342 -1.2244608611545313e-06 0 -0.013299334317015995 0.00086264186480993963 0 -0.012249198576601346 0.00036802377899072288 0 -0.013591273795485342 -1.2244608611545313e-06 0 -0.013299334317015995 0.00086264186480993963 0 -0.014112025525943915 0.0006002298677510484 0 -0.013299334317015995 0.00086264186480993963 0 -0.013837823841813503 0.0011879639384167206 0 -0.013325617819756925 0.0015433631735885832 0 -0.013299334317015995 0.00086264186480993963 0 -0.014112025525943915 0.0006002298677510484 0 -0.013837823841813503 0.0011879639384167206 0 -0.014112025525943915 0.0006002298677510484 0 -0.013837823841813503 0.0011879639384167206 0 -0.014609590521484483 0.0011883487733214057 0 -0.014112025525943915 0.0006002298677510484 0 -0.014609590521484483 0.0011883487733214057 0 -0.014762819117324008 0.00044024639222801465 0 -0.014112025525943915 0.0006002298677510484 0 -0.014480381241436377 -6.0972739295100383e-05 0 -0.014762819117324008 0.00044024639222801465 0 -0.013591273795485342 -1.2244608611545313e-06 0 -0.014112025525943915 0.0006002298677510484 0 -0.014480381241436377 -6.0972739295100383e-05 0 -0.014087013693878886 -0.00060025222521840947 0 -0.013591273795485342 -1.2244608611545313e-06 0 -0.014480381241436377 -6.0972739295100383e-05 0 -0.015002848677625894 -0.00064634756176514734 0 -0.014480381241436377 -6.0972739295100383e-05 0 -0.015122141645410255 8.7374306682461796e-05 0 -0.015002848677625894 -0.00064634756176514734 0 -0.015122141645410255 8.7374306682461796e-05 0 -0.01560768013490303 -0.00033317447038532747 0 -0.015122141645410255 8.7374306682461796e-05 0 -0.01560768013490303 -0.00033317447038532747 0 -0.01547821851441431 0.00055406559326762487 0 -0.015125259324860304 0.00029235870911076218 0 -0.015059165328317803 0.00043781323938634186 0 -0.014480381241436377 -6.0972739295100383e-05 0 -0.015122141645410255 8.7374306682461796e-05 0 -0.014762819117324008 0.00044024639222801465 0 -0.015122141645410255 8.7374306682461796e-05 0 -0.015379538028617626 0.00049349389353379027 0 -0.014762819117324008 0.00044024639222801465 0 -0.014216982115071079 0.0013910056564340688 0 -0.015059165328317803 0.00043781323938634186 0 -0.014609590521484483 0.0011883487733214057 0 -0.015379538028617626 0.00049349389353379027 0 -0.014762819117324008 0.00044024639222801465 0 -0.014274513046692061 0.0011230241424631721 0 -0.014257244600060465 0.0015121693544215553 0 -0.014669129446329648 0.0016712289125121694 0 -0.01394224190198704 0.0015014657791827604 0 -0.014274513046692061 0.0011230241424631721 0 -0.014257244600060465 0.0015121693544215553 0 -0.015059165328317803 0.00043781323938634186 0 -0.016159647653911549 0.0019072083201309075 0 -0.015718830727142787 0.00028821518663854618 0 -0.016599172366005801 0.00033312980315824584 0 -0.016348013331429278 0.0011750704469677931 0 -0.016495080798005567 -0.00054041035986787439 0 -0.015718830727142787 0.00028821518663854618 0 -0.016599172366005801 0.00033312980315824584 0 -0.016582500927297055 -0.00056314910869192285 0 -0.015059165328317803 0.00043781323938634186 0 -0.016479979900461735 -0.00049658160757512591 0 -0.01560768013490303 -0.00033317447038532747 0 -0.01547821851441431 0.00055406559326762487 0 -0.013954855352538239 -0.0023875160997302936 0 -0.013763683424981923 -0.0023780833604528195 0 -0.013843232780073636 -0.0025088735148481255 0 -0.013954855352538239 -0.0023875160997302936 0 -0.013843232780073636 -0.0025088735148481255 0 -0.013957419270123341 -0.00250580759671174 0 -0.013954855352538239 -0.0023875160997302936 0 -0.013957419270123341 -0.00250580759671174 0 -0.014067255313389298 -0.0024008363730940343 0 -0.013954855352538239 -0.0023875160997302936 0 -0.014075017558714271 -0.002311962891712279 0 -0.014067255313389298 -0.0024008363730940343 0 -0.014083585936150946 -0.0022422927686004874 0 -0.013954855352538239 -0.0023875160997302936 0 -0.014075017558714271 -0.002311962891712279 0 -0.013798143066138928 -0.0022310356417610477 0 -0.014083585936150946 -0.0022422927686004874 0 -0.013954855352538239 -0.0023875160997302936 0 -0.013798143066138928 -0.0022310356417610477 0 -0.013719118453366928 -0.002270032266210943 0 -0.013763683424981923 -0.0023780833604528195 0 -0.013798143066138928 -0.0022310356417610477 0 -0.013954855352538239 -0.0023875160997302936 0 -0.013763683424981923 -0.0023780833604528195 0 -0.013682675462731008 -0.0023221547617593014 0 -0.013719118453366928 -0.002270032266210943 0 -0.013763683424981923 -0.0023780833604528195 0 -0.013682675462731008 -0.0023221547617593014 0 -0.013763683424981923 -0.0023780833604528195 0 -0.013658964228492379 -0.0025441618145081429 0 -0.013763683424981923 -0.0023780833604528195 0 -0.013742894925419075 -0.0025875854806136941 0 -0.013843232780073636 -0.0025088735148481255 0 -0.013763683424981923 -0.0023780833604528195 0 -0.013742894925419075 -0.0025875854806136941 0 -0.013658964228492379 -0.0025441618145081429 0 -0.013026317337833547 -0.00081477971109546871 0 -0.013591273795485342 -1.2244608611545313e-06 0 -0.012249198576601346 0.00036802377899072288 0 -0.013380577128416902 -0.0015810225908830489 0 -0.012952361081324122 -0.0010880034438015345 0 -0.013299334317015995 0.00086264186480993963 0 -0.012249198576601346 0.00036802377899072288 0 -0.012650653715843667 0.0016198338091664422 0 -0.012249198576601346 0.00036802377899072288 0 -0.011536316049228293 0.0014147421328800521 0 -0.012650653715843667 0.0016198338091664422 0 -0.012952361081324122 -0.0010880034438015345 0 -0.012614488365212383 -0.00067977831898742732 0 -0.013742894925419075 -0.0025875854806136941 0 -0.013658964228492379 -0.0025441618145081429 0 -0.013670138162739506 -0.0027569631175715895 0 -0.013742894925419075 -0.0025875854806136941 0 -0.013792082865715063 -0.0026540915010314289 0 -0.013670138162739506 -0.0027569631175715895 0 -0.013742894925419075 -0.0025875854806136941 0 -0.013843232780073636 -0.0025088735148481255 0 -0.013792082865715063 -0.0026540915010314289 0 -0.013843232780073636 -0.0025088735148481255 0 -0.013957419270123341 -0.00250580759671174 0 -0.013792082865715063 -0.0026540915010314289 0 -0.013957419270123341 -0.00250580759671174 0 -0.013792082865715063 -0.0026540915010314289 0 -0.013974075514764423 -0.0026166444137280301 0 -0.013792082865715063 -0.0026540915010314289 0 -0.013795483387750586 -0.0027360771523231384 0 -0.01367240169487878 -0.0028422735280656938 0 -0.013792082865715063 -0.0026540915010314289 0 -0.013795483387750586 -0.0027360771523231384 0 -0.013974075514764423 -0.0026166444137280301 0 -0.013795483387750586 -0.0027360771523231384 0 -0.014034948051387242 -0.0027141671595417413 0 -0.013974075514764423 -0.0026166444137280301 0 -0.014034948051387242 -0.0027141671595417413 0 -0.014150085427735574 -0.0026150177672772494 0 -0.014268933781199445 -0.0026762429409859607 0 -0.014034948051387242 -0.0027141671595417413 0 -0.014150085427735574 -0.0026150177672772494 0 -0.013974075514764423 -0.0026166444137280301 0 -0.014150085427735574 -0.0026150177672772494 0 -0.01413386404263808 -0.0024934917128354183 0 -0.014282761828161067 -0.0025360997176908156 0 -0.014150085427735574 -0.0026150177672772494 0 -0.013974075514764423 -0.0026166444137280301 0 -0.01413386404263808 -0.0024934917128354183 0 -0.013957419270123341 -0.00250580759671174 0 -0.013974075514764423 -0.0026166444137280301 0 -0.01413386404263808 -0.0024934917128354183 0 -0.013957419270123341 -0.00250580759671174 0 -0.014067255313389298 -0.0024008363730940343 0 -0.01413386404263808 -0.0024934917128354183 0 -0.014067255313389298 -0.0024008363730940343 0 -0.01413386404263808 -0.0024934917128354183 0 -0.014221235206932709 -0.0023585214462426771 0 -0.01413386404263808 -0.0024934917128354183 0 -0.014221235206932709 -0.0023585214462426771 0 -0.014297043237846504 -0.0024266995995002546 0 -0.01413386404263808 -0.0024934917128354183 0 -0.014297043237846504 -0.0024266995995002546 0 -0.014282761828161067 -0.0025360997176908156 0 -0.014221235206932709 -0.0023585214462426771 0 -0.014145104188095697 -0.0023098766620233968 0 -0.014293983767394375 -0.0022591970359147518 0 -0.014067255313389298 -0.0024008363730940343 0 -0.014221235206932709 -0.0023585214462426771 0 -0.014145104188095697 -0.0023098766620233968 0 -0.014075017558714271 -0.002311962891712279 0 -0.014067255313389298 -0.0024008363730940343 0 -0.014145104188095697 -0.0023098766620233968 0 -0.014577207928302457 -0.0024077916789329657 0 -0.014428072814824316 -0.0022955361637897421 0 -0.014672915714566508 -0.0021785980819475068 0 -0.014577207928302457 -0.0024077916789329657 0 -0.014829366127530766 -0.0023694462481094244 0 -0.014672915714566508 -0.0021785980819475068 0 -0.014577207928302457 -0.0024077916789329657 0 -0.014642598931105335 -0.0025129756480972514 0 -0.014829366127530766 -0.0023694462481094244 0 -0.014221235206932709 -0.0023585214462426771 0 -0.014428072814824316 -0.0022955361637897421 0 -0.014293983767394375 -0.0022591970359147518 0 -0.014221235206932709 -0.0023585214462426771 0 -0.014428072814824316 -0.0022955361637897421 0 -0.014297043237846504 -0.0024266995995002546 0 -0.014428072814824316 -0.0022955361637897421 0 -0.014417767444260789 -0.0024177471501677108 0 -0.014297043237846504 -0.0024266995995002546 0 -0.014577207928302457 -0.0024077916789329657 0 -0.014428072814824316 -0.0022955361637897421 0 -0.014417767444260789 -0.0024177471501677108 0 -0.014417767444260789 -0.0024177471501677108 0 -0.014282761828161067 -0.0025360997176908156 0 -0.014449599481090026 -0.0025748396990853822 0 -0.014417767444260789 -0.0024177471501677108 0 -0.014297043237846504 -0.0024266995995002546 0 -0.014282761828161067 -0.0025360997176908156 0 -0.014577207928302457 -0.0024077916789329657 0 -0.014642598931105335 -0.0025129756480972514 0 -0.014449599481090026 -0.0025748396990853822 0 -0.014577207928302457 -0.0024077916789329657 0 -0.014417767444260789 -0.0024177471501677108 0 -0.014449599481090026 -0.0025748396990853822 0 -0.014642598931105335 -0.0025129756480972514 0 -0.014569791997795078 -0.0025956667880348114 0 -0.014653564380844069 -0.0025914769668650426 0 -0.014642598931105335 -0.0025129756480972514 0 -0.014569791997795078 -0.0025956667880348114 0 -0.014449599481090026 -0.0025748396990853822 0 -0.014449599481090026 -0.0025748396990853822 0 -0.014268933781199445 -0.0026762429409859607 0 -0.014438769904532 -0.0027146250191017558 0 -0.014569791997795078 -0.0025956667880348114 0 -0.014438769904532 -0.0027146250191017558 0 -0.014705654811136717 -0.0026273586528453787 0 -0.014569791997795078 -0.0025956667880348114 0 -0.014449599481090026 -0.0025748396990853822 0 -0.014438769904532 -0.0027146250191017558 0 -0.0093233200142746938 -0.00018878119473707841 0 -0.010203157029633767 -0.001446880635535295 0 -0.014150085427735574 -0.0026150177672772494 0 -0.014282761828161067 -0.0025360997176908156 0 -0.014268933781199445 -0.0026762429409859607 0 -0.014282761828161067 -0.0025360997176908156 0 -0.014449599481090026 -0.0025748396990853822 0 -0.014268933781199445 -0.0026762429409859607 0 -0.014268933781199445 -0.0026762429409859607 0 -0.014438769904532 -0.0027146250191017558 0 -0.014235231378026257 -0.0028083570079489827 0 -0.014034948051387242 -0.0027141671595417413 0 -0.014268933781199445 -0.0026762429409859607 0 -0.014235231378026257 -0.0028083570079489827 0 -0.0093233200142746938 -0.00018878119473707841 0 -0.0093892931437670104 -0.00033254691831412106 0 -0.0042641379319486262 0.0020385624927947753 0 -0.0040232671855870957 0.0020995233594654997 0 -0.0040501194954437525 0.0021895267495840249 0 -0.0040232671855870957 0.0020995233594654997 0 -0.0039059934583175098 0.0021251850908892405 0 -0.0040501194954437525 0.0021895267495840249 0 -0.0040232671855870957 0.0020995233594654997 0 -0.0039875748146485125 0.0020930675721758927 0 -0.0039059934583175098 0.0021251850908892405 0 -0.0040232671855870957 0.0020995233594654997 0 -0.0039875748146485125 0.0020930675721758927 0 -0.0040966597272782861 0.0020285180009213494 0 -0.0042641379319486262 0.0020385624927947753 0 -0.0040232671855870957 0.0020995233594654997 0 -0.0040966597272782861 0.0020285180009213494 0 -0.014569791997795078 -0.0025956667880348114 0 -0.014705654811136717 -0.0026273586528453787 0 -0.014653564380844069 -0.0025914769668650426 0 -0.0039244415746653837 0.0020783216489642432 0 -0.0038085935568894836 0.0021183152719710095 0 -0.0039100693579850829 0.002115412485547192 0 -0.0038085935568894836 0.0021183152719710095 0 -0.0039059934583175098 0.0021251850908892405 0 -0.0039100693579850829 0.002115412485547192 0 -0.0039875748146485125 0.0020930675721758927 0 -0.0039059934583175098 0.0021251850908892405 0 -0.0039636787862577334 0.0021298893863821509 0 -0.0039059934583175098 0.0021251850908892405 0 -0.0039636787862577334 0.0021298893863821509 0 -0.0039100693579850829 0.002115412485547192 0 -0.0040382437958948495 0.002201212019359907 0 -0.0039636787862577334 0.0021298893863821509 0 -0.0039100693579850829 0.002115412485547192 0 -0.0040382437958948495 0.002201212019359907 0 -0.0041600256599638591 0.0023393238046903143 0 -0.004045171684105741 0.0022354400376760927 0 -0.0040382437958948495 0.002201212019359907 0 -0.0039636787862577334 0.0021298893863821509 0 -0.004045171684105741 0.0022354400376760927 0 -0.0039636787862577334 0.0021298893863821509 0 -0.004045171684105741 0.0022354400376760927 0 -0.0040214632804538315 0.0023026997679453697 0 -0.0039636787862577334 0.0021298893863821509 0 -0.0040214632804538315 0.0023026997679453697 0 -0.0039847279862460887 0.0021312130715515996 0 -0.0084218517827218658 0.00053421265697933785 0 -0.0080888013063513103 -0.0001022641952911178 0 -0.014421776169922995 -0.0010728234713038721 0 -0.012565191413979344 -0.001534855671273907 0 -0.014281631758712105 0.00050454099149765811 0 -0.013072449911403682 -0.0022753409542568301 0 -0.022377188301819961 -0.0018799631239815385 0 -0.0084218517827218658 0.00053421265697933785 0 -0.016878198001000311 -0.0013192143003117004 0 -0.0041600256599638591 0.0023393238046903143 0 -0.0040214632804538315 0.0023026997679453697 0 -0.0042089836922771266 0.002495790697799483 0 -0.0041600256599638591 0.0023393238046903143 0 -0.004045171684105741 0.0022354400376760927 0 -0.0040214632804538315 0.0023026997679453697 0 -0.010203157029633767 -0.001446880635535295 0 -0.013072449911403682 -0.0022753409542568301 0 -0.014642598931105335 -0.0025129756480972514 0 -0.014705654811136717 -0.0026273586528453787 0 -0.014829366127530766 -0.0023694462481094244 0 -0.010203157029633767 -0.001446880635535295 0 -0.0080888013063513103 -0.0001022641952911178 0 -0.014705654811136717 -0.0026273586528453787 0 -0.015124128248531807 -0.0024161135536006134 0 -0.014829366127530766 -0.0023694462481094244 0 -0.014642598931105335 -0.0025129756480972514 0 -0.014705654811136717 -0.0026273586528453787 0 -0.014653564380844069 -0.0025914769668650426 0 -0.010902011442728322 -0.0035036596203274293 0 -0.012638485321900981 -0.0023043779693504162 0 -0.012565191413979344 -0.001534855671273907 0 -0.0039875748146485125 0.0020930675721758927 0 -0.0039636787862577334 0.0021298893863821509 0 -0.0039847279862460887 0.0021312130715515996 0 -0.0039875748146485125 0.0020930675721758927 0 -0.0040966597272782861 0.0020285180009213494 0 -0.0039847279862460887 0.0021312130715515996 0 -0.014421776169922995 -0.0010728234713038721 0 -0.012638485321900981 -0.0023043779693504162 0 -0.012565191413979344 -0.001534855671273907 0 -0.015124128248531807 -0.0024161135536006134 0 -0.014829366127530766 -0.0023694462481094244 0 -0.014969038370945634 -0.0019885360692903425 0 -0.014829366127530766 -0.0023694462481094244 0 -0.014969038370945634 -0.0019885360692903425 0 -0.014672915714566508 -0.0021785980819475068 0 -0.023403889348649568 -0.0023551514001596179 0 -0.022377188301819961 -0.0018799631239815385 0 -0.015124128248531807 -0.0024161135536006134 0 -0.014969038370945634 -0.0019885360692903425 0 -0.015577421749654754 -0.0020286525570388683 0 -0.030935479663350415 -0.0025581544538359619 0 -0.03324223776956152 -0.0026102347002278582 0 -0.033163458947100571 -0.0014283789667544928 0 -0.032321941033056328 -0.0012561051653387739 0 -0.033123073050154439 -0.0013918825772243158 0 -0.030935479663350415 -0.0025581544538359619 0 -0.030591324621978975 -0.0011170627318450451 0 -0.033163458947100571 -0.0014283789667544928 0 -0.030935479663350415 -0.0025581544538359619 0 -0.030591324621978975 -0.0011170627318450451 0 -0.028139208813930859 -0.0021710485132284364 0 -0.014421776169922995 -0.0010728234713038721 0 -0.016199187488267063 0.00018758725765035018 0 -0.014281631758712105 0.00050454099149765811 0 -0.025771661313823049 -0.0033192353069318938 0 -0.023913622568687537 -0.0030128578103506098 0 -0.025172207264382938 -0.0015021327408181856 0 -0.016878198001000311 -0.0013192143003117004 0 -0.022377188301819961 -0.0018799631239815385 0 -0.022377188301819961 -0.0018799631239815385 0 -0.029903053145786656 -0.0013075947900529781 0 -0.03324223776956152 -0.0026102347002278582 0 -0.033163458947100571 -0.0014283789667544928 0 -0.033516439377637874 -0.0016136928710002397 0 -0.029797164634039936 -0.00081090090781496559 0 -0.029903053145786656 -0.0013075947900529781 0 -0.033313423658620861 -0.0015773633696698241 0 -0.033516439377637874 -0.0016136928710002397 0 -0.033387895915537022 -0.0015646764003976559 0 -0.033163458947100571 -0.0014283789667544928 0 -0.033387895915537022 -0.0015646764003976559 0 -0.033498366055072816 -0.0016435030019758949 0 -0.033163458947100571 -0.0014283789667544928 0 -0.033516439377637874 -0.0016136928710002397 0 -0.033387895915537022 -0.0015646764003976559 0 -0.033387895915537022 -0.0015646764003976559 0 -0.033498366055072816 -0.0016435030019758949 0 -0.033460723452382865 -0.0017587680393185518 0 -0.033665524161801852 -0.0018342046518254513 0 -0.033498366055072816 -0.0016435030019758949 0 -0.033460723452382865 -0.0017587680393185518 0 -0.033313423658620861 -0.0015773633696698241 0 -0.033387895915537022 -0.0015646764003976559 0 -0.033329738525127932 -0.0017182374478053885 0 -0.033387895915537022 -0.0015646764003976559 0 -0.033460723452382865 -0.0017587680393185518 0 -0.033329738525127932 -0.0017182374478053885 0 -0.033983633966548646 -0.0015812459807666042 0 -0.033707307628082495 -0.0015686871306042102 0 -0.03389830052951958 -0.0017091700476292479 0 -0.033983633966548646 -0.0015812459807666042 0 -0.034145049249089697 -0.0016972331377559568 0 -0.0342971073670153 -0.0015403174856227059 0 -0.034052464655081931 -0.001330504858507631 0 -0.033983633966548646 -0.0015812459807666042 0 -0.0342971073670153 -0.0015403174856227059 0 -0.034052464655081931 -0.001330504858507631 0 -0.033983633966548646 -0.0015812459807666042 0 -0.033707307628082495 -0.0015686871306042102 0 -0.033163458947100571 -0.0014283789667544928 0 -0.033498366055072816 -0.0016435030019758949 0 -0.033707307628082495 -0.0015686871306042102 0 -0.034052464655081931 -0.001330504858507631 0 -0.033163458947100571 -0.0014283789667544928 0 -0.033707307628082495 -0.0015686871306042102 0 -0.033498366055072816 -0.0016435030019758949 0 -0.033707307628082495 -0.0015686871306042102 0 -0.03389830052951958 -0.0017091700476292479 0 -0.033665524161801852 -0.0018342046518254513 0 -0.033498366055072816 -0.0016435030019758949 0 -0.03389830052951958 -0.0017091700476292479 0 -0.03393521462179868 -0.0018314924667679809 0 -0.033665524161801852 -0.0018342046518254513 0 -0.03389830052951958 -0.0017091700476292479 0 -0.03393521462179868 -0.0018314924667679809 0 -0.03389830052951958 -0.0017091700476292479 0 -0.034160817310438407 -0.0017662139462600267 0 -0.033983633966548646 -0.0015812459807666042 0 -0.03389830052951958 -0.0017091700476292479 0 -0.034145049249089697 -0.0016972331377559568 0 -0.03389830052951958 -0.0017091700476292479 0 -0.034145049249089697 -0.0016972331377559568 0 -0.034160817310438407 -0.0017662139462600267 0 -0.034678012883055442 -0.0016430323867429812 0 -0.034556486795825445 -0.0016465679651343165 0 -0.0342971073670153 -0.0015403174856227059 0 -0.034381471020833311 -0.0017664092235563221 0 -0.034160817310438407 -0.0017662139462600267 0 -0.034306280749765473 -0.0018460211978688123 0 -0.034487927359475284 -0.0017064759764222968 0 -0.03432641634361161 -0.0015362238178902772 0 -0.034145049249089697 -0.0016972331377559568 0 -0.034160817310438407 -0.0017662139462600267 0 -0.034306280749765473 -0.0018460211978688123 0 -0.034145049249089697 -0.0016972331377559568 0 -0.034306280749765473 -0.0018460211978688123 0 -0.0342971073670153 -0.0015403174856227059 0 -0.034678012883055442 -0.0016430323867429812 0 -0.034556486795825445 -0.0016465679651343165 0 -0.034593133207759239 -0.0016210236580958958 0 -0.034692468847719669 -0.0014811198139770612 0 -0.034678012883055442 -0.0016430323867429812 0 -0.034593133207759239 -0.0016210236580958958 0 -0.034052464655081931 -0.001330504858507631 0 -0.0342971073670153 -0.0015403174856227059 0 -0.034550663572212897 -0.001645160039905706 0 -0.034556486795825445 -0.0016465679651343165 0 -0.034503327048128869 -0.001643109971364707 0 -0.0342971073670153 -0.0015403174856227059 0 -0.034503327048128869 -0.001643109971364707 0 -0.0342971073670153 -0.0015403174856227059 0 -0.034550663572212897 -0.001645160039905706 0 -0.034524751516634249 -0.0016884731593503287 0 -0.034430420331934587 -0.0017891418998896192 0 -0.034550663572212897 -0.001645160039905706 0 -0.034503327048128869 -0.001643109971364707 0 -0.034524751516634249 -0.0016884731593503287 0 -0.034550663572212897 -0.001645160039905706 0 -0.034503327048128869 -0.001643109971364707 0 -0.034524751516634249 -0.0016884731593503287 0 -0.034545818165484493 -0.0016652252002197381 0 -0.034524751516634249 -0.0016884731593503287 0 -0.034545818165484493 -0.0016652252002197381 0 -0.034509698872368891 -0.0016951158417113793 0 -0.034556486795825445 -0.0016465679651343165 0 -0.034503327048128869 -0.001643109971364707 0 -0.034545818165484493 -0.0016652252002197381 0 -0.034524751516634249 -0.0016884731593503287 0 -0.034509698872368891 -0.0016951158417113793 0 -0.034430420331934587 -0.0017891418998896192 0 -0.034509698872368891 -0.0016951158417113793 0 -0.034593133207759239 -0.0016210236580958958 0 -0.034485595004688049 -0.0016627084488420856 0 -0.034556486795825445 -0.0016465679651343165 0 -0.034545818165484493 -0.0016652252002197381 0 -0.034593133207759239 -0.0016210236580958958 0 -0.034545818165484493 -0.0016652252002197381 0 -0.034509698872368891 -0.0016951158417113793 0 -0.034593133207759239 -0.0016210236580958958 0 -0.034498433872854686 -0.0015402844850323941 0 -0.034593133207759239 -0.0016210236580958958 0 -0.034485595004688049 -0.0016627084488420856 0 -0.034498433872854686 -0.0015402844850323941 0 -0.034356735937687503 -0.0016652151698254309 0 -0.034485595004688049 -0.0016627084488420856 0 -0.034328006044323449 -0.0015109247373045181 0 -0.034498433872854686 -0.0015402844850323941 0 -0.034356735937687503 -0.0016652151698254309 0 -0.034356735937687503 -0.0016652151698254309 0 -0.034288332261107529 -0.001794467787460774 0 -0.034409438616218868 -0.0017496136463664956 0 -0.034509698872368891 -0.0016951158417113793 0 -0.034409438616218868 -0.0017496136463664956 0 -0.034485595004688049 -0.0016627084488420856 0 -0.034356735937687503 -0.0016652151698254309 0 -0.034409438616218868 -0.0017496136463664956 0 -0.034485595004688049 -0.0016627084488420856 0 -0.034328006044323449 -0.0015109247373045181 0 -0.034356735937687503 -0.0016652151698254309 0 -0.034112000424278484 -0.0017340481097751204 0 -0.034356735937687503 -0.0016652151698254309 0 -0.034288332261107529 -0.001794467787460774 0 -0.034112000424278484 -0.0017340481097751204 0 -0.034288332261107529 -0.001794467787460774 0 -0.034112000424278484 -0.0017340481097751204 0 -0.034190366860010826 -0.0019079279949703674 0 -0.028818029672126134 -0.0017175477569994588 0 -0.030022516209783086 -0.001562320393432052 0 -0.033716356139204359 -0.0022173744760021438 0 -0.034010107367937567 -0.0019789776505071072 0 -0.034258842506506099 -0.0020090756409145397 0 -0.034112000424278484 -0.0017340481097751204 0 -0.034010107367937567 -0.0019789776505071072 0 -0.034190366860010826 -0.0019079279949703674 0 -0.034190366860010826 -0.0019079279949703674 0 -0.034258842506506099 -0.0020090756409145397 0 -0.034326890341185065 -0.0018521235662224964 0 -0.034010107367937567 -0.0019789776505071072 0 -0.034190366860010826 -0.0019079279949703674 0 -0.034258842506506099 -0.0020090756409145397 0 -0.034258842506506099 -0.0020090756409145397 0 -0.034430420331934587 -0.0017891418998896192 0 -0.034550663572212897 -0.001645160039905706 0 -0.030022516209783086 -0.001562320393432052 0 -0.031201160177742718 -0.0013568229898679397 0 -0.034509698872368891 -0.0016951158417113793 0 -0.034409438616218868 -0.0017496136463664956 0 -0.034430420331934587 -0.0017891418998896192 0 -0.034409438616218868 -0.0017496136463664956 0 -0.034326890341185065 -0.0018521235662224964 0 -0.034430420331934587 -0.0017891418998896192 0 -0.034288332261107529 -0.001794467787460774 0 -0.034409438616218868 -0.0017496136463664956 0 -0.034326890341185065 -0.0018521235662224964 0 -0.034288332261107529 -0.001794467787460774 0 -0.034190366860010826 -0.0019079279949703674 0 -0.034326890341185065 -0.0018521235662224964 0 -0.034258842506506099 -0.0020090756409145397 0 -0.034326890341185065 -0.0018521235662224964 0 -0.034430420331934587 -0.0017891418998896192 0 -0.014201509442779441 -0.0021873338956225818 0 -0.014308886996830208 -0.0021875335577186622 0 -0.014520597990393281 -0.0020484566432835702 0 -0.025703058734189498 -0.0011264430692865121 0 -0.025820785497758084 -0.0017435721978493032 0 -0.027902877979791473 -0.0010624317757061367 0 -0.014148014952243462 -0.0024945885864264094 0 -0.014201509442779441 -0.0021873338956225818 0 -0.014138935393037328 -0.0023379658251659234 0 -0.014201509442779441 -0.0021873338956225818 0 -0.014138935393037328 -0.0023379658251659234 0 -0.014154251191641869 -0.0022712394019055344 0 -0.01950984104588736 -0.0020069351096074785 0 -0.019997157660108743 -0.0019704223755932274 0 -0.024311955922020536 -0.0014527882709279274 0 -0.025703058734189498 -0.0011264430692865121 0 -0.025820785497758084 -0.0017435721978493032 0 -0.014201509442779441 -0.0021873338956225818 0 -0.014154251191641869 -0.0022712394019055344 0 -0.014192715809965468 -0.002256930410133539 0 -0.014145104188095697 -0.0023098766620233968 0 -0.014109196033822312 -0.0022919599233401726 0 -0.014192715809965468 -0.002256930410133539 0 -0.014109196033822312 -0.0022919599233401726 0 -0.014154251191641869 -0.0022712394019055344 0 -0.014192715809965468 -0.002256930410133539 0 -0.014138935393037328 -0.0023379658251659234 0 -0.014109196033822312 -0.0022919599233401726 0 -0.014154251191641869 -0.0022712394019055344 0 -0.014075017558714271 -0.002311962891712279 0 -0.014145104188095697 -0.0023098766620233968 0 -0.014109196033822312 -0.0022919599233401726 0 -0.014145104188095697 -0.0023098766620233968 0 -0.014192715809965468 -0.002256930410133539 0 -0.014293983767394375 -0.0022591970359147518 0 -0.014308886996830208 -0.0021875335577186622 0 -0.014192715809965468 -0.002256930410133539 0 -0.014293983767394375 -0.0022591970359147518 0 -0.014201509442779441 -0.0021873338956225818 0 -0.014308886996830208 -0.0021875335577186622 0 -0.014192715809965468 -0.002256930410133539 0 -0.014308886996830208 -0.0021875335577186622 0 -0.014410747839877737 -0.002193807729585931 0 -0.014520597990393281 -0.0020484566432835702 0 -0.014428072814824316 -0.0022955361637897421 0 -0.014293983767394375 -0.0022591970359147518 0 -0.014410747839877737 -0.002193807729585931 0 -0.014308886996830208 -0.0021875335577186622 0 -0.014293983767394375 -0.0022591970359147518 0 -0.014410747839877737 -0.002193807729585931 0 -0.014410747839877737 -0.002193807729585931 0 -0.014506605924631164 -0.0021809022652460389 0 -0.014520597990393281 -0.0020484566432835702 0 -0.014428072814824316 -0.0022955361637897421 0 -0.014410747839877737 -0.002193807729585931 0 -0.014506605924631164 -0.0021809022652460389 0 -0.014428072814824316 -0.0022955361637897421 0 -0.014506605924631164 -0.0021809022652460389 0 -0.014672915714566508 -0.0021785980819475068 0 -0.014969038370945634 -0.0019885360692903425 0 -0.014672915714566508 -0.0021785980819475068 0 -0.014520597990393281 -0.0020484566432835702 0 -0.014506605924631164 -0.0021809022652460389 0 -0.014672915714566508 -0.0021785980819475068 0 -0.014520597990393281 -0.0020484566432835702 0 -0.023403889348649568 -0.0023551514001596179 0 -0.021250696671572478 -0.0020924357307063423 0 -0.032321941033056328 -0.0012561051653387739 0 -0.031201160177742718 -0.0013568229898679397 0 -0.030591324621978975 -0.0011170627318450451 0 -0.027902877979791473 -0.0010624317757061367 0 -0.028139208813930859 -0.0021710485132284364 0 -0.025820785497758084 -0.0017435721978493032 0 -0.027902877979791473 -0.0010624317757061367 0 -0.028139208813930859 -0.0021710485132284364 0 -0.019997157660108743 -0.0019704223755932274 0 -0.021250696671572478 -0.0020924357307063423 0 -0.026378138497556228 0.00010415037898160263 0 -0.026137519129185868 -0.00018457618104294953 0 -0.026702696637640747 -0.00065674877707965938 0 -0.027868483113750252 -1.4193051766182814e-06 0 -0.026378138497556228 0.00010415037898160263 0 -0.026702696637640747 -0.00065674877707965938 0 -0.027868483113750252 -1.4193051766182814e-06 0 -0.026378138497556228 0.00010415037898160263 0 -0.025975977857723501 9.1240068930697417e-07 0 -0.026715839835891122 0.00012178114718392724 0 -0.023829962174908896 -0.00035640466414893349 0 -0.026378138497556228 0.00010415037898160263 0 -0.026137519129185868 -0.00018457618104294953 0 -0.025754529528280133 0.00020604653153475337 0 -0.02605027878998813 -0.00030445377032355147 0 -0.026137519129185868 -0.00018457618104294953 0 -0.026059800736731441 -0.00019507307236467649 0 -0.026137519129185868 -0.00018457618104294953 0 -0.026059800736731441 -0.00019507307236467649 0 -0.026109233572518174 -0.00017228227663980235 0 -0.02605027878998813 -0.00030445377032355147 0 -0.025942851111602942 -0.00024201161520047632 0 -0.026059800736731441 -0.00019507307236467649 0 -0.02605027878998813 -0.00030445377032355147 0 -0.026079041599477874 -0.00041101782562252972 0 -0.025991772277530037 -0.00045322557734846718 0 -0.02605027878998813 -0.00030445377032355147 0 -0.026079041599477874 -0.00041101782562252972 0 -0.026137519129185868 -0.00018457618104294953 0 -0.026079041599477874 -0.00041101782562252972 0 -0.026137519129185868 -0.00018457618104294953 0 -0.026256271603509792 -0.00053342834674481739 0 -0.026079041599477874 -0.00041101782562252972 0 -0.026079722372784643 -0.00051582141359122102 0 -0.025991772277530037 -0.00045322557734846718 0 -0.026079041599477874 -0.00041101782562252972 0 -0.026256271603509792 -0.00053342834674481739 0 -0.026079722372784643 -0.00051582141359122102 0 -0.034205728930285215 -0.00065458513474830719 0 -0.033057081395307011 -0.00069798108723662555 0 -0.034043595407407028 -0.00024858984825387552 0 -0.030048487723977675 -0.00058561486525874826 0 -0.029961609094321308 -0.00075199201846780871 0 -0.034205728930285215 -0.00065458513474830719 0 -0.033057081395307011 -0.00069798108723662555 0 -0.032903872610327553 -0.00088071030326567011 0 -0.026256271603509792 -0.00053342834674481739 0 -0.026079722372784643 -0.00051582141359122102 0 -0.026366877291428434 -0.00076090397989829809 0 -0.031093995943117268 -0.00019097028391471378 0 -0.029961609094321308 -0.00075199201846780871 0 -0.032801910064397796 -0.00096660438159674859 0 -0.030415817733093122 -2.6841057108359686e-06 0 -0.032158436214188693 2.2810814439354902e-05 0 -0.029961609094321308 -0.00075199201846780871 0 -0.027824895438976347 -0.00029565455163509395 0 -0.029034303833304756 -0.00018811026507659103 0 -0.029526236844908717 0.00010544831867925704 0 -0.029673731667821043 8.7209751988488458e-05 0 -0.033057081395307011 -0.00069798108723662555 0 -0.032801910064397796 -0.00096660438159674859 0 -0.032158436214188693 2.2810814439354902e-05 0 -0.026137519129185868 -0.00018457618104294953 0 -0.026256271603509792 -0.00053342834674481739 0 -0.026702696637640747 -0.00065674877707965938 0 -0.026256271603509792 -0.00053342834674481739 0 -0.026366877291428434 -0.00076090397989829809 0 -0.026702696637640747 -0.00065674877707965938 0 -0.027872845865016468 3.2809188187467122e-07 0 -0.027824895438976347 -0.00029565455163509395 0 -0.027873658368131923 -7.184804283189253e-07 0 -0.029526236844908717 0.00010544831867925704 0 -0.029141702519477172 7.1305145376405545e-07 0 -0.029526236844908717 0.00010544831867925704 0 -0.029141702519477172 7.1305145376405545e-07 0 -0.029673731667821043 8.7209751988488458e-05 0 -0.029141702519477172 7.1305145376405545e-07 0 -0.030408247759736086 -7.2463815884092515e-07 0 -0.029673731667821043 8.7209751988488458e-05 0 -0.029961609094321308 -0.00075199201846780871 0 -0.030412275608366027 -2.0283777467952541e-07 0 -0.029034303833304756 -0.00018811026507659103 0 -0.030408247759736086 -7.2463815884092515e-07 0 -0.029673731667821043 8.7209751988488458e-05 0 -0.030415817733093122 -2.6841057108359686e-06 0 -0.032158436214188693 2.2810814439354902e-05 0 -0.032161147588535964 2.4631349903433247e-06 0 -0.03499582405846572 1.3865749475578968e-06 0 -0.03457188185371797 7.9552062858581892e-05 0 -0.035000097647222575 -2.1958939199057878e-07 0 -0.033057081395307011 -0.00069798108723662555 0 -0.032158436214188693 2.2810814439354902e-05 0 -0.033247553064611864 -6.5909523123371561e-05 0 -0.032158436214188693 2.2810814439354902e-05 0 -0.032519100174711837 0.00045073182134367477 0 -0.033247553064611864 -6.5909523123371561e-05 0 -0.032158436214188693 2.2810814439354902e-05 0 -0.032519100174711837 0.00045073182134367477 0 -0.032161147588535964 2.4631349903433247e-06 0 -0.033334020547342122 0.00020207852192879059 0 -0.032166205457192586 1.0324460273014668e-07 0 -0.034118303142185925 2.0175611537672551e-05 0 -0.032172884456494973 -2.0648425135529965e-06 0 -0.03499582405846572 1.3865749475578968e-06 0 -0.034118303142185925 2.0175611537672551e-05 0 -0.03499582405846572 1.3865749475578968e-06 0 -0.03457188185371797 7.9552062858581892e-05 0 -0.034118303142185925 2.0175611537672551e-05 0 -0.03457188185371797 7.9552062858581892e-05 0 -0.034313615522742223 0.00012698635973717773 0 -0.034313615522742223 0.00012698635973717773 0 -0.034043595407407028 -0.00024858984825387552 0 -0.034479592307061102 -3.59324432024326e-05 0 -0.03457188185371797 7.9552062858581892e-05 0 -0.034313615522742223 0.00012698635973717773 0 -0.034479592307061102 -3.59324432024326e-05 0 -0.032519100174711837 0.00045073182134367477 0 -0.034313615522742223 0.00012698635973717773 0 -0.033247553064611864 -6.5909523123371561e-05 0 -0.033334020547342122 0.00020207852192879059 0 -0.034224538892173022 0.0001561995297648419 0 -0.033057081395307011 -0.00069798108723662555 0 -0.033247553064611864 -6.5909523123371561e-05 0 -0.034043595407407028 -0.00024858984825387552 0 -0.034205728930285215 -0.00065458513474830719 0 -0.034043595407407028 -0.00024858984825387552 0 -0.034504104160631245 -0.00023689024663837093 0 -0.034313615522742223 0.00012698635973717773 0 -0.033247553064611864 -6.5909523123371561e-05 0 -0.034043595407407028 -0.00024858984825387552 0 -0.034043595407407028 -0.00024858984825387552 0 -0.034504104160631245 -0.00023689024663837093 0 -0.034479592307061102 -3.59324432024326e-05 0 -0.034504104160631245 -0.00023689024663837093 0 -0.034559083053960209 -0.00013922701078047145 0 -0.034479592307061102 -3.59324432024326e-05 0 -0.034504104160631245 -0.00023689024663837093 0 -0.034559083053960209 -0.00013922701078047145 0 -0.034502108454806765 -0.00016828738953563271 0 -0.034504104160631245 -0.00023689024663837093 0 -0.034502108454806765 -0.00016828738953563271 0 -0.034515557435218377 -0.00023081552654016869 0 -0.034640349327562887 -8.3684077661154587e-05 0 -0.034726982489843357 -2.8333138666173668e-05 0 -0.03467446317527284 8.6005928864067165e-06 0 -0.034559083053960209 -0.00013922701078047145 0 -0.034640349327562887 -8.3684077661154587e-05 0 -0.034502108454806765 -0.00016828738953563271 0 -0.03457188185371797 7.9552062858581892e-05 0 -0.034640349327562887 -8.3684077661154587e-05 0 -0.034479592307061102 -3.59324432024326e-05 0 -0.034559083053960209 -0.00013922701078047145 0 -0.034640349327562887 -8.3684077661154587e-05 0 -0.034479592307061102 -3.59324432024326e-05 0 -0.03457188185371797 7.9552062858581892e-05 0 -0.034640349327562887 -8.3684077661154587e-05 0 -0.034726982489843357 -2.8333138666173668e-05 0 -0.03457188185371797 7.9552062858581892e-05 0 -0.034726982489843357 -2.8333138666173668e-05 0 -0.035000097647222575 -2.1958939199057878e-07 0 -0.034726982489843357 -2.8333138666173668e-05 0 -0.035000097647222575 -2.1958939199057878e-07 0 -0.034966884988200629 -4.788564071756799e-05 0 -0.034737551227182965 -3.4779929663944826e-05 0 -0.034812186232864709 -4.8179246435092202e-05 0 -0.034726982489843357 -2.8333138666173668e-05 0 -0.034674861500210076 -5.6318773485140377e-05 0 -0.03467446317527284 8.6005928864067165e-06 0 -0.035000097647222575 -2.1958939199057878e-07 0 -0.034966884988200629 -4.788564071756799e-05 0 -0.034997384104369408 -1.6663708474768868e-05 0 -0.034812186232864709 -4.8179246435092202e-05 0 -0.034719318842086268 -5.3747866858442699e-05 0 -0.034674861500210076 -5.6318773485140377e-05 0 -0.03467446317527284 8.6005928864067165e-06 0 -0.034446788806880735 -8.9757716199264379e-05 0 -0.034376523908161122 -0.00030735589269343988 0 -0.034207174347543778 -0.0002229543790480737 0 -0.034025550529279566 -0.00032525776093085475 0 -0.034376523908161122 -0.00030735589269343988 0 -0.034207174347543778 -0.0002229543790480737 0 -0.034350715365682377 -0.00019112214971322367 0 -0.034512701769031644 -0.00014177828423606224 0 -0.034198600810340291 -0.0001323038586908952 0 -0.034621703636578821 -9.5949360662396377e-05 0 -0.034512701769031644 -0.00014177828423606224 0 -0.034640349327562887 -8.3684077661154587e-05 0 -0.034376523908161122 -0.00030735589269343988 0 -0.034502108454806765 -0.00016828738953563271 0 -0.034376523908161122 -0.00030735589269343988 0 -0.034502108454806765 -0.00016828738953563271 0 -0.034350715365682377 -0.00019112214971322367 0 -0.034502108454806765 -0.00016828738953563271 0 -0.034350715365682377 -0.00019112214971322367 0 -0.034393692039111905 -0.00013170228788889624 0 -0.034207174347543778 -0.0002229543790480737 0 -0.034350715365682377 -0.00019112214971322367 0 -0.034221532096073051 -0.00013137860194431641 0 -0.034350715365682377 -0.00019112214971322367 0 -0.034221532096073051 -0.00013137860194431641 0 -0.034393692039111905 -0.00013170228788889624 0 -0.034221532096073051 -0.00013137860194431641 0 -0.034268043069523073 2.6463283155796791e-05 0 -0.034393692039111905 -0.00013170228788889624 0 -0.034221532096073051 -0.00013137860194431641 0 -0.034268043069523073 2.6463283155796791e-05 0 -0.03406987144585099 -5.8984980438469191e-05 0 -0.026528736882013751 -0.00028402018621877061 0 -0.026539008012359495 -0.0006235005355282046 0 -0.026904216245837907 -0.0003039410904360881 0 -0.026528736882013751 -0.00028402018621877061 0 -0.026184273944486035 -0.00035410664285976344 0 -0.026295023430162504 -0.00048797986266583838 0 -0.034502108454806765 -0.00016828738953563271 0 -0.034393692039111905 -0.00013170228788889624 0 -0.034515557435218377 -0.00023081552654016869 0 -0.030327854637251055 -0.00013217696721369519 0 -0.030368399387554739 -0.00030306443842820783 0 -0.034268043069523073 2.6463283155796791e-05 0 -0.034393692039111905 -0.00013170228788889624 0 -0.034515557435218377 -0.00023081552654016869 0 -0.026079722372784643 -0.00051582141359122102 0 -0.026184273944486035 -0.00035410664285976344 0 -0.025991772277530037 -0.00045322557734846718 0 -0.034205728930285215 -0.00065458513474830719 0 -0.034504104160631245 -0.00023689024663837093 0 -0.034515557435218377 -0.00023081552654016869 0 -0.030048487723977675 -0.00058561486525874826 0 -0.030368399387554739 -0.00030306443842820783 0 -0.026184273944486035 -0.00035410664285976344 0 -0.025991772277530037 -0.00045322557734846718 0 -0.026295023430162504 -0.00048797986266583838 0 -0.025991772277530037 -0.00045322557734846718 0 -0.026199370567204856 -0.00072829237093091387 0 -0.026295023430162504 -0.00048797986266583838 0 -0.025991772277530037 -0.00045322557734846718 0 -0.025718031340557761 -0.00033496475949955021 0 -0.025942851111602942 -0.00024201161520047632 0 -0.02605027878998813 -0.00030445377032355147 0 -0.025991772277530037 -0.00045322557734846718 0 -0.025942851111602942 -0.00024201161520047632 0 -0.025998850693229773 -0.00047611641518934927 0 -0.025918111867873937 -0.00051870842187807273 0 -0.026199370567204856 -0.00072829237093091387 0 -0.026539008012359495 -0.0006235005355282046 0 -0.026426955446870199 -0.00094350505641612879 0 -0.026539008012359495 -0.0006235005355282046 0 -0.026640520027549738 -0.0009008671483588189 0 -0.026426955446870199 -0.00094350505641612879 0 -0.026528736882013751 -0.00028402018621877061 0 -0.026539008012359495 -0.0006235005355282046 0 -0.026295023430162504 -0.00048797986266583838 0 -0.026199370567204856 -0.00072829237093091387 0 -0.026539008012359495 -0.0006235005355282046 0 -0.026295023430162504 -0.00048797986266583838 0 -0.02682496585075568 -0.00066003092762427192 0 -0.027066033741719522 -0.00062377914404702646 0 -0.026904216245837907 -0.0003039410904360881 0 -0.026539008012359495 -0.0006235005355282046 0 -0.02682496585075568 -0.00066003092762427192 0 -0.026904216245837907 -0.0003039410904360881 0 -0.026539008012359495 -0.0006235005355282046 0 -0.02682496585075568 -0.00066003092762427192 0 -0.026640520027549738 -0.0009008671483588189 0 -0.02682496585075568 -0.00066003092762427192 0 -0.026845280742788954 -0.00088845620777976608 0 -0.026640520027549738 -0.0009008671483588189 0 -0.024024031585433057 -0.00049059713791355672 0 -0.024046340457568201 -0.00159793921294904 0 -0.02682496585075568 -0.00066003092762427192 0 -0.027066033741719522 -0.00062377914404702646 0 -0.026845280742788954 -0.00088845620777976608 0 -0.022305970477885552 -0.0019116522184628696 0 -0.021978125022452749 -0.00027284611972023778 0 -0.021079546649977708 -0.0023287264418674182 0 -0.022305970477885552 -0.0019116522184628696 0 -0.02416477339190885 -0.0013904344434216818 0 -0.021978125022452749 -0.00027284611972023778 0 -0.02416477339190885 -0.0013904344434216818 0 -0.024480267113831639 0.00041271176112683881 0 -0.021978125022452749 -0.00027284611972023778 0 -0.024480267113831639 0.00041271176112683881 0 -0.021978125022452749 -0.00027284611972023778 0 -0.023391212030745623 0.0018077234573951537 0 -0.024024031585433057 -0.00049059713791355672 0 -0.029277666420023756 -5.990861926578337e-05 0 -0.029277666420023756 -5.990861926578337e-05 0 -0.030703121065289777 -0.00013460615106131106 0 -0.027066033741719522 -0.00062377914404702646 0 -0.027300182458282002 -0.00033528099051659889 0 -0.026904216245837907 -0.0003039410904360881 0 -0.0337054164391744 6.9750004417132406e-05 0 -0.033784538208370456 -2.2898060817502784e-05 0 -0.033935796055468898 8.3952692575013004e-05 0 -0.033312639461494646 -0.00050535569954656659 0 -0.033481254620244143 -0.00031538893930830854 0 -0.033711018324172587 -0.00054713257289748561 0 -0.029277666420023756 -5.990861926578337e-05 0 -0.0295871990244626 0.0005892956545097617 0 -0.024480267113831639 0.00041271176112683881 0 -0.023391212030745623 0.0018077234573951537 0 -0.02596201358922344 0.0015388276824260471 0 -0.029277666420023756 -5.990861926578337e-05 0 -0.033690015993393455 0.00018787119396683526 0 -0.033690015993393455 0.00018787119396683526 0 -0.03358792434795288 -0.00022166640104475763 0 -0.0337054164391744 6.9750004417132406e-05 0 -0.033686980371226714 -3.6051456859929842e-05 0 -0.033784538208370456 -2.2898060817502784e-05 0 -0.033686980371226714 -3.6051456859929842e-05 0 -0.033784538208370456 -2.2898060817502784e-05 0 -0.033751032355419278 -0.00012229664110030884 0 -0.033784538208370456 -2.2898060817502784e-05 0 -0.033890085848471668 -8.8776048580455446e-05 0 -0.033751032355419278 -0.00012229664110030884 0 -0.033784538208370456 -2.2898060817502784e-05 0 -0.033935796055468898 8.3952692575013004e-05 0 -0.033890085848471668 -8.8776048580455446e-05 0 -0.033935796055468898 8.3952692575013004e-05 0 -0.03406987144585099 -5.8984980438469191e-05 0 -0.033890085848471668 -8.8776048580455446e-05 0 -0.030327854637251055 -0.00013217696721369519 0 -0.030703121065289777 -0.00013460615106131106 0 -0.034268043069523073 2.6463283155796791e-05 0 -0.033935796055468898 8.3952692575013004e-05 0 -0.03406987144585099 -5.8984980438469191e-05 0 -0.034221532096073051 -0.00013137860194431641 0 -0.03406987144585099 -5.8984980438469191e-05 0 -0.034047681059803388 -0.00017475082575299324 0 -0.035000097647222575 -2.1958939199057878e-07 0 -0.034997384104369408 -1.6663708474768868e-05 0 -0.034999970753029498 4.6419065042742167e-08 0 -0.03406987144585099 -5.8984980438469191e-05 0 -0.034047681059803388 -0.00017475082575299324 0 -0.033890085848471668 -8.8776048580455446e-05 0 -0.034207174347543778 -0.0002229543790480737 0 -0.034221532096073051 -0.00013137860194431641 0 -0.034047681059803388 -0.00017475082575299324 0 -0.034047681059803388 -0.00017475082575299324 0 -0.03387875292392336 -0.00017923158812763027 0 -0.033890085848471668 -8.8776048580455446e-05 0 -0.034198600810340291 -0.0001323038586908952 0 -0.033896638580849306 -7.3136258930473985e-05 0 -0.03387875292392336 -0.00017923158812763027 0 -0.034025550529279566 -0.00032525776093085475 0 -0.033753076542019061 -0.0002043862709772284 0 -0.034047681059803388 -0.00017475082575299324 0 -0.03387875292392336 -0.00017923158812763027 0 -0.034025550529279566 -0.00032525776093085475 0 -0.034207174347543778 -0.0002229543790480737 0 -0.034047681059803388 -0.00017475082575299324 0 -0.034025550529279566 -0.00032525776093085475 0 -0.03467446317527284 8.6005928864067165e-06 0 -0.034367835717571467 5.6301979599676782e-05 0 -0.034446788806880735 -8.9757716199264379e-05 0 -0.034997384104369408 -1.6663708474768868e-05 0 -0.034996815779875547 -8.6531013895735794e-06 0 -0.034999970753029498 4.6419065042742167e-08 0 -0.034367835717571467 5.6301979599676782e-05 0 -0.034446788806880735 -8.9757716199264379e-05 0 -0.034147049821205429 -0.0001014828218710868 0 -0.034367835717571467 5.6301979599676782e-05 0 -0.034147049821205429 -0.0001014828218710868 0 -0.034013522598788343 5.4318136499173385e-05 0 -0.034719318842086268 -5.3747866858442699e-05 0 -0.034578894241317465 -5.228481093793474e-05 0 -0.034999970753029498 4.6419065042742167e-08 0 -0.034994856590927069 -2.7569015899396483e-06 0 -0.034988160211735252 -6.7532379261101792e-06 0 -0.034996815779875547 -8.6531013895735794e-06 0 -0.034999970753029498 4.6419065042742167e-08 0 -0.034994856590927069 -2.7569015899396483e-06 0 -0.034578894241317465 -5.228481093793474e-05 0 -0.034427438865136634 -3.5395316737259836e-05 0 -0.034147049821205429 -0.0001014828218710868 0 -0.033897343555958193 -6.4691198443937668e-05 0 -0.034013522598788343 5.4318136499173385e-05 0 -0.033897343555958193 -6.4691198443937668e-05 0 -0.034013522598788343 5.4318136499173385e-05 0 -0.033801507162558177 -5.7997707201768237e-06 0 -0.033896638580849306 -7.3136258930473985e-05 0 -0.033815243004192114 -1.6876899620337527e-05 0 -0.033729726359400122 -0.00011231682131718123 0 -0.033753076542019061 -0.0002043862709772284 0 -0.033751032355419278 -0.00012229664110030884 0 -0.033729726359400122 -0.00011231682131718123 0 -0.033753076542019061 -0.0002043862709772284 0 -0.033801507162558177 -5.7997707201768237e-06 0 -0.03387875292392336 -0.00017923158812763027 0 -0.033753076542019061 -0.0002043862709772284 0 -0.033751032355419278 -0.00012229664110030884 0 -0.03387875292392336 -0.00017923158812763027 0 -0.033890085848471668 -8.8776048580455446e-05 0 -0.033751032355419278 -0.00012229664110030884 0 -0.033729726359400122 -0.00011231682131718123 0 -0.033751032355419278 -0.00012229664110030884 0 -0.033681531964433256 -0.00013888796407747372 0 -0.033686980371226714 -3.6051456859929842e-05 0 -0.033751032355419278 -0.00012229664110030884 0 -0.033681531964433256 -0.00013888796407747372 0 -0.033729726359400122 -0.00011231682131718123 0 -0.033681531964433256 -0.00013888796407747372 0 -0.033830976465901122 -7.2494956336777063e-05 0 -0.033681531964433256 -0.00013888796407747372 0 -0.033830976465901122 -7.2494956336777063e-05 0 -0.03379921938086488 -0.0002782447898702253 0 -0.033830976465901122 -7.2494956336777063e-05 0 -0.034029479526074394 -0.00016299596274390528 0 -0.03379921938086488 -0.0002782447898702253 0 -0.033830976465901122 -7.2494956336777063e-05 0 -0.033876925597018624 2.4587126561501757e-05 0 -0.034014010329331441 6.7920245539434407e-05 0 -0.033830976465901122 -7.2494956336777063e-05 0 -0.034014010329331441 6.7920245539434407e-05 0 -0.034029479526074394 -0.00016299596274390528 0 -0.033729726359400122 -0.00011231682131718123 0 -0.033830976465901122 -7.2494956336777063e-05 0 -0.033801507162558177 -5.7997707201768237e-06 0 -0.033830976465901122 -7.2494956336777063e-05 0 -0.033801507162558177 -5.7997707201768237e-06 0 -0.033876925597018624 2.4587126561501757e-05 0 -0.033897343555958193 -6.4691198443937668e-05 0 -0.033801507162558177 -5.7997707201768237e-06 0 -0.033833134997510374 1.0963434017108978e-05 0 -0.034427438865136634 -3.5395316737259836e-05 0 -0.034534681534121647 3.9956094199432761e-05 0 -0.034994856590927069 -2.7569015899396483e-06 0 -0.034987211545633071 -6.3571792394080561e-06 0 -0.034988160211735252 -6.7532379261101792e-06 0 -0.033897343555958193 -6.4691198443937668e-05 0 -0.03383485282362228 3.0144854294967586e-05 0 -0.033833134997510374 1.0963434017108978e-05 0 -0.034999970753029498 4.6419065042742167e-08 0 -0.034988160211735252 -6.7532379261101792e-06 0 -0.034999911726029849 -4.853919653674732e-08 0 -0.034534681534121647 3.9956094199432761e-05 0 -0.034597728520257748 3.3105289796777103e-06 0 -0.03383485282362228 3.0144854294967586e-05 0 -0.033833134997510374 1.0963434017108978e-05 0 -0.033876925597018624 2.4587126561501757e-05 0 -0.033801507162558177 -5.7997707201768237e-06 0 -0.033833134997510374 1.0963434017108978e-05 0 -0.033876925597018624 2.4587126561501757e-05 0 -0.034534681534121647 3.9956094199432761e-05 0 -0.034473036489546721 1.4131899338010776e-05 0 -0.034984221747551981 -9.0914933792363001e-06 0 -0.034974397164533794 -1.5494581874127011e-05 0 -0.034953722259852243 -2.5751619797974071e-05 0 -0.03383485282362228 3.0144854294967586e-05 0 -0.033876925597018624 2.4587126561501757e-05 0 -0.034014010329331441 6.7920245539434407e-05 0 -0.034988080492787572 -6.0873748921745205e-06 0 -0.034984221747551981 -9.0914933792363001e-06 0 -0.034953722259852243 -2.5751619797974071e-05 0 -0.034987005104059679 -6.6751108233622377e-06 0 -0.034984221747551981 -9.0914933792363001e-06 0 -0.034988160211735252 -6.7532379261101792e-06 0 -0.034534681534121647 3.9956094199432761e-05 0 -0.034838554718809228 4.2187560077411499e-05 0 -0.034984221747551981 -9.0914933792363001e-06 0 -0.034988160211735252 -6.7532379261101792e-06 0 -0.034999911726029849 -4.853919653674732e-08 0 -0.034971442540774271 -1.4628650878985843e-05 0 -0.034999911726029849 -4.853919653674732e-08 0 -0.034953405235368613 -2.6439574001628982e-05 0 -0.034984221747551981 -9.0914933792363001e-06 0 -0.034999911726029849 -4.853919653674732e-08 0 -0.034974397164533794 -1.5494581874127011e-05 0 -0.034999911726029849 -4.853919653674732e-08 0 -0.034974397164533794 -1.5494581874127011e-05 0 -0.034953405235368613 -2.6439574001628982e-05 0 -0.034974397164533794 -1.5494581874127011e-05 0 -0.034953405235368613 -2.6439574001628982e-05 0 -0.034953722259852243 -2.5751619797974071e-05 0 -0.034971442540774271 -1.4628650878985843e-05 0 -0.034923536196917918 -5.0487687940542395e-05 0 -0.034953405235368613 -2.6439574001628982e-05 0 -0.034923536196917918 -5.0487687940542395e-05 0 -0.034953405235368613 -2.6439574001628982e-05 0 -0.034889349438952562 -7.0066880747009791e-05 0 -0.034953405235368613 -2.6439574001628982e-05 0 -0.034953722259852243 -2.5751619797974071e-05 0 -0.034889349438952562 -7.0066880747009791e-05 0 -0.034473036489546721 1.4131899338010776e-05 0 -0.034625063644854931 -6.224045610517411e-05 0 -0.034014010329331441 6.7920245539434407e-05 0 -0.034029479526074394 -0.00016299596274390528 0 -0.034331354297221603 -1.7549442938594549e-05 0 -0.034029479526074394 -0.00016299596274390528 0 -0.034331354297221603 -1.7549442938594549e-05 0 -0.034282507934542308 -0.00034904253734597499 0 -0.034785284351278027 -0.00022098952881630706 0 -0.034331354297221603 -1.7549442938594549e-05 0 -0.034282507934542308 -0.00034904253734597499 0 -0.034785284351278027 -0.00022098952881630706 0 -0.03455404057020995 -0.00072307728587572839 0 -0.034282507934542308 -0.00034904253734597499 0 -0.032014052144250987 -0.00030072210413150665 0 -0.031532773415732858 0.00034282751465159535 0 -0.03455404057020995 -0.00072307728587572839 0 -0.034282507934542308 -0.00034904253734597499 0 -0.034080891630632285 -0.00062712372306335511 0 -0.034282507934542308 -0.00034904253734597499 0 -0.034080891630632285 -0.00062712372306335511 0 -0.033973825340749747 -0.00038864401818436276 0 -0.034029479526074394 -0.00016299596274390528 0 -0.034282507934542308 -0.00034904253734597499 0 -0.033973825340749747 -0.00038864401818436276 0 -0.034029479526074394 -0.00016299596274390528 0 -0.033973825340749747 -0.00038864401818436276 0 -0.03379921938086488 -0.0002782447898702253 0 -0.033973825340749747 -0.00038864401818436276 0 -0.03379921938086488 -0.0002782447898702253 0 -0.033711018324172587 -0.00054713257289748561 0 -0.033481254620244143 -0.00031538893930830854 0 -0.033681531964433256 -0.00013888796407747372 0 -0.03379921938086488 -0.0002782447898702253 0 -0.033481254620244143 -0.00031538893930830854 0 -0.03379921938086488 -0.0002782447898702253 0 -0.033711018324172587 -0.00054713257289748561 0 -0.034080891630632285 -0.00062712372306335511 0 -0.033973825340749747 -0.00038864401818436276 0 -0.033711018324172587 -0.00054713257289748561 0 -0.031532773415732858 0.00034282751465159535 0 -0.0295871990244626 0.0005892956545097617 0 -0.028533818410271087 0.0012581188194437536 0 -0.02596201358922344 0.0015388276824260471 0 -0.026484054373883435 -0.00057474922741268921 0 -0.028533818410271087 0.0012581188194437536 0 -0.026484054373883435 -0.00057474922741268921 0 -0.028522789776198609 -0.00073854607146247534 0 -0.024480267113831639 0.00041271176112683881 0 -0.02596201358922344 0.0015388276824260471 0 -0.026484054373883435 -0.00057474922741268921 0 -0.02416477339190885 -0.0013904344434216818 0 -0.026484054373883435 -0.00057474922741268921 0 -0.025646001880363652 -0.0024032639921626859 0 -0.02416477339190885 -0.0013904344434216818 0 -0.024480267113831639 0.00041271176112683881 0 -0.026484054373883435 -0.00057474922741268921 0 -0.026484054373883435 -0.00057474922741268921 0 -0.028522789776198609 -0.00073854607146247534 0 -0.027678734243784933 -0.0022770458162220016 0 -0.026484054373883435 -0.00057474922741268921 0 -0.027678734243784933 -0.0022770458162220016 0 -0.025646001880363652 -0.0024032639921626859 0 -0.028522789776198609 -0.00073854607146247534 0 -0.029394717531943882 -0.0022263155244906115 0 -0.027678734243784933 -0.0022770458162220016 0 -0.028522789776198609 -0.00073854607146247534 0 -0.030246771231677981 -0.00062915786419072905 0 -0.029394717531943882 -0.0022263155244906115 0 -0.03011594880338448 -0.0011641707032079495 0 -0.029508873160783499 -0.0021361559647568424 0 -0.030216163874049167 -0.0020957642658129784 0 -0.030156143899889604 -0.0015719625018620449 0 -0.029394717531943882 -0.0022263155244906115 0 -0.03077416560327061 -0.0018016391512168676 0 -0.030216163874049167 -0.0020957642658129784 0 -0.030156143899889604 -0.0015719625018620449 0 -0.031097143633962761 0.00095648848363542361 0 -0.028533818410271087 0.0012581188194437536 0 -0.030246771231677981 -0.00062915786419072905 0 -0.032014052144250987 -0.00030072210413150665 0 -0.03011594880338448 -0.0011641707032079495 0 -0.028533818410271087 0.0012581188194437536 0 -0.028522789776198609 -0.00073854607146247534 0 -0.030246771231677981 -0.00062915786419072905 0 -0.017672557313372979 -0.0036592146316091994 0 -0.018883804910928184 -0.0036952736655314518 0 -0.017736241956675183 -0.0029535914413069985 0 -0.023367343213260922 -0.003653178711888663 0 -0.022813992243232765 -0.0037491995834277483 0 -0.030492374271238659 -0.00298434755665359 0 -0.030844641662789225 -0.0031321284856193751 0 -0.029181070739072522 -0.0037068755078686188 0 -0.016531796098861944 -0.0034716733621115111 0 -0.017672557313372979 -0.0036592146316091994 0 -0.017063974220382899 -0.0031057572645084722 0 -0.023794702872984637 -0.0033098210727215975 0 -0.023367343213260922 -0.003653178711888663 0 -0.017672557313372979 -0.0036592146316091994 0 -0.017736241956675183 -0.0029535914413069985 0 -0.017063974220382899 -0.0031057572645084722 0 -0.029181070739072522 -0.0037068755078686188 0 -0.030260246077279843 -0.0025785324219384045 0 -0.029394717531943882 -0.0022263155244906115 0 -0.030492374271238659 -0.00298434755665359 0 -0.029181070739072522 -0.0037068755078686188 0 -0.030260246077279843 -0.0025785324219384045 0 -0.030754065789388774 -0.0021880784387648387 0 -0.030216163874049167 -0.0020957642658129784 0 -0.030260246077279843 -0.0025785324219384045 0 -0.030216163874049167 -0.0020957642658129784 0 -0.030260246077279843 -0.0025785324219384045 0 -0.029394717531943882 -0.0022263155244906115 0 -0.029181070739072522 -0.0037068755078686188 0 -0.029394717531943882 -0.0022263155244906115 0 -0.027678734243784933 -0.0022770458162220016 0 -0.027678734243784933 -0.0022770458162220016 0 -0.025646001880363652 -0.0024032639921626859 0 -0.026741753949334222 -0.0038199514407417741 0 -0.029181070739072522 -0.0037068755078686188 0 -0.027678734243784933 -0.0022770458162220016 0 -0.026741753949334222 -0.0038199514407417741 0 -0.025646001880363652 -0.0024032639921626859 0 -0.026741753949334222 -0.0038199514407417741 0 -0.024203933507326872 -0.0036906273305050597 0 -0.022813992243232765 -0.0037491995834277483 0 -0.02214798368018607 -0.0036422242256599724 0 -0.018883804910928184 -0.0036952736655314518 0 -0.019220153371007968 -0.0028946624104814324 0 -0.020114949272627056 -0.0036588478678812454 0 -0.018883804910928184 -0.0036952736655314518 0 -0.018399782983389238 -0.0025803001610180212 0 -0.017736241956675183 -0.0029535914413069985 0 -0.018883804910928184 -0.0036952736655314518 0 -0.018399782983389238 -0.0025803001610180212 0 -0.019220153371007968 -0.0028946624104814324 0 -0.019220153371007968 -0.0028946624104814324 0 -0.01922355162497217 -0.0018444877548520209 0 -0.020041510349502762 -0.0026008970853349813 0 -0.018399782983389238 -0.0025803001610180212 0 -0.019220153371007968 -0.0028946624104814324 0 -0.01922355162497217 -0.0018444877548520209 0 -0.018399782983389238 -0.0025803001610180212 0 -0.01922355162497217 -0.0018444877548520209 0 -0.018213090030355213 -0.00160060088534354 0 -0.018399782983389238 -0.0025803001610180212 0 -0.0177313526925914 -0.0021916323202146536 0 -0.018213090030355213 -0.00160060088534354 0 -0.018399782983389238 -0.0025803001610180212 0 -0.0177313526925914 -0.0021916323202146536 0 -0.017736241956675183 -0.0029535914413069985 0 -0.017736241956675183 -0.0029535914413069985 0 -0.017063974220382899 -0.0031057572645084722 0 -0.01693625740784321 -0.0024558879401325182 0 -0.016592973105431522 -0.0029616417184634993 0 -0.017063974220382899 -0.0031057572645084722 0 -0.01693625740784321 -0.0024558879401325182 0 -0.0177313526925914 -0.0021916323202146536 0 -0.01693625740784321 -0.0024558879401325182 0 -0.017313934898056046 -0.0013748281610169312 0 -0.0177313526925914 -0.0021916323202146536 0 -0.017736241956675183 -0.0029535914413069985 0 -0.01693625740784321 -0.0024558879401325182 0 -0.016479979900461735 -0.00049658160757512591 0 -0.016366231968352164 -0.0016688853191273868 0 -0.017313934898056046 -0.0013748281610169312 0 -0.016366231968352164 -0.0016688853191273868 0 -0.01693625740784321 -0.0024558879401325182 0 -0.017313934898056046 -0.0013748281610169312 0 -0.0177313526925914 -0.0021916323202146536 0 -0.017313934898056046 -0.0013748281610169312 0 -0.018213090030355213 -0.00160060088534354 0 -0.017313934898056046 -0.0013748281610169312 0 -0.018213090030355213 -0.00160060088534354 0 -0.017753042220743892 -0.00062720808107115183 0 -0.016582500927297055 -0.00056314910869192285 0 -0.017227542980247104 -0.0013008768615107118 0 -0.016495080798005567 -0.00054041035986787439 0 -0.017313934898056046 -0.0013748281610169312 0 -0.017753042220743892 -0.00062720808107115183 0 -0.016495080798005567 -0.00054041035986787439 0 -0.017753042220743892 -0.00062720808107115183 0 -0.017484365759303823 0.00026516624415740252 0 -0.016495080798005567 -0.00054041035986787439 0 -0.016599172366005801 0.00033312980315824584 0 -0.017484365759303823 0.00026516624415740252 0 -0.017753042220743892 -0.00062720808107115183 0 -0.017484365759303823 0.00026516624415740252 0 -0.018387556882768705 0.00023082305927709474 0 -0.017484365759303823 0.00026516624415740252 0 -0.018387556882768705 0.00023082305927709474 0 -0.018013037148225056 0.0014032763141274831 0 -0.017484365759303823 0.00026516624415740252 0 -0.017114812526039684 0.0010574495238502733 0 -0.018013037148225056 0.0014032763141274831 0 -0.016599172366005801 0.00033312980315824584 0 -0.017484365759303823 0.00026516624415740252 0 -0.017114812526039684 0.0010574495238502733 0 -0.016599172366005801 0.00033312980315824584 0 -0.017114812526039684 0.0010574495238502733 0 -0.016348013331429278 0.0011750704469677931 0 -0.019094157152376671 0.00072875303871913506 0 -0.018387556882768705 0.00023082305927709474 0 -0.018013037148225056 0.0014032763141274831 0 -0.017753042220743892 -0.00062720808107115183 0 -0.018387556882768705 0.00023082305927709474 0 -0.018758157467268586 -0.00082170637193514193 0 -0.018387556882768705 0.00023082305927709474 0 -0.019257180420086738 -0.00014115118836169579 0 -0.018758157467268586 -0.00082170637193514193 0 -0.019094157152376671 0.00072875303871913506 0 -0.019257180420086738 -0.00014115118836169579 0 -0.020137562063960484 3.1473721640083514e-05 0 -0.019094157152376671 0.00072875303871913506 0 -0.018387556882768705 0.00023082305927709474 0 -0.019257180420086738 -0.00014115118836169579 0 -0.019257180420086738 -0.00014115118836169579 0 -0.018758157467268586 -0.00082170637193514193 0 -0.019691184413327449 -0.00089853485731728638 0 -0.018213090030355213 -0.00160060088534354 0 -0.017753042220743892 -0.00062720808107115183 0 -0.018758157467268586 -0.00082170637193514193 0 -0.01922355162497217 -0.0018444877548520209 0 -0.018213090030355213 -0.00160060088534354 0 -0.018758157467268586 -0.00082170637193514193 0 -0.01922355162497217 -0.0018444877548520209 0 -0.018758157467268586 -0.00082170637193514193 0 -0.019691184413327449 -0.00089853485731728638 0 -0.01922355162497217 -0.0018444877548520209 0 -0.020337569226571532 -0.0017151666815148805 0 -0.019691184413327449 -0.00089853485731728638 0 -0.020337569226571532 -0.0017151666815148805 0 -0.020457052465524182 -0.00092336962446569254 0 -0.019691184413327449 -0.00089853485731728638 0 -0.020337569226571532 -0.0017151666815148805 0 -0.020990418259735046 -0.0013246519633073515 0 -0.021078348308044174 -0.0019350065178922046 0 -0.020337569226571532 -0.0017151666815148805 0 -0.020457052465524182 -0.00092336962446569254 0 -0.020990418259735046 -0.0013246519633073515 0 -0.020457052465524182 -0.00092336962446569254 0 -0.021090504620415128 -0.00066920896978480587 0 -0.020990418259735046 -0.0013246519633073515 0 -0.020457052465524182 -0.00092336962446569254 0 -0.020137562063960484 3.1473721640083514e-05 0 -0.021090504620415128 -0.00066920896978480587 0 -0.020457052465524182 -0.00092336962446569254 0 -0.019691184413327449 -0.00089853485731728638 0 -0.020137562063960484 3.1473721640083514e-05 0 -0.019257180420086738 -0.00014115118836169579 0 -0.019691184413327449 -0.00089853485731728638 0 -0.020137562063960484 3.1473721640083514e-05 0 -0.010617270113859479 -0.0025157410225530078 0 -0.011933521556928889 -0.0020513151172020382 0 -0.011811331765177447 -0.0031541265830997015 0 -0.015414622057720047 -0.0012467951150965829 0 -0.016212197969736428 -0.0019446209323872696 0 -0.010617270113859479 -0.0025157410225530078 0 -0.010941499048433541 -0.0014851815902715457 0 -0.011933521556928889 -0.0020513151172020382 0 -0.014198529643617407 -0.00055815750927632173 0 -0.015414622057720047 -0.0012467951150965829 0 -0.0093683620089147022 -0.0018740071865239907 0 -0.010617270113859479 -0.0025157410225530078 0 -0.010941499048433541 -0.0014851815902715457 0 -0.013118421513701167 -0.0017261687299734128 0 -0.011933521556928889 -0.0020513151172020382 0 -0.012894285378438406 -0.0024684995449161039 0 -0.013118421513701167 -0.0017261687299734128 0 -0.011933521556928889 -0.0020513151172020382 0 -0.012623865835639075 -0.0011289690099547136 0 -0.012299244152974703 -0.0026696832532358671 0 -0.012689541683238817 -0.0030533297746746543 0 -0.011811331765177447 -0.0031541265830997015 0 -0.011933521556928889 -0.0020513151172020382 0 -0.012299244152974703 -0.0026696832532358671 0 -0.012894285378438406 -0.0024684995449161039 0 -0.011933521556928889 -0.0020513151172020382 0 -0.012299244152974703 -0.0026696832532358671 0 -0.011811331765177447 -0.0031541265830997015 0 -0.012299244152974703 -0.0026696832532358671 0 -0.012894285378438406 -0.0024684995449161039 0 -0.012689541683238817 -0.0030533297746746543 0 -0.012894285378438406 -0.0024684995449161039 0 -0.012689541683238817 -0.0030533297746746543 0 -0.01354703051395465 -0.0029704606958162491 0 -0.012689541683238817 -0.0030533297746746543 0 -0.011811331765177447 -0.0031541265830997015 0 -0.012980141218639914 -0.0038213769148877741 0 -0.012689541683238817 -0.0030533297746746543 0 -0.012980141218639914 -0.0038213769148877741 0 -0.01354703051395465 -0.0029704606958162491 0 -0.016212197969736428 -0.0019446209323872696 0 -0.018752690676583375 -0.0018657598229719543 0 -0.021090504620415128 -0.00066920896978480587 0 -0.020990418259735046 -0.0013246519633073515 0 -0.021865319473467891 -0.0012354089923216781 0 -0.020990418259735046 -0.0013246519633073515 0 -0.021526674239743179 -0.0017148397713670177 0 -0.021929076694993121 -0.0013357151382263862 0 -0.022359465903374655 -0.0011479740828247023 0 -0.018752690676583375 -0.0018657598229719543 0 -0.020990418259735046 -0.0013246519633073515 0 -0.021526674239743179 -0.0017148397713670177 0 -0.021078348308044174 -0.0019350065178922046 0 -0.021526674239743179 -0.0017148397713670177 0 -0.021929076694993121 -0.0013357151382263862 0 -0.02192194734281027 -0.0018176478941686566 0 -0.021929076694993121 -0.0013357151382263862 0 -0.02192194734281027 -0.0018176478941686566 0 -0.022389133471238977 -0.0016360685199339503 0 -0.02192194734281027 -0.0018176478941686566 0 -0.021641401318999873 -0.0021605205609484912 0 -0.022174745378423601 -0.0021258265674575245 0 -0.021526674239743179 -0.0017148397713670177 0 -0.02192194734281027 -0.0018176478941686566 0 -0.021641401318999873 -0.0021605205609484912 0 -0.021641401318999873 -0.0021605205609484912 0 -0.021807825255867781 -0.0026532334614810223 0 -0.022174745378423601 -0.0021258265674575245 0 -0.021807825255867781 -0.0026532334614810223 0 -0.021907477870340704 -0.0033172978684619736 0 -0.022426176098786058 -0.0026017714626185733 0 -0.021641401318999873 -0.0021605205609484912 0 -0.021807825255867781 -0.0026532334614810223 0 -0.021419312245788337 -0.002632233728416318 0 -0.021807825255867781 -0.0026532334614810223 0 -0.021419312245788337 -0.002632233728416318 0 -0.021509083495720872 -0.0030608608775540931 0 -0.021419312245788337 -0.002632233728416318 0 -0.021509083495720872 -0.0030608608775540931 0 -0.021375971940162664 -0.003012701701179283 0 -0.021419312245788337 -0.002632233728416318 0 -0.020932833644328797 -0.0024929844090187843 0 -0.021375971940162664 -0.003012701701179283 0 -0.021641401318999873 -0.0021605205609484912 0 -0.021419312245788337 -0.002632233728416318 0 -0.021078348308044174 -0.0019350065178922046 0 -0.021526674239743179 -0.0017148397713670177 0 -0.021641401318999873 -0.0021605205609484912 0 -0.021078348308044174 -0.0019350065178922046 0 -0.021419312245788337 -0.002632233728416318 0 -0.021078348308044174 -0.0019350065178922046 0 -0.020932833644328797 -0.0024929844090187843 0 -0.020337569226571532 -0.0017151666815148805 0 -0.020041510349502762 -0.0026008970853349813 0 -0.020932833644328797 -0.0024929844090187843 0 -0.020337569226571532 -0.0017151666815148805 0 -0.021078348308044174 -0.0019350065178922046 0 -0.020932833644328797 -0.0024929844090187843 0 -0.01922355162497217 -0.0018444877548520209 0 -0.020337569226571532 -0.0017151666815148805 0 -0.020041510349502762 -0.0026008970853349813 0 -0.019220153371007968 -0.0028946624104814324 0 -0.020041510349502762 -0.0026008970853349813 0 -0.020114949272627056 -0.0036588478678812454 0 -0.020041510349502762 -0.0026008970853349813 0 -0.020932833644328797 -0.0024929844090187843 0 -0.020876662450347326 -0.0030244229146669781 0 -0.020932833644328797 -0.0024929844090187843 0 -0.020876662450347326 -0.0030244229146669781 0 -0.021375971940162664 -0.003012701701179283 0 -0.020876662450347326 -0.0030244229146669781 0 -0.021375971940162664 -0.003012701701179283 0 -0.021606095696021222 -0.0033279781287567332 0 -0.02214798368018607 -0.0036422242256599724 0 -0.021626497050738748 -0.0033962124970429242 0 -0.020876662450347326 -0.0030244229146669781 0 -0.020114949272627056 -0.0036588478678812454 0 -0.021606095696021222 -0.0033279781287567332 0 -0.020041510349502762 -0.0026008970853349813 0 -0.020876662450347326 -0.0030244229146669781 0 -0.020114949272627056 -0.0036588478678812454 0 -0.02416477339190885 -0.0013904344434216818 0 -0.025646001880363652 -0.0024032639921626859 0 -0.024203933507326872 -0.0036906273305050597 0 -0.022305970477885552 -0.0019116522184628696 0 -0.02416477339190885 -0.0013904344434216818 0 -0.024203933507326872 -0.0036906273305050597 0 -0.022305970477885552 -0.0019116522184628696 0 -0.024203933507326872 -0.0036906273305050597 0 -0.021606095696021222 -0.0033279781287567332 0 -0.022305970477885552 -0.0019116522184628696 0 -0.021079546649977708 -0.0023287264418674182 0 -0.021606095696021222 -0.0033279781287567332 0 -0.021079546649977708 -0.0023287264418674182 0 -0.021606095696021222 -0.0033279781287567332 0 -0.021385697530869711 -0.0030770511668864573 0 -0.021079546649977708 -0.0023287264418674182 0 -0.021244312343749121 -0.0031273077189107826 0 -0.021385697530869711 -0.0030770511668864573 0 -0.026845280742788954 -0.00088845620777976608 0 -0.026640520027549738 -0.0009008671483588189 0 -0.02664498781269057 -0.0011433747785836847 0 -0.024046340457568201 -0.00159793921294904 0 -0.024034629839768406 -0.0017924562419116574 0 -0.021807825255867781 -0.0026532334614810223 0 -0.021907477870340704 -0.0033172978684619736 0 -0.021509083495720872 -0.0030608608775540931 0 -0.024034629839768406 -0.0017924562419116574 0 -0.021956651990247759 -0.0022610192630824356 0 -0.021244312343749121 -0.0031273077189107826 0 -0.021509083495720872 -0.0030608608775540931 0 -0.021385697530869711 -0.0030770511668864573 0 -0.021509083495720872 -0.0030608608775540931 0 -0.021375971940162664 -0.003012701701179283 0 -0.021385697530869711 -0.0030770511668864573 0 -0.021375971940162664 -0.003012701701179283 0 -0.021606095696021222 -0.0033279781287567332 0 -0.021385697530869711 -0.0030770511668864573 0 -0.025627980462470223 -7.9978057875897013e-05 0 -0.025479890429686156 -7.6512077511087801e-05 0 -0.025571254590107371 3.8126002325786103e-05 0 -0.025627980462470223 -7.9978057875897013e-05 0 -0.025479890429686156 -7.6512077511087801e-05 0 -0.025515172041455269 -0.00022874651873428347 0 -0.02532313316019514 -0.00011799820695915036 0 -0.025479890429686156 -7.6512077511087801e-05 0 -0.025431825212024615 4.4233653767032584e-05 0 -0.02532313316019514 -0.00011799820695915036 0 -0.025479890429686156 -7.6512077511087801e-05 0 -0.025515172041455269 -0.00022874651873428347 0 -0.024034629839768406 -0.0017924562419116574 0 -0.026242365540886933 -0.00053114573038398041 0 -0.026640520027549738 -0.0009008671483588189 0 -0.02664498781269057 -0.0011433747785836847 0 -0.026426955446870199 -0.00094350505641612879 0 -0.025918111867873937 -0.00051870842187807273 0 -0.026242365540886933 -0.00053114573038398041 0 -0.025627980462470223 -7.9978057875897013e-05 0 -0.025515172041455269 -0.00022874651873428347 0 -0.025751408765024436 -0.00017863918309495667 0 -0.025718031340557761 -0.00033496475949955021 0 -0.025515172041455269 -0.00022874651873428347 0 -0.025751408765024436 -0.00017863918309495667 0 -0.025718031340557761 -0.00033496475949955021 0 -0.025751408765024436 -0.00017863918309495667 0 -0.025942851111602942 -0.00024201161520047632 0 -0.025751408765024436 -0.00017863918309495667 0 -0.025942851111602942 -0.00024201161520047632 0 -0.025903569569753111 -0.00013922215968696476 0 -0.025751408765024436 -0.00017863918309495667 0 -0.025903569569753111 -0.00013922215968696476 0 -0.025753016255890788 -8.53861291914057e-05 0 -0.025903569569753111 -0.00013922215968696476 0 -0.025827028442633154 -3.873911435423101e-05 0 -0.026021181624514184 -7.9820209784631159e-05 0 -0.025903569569753111 -0.00013922215968696476 0 -0.025827028442633154 -3.873911435423101e-05 0 -0.025753016255890788 -8.53861291914057e-05 0 -0.025627980462470223 -7.9978057875897013e-05 0 -0.025751408765024436 -0.00017863918309495667 0 -0.025753016255890788 -8.53861291914057e-05 0 -0.025827028442633154 -3.873911435423101e-05 0 -0.025753016255890788 -8.53861291914057e-05 0 -0.025702572629809427 1.0460969708025671e-05 0 -0.025627980462470223 -7.9978057875897013e-05 0 -0.025753016255890788 -8.53861291914057e-05 0 -0.025702572629809427 1.0460969708025671e-05 0 -0.025627980462470223 -7.9978057875897013e-05 0 -0.025702572629809427 1.0460969708025671e-05 0 -0.025571254590107371 3.8126002325786103e-05 0 -0.022681002222218149 -0.00069032734056655111 0 -0.022665538356710813 -0.00089654174038760999 0 -0.025702572629809427 1.0460969708025671e-05 0 -0.025799385826461203 5.3751144817937408e-05 0 -0.025659840891418619 0.00012652681195175921 0 -0.025702572629809427 1.0460969708025671e-05 0 -0.025659840891418619 0.00012652681195175921 0 -0.025571254590107371 3.8126002325786103e-05 0 -0.019923864337334854 -0.00067229239206102168 0 -0.01997443981795818 -0.00058961643712573681 0 -0.020060770691743637 -0.00064064137438989935 0 -0.025827028442633154 -3.873911435423101e-05 0 -0.025803859735212053 5.6893147215840218e-05 0 -0.026021181624514184 -7.9820209784631159e-05 0 -0.02485566561025862 1.6480695199702595e-06 0 -0.022681002222218149 -0.00069032734056655111 0 -0.025827028442633154 -3.873911435423101e-05 0 -0.025702572629809427 1.0460969708025671e-05 0 -0.025799385826461203 5.3751144817937408e-05 0 -0.022681002222218149 -0.00069032734056655111 0 -0.019812624110103122 -0.0011290184996694045 0 -0.019923864337334854 -0.00067229239206102168 0 -0.019904488266622781 -0.00053095330339665808 0 -0.01997443981795818 -0.00058961643712573681 0 -0.019904488266622781 -0.00053095330339665808 0 -0.01997443981795818 -0.00058961643712573681 0 -0.019990247660329637 -0.00047131121801119989 0 -0.019717660712592715 -0.0019362335782966019 0 -0.019601267136780488 -0.0018849069986901867 0 -0.019699957911597139 -0.0018272365765174335 0 -0.019794859608998079 -0.0018648629285861658 0 -0.019717660712592715 -0.0019362335782966019 0 -0.019699957911597139 -0.0018272365765174335 0 -0.019833271357668478 -0.0019876142038883216 0 -0.019794859608998079 -0.0018648629285861658 0 -0.019717660712592715 -0.0019362335782966019 0 -0.025659840891418619 0.00012652681195175921 0 -0.025522387946026466 0.00019370320483157503 0 -0.025571254590107371 3.8126002325786103e-05 0 -0.022665538356710813 -0.00089654174038760999 0 -0.022934319785800929 -0.0010305265316084816 0 -0.025479890429686156 -7.6512077511087801e-05 0 -0.025571254590107371 3.8126002325786103e-05 0 -0.025431825212024615 4.4233653767032584e-05 0 -0.025522387946026466 0.00019370320483157503 0 -0.025571254590107371 3.8126002325786103e-05 0 -0.025431825212024615 4.4233653767032584e-05 0 -0.024034629839768406 -0.0017924562419116574 0 -0.024034783268388378 -0.0011925077456737153 0 -0.021807825255867781 -0.0026532334614810223 0 -0.022426176098786058 -0.0026017714626185733 0 -0.022174745378423601 -0.0021258265674575245 0 -0.022873633622144555 -0.0019331422423089556 0 -0.022174745378423601 -0.0021258265674575245 0 -0.022389133471238977 -0.0016360685199339503 0 -0.022934319785800929 -0.0010305265316084816 0 -0.024034783268388378 -0.0011925077456737153 0 -0.022873633622144555 -0.0019331422423089556 0 -0.022426176098786058 -0.0026017714626185733 0 -0.022174745378423601 -0.0021258265674575245 0 -0.02192194734281027 -0.0018176478941686566 0 -0.022174745378423601 -0.0021258265674575245 0 -0.022389133471238977 -0.0016360685199339503 0 -0.019365046731472654 -0.0017585285986366802 0 -0.019482761904144219 -0.00182823689986183 0 -0.019569910173655412 -0.0017510879586356697 0 -0.018752690676583375 -0.0018657598229719543 0 -0.016224058929401042 -0.0029049023782409468 0 -0.022934319785800929 -0.0010305265316084816 0 -0.0210055687863249 -0.0017579973437996559 0 -0.018752690676583375 -0.0018657598229719543 0 -0.0210055687863249 -0.0017579973437996559 0 -0.019569910173655412 -0.0017510879586356697 0 -0.019642051453401307 -0.0017915245439800997 0 -0.019696841053440349 -0.0017544535641041592 0 -0.019601267136780488 -0.0018849069986901867 0 -0.019569910173655412 -0.0017510879586356697 0 -0.019642051453401307 -0.0017915245439800997 0 -0.019601267136780488 -0.0018849069986901867 0 -0.019482761904144219 -0.00182823689986183 0 -0.019569910173655412 -0.0017510879586356697 0 -0.019601267136780488 -0.0018849069986901867 0 -0.019642051453401307 -0.0017915245439800997 0 -0.019699957911597139 -0.0018272365765174335 0 -0.014226266917722203 -0.003706286868559264 0 -0.01354703051395465 -0.0029704606958162491 0 -0.014602287069386179 -0.0027517519637373258 0 -0.012980141218639914 -0.0038213769148877741 0 -0.014226266917722203 -0.003706286868559264 0 -0.01354703051395465 -0.0029704606958162491 0 -0.012894285378438406 -0.0024684995449161039 0 -0.01354703051395465 -0.0029704606958162491 0 -0.013912416349164255 -0.0019897261461691812 0 -0.014602287069386179 -0.0027517519637373258 0 -0.013912416349164255 -0.0019897261461691812 0 -0.014777975559175401 -0.0017955440613218489 0 -0.01354703051395465 -0.0029704606958162491 0 -0.014602287069386179 -0.0027517519637373258 0 -0.013912416349164255 -0.0019897261461691812 0 -0.013912416349164255 -0.0019897261461691812 0 -0.014777975559175401 -0.0017955440613218489 0 -0.014437359420484358 -0.00099133454811181632 0 -0.013118421513701167 -0.0017261687299734128 0 -0.013912416349164255 -0.0019897261461691812 0 -0.01353679956205432 -0.00086117915516781935 0 -0.013118421513701167 -0.0017261687299734128 0 -0.012894285378438406 -0.0024684995449161039 0 -0.013912416349164255 -0.0019897261461691812 0 -0.015969056769345274 -0.0011665577004286169 0 -0.015511246528436214 -0.0017797452900810821 0 -0.015405524812462844 -0.00094870188688925467 0 -0.015326372202185173 -0.0022578633611172014 0 -0.015463304375140504 -0.00093251899381487395 0 -0.014777975559175401 -0.0017955440613218489 0 -0.015405524812462844 -0.00094870188688925467 0 -0.014437359420484358 -0.00099133454811181632 0 -0.014777975559175401 -0.0017955440613218489 0 -0.015580995969997308 -0.0023117058731703037 0 -0.015405524812462844 -0.00094870188688925467 0 -0.014602287069386179 -0.0027517519637373258 0 -0.014777975559175401 -0.0017955440613218489 0 -0.015580995969997308 -0.0023117058731703037 0 -0.014602287069386179 -0.0027517519637373258 0 -0.015580995969997308 -0.0023117058731703037 0 -0.01552250126475075 -0.0035979235795861189 0 -0.015969056769345274 -0.0011665577004286169 0 -0.015511246528436214 -0.0017797452900810821 0 -0.01620186291373946 -0.001950567278240581 0 -0.015511246528436214 -0.0017797452900810821 0 -0.015907056765788588 -0.0022430601954656175 0 -0.01620186291373946 -0.001950567278240581 0 -0.015907056765788588 -0.0022430601954656175 0 -0.015613512188097999 -0.0026969809296455713 0 -0.016259175898494665 -0.0025439412147347314 0 -0.017776282449924762 -0.0020584400637975605 0 -0.01815230860711671 -0.0014582881297538256 0 -0.015511246528436214 -0.0017797452900810821 0 -0.015907056765788588 -0.0022430601954656175 0 -0.015613512188097999 -0.0026969809296455713 0 -0.015326372202185173 -0.0022578633611172014 0 -0.017776282449924762 -0.0020584400637975605 0 -0.015580995969997308 -0.0023117058731703037 0 -0.015693531416969921 -0.0035834583830391281 0 -0.01552250126475075 -0.0035979235795861189 0 -0.017776282449924762 -0.0020584400637975605 0 -0.018237876522851169 -0.0021975362342083566 0 -0.019569910173655412 -0.0017510879586356697 0 -0.019739724533149306 -0.0017487546764386793 0 -0.019696841053440349 -0.0017544535641041592 0 -0.014226266917722203 -0.003706286868559264 0 -0.014602287069386179 -0.0027517519637373258 0 -0.01552250126475075 -0.0035979235795861189 0 -0.016224058929401042 -0.0029049023782409468 0 -0.018237876522851169 -0.0021975362342083566 0 -0.018237876522851169 -0.0021975362342083566 0 -0.019447948784919965 -0.0018971044860929065 0 -0.019794859608998079 -0.0018648629285861658 0 -0.019739819842063376 -0.0017446786079944596 0 -0.019699957911597139 -0.0018272365765174335 0 -0.019642051453401307 -0.0017915245439800997 0 -0.019696841053440349 -0.0017544535641041592 0 -0.019699957911597139 -0.0018272365765174335 0 -0.019739819842063376 -0.0017446786079944596 0 -0.019696841053440349 -0.0017544535641041592 0 -0.019699957911597139 -0.0018272365765174335 0 -0.019794859608998079 -0.0018648629285861658 0 -0.019759418456631359 -0.001742999445526633 0 -0.019739819842063376 -0.0017446786079944596 0 -0.019904488266622781 -0.00053095330339665808 0 -0.019881422200343606 -0.00040798815140524649 0 -0.019990247660329637 -0.00047131121801119989 0 -0.019881422200343606 -0.00040798815140524649 0 -0.019990247660329637 -0.00047131121801119989 0 -0.020000068188053732 -0.00037609569127454933 0 -0.019812624110103122 -0.0011290184996694045 0 -0.017776282449924762 -0.0020584400637975605 0 -0.019990247660329637 -0.00047131121801119989 0 -0.020104617782060456 -0.00048265062441299835 0 -0.020047877105737032 -0.00055079655390218366 0 -0.019990247660329637 -0.00047131121801119989 0 -0.020077367150246425 -0.00041598902241717854 0 -0.020104617782060456 -0.00048265062441299835 0 -0.019990247660329637 -0.00047131121801119989 0 -0.020077367150246425 -0.00041598902241717854 0 -0.020000068188053732 -0.00037609569127454933 0 -0.020104617782060456 -0.00048265062441299835 0 -0.020147631835978248 -0.00043528858528161385 0 -0.020193968456920383 -0.00047961338004195449 0 -0.020064133741836992 -0.0002970794083342346 0 -0.020183195657545366 -0.00046878332961007525 0 -0.020077367150246425 -0.00041598902241717854 0 -0.020104617782060456 -0.00048265062441299835 0 -0.020147631835978248 -0.00043528858528161385 0 -0.018447398350469442 -0.0010189622720283421 0 -0.019056524689311193 -0.00041255241394429584 0 -0.020108259787041297 -0.0001653931120585802 0 -0.020115350479418852 -8.8733102382072647e-05 0 -0.020214973178457933 -0.00012101839325720404 0 -0.020064133741836992 -0.0002970794083342346 0 -0.018447398350469442 -0.0010189622720283421 0 -0.020077367150246425 -0.00041598902241717854 0 -0.020147631835978248 -0.00043528858528161385 0 -0.020107770728616546 -0.00035491910247818472 0 -0.018447398350469442 -0.0010189622720283421 0 -0.01815230860711671 -0.0014582881297538256 0 -0.01691973634732926 -0.0024048733195739468 0 -0.016259175898494665 -0.0025439412147347314 0 -0.01620186291373946 -0.001950567278240581 0 -0.020077367150246425 -0.00041598902241717854 0 -0.020107770728616546 -0.00035491910247818472 0 -0.020000068188053732 -0.00037609569127454933 0 -0.015907056765788588 -0.0022430601954656175 0 -0.016259175898494665 -0.0025439412147347314 0 -0.01620186291373946 -0.001950567278240581 0 -0.01691973634732926 -0.0024048733195739468 0 -0.01620186291373946 -0.001950567278240581 0 -0.016623651287605606 -0.0015215821325955266 0 -0.018447398350469442 -0.0010189622720283421 0 -0.016575655652244593 -0.001008246567412608 0 -0.017139719417953812 -0.0008970601294532453 0 -0.0172718408923851 -0.0003957744708741301 0 -0.017793495868794123 -0.00080530794913879654 0 -0.017139719417953812 -0.0008970601294532453 0 -0.0172718408923851 -0.0003957744708741301 0 -0.016895860350311792 -0.00033560410377002413 0 -0.0172718408923851 -0.0003957744708741301 0 -0.016895860350311792 -0.00033560410377002413 0 -0.016809175777374358 -0.00028043025440267256 0 -0.0172718408923851 -0.0003957744708741301 0 -0.017171817297106415 -8.2361164600494658e-05 0 -0.016809175777374358 -0.00028043025440267256 0 -0.015969056769345274 -0.0011665577004286169 0 -0.016623651287605606 -0.0015215821325955266 0 -0.016313051220107466 -0.00043860146082072202 0 -0.016575655652244593 -0.001008246567412608 0 -0.016397711185123041 -0.00039190924770135792 0 -0.016895860350311792 -0.00033560410377002413 0 -0.016313051220107466 -0.00043860146082072202 0 -0.016809175777374358 -0.00028043025440267256 0 -0.015969056769345274 -0.0011665577004286169 0 -0.01620186291373946 -0.001950567278240581 0 -0.016623651287605606 -0.0015215821325955266 0 -0.018386088906376 1.7037455843178952e-07 0 -0.017940350000578777 -5.0351052043935323e-05 0 -0.017368675198791112 8.264356085834306e-05 0 -0.017940350000578777 -5.0351052043935323e-05 0 -0.017171817297106415 -8.2361164600494658e-05 0 -0.017368675198791112 8.264356085834306e-05 0 -0.0172718408923851 -0.0003957744708741301 0 -0.017940350000578777 -5.0351052043935323e-05 0 -0.017171817297106415 -8.2361164600494658e-05 0 -0.0172718408923851 -0.0003957744708741301 0 -0.017940350000578777 -5.0351052043935323e-05 0 -0.017793495868794123 -0.00080530794913879654 0 -0.017940350000578777 -5.0351052043935323e-05 0 -0.019362586362820865 -0.00020864378941973496 0 -0.017793495868794123 -0.00080530794913879654 0 -0.018386088906376 1.7037455843178952e-07 0 -0.017940350000578777 -5.0351052043935323e-05 0 -0.019362586362820865 -0.00020864378941973496 0 -0.018386088906376 1.7037455843178952e-07 0 -0.019362586362820865 -0.00020864378941973496 0 -0.02028335844087099 -5.7768959470697906e-07 0 -0.019362586362820865 -0.00020864378941973496 0 -0.020221950999236401 3.5497605079815045e-05 0 -0.02028335844087099 -5.7768959470697906e-07 0 -0.020221950999236401 3.5497605079815045e-05 0 -0.02028335844087099 -5.7768959470697906e-07 0 -0.020879288102556289 -6.1731328968973504e-05 0 -0.020221950999236401 3.5497605079815045e-05 0 -0.020232633353545221 -0.00010475469468784435 0 -0.020214973178457933 -0.00012101839325720404 0 -0.019362586362820865 -0.00020864378941973496 0 -0.020221950999236401 3.5497605079815045e-05 0 -0.020232633353545221 -0.00010475469468784435 0 -0.020115350479418852 -8.8733102382072647e-05 0 -0.020232633353545221 -0.00010475469468784435 0 -0.020214973178457933 -0.00012101839325720404 0 -0.019296047794407634 -0.00028137469476424985 0 -0.019056524689311193 -0.00041255241394429584 0 -0.020108259787041297 -0.0001653931120585802 0 -0.020214973178457933 -0.00012101839325720404 0 -0.020193968456920383 -0.00047961338004195449 0 -0.020214973178457933 -0.00012101839325720404 0 -0.020350459149693845 -0.00029343544611348685 0 -0.020193968456920383 -0.00047961338004195449 0 -0.020221950999236401 3.5497605079815045e-05 0 -0.020214973178457933 -0.00012101839325720404 0 -0.020350459149693845 -0.00029343544611348685 0 -0.02028335844087099 -5.7768959470697906e-07 0 -0.020879288102556289 -6.1731328968973504e-05 0 -0.022181499289745329 -2.7971749600383731e-07 0 -0.020350459149693845 -0.00029343544611348685 0 -0.020879288102556289 -6.1731328968973504e-05 0 -0.020511207460041429 -0.00058311969277930517 0 -0.021124987823610577 -6.7993524921870601e-06 0 -0.021769435475871866 -0.0001980159009418671 0 -0.020221950999236401 3.5497605079815045e-05 0 -0.020350459149693845 -0.00029343544611348685 0 -0.020879288102556289 -6.1731328968973504e-05 0 -0.020879288102556289 -6.1731328968973504e-05 0 -0.022181499289745329 -2.7971749600383731e-07 0 -0.023021938060343358 -6.5342382830882662e-05 0 -0.022181499289745329 -2.7971749600383731e-07 0 -0.023021938060343358 -6.5342382830882662e-05 0 -0.023599553314114913 -1.1594717617212752e-05 0 -0.021769435475871866 -0.0001980159009418671 0 -0.022434435078324107 -0.00034263010046034405 0 -0.023021938060343358 -6.5342382830882662e-05 0 -0.023599553314114913 -1.1594717617212752e-05 0 -0.024590236364162611 -7.3170503840939743e-06 0 -0.023599553314114913 -1.1594717617212752e-05 0 -0.024590236364162611 -7.3170503840939743e-06 0 -0.024078238302495523 3.2452792800706399e-08 0 -0.022181499289745329 -2.7971749600383731e-07 0 -0.023599553314114913 -1.1594717617212752e-05 0 -0.024078238302495523 3.2452792800706399e-08 0 -0.020511207460041429 -0.00058311969277930517 0 -0.020401186922590697 -0.00076669853490749288 0 -0.020319820429859664 -0.00064000210537204743 0 -0.020401186922590697 -0.00076669853490749288 0 -0.020319820429859664 -0.00064000210537204743 0 -0.020276334107285313 -0.00078539089937465999 0 -0.020319820429859664 -0.00064000210537204743 0 -0.020338613871545893 -0.00049777606746117251 0 -0.020193968456920383 -0.00047961338004195449 0 -0.020511207460041429 -0.00058311969277930517 0 -0.020319820429859664 -0.00064000210537204743 0 -0.020338613871545893 -0.00049777606746117251 0 -0.020350459149693845 -0.00029343544611348685 0 -0.020511207460041429 -0.00058311969277930517 0 -0.020338613871545893 -0.00049777606746117251 0 -0.020350459149693845 -0.00029343544611348685 0 -0.020338613871545893 -0.00049777606746117251 0 -0.020193968456920383 -0.00047961338004195449 0 -0.020193968456920383 -0.00047961338004195449 0 -0.020127790967466266 -0.00056441357963925168 0 -0.020189386822556821 -0.00066610206591340637 0 -0.020319820429859664 -0.00064000210537204743 0 -0.020193968456920383 -0.00047961338004195449 0 -0.020189386822556821 -0.00066610206591340637 0 -0.020104617782060456 -0.00048265062441299835 0 -0.020193968456920383 -0.00047961338004195449 0 -0.020127790967466266 -0.00056441357963925168 0 -0.01997443981795818 -0.00058961643712573681 0 -0.019990247660329637 -0.00047131121801119989 0 -0.020047877105737032 -0.00055079655390218366 0 -0.020104617782060456 -0.00048265062441299835 0 -0.020127790967466266 -0.00056441357963925168 0 -0.020047877105737032 -0.00055079655390218366 0 -0.020127790967466266 -0.00056441357963925168 0 -0.020047877105737032 -0.00055079655390218366 0 -0.020060770691743637 -0.00064064137438989935 0 -0.01997443981795818 -0.00058961643712573681 0 -0.020047877105737032 -0.00055079655390218366 0 -0.020060770691743637 -0.00064064137438989935 0 -0.020060770691743637 -0.00064064137438989935 0 -0.020189386822556821 -0.00066610206591340637 0 -0.020118218710438365 -0.00081115097213762307 0 -0.022681002222218149 -0.00069032734056655111 0 -0.022982321944424337 -0.00040203431254725073 0 -0.019923864337334854 -0.00067229239206102168 0 -0.020060770691743637 -0.00064064137438989935 0 -0.020118218710438365 -0.00081115097213762307 0 -0.020127790967466266 -0.00056441357963925168 0 -0.020060770691743637 -0.00064064137438989935 0 -0.020189386822556821 -0.00066610206591340637 0 -0.020189386822556821 -0.00066610206591340637 0 -0.020276334107285313 -0.00078539089937465999 0 -0.020118218710438365 -0.00081115097213762307 0 -0.020319820429859664 -0.00064000210537204743 0 -0.020189386822556821 -0.00066610206591340637 0 -0.020276334107285313 -0.00078539089937465999 0 -0.022982321944424337 -0.00040203431254725073 0 -0.023829962174908896 -0.00035640466414893349 0 -0.020276334107285313 -0.00078539089937465999 0 -0.020118218710438365 -0.00081115097213762307 0 -0.020365018553688403 -0.00095720538364289873 0 -0.025942851111602942 -0.00024201161520047632 0 -0.025903569569753111 -0.00013922215968696476 0 -0.026059800736731441 -0.00019507307236467649 0 -0.025903569569753111 -0.00013922215968696476 0 -0.026021181624514184 -7.9820209784631159e-05 0 -0.026059800736731441 -0.00019507307236467649 0 -0.026021181624514184 -7.9820209784631159e-05 0 -0.026059800736731441 -0.00019507307236467649 0 -0.026109233572518174 -0.00017228227663980235 0 -0.026137519129185868 -0.00018457618104294953 0 -0.025754529528280133 0.00020604653153475337 0 -0.025735311759645465 0.00021599430011043366 0 -0.026378138497556228 0.00010415037898160263 0 -0.025754529528280133 0.00020604653153475337 0 -0.025764518459698786 0.00011555233348858905 0 -0.023993906856075348 -0.0004015073018157806 0 -0.023829962174908896 -0.00035640466414893349 0 -0.025754529528280133 0.00020604653153475337 0 -0.02538775864129356 0.00012603221967545753 0 -0.025764518459698786 0.00011555233348858905 0 -0.025754529528280133 0.00020604653153475337 0 -0.025775034424765184 0.00017097624594861871 0 -0.02538775864129356 0.00012603221967545753 0 -0.026378138497556228 0.00010415037898160263 0 -0.025764518459698786 0.00011555233348858905 0 -0.025975977857723501 9.1240068930697417e-07 0 -0.025764518459698786 0.00011555233348858905 0 -0.025975977857723501 9.1240068930697417e-07 0 -0.025104871186011943 9.6110431829298651e-05 0 -0.02538775864129356 0.00012603221967545753 0 -0.025764518459698786 0.00011555233348858905 0 -0.025104871186011943 9.6110431829298651e-05 0 -0.024590236364162611 -7.3170503840939743e-06 0 -0.02538775864129356 0.00012603221967545753 0 -0.025104871186011943 9.6110431829298651e-05 0 -0.025975977857723501 9.1240068930697417e-07 0 -0.025104871186011943 9.6110431829298651e-05 0 -0.024078238302495523 3.2452792800706399e-08 0 -0.024590236364162611 -7.3170503840939743e-06 0 -0.025104871186011943 9.6110431829298651e-05 0 -0.024078238302495523 3.2452792800706399e-08 0 -0.024590236364162611 -7.3170503840939743e-06 0 -0.025775034424765184 0.00017097624594861871 0 -0.02538775864129356 0.00012603221967545753 0 -0.020401186922590697 -0.00076669853490749288 0 -0.020276334107285313 -0.00078539089937465999 0 -0.020365018553688403 -0.00095720538364289873 0 -0.022434435078324107 -0.00034263010046034405 0 -0.023829962174908896 -0.00035640466414893349 0 -0.013324446591998879 -0.0016680509904789633 0 -0.012637881180333346 -0.0011068274324438506 0 -0.013405160166803111 -0.00066625935857907018 0 -0.013324446591998879 -0.0016680509904789633 0 -0.013930031390197913 -0.0010465429685698369 0 -0.013405160166803111 -0.00066625935857907018 0 -0.011563965864971625 5.7347682319212366e-06 0 -0.011314918450453746 -0.00050401824130775141 0 -0.009344738067347912 4.5395670803465436e-05 0 -0.0091588491764971278 1.1443039705023017e-05 0 -0.0099212671539441761 -0.00011977315417812026 0 -0.010532721433526727 2.2545425201830115e-06 0 -0.011563965864971625 5.7347682319212366e-06 0 -0.0099212671539441761 -0.00011977315417812026 0 -0.0099723282490365665 4.7040967687644847e-07 0 -0.011429076571652078 -9.474815175506611e-07 0 -0.0099212671539441761 -0.00011977315417812026 0 -0.0099723282490365665 4.7040967687644847e-07 0 -0.0096032924671526181 1.7166173158937087e-05 0 -0.009344738067347912 4.5395670803465436e-05 0 -0.0099212671539441761 -0.00011977315417812026 0 -0.0096032924671526181 1.7166173158937087e-05 0 -0.0099723282490365665 4.7040967687644847e-07 0 -0.0092042640405329956 0.00010291466005896714 0 -0.0085188046843522915 9.0741883487887529e-08 0 -0.0092042640405329956 0.00010291466005896714 0 -0.009099286421446617 1.0955651808906351e-05 0 -0.0085188046843522915 9.0741883487887529e-08 0 -0.009344738067347912 4.5395670803465436e-05 0 -0.0092042640405329956 0.00010291466005896714 0 -0.009099286421446617 1.0955651808906351e-05 0 -0.009344738067347912 4.5395670803465436e-05 0 -0.0096032924671526181 1.7166173158937087e-05 0 -0.0092042640405329956 0.00010291466005896714 0 -0.0099723282490365665 4.7040967687644847e-07 0 -0.0096032924671526181 1.7166173158937087e-05 0 -0.0092042640405329956 0.00010291466005896714 0 -0.009344738067347912 4.5395670803465436e-05 0 -0.0092673713628687471 2.5970716055587688e-05 0 -0.009099286421446617 1.0955651808906351e-05 0 -0.0092673713628687471 2.5970716055587688e-05 0 -0.0089644033401955602 -4.3155504927772522e-05 0 -0.009099286421446617 1.0955651808906351e-05 0 -0.012895816534102145 0.0008071410934991863 0 -0.012325172737113508 0.00080908525345402325 0 -0.012322317359811291 0.001436524200298152 0 -0.011563965864971625 5.7347682319212366e-06 0 -0.010531636461957573 0.00080037754675501356 0 -0.011852182224089942 0.0012892558300399092 0 -0.012325172737113508 0.00080908525345402325 0 -0.012322317359811291 0.001436524200298152 0 -0.011852182224089942 0.0012892558300399092 0 -0.011733908848452088 0.00080156150548512425 0 -0.012325172737113508 0.00080908525345402325 0 -0.015272605348459633 0.0017369435276437179 0 -0.015089323231439043 0.001115053162481449 0 -0.015239126403350671 0.0017469315884095791 0 -0.015089323231439043 0.001115053162481449 0 -0.014966956384293417 0.00084156632789344989 0 -0.015239126403350671 0.0017469315884095791 0 -0.014966956384293417 0.00084156632789344989 0 -0.014732160985794747 0.001472313989387946 0 -0.014896713693052762 0.0020425314278847357 0 -0.015513159452626992 -0.0015274696413799165 0 -0.01495742239273078 -0.0011588784324050414 0 -0.015176406886424645 -0.00062050178783554948 0 -0.015287481737650644 0.00096500328525373424 0 -0.014089754870209427 0.001582362785468857 0 -0.015513159452626992 -0.0015274696413799165 0 -0.01495742239273078 -0.0011588784324050414 0 -0.01445455779089054 -0.0015725889722666795 0 -0.013452107162498551 0.00078820469248814802 0 -0.015236072716149804 6.1796607164368983e-05 0 -0.013452107162498551 0.00078820469248814802 0 -0.013704799284102214 -0.00046660819264845749 0 -0.01495742239273078 -0.0011588784324050414 0 -0.014532675155510199 -0.00084465152368222885 0 -0.015176406886424645 -0.00062050178783554948 0 -0.011563965864971625 5.7347682319212366e-06 0 -0.013704799284102214 -0.00046660819264845749 0 -0.013324446591998879 -0.0016680509904789633 0 -0.01445455779089054 -0.0015725889722666795 0 -0.013930031390197913 -0.0010465429685698369 0 -0.01495742239273078 -0.0011588784324050414 0 -0.01445455779089054 -0.0015725889722666795 0 -0.014532675155510199 -0.00084465152368222885 0 -0.01445455779089054 -0.0015725889722666795 0 -0.014532675155510199 -0.00084465152368222885 0 -0.013930031390197913 -0.0010465429685698369 0 -0.014532675155510199 -0.00084465152368222885 0 -0.013930031390197913 -0.0010465429685698369 0 -0.014055356715628695 -0.00037493335272938496 0 -0.014532675155510199 -0.00084465152368222885 0 -0.014055356715628695 -0.00037493335272938496 0 -0.014512112760371509 -0.00024112341714640175 0 -0.014055356715628695 -0.00037493335272938496 0 -0.014152868406852152 0.00014887776993123742 0 -0.013616312370989503 0.00014180985165544678 0 -0.014055356715628695 -0.00037493335272938496 0 -0.014512112760371509 -0.00024112341714640175 0 -0.014152868406852152 0.00014887776993123742 0 -0.015236072716149804 6.1796607164368983e-05 0 -0.014798039085407643 0.00055278656182958697 0 -0.015089323231439043 0.001115053162481449 0 -0.014966956384293417 0.00084156632789344989 0 -0.014758182868739761 0.00043351576030496817 0 -0.014512112760371509 -0.00024112341714640175 0 -0.015176406886424645 -0.00062050178783554948 0 -0.014758182868739761 0.00043351576030496817 0 -0.014966956384293417 0.00084156632789344989 0 -0.014767226699182174 0.0010143807847068287 0 -0.014732160985794747 0.001472313989387946 0 -0.014532675155510199 -0.00084465152368222885 0 -0.014512112760371509 -0.00024112341714640175 0 -0.015176406886424645 -0.00062050178783554948 0 -0.014966956384293417 0.00084156632789344989 0 -0.014865497089823033 0.00069972133467179239 0 -0.014767226699182174 0.0010143807847068287 0 -0.014865497089823033 0.00069972133467179239 0 -0.014758182868739761 0.00043351576030496817 0 -0.01501229225334042 0.00066518756141052899 0 -0.014966956384293417 0.00084156632789344989 0 -0.014865497089823033 0.00069972133467179239 0 -0.014758182868739761 0.00043351576030496817 0 -0.014152868406852152 0.00014887776993123742 0 -0.014159616007720678 0.000456010813361568 0 -0.013616312370989503 0.00014180985165544678 0 -0.014758182868739761 0.00043351576030496817 0 -0.014152868406852152 0.00014887776993123742 0 -0.014159616007720678 0.000456010813361568 0 -0.014512112760371509 -0.00024112341714640175 0 -0.014758182868739761 0.00043351576030496817 0 -0.014152868406852152 0.00014887776993123742 0 -0.013616312370989503 0.00014180985165544678 0 -0.01304054874225527 0.00013726269614222248 0 -0.013896134997140147 0.0004118156112886479 0 -0.014159616007720678 0.000456010813361568 0 -0.013616312370989503 0.00014180985165544678 0 -0.013896134997140147 0.0004118156112886479 0 -0.013616312370989503 0.00014180985165544678 0 -0.012903532747949885 -0.00018223205411585882 0 -0.01304054874225527 0.00013726269614222248 0 -0.013616312370989503 0.00014180985165544678 0 -0.013405160166803111 -0.00066625935857907018 0 -0.012903532747949885 -0.00018223205411585882 0 -0.014055356715628695 -0.00037493335272938496 0 -0.013616312370989503 0.00014180985165544678 0 -0.013405160166803111 -0.00066625935857907018 0 -0.013930031390197913 -0.0010465429685698369 0 -0.014055356715628695 -0.00037493335272938496 0 -0.013405160166803111 -0.00066625935857907018 0 -0.011314918450453746 -0.00050401824130775141 0 -0.011429921822824195 -1.1073019593681119e-07 0 -0.012637881180333346 -0.0011068274324438506 0 -0.013405160166803111 -0.00066625935857907018 0 -0.012903532747949885 -0.00018223205411585882 0 -0.012637881180333346 -0.0011068274324438506 0 -0.011433090008374702 -1.7434684245592738e-06 0 -0.012903532747949885 -0.00018223205411585882 0 -0.011433090008374702 -1.7434684245592738e-06 0 -0.012903532747949885 -0.00018223205411585882 0 -0.01304054874225527 0.00013726269614222248 0 -0.011433090008374702 -1.7434684245592738e-06 0 -0.013116685884772399 1.0524360614039501e-06 0 -0.01304054874225527 0.00013726269614222248 0 -0.013116685884772399 1.0524360614039501e-06 0 -0.01304054874225527 0.00013726269614222248 0 -0.013896134997140147 0.0004118156112886479 0 -0.013116685884772399 1.0524360614039501e-06 0 -0.013896134997140147 0.0004118156112886479 0 -0.014803778892708789 8.3557576357639348e-07 0 -0.013896134997140147 0.0004118156112886479 0 -0.014326101210071584 0.0001068975658996464 0 -0.014326803769395558 0.00062754575731267229 0 -0.013896134997140147 0.0004118156112886479 0 -0.014803778892708789 8.3557576357639348e-07 0 -0.014326101210071584 0.0001068975658996464 0 -0.014803778892708789 8.3557576357639348e-07 0 -0.014326101210071584 0.0001068975658996464 0 -0.016487061874941887 -1.1305470660706676e-06 0 -0.017112039536930267 -2.677014425489529e-05 0 -0.017368675198791112 8.264356085834306e-05 0 -0.016492877344265019 -1.7608069844863983e-07 0 -0.015715334061742248 0.00010891562180454523 0 -0.016489414546151902 1.0467299113368543e-07 0 -0.017112039536930267 -2.677014425489529e-05 0 -0.017171817297106415 -8.2361164600494658e-05 0 -0.017368675198791112 8.264356085834306e-05 0 -0.018386088906376 1.7037455843178952e-07 0 -0.017368675198791112 8.264356085834306e-05 0 -0.016492877344265019 -1.7608069844863983e-07 0 -0.016313051220107466 -0.00043860146082072202 0 -0.016809175777374358 -0.00028043025440267256 0 -0.016549500772954747 -0.00015785284051138222 0 -0.017171817297106415 -8.2361164600494658e-05 0 -0.016809175777374358 -0.00028043025440267256 0 -0.016549500772954747 -0.00015785284051138222 0 -0.017112039536930267 -2.677014425489529e-05 0 -0.017171817297106415 -8.2361164600494658e-05 0 -0.016549500772954747 -0.00015785284051138222 0 -0.016313051220107466 -0.00043860146082072202 0 -0.016549500772954747 -0.00015785284051138222 0 -0.015883991456409209 -0.00021991142234803482 0 -0.016549500772954747 -0.00015785284051138222 0 -0.015883991456409209 -0.00021991142234803482 0 -0.01566656513802658 0.00016276061985362285 0 -0.016313051220107466 -0.00043860146082072202 0 -0.015883991456409209 -0.00021991142234803482 0 -0.015808527025293125 -0.00051747011487318357 0 -0.016549500772954747 -0.00015785284051138222 0 -0.01566656513802658 0.00016276061985362285 0 -0.016352228376421564 0.00043828918747123333 0 -0.017112039536930267 -2.677014425489529e-05 0 -0.016549500772954747 -0.00015785284051138222 0 -0.016352228376421564 0.00043828918747123333 0 -0.015715334061742248 0.00010891562180454523 0 -0.015363302819363859 0.00047698447431033391 0 -0.014159616007720678 0.000456010813361568 0 -0.013896134997140147 0.0004118156112886479 0 -0.014326803769395558 0.00062754575731267229 0 -0.014758182868739761 0.00043351576030496817 0 -0.014159616007720678 0.000456010813361568 0 -0.014326803769395558 0.00062754575731267229 0 -0.014758182868739761 0.00043351576030496817 0 -0.014326803769395558 0.00062754575731267229 0 -0.01501229225334042 0.00066518756141052899 0 -0.01566656513802658 0.00016276061985362285 0 -0.016352228376421564 0.00043828918747123333 0 -0.01501229225334042 0.00066518756141052899 0 -0.015363302819363859 0.00047698447431033391 0 -0.015075241583798294 0.00064656058461147134 0 -0.01566656513802658 0.00016276061985362285 0 -0.01486634850595662 0.00034386702474192388 0 -0.01501229225334042 0.00066518756141052899 0 -0.01486634850595662 0.00034386702474192388 0 -0.014325845204662221 0.0004557339895986934 0 -0.01501229225334042 0.00066518756141052899 0 -0.01486634850595662 0.00034386702474192388 0 -0.014325845204662221 0.0004557339895986934 0 -0.014380385286020448 0.00025077092231866278 0 -0.01486634850595662 0.00034386702474192388 0 -0.014380385286020448 0.00025077092231866278 0 -0.015018979213729643 -0.0001367737461925063 0 -0.014753017378584367 0.00099123540862286605 0 -0.015340989802470169 0.00016233516306729136 0 -0.014660822282711287 0.00029164640772258503 0 -0.01461170822771116 0.00063395667954435327 0 -0.015175605582146949 3.1876341658881021e-05 0 -0.01566656513802658 0.00016276061985362285 0 -0.01486634850595662 0.00034386702474192388 0 -0.015018979213729643 -0.0001367737461925063 0 -0.015883991456409209 -0.00021991142234803482 0 -0.015018979213729643 -0.0001367737461925063 0 -0.015808527025293125 -0.00051747011487318357 0 -0.015883991456409209 -0.00021991142234803482 0 -0.01566656513802658 0.00016276061985362285 0 -0.015018979213729643 -0.0001367737461925063 0 -0.015340989802470169 0.00016233516306729136 0 -0.015336708349735637 -0.00040669427541062202 0 -0.015808527025293125 -0.00051747011487318357 0 -0.015175605582146949 3.1876341658881021e-05 0 -0.015714302799086321 -0.00047339588033178597 0 -0.015340989802470169 0.00016233516306729136 0 -0.014777313407956951 -0.00032951416128506803 0 -0.014660822282711287 0.00029164640772258503 0 -0.015340989802470169 0.00016233516306729136 0 -0.014777313407956951 -0.00032951416128506803 0 -0.015336708349735637 -0.00040669427541062202 0 -0.014777313407956951 -0.00032951416128506803 0 -0.015405524812462844 -0.00094870188688925467 0 -0.014437359420484358 -0.00099133454811181632 0 -0.014777313407956951 -0.00032951416128506803 0 -0.015336708349735637 -0.00040669427541062202 0 -0.015405524812462844 -0.00094870188688925467 0 -0.015969056769345274 -0.0011665577004286169 0 -0.015405524812462844 -0.00094870188688925467 0 -0.015808527025293125 -0.00051747011487318357 0 -0.015969056769345274 -0.0011665577004286169 0 -0.016313051220107466 -0.00043860146082072202 0 -0.015808527025293125 -0.00051747011487318357 0 -0.015336708349735637 -0.00040669427541062202 0 -0.015405524812462844 -0.00094870188688925467 0 -0.015808527025293125 -0.00051747011487318357 0 -0.013912416349164255 -0.0019897261461691812 0 -0.01353679956205432 -0.00086117915516781935 0 -0.014437359420484358 -0.00099133454811181632 0 -0.01353679956205432 -0.00086117915516781935 0 -0.014437359420484358 -0.00099133454811181632 0 -0.014090944480197294 -0.00012427224939319726 0 -0.014777313407956951 -0.00032951416128506803 0 -0.014437359420484358 -0.00099133454811181632 0 -0.014090944480197294 -0.00012427224939319726 0 -0.014777313407956951 -0.00032951416128506803 0 -0.014090944480197294 -0.00012427224939319726 0 -0.014660822282711287 0.00029164640772258503 0 -0.01353679956205432 -0.00086117915516781935 0 -0.014090944480197294 -0.00012427224939319726 0 -0.013444341127011613 0.00028030184765484838 0 -0.01353679956205432 -0.00086117915516781935 0 -0.013444341127011613 0.00028030184765484838 0 -0.012737746517215659 -4.2014245961534093e-05 0 -0.013444341127011613 0.00028030184765484838 0 -0.013853823437770562 0.00089245003674564216 0 -0.01284239338901064 0.00095927358268335509 0 -0.014090944480197294 -0.00012427224939319726 0 -0.013444341127011613 0.00028030184765484838 0 -0.013853823437770562 0.00089245003674564216 0 -0.014090944480197294 -0.00012427224939319726 0 -0.013853823437770562 0.00089245003674564216 0 -0.014660822282711287 0.00029164640772258503 0 -0.014753017378584367 0.00099123540862286605 0 -0.013853823437770562 0.00089245003674564216 0 -0.014660822282711287 0.00029164640772258503 0 -0.014753017378584367 0.00099123540862286605 0 -0.013853823437770562 0.00089245003674564216 0 -0.014140493195276809 0.0018180733799421491 0 -0.01461170822771116 0.00063395667954435327 0 -0.013647650979422839 0.00093314710360430683 0 -0.014325845204662221 0.0004557339895986934 0 -0.014380385286020448 0.00025077092231866278 0 -0.01412741439609177 0.00048991896361885094 0 -0.013853823437770562 0.00089245003674564216 0 -0.01350604407399565 0.0015021928517754018 0 -0.014140493195276809 0.0018180733799421491 0 -0.013853823437770562 0.00089245003674564216 0 -0.01350604407399565 0.0015021928517754018 0 -0.01284239338901064 0.00095927358268335509 0 -0.01350604407399565 0.0015021928517754018 0 -0.013379834893646008 0.0019355875124991784 0 -0.014140493195276809 0.0018180733799421491 0 -0.012403101113350801 0.001645436873860305 0 -0.012455617479483025 0.0021088024472760772 0 -0.013013319744797844 0.001214238775931218 0 -0.012455617479483025 0.0021088024472760772 0 -0.01320027052504885 0.0011109228467046308 0 -0.013013319744797844 0.001214238775931218 0 -0.01350604407399565 0.0015021928517754018 0 -0.013379834893646008 0.0019355875124991784 0 -0.012927111863907582 0.0019411674564329799 0 -0.012482718655987953 0.0012221261869651359 0 -0.012403101113350801 0.001645436873860305 0 -0.013013319744797844 0.001214238775931218 0 -0.012373971406925302 0.0017069148903137547 0 -0.013647650979422839 0.00093314710360430683 0 -0.012482718655987953 0.0012221261869651359 0 -0.012403101113350801 0.001645436873860305 0 -0.012060775518182985 0.0012303515890284848 0 -0.01283575856847974 0.0014305215814218719 0 -0.013647650979422839 0.00093314710360430683 0 -0.01283575856847974 0.0014305215814218719 0 -0.012838867223248028 0.0012801248991920749 0 -0.012489565557095563 0.0012247510727171568 0 -0.01320027052504885 0.0011109228467046308 0 -0.013013319744797844 0.001214238775931218 0 -0.012284584488680523 0.001321804753585534 0 -0.01329978146562554 0.0013295542933301557 0 -0.012402281262268486 0.002089700963866516 0 -0.012284584488680523 0.001321804753585534 0 -0.01329978146562554 0.0013295542933301557 0 -0.013312471309447 0.00033528134348544624 0 -0.012403101113350801 0.001645436873860305 0 -0.012455617479483025 0.0021088024472760772 0 -0.012146486589331118 0.002353518303533112 0 -0.01329978146562554 0.0013295542933301557 0 -0.01379938129257214 0.00077045884470751651 0 -0.014172784508513491 0.00098329461679201309 0 -0.014268928983478325 0.00043531787871989243 0 -0.013647650979422839 0.00093314710360430683 0 -0.014325845204662221 0.0004557339895986934 0 -0.01379938129257214 0.00077045884470751651 0 -0.013312471309447 0.00033528134348544624 0 -0.01329978146562554 0.0013295542933301557 0 -0.01379938129257214 0.00077045884470751651 0 -0.013312471309447 0.00033528134348544624 0 -0.014325845204662221 0.0004557339895986934 0 -0.01379938129257214 0.00077045884470751651 0 -0.014172784508513491 0.00098329461679201309 0 -0.014325845204662221 0.0004557339895986934 0 -0.014657836103520578 0.00084194614920050535 0 -0.014172784508513491 0.00098329461679201309 0 -0.014325845204662221 0.0004557339895986934 0 -0.01501229225334042 0.00066518756141052899 0 -0.014657836103520578 0.00084194614920050535 0 -0.014865497089823033 0.00069972133467179239 0 -0.01501229225334042 0.00066518756141052899 0 -0.014657836103520578 0.00084194614920050535 0 -0.014865497089823033 0.00069972133467179239 0 -0.014657836103520578 0.00084194614920050535 0 -0.014767226699182174 0.0010143807847068287 0 -0.014657836103520578 0.00084194614920050535 0 -0.014767226699182174 0.0010143807847068287 0 -0.014480826825486934 0.0012959606060341756 0 -0.014767226699182174 0.0010143807847068287 0 -0.014480826825486934 0.0012959606060341756 0 -0.014732160985794747 0.001472313989387946 0 -0.01329978146562554 0.0013295542933301557 0 -0.014172784508513491 0.00098329461679201309 0 -0.013888108926203709 0.0016154049658227976 0 -0.014657836103520578 0.00084194614920050535 0 -0.014480826825486934 0.0012959606060341756 0 -0.014172784508513491 0.00098329461679201309 0 -0.014480826825486934 0.0012959606060341756 0 -0.014172784508513491 0.00098329461679201309 0 -0.013888108926203709 0.0016154049658227976 0 -0.013888108926203709 0.0016154049658227976 0 -0.01408901872772745 0.0022186504199334777 0 -0.012934219351421455 0.0024148111802880443 0 -0.014480826825486934 0.0012959606060341756 0 -0.013888108926203709 0.0016154049658227976 0 -0.01408901872772745 0.0022186504199334777 0 -0.013980646680559627 0.002372747727688715 0 -0.014089754870209427 0.001582362785468857 0 -0.014480826825486934 0.0012959606060341756 0 -0.01408901872772745 0.0022186504199334777 0 -0.014732160985794747 0.001472313989387946 0 -0.01408901872772745 0.0022186504199334777 0 -0.014732160985794747 0.001472313989387946 0 -0.014896713693052762 0.0020425314278847357 0 -0.013452107162498551 0.00078820469248814802 0 -0.014089754870209427 0.001582362785468857 0 -0.011968797119502324 0.0008257890558981965 0 -0.011895692129374151 0.00082402938036504577 0 -0.011499267642821191 0.0014968103678984698 0 -0.013452107162498551 0.00078820469248814802 0 -0.011247192478102337 0.0016608390925144391 0 -0.014089754870209427 0.001582362785468857 0 -0.012732172868200308 0.0025472819847333103 0 -0.01367222946010763 0.0024612982151204989 0 -0.014612170924565609 0.0024645772566012194 0 -0.014169121120463124 0.0034664545587606045 0 -0.011968797119502324 0.0008257890558981965 0 -0.011499267642821191 0.0014968103678984698 0 -0.01154082973753856 0.001623757470906039 0 -0.011852182224089942 0.0012892558300399092 0 -0.011733908848452088 0.00080156150548512425 0 -0.01141771889232396 0.0015634438247196522 0 -0.01367222946010763 0.0024612982151204989 0 -0.013291334795543178 0.0030938827242806889 0 -0.014169121120463124 0.0034664545587606045 0 -0.01367222946010763 0.0024612982151204989 0 -0.013291334795543178 0.0030938827242806889 0 -0.012934219351421455 0.0024148111802880443 0 -0.013291334795543178 0.0030938827242806889 0 -0.012934219351421455 0.0024148111802880443 0 -0.012614133862454796 0.0033612559769180352 0 -0.011838664621024005 0.0029159904058705852 0 -0.012564872650270802 0.0033402924879826568 0 -0.012145078945324463 0.0028822626687643829 0 -0.012934219351421455 0.0024148111802880443 0 -0.012614133862454796 0.0033612559769180352 0 -0.012145078945324463 0.0028822626687643829 0 -0.012402281262268486 0.002089700963866516 0 -0.012934219351421455 0.0024148111802880443 0 -0.01329978146562554 0.0013295542933301557 0 -0.013888108926203709 0.0016154049658227976 0 -0.012934219351421455 0.0024148111802880443 0 -0.01329978146562554 0.0013295542933301557 0 -0.012402281262268486 0.002089700963866516 0 -0.012934219351421455 0.0024148111802880443 0 -0.013980646680559627 0.002372747727688715 0 -0.012955774736261085 0.0023889263747156313 0 -0.011539176152789585 0.0024993268510540476 0 -0.011726329635615436 0.0030861473082013013 0 -0.010792679508900879 0.0024893965724788868 0 -0.011194257998981758 0.0026562404640372507 0 -0.010214093309552521 0.0024885829707236005 0 -0.010444257498802264 0.0028647853003070478 0 -0.0098653954365273064 0.0030810984399497602 0 -0.0095776910885158068 0.0023930753821851318 0 -0.010562208360030304 0.0027031303816171435 0 -0.010444257498802264 0.0028647853003070478 0 -0.0095776910885158068 0.0023930753821851318 0 -0.012373971406925302 0.0017069148903137547 0 -0.011194257998981758 0.0026562404640372507 0 -0.012145078945324463 0.0028822626687643829 0 -0.012402281262268486 0.002089700963866516 0 -0.011414018590816184 0.0024168715272310038 0 -0.012455617479483025 0.0021088024472760772 0 -0.011726329635615436 0.0030861473082013013 0 -0.012146486589331118 0.002353518303533112 0 -0.012284584488680523 0.001321804753585534 0 -0.012402281262268486 0.002089700963866516 0 -0.011414018590816184 0.0024168715272310038 0 -0.011539176152789585 0.0024993268510540476 0 -0.011726329635615436 0.0030861473082013013 0 -0.012146486589331118 0.002353518303533112 0 -0.010635926491481309 0.0025951942073461644 0 -0.010444257498802264 0.0028647853003070478 0 -0.010905429642517462 0.0032092464012371583 0 -0.011551404423254169 0.0029387868381110347 0 -0.010905429642517462 0.0032092464012371583 0 -0.011426471265852748 0.0038630186264431532 0 -0.011194257998981758 0.0026562404640372507 0 -0.010882571493406143 0.0028700182673490134 0 -0.011838664621024005 0.0029159904058705852 0 -0.011194257998981758 0.0026562404640372507 0 -0.011551404423254169 0.0029387868381110347 0 -0.010635926491481309 0.0025951942073461644 0 -0.010905429642517462 0.0032092464012371583 0 -0.010444257498802264 0.0028647853003070478 0 -0.010905429642517462 0.0032092464012371583 0 -0.0103749091600834 0.0031763143499261132 0 -0.010905429642517462 0.0032092464012371583 0 -0.0103749091600834 0.0031763143499261132 0 -0.01032896088895245 0.0035620916699300202 0 -0.0103749091600834 0.0031763143499261132 0 -0.0098653954365273064 0.0030810984399497602 0 -0.01032896088895245 0.0035620916699300202 0 -0.0098653954365273064 0.0030810984399497602 0 -0.0095559196511359433 0.0036320791940381166 0 -0.01032896088895245 0.0035620916699300202 0 -0.010444257498802264 0.0028647853003070478 0 -0.0103749091600834 0.0031763143499261132 0 -0.0098653954365273064 0.0030810984399497602 0 -0.0090449809802335586 0.0030079192647711841 0 -0.0089548197136655079 0.0036540699502202591 0 -0.0095559196511359433 0.0036320791940381166 0 -0.0098653954365273064 0.0030810984399497602 0 -0.0090449809802335586 0.0030079192647711841 0 -0.0095559196511359433 0.0036320791940381166 0 -0.0090449809802335586 0.0030079192647711841 0 -0.0081422127513015464 0.00356466334689303 0 -0.0089548197136655079 0.0036540699502202591 0 -0.0090449809802335586 0.0030079192647711841 0 -0.0082506838493407626 0.0029814523576672546 0 -0.0081422127513015464 0.00356466334689303 0 -0.0090449809802335586 0.0030079192647711841 0 -0.0087834407381683043 0.0021662973367126614 0 -0.0082506838493407626 0.0029814523576672546 0 -0.0098653954365273064 0.0030810984399497602 0 -0.0090449809802335586 0.0030079192647711841 0 -0.0095776910885158068 0.0023930753821851318 0 -0.0090449809802335586 0.0030079192647711841 0 -0.0095776910885158068 0.0023930753821851318 0 -0.0087834407381683043 0.0021662973367126614 0 -0.010792679508900879 0.0024893965724788868 0 -0.010433600525845443 0.0019218916029366605 0 -0.01096053169865715 0.0019849420235120707 0 -0.010433600525845443 0.0019218916029366605 0 -0.0096988868961919144 0.0016982202707887285 0 -0.010609638723071982 0.0017569178247008451 0 -0.010214093309552521 0.0024885829707236005 0 -0.0092815926869036121 0.0020000268335139421 0 -0.010792679508900879 0.0024893965724788868 0 -0.010433600525845443 0.0019218916029366605 0 -0.0098624731361121407 0.0019111269889093225 0 -0.010609638723071982 0.0017569178247008451 0 -0.010958954689917338 0.0017565262542246331 0 -0.01096053169865715 0.0019849420235120707 0 -0.010433600525845443 0.0019218916029366605 0 -0.010609638723071982 0.0017569178247008451 0 -0.01096053169865715 0.0019849420235120707 0 -0.010433600525845443 0.0019218916029366605 0 -0.0098624731361121407 0.0019111269889093225 0 -0.0096988868961919144 0.0016982202707887285 0 -0.0099813791119208722 0.0012887468430882653 0 -0.0096988868961919144 0.0016982202707887285 0 -0.010961975960215245 0.0015251125619531035 0 -0.0099813791119208722 0.0012887468430882653 0 -0.0096988868961919144 0.0016982202707887285 0 -0.0089046487178337103 0.0013195108947542666 0 -0.0099813791119208722 0.0012887468430882653 0 -0.010961975960215245 0.0015251125619531035 0 -0.011105515563828992 0.0012813707620404171 0 -0.0097863074288855236 0.0016953192849966277 0 -0.010856374656054303 0.0014851583122536863 0 -0.0096988868961919144 0.0016982202707887285 0 -0.010609638723071982 0.0017569178247008451 0 -0.010875631457301653 0.0015051235724094789 0 -0.010222600187772744 0.001627701064712547 0 -0.011393919923758242 0.0016209018533722406 0 -0.010609638723071982 0.0017569178247008451 0 -0.010875631457301653 0.0015051235724094789 0 -0.010958954689917338 0.0017565262542246331 0 -0.010875631457301653 0.0015051235724094789 0 -0.01126888386647321 0.0017465809094524831 0 -0.01204921457775847 0.0012634501284964727 0 -0.010961975960215245 0.0015251125619531035 0 -0.011105515563828992 0.0012813707620404171 0 -0.012252394596301815 0.001278650701300078 0 -0.010856374656054303 0.0014851583122536863 0 -0.012392848662955459 0.001532862406964272 0 -0.011639036799611927 0.0019464191806478751 0 -0.012854858390230574 0.001917282805686478 0 -0.012223536536044188 0.001387960565309244 0 -0.011393919923758242 0.0016209018533722406 0 -0.012392848662955459 0.001532862406964272 0 -0.010875631457301653 0.0015051235724094789 0 -0.01126888386647321 0.0017465809094524831 0 -0.010958954689917338 0.0017565262542246331 0 -0.01126888386647321 0.0017465809094524831 0 -0.01096053169865715 0.0019849420235120707 0 -0.011313548641131621 0.0021248957995601584 0 -0.011539176152789585 0.0024993268510540476 0 -0.010792679508900879 0.0024893965724788868 0 -0.011313548641131621 0.0021248957995601584 0 -0.01126888386647321 0.0017465809094524831 0 -0.010958954689917338 0.0017565262542246331 0 -0.01096053169865715 0.0019849420235120707 0 -0.01126888386647321 0.0017465809094524831 0 -0.011553941655320001 0.0018752867345373484 0 -0.011313548641131621 0.0021248957995601584 0 -0.011553941655320001 0.0018752867345373484 0 -0.011313548641131621 0.0021248957995601584 0 -0.011770863892739784 0.0021520174224110063 0 -0.011539176152789585 0.0024993268510540476 0 -0.011313548641131621 0.0021248957995601584 0 -0.011770863892739784 0.0021520174224110063 0 -0.010792679508900879 0.0024893965724788868 0 -0.01096053169865715 0.0019849420235120707 0 -0.011313548641131621 0.0021248957995601584 0 -0.012065530107747332 0.0021677001472280677 0 -0.012392848662955459 0.001532862406964272 0 -0.012146486589331118 0.002353518303533112 0 -0.011770863892739784 0.0021520174224110063 0 -0.01204921457775847 0.0012634501284964727 0 -0.011539176152789585 0.0024993268510540476 0 -0.012146486589331118 0.002353518303533112 0 -0.011770863892739784 0.0021520174224110063 0 -0.01126888386647321 0.0017465809094524831 0 -0.011553941655320001 0.0018752867345373484 0 -0.01204921457775847 0.0012634501284964727 0 -0.011553941655320001 0.0018752867345373484 0 -0.011770863892739784 0.0021520174224110063 0 -0.01204921457775847 0.0012634501284964727 0 -0.012403101113350801 0.001645436873860305 0 -0.012146486589331118 0.002353518303533112 0 -0.012060775518182985 0.0012303515890284848 0 -0.01283575856847974 0.0014305215814218719 0 -0.012392848662955459 0.001532862406964272 0 -0.01350604407399565 0.0015021928517754018 0 -0.012927111863907582 0.0019411674564329799 0 -0.01284239338901064 0.00095927358268335509 0 -0.012392848662955459 0.001532862406964272 0 -0.012834887029334085 0.0010004092134236376 0 -0.012854858390230574 0.001917282805686478 0 -0.012223536536044188 0.001387960565309244 0 -0.012766830340999864 0.00086953086508485486 0 -0.012223536536044188 0.001387960565309244 0 -0.011552628822147828 0.00060373264711102855 0 -0.012766830340999864 0.00086953086508485486 0 -0.011639036799611927 0.0019464191806478751 0 -0.012223536536044188 0.001387960565309244 0 -0.011552628822147828 0.00060373264711102855 0 -0.011552628822147828 0.00060373264711102855 0 -0.012766830340999864 0.00086953086508485486 0 -0.012679628051466045 -0.00016496898834420727 0 -0.012834887029334085 0.0010004092134236376 0 -0.012705902608678973 -0.00014097304029838466 0 -0.013444341127011613 0.00028030184765484838 0 -0.01284239338901064 0.00095927358268335509 0 -0.012737746517215659 -4.2014245961534093e-05 0 -0.011552628822147828 0.00060373264711102855 0 -0.011930297809765357 -0.00068070506241774695 0 -0.011096790661928504 -0.00053744134213421445 0 -0.011552628822147828 0.00060373264711102855 0 -0.012679628051466045 -0.00016496898834420727 0 -0.011930297809765357 -0.00068070506241774695 0 -0.010941499048433541 -0.0014851815902715457 0 -0.011933521556928889 -0.0020513151172020382 0 -0.011930297809765357 -0.00068070506241774695 0 -0.011933521556928889 -0.0020513151172020382 0 -0.011930297809765357 -0.00068070506241774695 0 -0.012623865835639075 -0.0011289690099547136 0 -0.012705902608678973 -0.00014097304029838466 0 -0.012631418148114989 -0.0010345800243580646 0 -0.01353679956205432 -0.00086117915516781935 0 -0.012737746517215659 -4.2014245961534093e-05 0 -0.012623865835639075 -0.0011289690099547136 0 -0.012679628051466045 -0.00016496898834420727 0 -0.011930297809765357 -0.00068070506241774695 0 -0.012623865835639075 -0.0011289690099547136 0 -0.013118421513701167 -0.0017261687299734128 0 -0.01353679956205432 -0.00086117915516781935 0 -0.012623865835639075 -0.0011289690099547136 0 -0.0093683620089147022 -0.0018740071865239907 0 -0.010941499048433541 -0.0014851815902715457 0 -0.010110512244192368 -0.00071379945031823321 0 -0.010941499048433541 -0.0014851815902715457 0 -0.011930297809765357 -0.00068070506241774695 0 -0.011096790661928504 -0.00053744134213421445 0 -0.010941499048433541 -0.0014851815902715457 0 -0.011096790661928504 -0.00053744134213421445 0 -0.010110512244192368 -0.00071379945031823321 0 -0.011552628822147828 0.00060373264711102855 0 -0.011096790661928504 -0.00053744134213421445 0 -0.010586376050229 9.8093377599532165e-05 0 -0.010110512244192368 -0.00071379945031823321 0 -0.010586376050229 9.8093377599532165e-05 0 -0.0096198662169597656 0.00019457956190847118 0 -0.011096790661928504 -0.00053744134213421445 0 -0.010110512244192368 -0.00071379945031823321 0 -0.010586376050229 9.8093377599532165e-05 0 -0.010586376050229 9.8093377599532165e-05 0 -0.010520959065768316 0.00095177319599157144 0 -0.0096198662169597656 0.00019457956190847118 0 -0.010520959065768316 0.00095177319599157144 0 -0.0093877674510835108 0.0011895506521923081 0 -0.0096198662169597656 0.00019457956190847118 0 -0.011552628822147828 0.00060373264711102855 0 -0.010586376050229 9.8093377599532165e-05 0 -0.010520959065768316 0.00095177319599157144 0 -0.011639036799611927 0.0019464191806478751 0 -0.011552628822147828 0.00060373264711102855 0 -0.010520959065768316 0.00095177319599157144 0 -0.01037894688122183 0.0019814516068864404 0 -0.011639036799611927 0.0019464191806478751 0 -0.010520959065768316 0.00095177319599157144 0 -0.01037894688122183 0.0019814516068864404 0 -0.010520959065768316 0.00095177319599157144 0 -0.0093877674510835108 0.0011895506521923081 0 -0.0093877674510835108 0.0011895506521923081 0 -0.0082674848376344309 0.0015132161115247278 0 -0.0090368479098460793 0.0020127561860861188 0 -0.01037894688122183 0.0019814516068864404 0 -0.0093877674510835108 0.0011895506521923081 0 -0.0090368479098460793 0.0020127561860861188 0 -0.0093877674510835108 0.0011895506521923081 0 -0.0082674848376344309 0.0015132161115247278 0 -0.0084080236785996684 0.00051491267344653375 0 -0.0082674848376344309 0.0015132161115247278 0 -0.0084080236785996684 0.00051491267344653375 0 -0.0074986061682607843 0.0012177602572495463 0 -0.0093877674510835108 0.0011895506521923081 0 -0.0084080236785996684 0.00051491267344653375 0 -0.0096198662169597656 0.00019457956190847118 0 -0.0084080236785996684 0.00051491267344653375 0 -0.0096198662169597656 0.00019457956190847118 0 -0.0089291034659988062 -0.00055357984124478348 0 -0.010110512244192368 -0.00071379945031823321 0 -0.0096198662169597656 0.00019457956190847118 0 -0.0089291034659988062 -0.00055357984124478348 0 -0.0084080236785996684 0.00051491267344653375 0 -0.0089291034659988062 -0.00055357984124478348 0 -0.0079213594363082823 -0.00024418307866325514 0 -0.0089291034659988062 -0.00055357984124478348 0 -0.0080670826850646887 -0.0011816388947689801 0 -0.0079213594363082823 -0.00024418307866325514 0 -0.014198529643617407 -0.00055815750927632173 0 -0.013123336323819179 8.0419786232353247e-05 0 -0.0093683620089147022 -0.0018740071865239907 0 -0.0089291034659988062 -0.00055357984124478348 0 -0.0080670826850646887 -0.0011816388947689801 0 -0.0093683620089147022 -0.0018740071865239907 0 -0.010110512244192368 -0.00071379945031823321 0 -0.0089291034659988062 -0.00055357984124478348 0 -0.017114812526039684 0.0010574495238502733 0 -0.018013037148225056 0.0014032763141274831 0 -0.016938431829055241 0.0020511972471471103 0 -0.011518594164947873 0.00089923083438415714 0 -0.016159647653911549 0.0019072083201309075 0 -0.017114812526039684 0.0010574495238502733 0 -0.016938431829055241 0.0020511972471471103 0 -0.016348013331429278 0.0011750704469677931 0 -0.013123336323819179 8.0419786232353247e-05 0 -0.011518594164947873 0.00089923083438415714 0 -0.0080670826850646887 -0.0011816388947689801 0 -0.0079213594363082823 -0.00024418307866325514 0 -0.0068761288906093983 -0.00044960506276347378 0 -0.0079213594363082823 -0.00024418307866325514 0 -0.0068761288906093983 -0.00044960506276347378 0 -0.0074213013337740543 0.00047527074010389784 0 -0.0065578395953218146 -0.00090237792334083293 0 -0.0063348018834554374 0.000185746532426536 0 -0.0074213013337740543 0.00047527074010389784 0 -0.011518594164947873 0.00089923083438415714 0 -0.0060101128936542857 -0.00064072098024519893 0 -0.0063348018834554374 0.000185746532426536 0 -0.0074213013337740543 0.00047527074010389784 0 -0.0066993330819942846 0.00083549414686203262 0 -0.0063348018834554374 0.000185746532426536 0 -0.0066993330819942846 0.00083549414686203262 0 -0.0056947208060363682 0.00075172068001569609 0 -0.0084080236785996684 0.00051491267344653375 0 -0.0079213594363082823 -0.00024418307866325514 0 -0.0074213013337740543 0.00047527074010389784 0 -0.0084080236785996684 0.00051491267344653375 0 -0.0074213013337740543 0.00047527074010389784 0 -0.0074986061682607843 0.0012177602572495463 0 -0.0074986061682607843 0.0012177602572495463 0 -0.0064080277820303469 0.0015551138748223484 0 -0.0072002529755895257 0.0019256416591321322 0 -0.0074213013337740543 0.00047527074010389784 0 -0.0074986061682607843 0.0012177602572495463 0 -0.0066993330819942846 0.00083549414686203262 0 -0.0082674848376344309 0.0015132161115247278 0 -0.0074986061682607843 0.0012177602572495463 0 -0.0072002529755895257 0.0019256416591321322 0 -0.0074986061682607843 0.0012177602572495463 0 -0.0066993330819942846 0.00083549414686203262 0 -0.0064080277820303469 0.0015551138748223484 0 -0.0066993330819942846 0.00083549414686203262 0 -0.0064080277820303469 0.0015551138748223484 0 -0.0056947208060363682 0.00075172068001569609 0 -0.0064080277820303469 0.0015551138748223484 0 -0.0065561318835798167 0.0021981356009438658 0 -0.0053980901291018572 0.0018904645688157583 0 -0.0064080277820303469 0.0015551138748223484 0 -0.0065561318835798167 0.0021981356009438658 0 -0.0072002529755895257 0.0019256416591321322 0 -0.0062615839511587874 0.0027215553911672007 0 -0.0070432022201496287 0.0027509733785229702 0 -0.0061900969587943807 0.0033412262956171611 0 -0.0065561318835798167 0.0021981356009438658 0 -0.0062615839511587874 0.0027215553911672007 0 -0.0070432022201496287 0.0027509733785229702 0 -0.0070432022201496287 0.0027509733785229702 0 -0.0072002529755895257 0.0019256416591321322 0 -0.0076059084782378068 0.0022596590174716593 0 -0.0065561318835798167 0.0021981356009438658 0 -0.0070432022201496287 0.0027509733785229702 0 -0.0072002529755895257 0.0019256416591321322 0 -0.0082674848376344309 0.0015132161115247278 0 -0.0072002529755895257 0.0019256416591321322 0 -0.0091088284914469277 0.002079575138053904 0 -0.0072002529755895257 0.0019256416591321322 0 -0.0081183071189099756 0.0018603584572815667 0 -0.0076059084782378068 0.0022596590174716593 0 -0.0072273142788885237 0.0019924875149800289 0 -0.008733606466555105 0.0017481914398826614 0 -0.0084900379641282085 0.001654748986202392 0 -0.008733606466555105 0.0017481914398826614 0 -0.010222600187772744 0.001627701064712547 0 -0.008733606466555105 0.0017481914398826614 0 -0.0092815926869036121 0.0020000268335139421 0 -0.008733606466555105 0.0017481914398826614 0 -0.0098624731361121407 0.0019111269889093225 0 -0.0096988868961919144 0.0016982202707887285 0 -0.0089046487178337103 0.0013195108947542666 0 -0.0087834407381683043 0.0021662973367126614 0 -0.0080061591189762339 0.0025781908891182479 0 -0.0082506838493407626 0.0029814523576672546 0 -0.0087834407381683043 0.0021662973367126614 0 -0.0081183071189099756 0.0018603584572815667 0 -0.0080061591189762339 0.0025781908891182479 0 -0.0081183071189099756 0.0018603584572815667 0 -0.0076059084782378068 0.0022596590174716593 0 -0.0080061591189762339 0.0025781908891182479 0 -0.0070432022201496287 0.0027509733785229702 0 -0.0076059084782378068 0.0022596590174716593 0 -0.0080061591189762339 0.0025781908891182479 0 -0.0070432022201496287 0.0027509733785229702 0 -0.0080061591189762339 0.0025781908891182479 0 -0.007700807592326016 0.0035556002449003564 0 -0.0079516474826284624 0.0027051270958901707 0 -0.0079344569689960912 0.0031830029048150895 0 -0.0080061591189762339 0.0025781908891182479 0 -0.0078224399680501006 0.0030939136149970114 0 -0.0082506838493407626 0.0029814523576672546 0 -0.0082506838493407626 0.0029814523576672546 0 -0.0079526886738318786 0.0034226032391998251 0 -0.0081422127513015464 0.00356466334689303 0 -0.0078224399680501006 0.0030939136149970114 0 -0.0082506838493407626 0.0029814523576672546 0 -0.0079526886738318786 0.0034226032391998251 0 -0.0079344569689960912 0.0031830029048150895 0 -0.0056554524600376773 0.004151367406357024 0 -0.0078224399680501006 0.0030939136149970114 0 -0.0079526886738318786 0.0034226032391998251 0 -0.0077927405464434185 0.0034901792019074685 0 -0.007700807592326016 0.0035556002449003564 0 -0.0068808479948387347 0.0041815204128083086 0 -0.0073394773979664988 0.0044687576638950824 0 -0.007700807592326016 0.0035556002449003564 0 -0.0067362289753996234 0.0037032369548983656 0 -0.0068808479948387347 0.0041815204128083086 0 -0.0067362289753996234 0.0037032369548983656 0 -0.0064076842586955583 0.0042863588373476076 0 -0.0060262192742743291 0.0039402413200480225 0 -0.0067362289753996234 0.0037032369548983656 0 -0.0061900969587943807 0.0033412262956171611 0 -0.0060262192742743291 0.0039402413200480225 0 -0.0067362289753996234 0.0037032369548983656 0 -0.0068808479948387347 0.0041815204128083086 0 -0.0064076842586955583 0.0042863588373476076 0 -0.0064076842586955583 0.0042863588373476076 0 -0.0060262192742743291 0.0039402413200480225 0 -0.0058333945298863401 0.0044665516686787036 0 -0.0070432022201496287 0.0027509733785229702 0 -0.0067362289753996234 0.0037032369548983656 0 -0.0061900969587943807 0.0033412262956171611 0 -0.0070432022201496287 0.0027509733785229702 0 -0.007700807592326016 0.0035556002449003564 0 -0.0067362289753996234 0.0037032369548983656 0 -0.006854171030143001 0.0055999818274381037 0 -0.0064117448880280821 0.0053098461170008561 0 -0.0066745805885864914 0.0046624808047711023 0 -0.0017367120616303051 0.0047154670339885343 0 -0.0056554524600376773 0.004151367406357024 0 -0.0017367120616303051 0.0047154670339885343 0 -0.0044644721772145899 0.0054207800397281306 0 -0.0044644721772145899 0.0054207800397281306 0 -0.0062364492712886042 0.0051046375072076365 0 -0.0061190173308496828 0.00534932240616336 0 -0.0061734765010935458 0.0051927412566043886 0 -0.0057047985482978868 0.0048354392297717931 0 -0.00069891630772207596 0.0050121951877867945 0 -0.0021959931821171307 0.0052295751106804971 0 -0.0019911205592849364 0.0058333371832633481 0 -0.0012339969243714527 0.0054663315864975403 0 -0.0044644721772145899 0.0054207800397281306 0 -0.0044644721772145899 0.0054207800397281306 0 -0.0065802950820126405 0.004499119163632514 0 -0.0064415380094523132 0.0053259540633420616 0 -0.0062002074322297157 0.0047153776958773416 0 -0.0057047985482978868 0.0048354392297717931 0 -0.0064415380094523132 0.0053259540633420616 0 -0.0066745805885864914 0.0046624808047711023 0 -0.0062002074322297157 0.0047153776958773416 0 -0.0064076842586955583 0.0042863588373476076 0 -0.0062002074322297157 0.0047153776958773416 0 -0.0058333945298863401 0.0044665516686787036 0 -0.0068808479948387347 0.0041815204128083086 0 -0.0064076842586955583 0.0042863588373476076 0 -0.0066745805885864914 0.0046624808047711023 0 -0.0064076842586955583 0.0042863588373476076 0 -0.0066745805885864914 0.0046624808047711023 0 -0.0062002074322297157 0.0047153776958773416 0 -0.0068808479948387347 0.0041815204128083086 0 -0.0066745805885864914 0.0046624808047711023 0 -0.0069977410067587733 0.0045865581917661985 0 -0.006854171030143001 0.0055999818274381037 0 -0.0066745805885864914 0.0046624808047711023 0 -0.0069977410067587733 0.0045865581917661985 0 -0.006854171030143001 0.0055999818274381037 0 -0.0069977410067587733 0.0045865581917661985 0 -0.0073394773979664988 0.0044687576638950824 0 -0.0068808479948387347 0.0041815204128083086 0 -0.0069977410067587733 0.0045865581917661985 0 -0.0073394773979664988 0.0044687576638950824 0 -0.0056554524600376773 0.004151367406357024 0 -0.0055001791846338776 0.0039582786255157936 0 -0.0079526886738318786 0.0034226032391998251 0 -0.0077927405464434185 0.0034901792019074685 0 -0.0079998360068191162 0.0035773557215328096 0 -0.0079526886738318786 0.0034226032391998251 0 -0.0081422127513015464 0.00356466334689303 0 -0.0079998360068191162 0.0035773557215328096 0 -0.0079041991371544933 0.0035489246881937804 0 -0.0079998360068191162 0.0035773557215328096 0 -0.0077609815462889318 0.0034067572987702454 0 -0.0081422127513015464 0.00356466334689303 0 -0.0079041991371544933 0.0035489246881937804 0 -0.0079998360068191162 0.0035773557215328096 0 -0.0027971372347782662 0.0042312136486647627 0 -0.0025540973053576614 0.0049747208353159052 0 -0.0020790704899915644 0.0043467910633894656 0 0.0039294538888863355 0.0047171453834692805 0 0.0038116614529764017 0.0044528010584704248 0 0.0031699616835726471 0.0049186803132712439 0 -0.0027971372347782662 0.0042312136486647627 0 -0.0020790704899915644 0.0043467910633894656 0 -0.0021758492461724684 0.0038388457655957431 0 -0.0079998360068191162 0.0035773557215328096 0 -0.0078264927351679291 0.0031663956596097009 0 -0.0077609815462889318 0.0034067572987702454 0 -0.0055001791846338776 0.0039582786255157936 0 -0.00085096698816267255 0.0042795847616398913 0 0.0021524317031772445 0.0043981240555613392 0 -0.00085096698816267255 0.0042795847616398913 0 -0.0020790704899915644 0.0043467910633894656 0 -0.0021758492461724684 0.0038388457655957431 0 -0.0015957624609465196 0.0037021398197721301 0 0.003559225318621019 0.0046981163810677845 0 0.0042941382888782194 0.0045316891354597452 0 0.0042820944342885038 0.0043005505446267432 0 0.0039294538888863355 0.0047171453834692805 0 0.0042820944342885038 0.0043005505446267432 0 0.0040389678752731023 0.0043934578242556047 0 0.0021524317031772445 0.0043981240555613392 0 0.0047159041795479225 0.0042385084870653665 0 0.0041317876473958449 0.004201960513790657 0 0.0042820944342885038 0.0043005505446267432 0 0.0040389678752731023 0.0043934578242556047 0 0.0041317876473958449 0.004201960513790657 0 0.0042820944342885038 0.0043005505446267432 0 0.0042653988134244113 0.0040428052002836144 0 0.0039294538888863355 0.0047171453834692805 0 0.0038116614529764017 0.0044528010584704248 0 0.0040389678752731023 0.0043934578242556047 0 0.0038116614529764017 0.0044528010584704248 0 0.0040389678752731023 0.0043934578242556047 0 0.0039178841812740591 0.0042601841757177149 0 0.0041317876473958449 0.004201960513790657 0 0.0040389678752731023 0.0043934578242556047 0 0.0039178841812740591 0.0042601841757177149 0 0.0038116614529764017 0.0044528010584704248 0 0.0039178841812740591 0.0042601841757177149 0 0.0036690195885679924 0.0043730712797984388 0 0.0036690195885679924 0.0043730712797984388 0 0.0033642035399826511 0.004400592581964409 0 0.0035203263788818593 0.0046235514954494749 0 0.0036690195885679924 0.0043730712797984388 0 0.0033642035399826511 0.004400592581964409 0 0.0037485383150897885 0.0041369705725813862 0 0.0033642035399826511 0.004400592581964409 0 0.0035203263788818593 0.0046235514954494749 0 0.0032514499244172797 0.0046514651487682551 0 0.0035203263788818593 0.0046235514954494749 0 0.0033550825478912711 0.0047875313419000762 0 0.0032514499244172797 0.0046514651487682551 0 0.0038116614529764017 0.0044528010584704248 0 0.0036690195885679924 0.0043730712797984388 0 0.0035203263788818593 0.0046235514954494749 0 -0.0017367120616303051 0.0047154670339885343 0 0.0021524317031772445 0.0043981240555613392 0 0.0032400313513024481 0.0051419208905667422 0 0.0039294538888863355 0.0047171453834692805 0 0.0031699616835726471 0.0049186803132712439 0 0.0043072156540662392 0.0043891875230994059 0 0.0014819672605405599 0.0047180391125547661 0 0.0038116614529764017 0.0044528010584704248 0 0.0035203263788818593 0.0046235514954494749 0 0.0033441896888718923 0.0050427626283874221 0 0.0033550825478912711 0.0047875313419000762 0 0.0032891941859876477 0.0049187505235496927 0 0.0032514499244172797 0.0046514651487682551 0 0.0035203263788818593 0.0046235514954494749 0 0.0033550825478912711 0.0047875313419000762 0 0.0033441896888718923 0.0050427626283874221 0 0.0033550825478912711 0.0047875313419000762 0 0.0032891941859876477 0.0049187505235496927 0 0.0033441896888718923 0.0050427626283874221 0 -0.00069891630772207596 0.0050121951877867945 0 -0.0021959931821171307 0.0052295751106804971 0 -0.0010105539505884172 0.0041521040653705113 0 0.0018704350195361595 0.0050156362649396201 0 0.0014819672605405599 0.0047180391125547661 0 -0.0017367120616303051 0.0047154670339885343 0 0.0014819672605405599 0.0047180391125547661 0 0.0015355870518322979 0.0053337825530694726 0 0.0012777562636681462 0.0045182535666689868 0 0.001047326999716098 0.0050383695937500847 0 0.0030603781780918523 0.0052451247528566246 0 0.0032891941859876477 0.0049187505235496927 0 0.0028720435966553561 0.004670920041018301 0 -0.0012339969243714527 0.0054663315864975403 0 0.0024754981395604405 0.0046847589193836419 0 -0.0012339969243714527 0.0054663315864975403 0 0.0014819672605405599 0.0047180391125547661 0 0.0030603781780918523 0.0052451247528566246 0 0.0032891941859876477 0.0049187505235496927 0 0.0033203948409891455 0.0050216036147895573 0 0.0032891941859876477 0.0049187505235496927 0 0.0028720435966553561 0.004670920041018301 0 0.0032514499244172797 0.0046514651487682551 0 0.0033642035399826511 0.004400592581964409 0 0.0028720435966553561 0.004670920041018301 0 0.0031837854681687748 0.0040987629819536405 0 0.0033642035399826511 0.004400592581964409 0 0.0028720435966553561 0.004670920041018301 0 0.0032514499244172797 0.0046514651487682551 0 0.0028720435966553561 0.004670920041018301 0 0.0031837854681687748 0.0040987629819536405 0 0.0025116941764467592 0.0041811855668393624 0 0.0033642035399826511 0.004400592581964409 0 0.0031837854681687748 0.0040987629819536405 0 0.0037485383150897885 0.0041369705725813862 0 0.0031837854681687748 0.0040987629819536405 0 0.0037485383150897885 0.0041369705725813862 0 0.0038735818506194109 0.0037526967275144031 0 0.0031837854681687748 0.0040987629819536405 0 0.003595546822124489 0.0035498343130071141 0 0.0038735818506194109 0.0037526967275144031 0 0.003595546822124489 0.0035498343130071141 0 0.0041161518630176298 0.0033611318682783527 0 0.0038735818506194109 0.0037526967275144031 0 0.0031837854681687748 0.0040987629819536405 0 0.003595546822124489 0.0035498343130071141 0 0.0029608596400444048 0.0034539950876325601 0 0.0031837854681687748 0.0040987629819536405 0 0.0029608596400444048 0.0034539950876325601 0 0.0025116941764467592 0.0041811855668393624 0 0.0029608596400444048 0.0034539950876325601 0 0.003738767307469042 0.0031990658433533312 0 0.0030403291323313967 0.0026262823483285918 0 0.003595546822124489 0.0035498343130071141 0 0.0029608596400444048 0.0034539950876325601 0 0.003738767307469042 0.0031990658433533312 0 0.003738767307469042 0.0031990658433533312 0 0.0044609969866304354 0.0029254945046493872 0 0.0041161518630176298 0.0033611318682783527 0 0.003595546822124489 0.0035498343130071141 0 0.003738767307469042 0.0031990658433533312 0 0.0041161518630176298 0.0033611318682783527 0 0.003738767307469042 0.0031990658433533312 0 0.0044609969866304354 0.0029254945046493872 0 0.0030403291323313967 0.0026262823483285918 0 0.0044609969866304354 0.0029254945046493872 0 0.0030403291323313967 0.0026262823483285918 0 0.0039410896825258024 0.0020852898068119256 0 0.0043549490097754082 0.0032666468512684678 0 0.0043831138481176908 0.0032826899600155003 0 0.0043527428351012561 0.0032434692774788764 0 0.0043250079626958038 0.00321230163992467 0 0.0043549490097754082 0.0032666468512684678 0 0.0043527428351012561 0.0032434692774788764 0 0.0043250079626958038 0.00321230163992467 0 0.0043549490097754082 0.0032666468512684678 0 0.0043624535770581752 0.0033693146622394577 0 0.0044609969866304354 0.0029254945046493872 0 0.0043250079626958038 0.00321230163992467 0 0.0041161518630176298 0.0033611318682783527 0 0.0044609969866304354 0.0029254945046493872 0 0.0043250079626958038 0.00321230163992467 0 0.0043527428351012561 0.0032434692774788764 0 0.0043250079626958038 0.00321230163992467 0 0.0041161518630176298 0.0033611318682783527 0 0.004288887084416622 0.0034598440653375896 0 0.0043250079626958038 0.00321230163992467 0 0.004288887084416622 0.0034598440653375896 0 0.0043624535770581752 0.0033693146622394577 0 0.004288887084416622 0.0034598440653375896 0 0.0043676438923680025 0.0035435493751575613 0 0.0043624535770581752 0.0033693146622394577 0 0.004288887084416622 0.0034598440653375896 0 0.0043006178573954407 0.0037499088074249582 0 0.0041447282475783297 0.0036694744545174222 0 0.004288887084416622 0.0034598440653375896 0 0.0043006178573954407 0.0037499088074249582 0 0.0043676438923680025 0.0035435493751575613 0 0.0041161518630176298 0.0033611318682783527 0 0.004288887084416622 0.0034598440653375896 0 0.0041447282475783297 0.0036694744545174222 0 0.0041161518630176298 0.0033611318682783527 0 0.0041447282475783297 0.0036694744545174222 0 0.0038735818506194109 0.0037526967275144031 0 0.0041447282475783297 0.0036694744545174222 0 0.0038735818506194109 0.0037526967275144031 0 0.0040880584023358967 0.0040142928164448198 0 0.0037485383150897885 0.0041369705725813862 0 0.0038735818506194109 0.0037526967275144031 0 0.0040880584023358967 0.0040142928164448198 0 0.0039178841812740591 0.0042601841757177149 0 0.0037485383150897885 0.0041369705725813862 0 0.0040880584023358967 0.0040142928164448198 0 0.0041317876473958449 0.004201960513790657 0 0.0039178841812740591 0.0042601841757177149 0 0.0040880584023358967 0.0040142928164448198 0 0.0039178841812740591 0.0042601841757177149 0 0.0036690195885679924 0.0043730712797984388 0 0.0037485383150897885 0.0041369705725813862 0 0.0043006178573954407 0.0037499088074249582 0 0.0040880584023358967 0.0040142928164448198 0 0.0042653988134244113 0.0040428052002836144 0 0.0043006178573954407 0.0037499088074249582 0 0.0041447282475783297 0.0036694744545174222 0 0.0040880584023358967 0.0040142928164448198 0 0.0041317876473958449 0.004201960513790657 0 0.0040880584023358967 0.0040142928164448198 0 0.0042653988134244113 0.0040428052002836144 0 0.0043006178573954407 0.0037499088074249582 0 0.0045053065955442759 0.0039781550747904444 0 0.004415574365728852 0.0036651089247832776 0 0.0045053065955442759 0.0039781550747904444 0 0.0044220410988240928 0.0036192805084899731 0 0.004415574365728852 0.0036651089247832776 0 0.0043006178573954407 0.0037499088074249582 0 0.0042653988134244113 0.0040428052002836144 0 0.0045053065955442759 0.0039781550747904444 0 0.0037794613206311718 0.0041572980034756566 0 0.0042595800632068892 0.0040630020624931561 0 0.0044220410988240928 0.0036192805084899731 0 0.0042595800632068892 0.0040630020624931561 0 0.0046175774489856762 0.0036801307878451196 0 0.0043214160646407483 0.00460980676529013 0 0.0045739743610829896 0.0040805487580989359 0 -0.0015877105709646458 0.0038048025471026092 0 0.0046079624534912707 0.0038465228897749883 0 0.0042566049895325217 0.0038124456083219569 0 0.0037794613206311718 0.0041572980034756566 0 0.0042595800632068892 0.0040630020624931561 0 0.0040359659996356658 0.0043605440642870176 0 0.0042595800632068892 0.0040630020624931561 0 0.0044220410988240928 0.0036192805084899731 0 0.0046175774489856762 0.0036801307878451196 0 0.0044220410988240928 0.0036192805084899731 0 0.0044977586498773335 0.0035094055920375194 0 0.0046175774489856762 0.0036801307878451196 0 0.0044220410988240928 0.0036192805084899731 0 0.0044977586498773335 0.0035094055920375194 0 0.004418161469756118 0.0034955554642705409 0 0.0044220410988240928 0.0036192805084899731 0 0.004415574365728852 0.0036651089247832776 0 0.004418161469756118 0.0034955554642705409 0 0.0043006178573954407 0.0037499088074249582 0 0.004415574365728852 0.0036651089247832776 0 0.0043676438923680025 0.0035435493751575613 0 0.004415574365728852 0.0036651089247832776 0 0.0043676438923680025 0.0035435493751575613 0 0.004418161469756118 0.0034955554642705409 0 0.0043624535770581752 0.0033693146622394577 0 0.004418161469756118 0.0034955554642705409 0 0.00440401877967685 0.0033388796368696277 0 0.0043676438923680025 0.0035435493751575613 0 0.0043624535770581752 0.0033693146622394577 0 0.004418161469756118 0.0034955554642705409 0 0.0044522098592902218 0.0034179426436388104 0 0.00440401877967685 0.0033388796368696277 0 0.00443443102456249 0.003337313929630326 0 0.004418161469756118 0.0034955554642705409 0 0.0044522098592902218 0.0034179426436388104 0 0.00440401877967685 0.0033388796368696277 0 0.0044977586498773335 0.0035094055920375194 0 0.0044522098592902218 0.0034179426436388104 0 0.0044659000140695191 0.0033939707142528796 0 0.0044977586498773335 0.0035094055920375194 0 0.004418161469756118 0.0034955554642705409 0 0.0044522098592902218 0.0034179426436388104 0 0.0044522098592902218 0.0034179426436388104 0 0.00443443102456249 0.003337313929630326 0 0.0044659000140695191 0.0033939707142528796 0 0.0044003435731573594 0.0033024768164143692 0 0.00440401877967685 0.0033388796368696277 0 0.00443443102456249 0.003337313929630326 0 0.0044003435731573594 0.0033024768164143692 0 0.0043901030545593148 0.0033129719315924786 0 0.00443443102456249 0.003337313929630326 0 0.0043549490097754082 0.0032666468512684678 0 0.0043624535770581752 0.0033693146622394577 0 0.00440401877967685 0.0033388796368696277 0 0.0044003435731573594 0.0033024768164143692 0 0.0043831138481176908 0.0032826899600155003 0 0.00440401877967685 0.0033388796368696277 0 0.0043549490097754082 0.0032666468512684678 0 0.0043831138481176908 0.0032826899600155003 0 0.00440401877967685 0.0033388796368696277 0 0.0039006254129375609 0.0036536541169443671 0 0.0041200809384296959 0.0033840591035800703 0 0.0041642207712397662 0.0033269455017143727 0 0.0038951638301015232 0.0036585591242405857 0 0.0041564395231276259 0.003357039769964452 0 0.0041200809384296959 0.0033840591035800703 0 0.0039896974240553476 0.0037912274099186107 0 0.0041982506971181459 0.0037956687870489849 0 0.0039006254129375609 0.0036536541169443671 0 0.0041200809384296959 0.0033840591035800703 0 0.0039896974240553476 0.0037912274099186107 0 0.0039006254129375609 0.0036536541169443671 0 0.0034840036653964786 0.0038804759673892603 0 0.0041642207712397662 0.0033269455017143727 0 0.004375859794561684 0.0033188037502922293 0 0.0044819902801427414 0.0033333822565025819 0 0.0041642207712397662 0.0033269455017143727 0 0.004375859794561684 0.0033188037502922293 0 0.0043901030545593148 0.0033129719315924786 0 0.0043216536419835617 0.0033249977691558346 0 0.004375859794561684 0.0033188037502922293 0 0.0043901030545593148 0.0033129719315924786 0 0.00443443102456249 0.003337313929630326 0 0.004375859794561684 0.0033188037502922293 0 0.00443443102456249 0.003337313929630326 0 0.0044819902801427414 0.0033333822565025819 0 0.0034840036653964786 0.0038804759673892603 0 0.0035490128286672553 0.0041754762830139309 0 0.0034168617901035097 0.0042993629253782247 0 0.00443443102456249 0.003337313929630326 0 0.0044819902801427414 0.0033333822565025819 0 0.0044659000140695191 0.0033939707142528796 0 0.0044977586498773335 0.0035094055920375194 0 0.0044819902801427414 0.0033333822565025819 0 0.0044659000140695191 0.0033939707142528796 0 0.0034840036653964786 0.0038804759673892603 0 0.0037722331443213204 0.0039885605819071001 0 0.0035490128286672553 0.0041754762830139309 0 0.0037722331443213204 0.0039885605819071001 0 0.0036621226690551219 0.0041869477328237191 0 0.0035490128286672553 0.0041754762830139309 0 0.0039006254129375609 0.0036536541169443671 0 0.0034840036653964786 0.0038804759673892603 0 0.0037722331443213204 0.0039885605819071001 0 0.0039896974240553476 0.0037912274099186107 0 0.0040365680208604444 0.0042404267862185567 0 0.0041982506971181459 0.0037956687870489849 0 0.0039006254129375609 0.0036536541169443671 0 0.0037722331443213204 0.0039885605819071001 0 0.0039896974240553476 0.0037912274099186107 0 0.0037722331443213204 0.0039885605819071001 0 0.0039896974240553476 0.0037912274099186107 0 0.0040365680208604444 0.0042404267862185567 0 0.0036445995154535424 0.0042568865956635971 0 0.0030896430615533761 0.004575455353922538 0 0.0037722331443213204 0.0039885605819071001 0 0.0038450948753147524 0.0041883298243884535 0 0.0036621226690551219 0.0041869477328237191 0 0.0030896430615533761 0.004575455353922538 0 0.0034145628794300976 0.0048140892913343444 0 0.0038450948753147524 0.0041883298243884535 0 0.0036621226690551219 0.0041869477328237191 0 0.0034843291883302381 0.0043777414869923372 0 0.0038450948753147524 0.0041883298243884535 0 0.0034848537082396709 0.0044442257657451396 0 0.0033161884302097371 0.0046610792329981618 0 0.0029650291145634647 0.0057704825743131998 0 0.0030286585708112195 0.0051013587863750808 0 0.0028698773840962577 0.0053248226787888792 0 0.0035490128286672553 0.0041754762830139309 0 0.0034843291883302381 0.0043777414869923372 0 0.0034168617901035097 0.0042993629253782247 0 0.0036621226690551219 0.0041869477328237191 0 0.0035490128286672553 0.0041754762830139309 0 0.0034843291883302381 0.0043777414869923372 0 0.0038450948753147524 0.0041883298243884535 0 0.0034843291883302381 0.0043777414869923372 0 0.0034848537082396709 0.0044442257657451396 0 0.0044977586498773335 0.0035094055920375194 0 0.0044819902801427414 0.0033333822565025819 0 0.0046175774489856762 0.0036801307878451196 0 0.0034840036653964786 0.0038804759673892603 0 0.0034168617901035097 0.0042993629253782247 0 0.0031875045890811982 0.0044469869681299252 0 0.0038951638301015232 0.0036585591242405857 0 0.0045739743610829896 0.0040805487580989359 0 0.0034168617901035097 0.0042993629253782247 0 0.0031875045890811982 0.0044469869681299252 0 0.0033397119272652234 0.0045399973925101681 0 0.0034843291883302381 0.0043777414869923372 0 0.0034168617901035097 0.0042993629253782247 0 0.0033397119272652234 0.0045399973925101681 0 0.0031875045890811982 0.0044469869681299252 0 0.0033214717312314459 0.0046950118332605905 0 0.0030225446317020507 0.0047613089870410423 0 0.0031875045890811982 0.0044469869681299252 0 0.0033397119272652234 0.0045399973925101681 0 0.0033214717312314459 0.0046950118332605905 0 0.0033397119272652234 0.0045399973925101681 0 0.0033161884302097371 0.0046610792329981618 0 0.0033214717312314459 0.0046950118332605905 0 0.0029650291145634647 0.0057704825743131998 0 0.0030286585708112195 0.0051013587863750808 0 0.0033161884302097371 0.0046610792329981618 0 0.0030286585708112195 0.0051013587863750808 0 0.0030541072249468601 0.0048160964823116036 0 0.0028341626417133694 0.005036574625290037 0 0.0033397119272652234 0.0045399973925101681 0 0.0034848537082396709 0.0044442257657451396 0 0.0033161884302097371 0.0046610792329981618 0 0.0034843291883302381 0.0043777414869923372 0 0.0033397119272652234 0.0045399973925101681 0 0.0034848537082396709 0.0044442257657451396 0 0.0030286585708112195 0.0051013587863750808 0 0.0033161884302097371 0.0046610792329981618 0 0.0030541072249468601 0.0048160964823116036 0 0.0033161884302097371 0.0046610792329981618 0 0.0030541072249468601 0.0048160964823116036 0 0.0031302926513103279 0.0045810463254590383 0 -0.006511376455946744 0.0047751246035796805 0 -0.0056051465935900999 0.0045347792753333074 0 -0.011299035126743221 0.0064428350840428214 0 -0.011202479768412404 0.0064270222808507265 0 -0.011333057763060305 0.006327164748784685 0 -0.011304165262855928 0.0060910918625180646 0 -0.011332922693879756 0.0056413527881652272 0 -0.010118407233688786 0.005464629378364917 0 -0.0056051465935900999 0.0045347792753333074 0 -0.001140907252651495 0.0036118336590898518 0 -0.011202479768412404 0.0064270222808507265 0 -0.011304165262855928 0.0060910918625180646 0 -0.011333057763060305 0.006327164748784685 0 -0.011202479768412404 0.0064270222808507265 0 -0.011304165262855928 0.0060910918625180646 0 -0.010118407233688786 0.005464629378364917 0 -0.0056051465935900999 0.0045347792753333074 0 -0.0091250257082583306 0.0045032645012669566 0 0.0033161884302097371 0.0046610792329981618 0 0.0031302926513103279 0.0045810463254590383 0 0.0033214717312314459 0.0046950118332605905 0 -0.011070842733117153 0.0050636818651461019 0 -0.010118407233688786 0.005464629378364917 0 -0.010486852332260203 0.0047203318647373723 0 -0.011332922693879756 0.0056413527881652272 0 -0.011070842733117153 0.0050636818651461019 0 -0.010118407233688786 0.005464629378364917 0 -0.010118407233688786 0.005464629378364917 0 -0.010486852332260203 0.0047203318647373723 0 -0.0099103583984718208 0.0046313936009180915 0 -0.001140907252651495 0.0036118336590898518 0 -0.0015877105709646458 0.0038048025471026092 0 -0.0069365328811757717 0.0032617086024991056 0 -0.0067992182648691259 0.0028347673943259462 0 -0.0071657741557560831 0.0031602326365869492 0 -0.0067992182648691259 0.0028347673943259462 0 -0.0072946504882569043 0.0029561087867147309 0 -0.0071657741557560831 0.0031602326365869492 0 -0.0062618450372998406 0.0027330845772968538 0 -0.0069365328811757717 0.0032617086024991056 0 -0.0067992182648691259 0.0028347673943259462 0 0.0042595800632068892 0.0040630020624931561 0 0.0040359659996356658 0.0043605440642870176 0 0.0043214160646407483 0.00460980676529013 0 -0.0015877105709646458 0.0038048025471026092 0 -0.0048790385216734402 0.0040992607484114331 0 -0.0072946504882569043 0.0029561087867147309 0 -0.0071657741557560831 0.0031602326365869492 0 -0.00738968507596205 0.0031709242369680631 0 0.0042941382888782194 0.0045316891354597452 0 0.0042820944342885038 0.0043005505446267432 0 0.0045053065955442759 0.0039781550747904444 0 -0.00085096698816267255 0.0042795847616398913 0 -0.0015877105709646458 0.0038048025471026092 0 -0.0078264927351679291 0.0031663956596097009 0 -0.0072992232329271781 0.0029983086891338345 0 -0.00738968507596205 0.0031709242369680631 0 -0.00085096698816267255 0.0042795847616398913 0 0.0046079624534912707 0.0038465228897749883 0 0.0031894686559588302 0.0049114999344107985 0 0.0040359659996356658 0.0043605440642870176 0 0.0043214160646407483 0.00460980676529013 0 0.0031894686559588302 0.0049114999344107985 0 0.0037794613206311718 0.0041572980034756566 0 0.0040359659996356658 0.0043605440642870176 0 0.0042820944342885038 0.0043005505446267432 0 0.0042653988134244113 0.0040428052002836144 0 0.0045053065955442759 0.0039781550747904444 0 -0.0077609815462889318 0.0034067572987702454 0 -0.00738968507596205 0.0031709242369680631 0 -0.0075803266999863528 0.0036144151256091036 0 -0.0078264927351679291 0.0031663956596097009 0 -0.0077609815462889318 0.0034067572987702454 0 -0.00738968507596205 0.0031709242369680631 0 -0.0091250257082583306 0.0045032645012669566 0 -0.008200013956070543 0.0039710454077268543 0 -0.0069365328811757717 0.0032617086024991056 0 -0.0071657741557560831 0.0031602326365869492 0 -0.0075803266999863528 0.0036144151256091036 0 -0.0071657741557560831 0.0031602326365869492 0 -0.00738968507596205 0.0031709242369680631 0 -0.0075803266999863528 0.0036144151256091036 0 -0.010118407233688786 0.005464629378364917 0 -0.0090782169624202234 0.0044875800170253409 0 -0.0099103583984718208 0.0046313936009180915 0 -0.0090782169624202234 0.0044875800170253409 0 -0.010065636429029082 0.0040029659400494981 0 -0.0099103583984718208 0.0046313936009180915 0 -0.0079041991371544933 0.0035489246881937804 0 -0.0077609815462889318 0.0034067572987702454 0 -0.0075803266999863528 0.0036144151256091036 0 -0.0081422127513015464 0.00356466334689303 0 -0.0079041991371544933 0.0035489246881937804 0 -0.0075803266999863528 0.0036144151256091036 0 -0.0081422127513015464 0.00356466334689303 0 -0.0090782169624202234 0.0044875800170253409 0 -0.0089548197136655079 0.0036540699502202591 0 -0.0081703424912277656 0.0036255920741962676 0 -0.008200013956070543 0.0039710454077268543 0 -0.0090782169624202234 0.0044875800170253409 0 -0.0095559196511359433 0.0036320791940381166 0 -0.010065636429029082 0.0040029659400494981 0 -0.0090782169624202234 0.0044875800170253409 0 -0.0089548197136655079 0.0036540699502202591 0 -0.0095559196511359433 0.0036320791940381166 0 -0.0095559196511359433 0.0036320791940381166 0 -0.010065636429029082 0.0040029659400494981 0 -0.01032896088895245 0.0035620916699300202 0 -0.010065636429029082 0.0040029659400494981 0 -0.01032896088895245 0.0035620916699300202 0 -0.010647231313040037 0.0041778452801276601 0 -0.010905429642517462 0.0032092464012371583 0 -0.01032896088895245 0.0035620916699300202 0 -0.010824381860197055 0.0037027436853391479 0 -0.010905429642517462 0.0032092464012371583 0 -0.010824381860197055 0.0037027436853391479 0 -0.011426471265852748 0.0038630186264431532 0 -0.010824381860197055 0.0037027436853391479 0 -0.010647231313040037 0.0041778452801276601 0 -0.011426471265852748 0.0038630186264431532 0 -0.01032896088895245 0.0035620916699300202 0 -0.010824381860197055 0.0037027436853391479 0 -0.010647231313040037 0.0041778452801276601 0 -0.010647231313040037 0.0041778452801276601 0 -0.011072061351657943 0.0045533081024844773 0 -0.010486852332260203 0.0047203318647373723 0 -0.010647231313040037 0.0041778452801276601 0 -0.011072061351657943 0.0045533081024844773 0 -0.011426471265852748 0.0038630186264431532 0 -0.011070842733117153 0.0050636818651461019 0 -0.011072061351657943 0.0045533081024844773 0 -0.011700298066288145 0.0046637508165149871 0 -0.011070842733117153 0.0050636818651461019 0 -0.011072061351657943 0.0045533081024844773 0 -0.010486852332260203 0.0047203318647373723 0 -0.010065636429029082 0.0040029659400494981 0 -0.010486852332260203 0.0047203318647373723 0 -0.0099103583984718208 0.0046313936009180915 0 -0.010065636429029082 0.0040029659400494981 0 -0.010647231313040037 0.0041778452801276601 0 -0.010486852332260203 0.0047203318647373723 0 -0.012539892913835667 0.004865008811278237 0 -0.013124412347533258 0.0039142622373587619 0 -0.013642124724965069 0.0046011093909344705 0 -0.01230595811033551 0.0041440054640774892 0 -0.012539892913835667 0.004865008811278237 0 -0.013124412347533258 0.0039142622373587619 0 -0.01230595811033551 0.0041440054640774892 0 -0.011700298066288145 0.0046637508165149871 0 -0.011426471265852748 0.0038630186264431532 0 -0.01230595811033551 0.0041440054640774892 0 -0.012539892913835667 0.004865008811278237 0 -0.011700298066288145 0.0046637508165149871 0 -0.011072061351657943 0.0045533081024844773 0 -0.011700298066288145 0.0046637508165149871 0 -0.011426471265852748 0.0038630186264431532 0 -0.01230595811033551 0.0041440054640774892 0 -0.011426471265852748 0.0038630186264431532 0 -0.012614133862454796 0.0033612559769180352 0 -0.011551404423254169 0.0029387868381110347 0 -0.011426471265852748 0.0038630186264431532 0 -0.012614133862454796 0.0033612559769180352 0 -0.013291334795543178 0.0030938827242806889 0 -0.012614133862454796 0.0033612559769180352 0 -0.013124412347533258 0.0039142622373587619 0 -0.01230595811033551 0.0041440054640774892 0 -0.012614133862454796 0.0033612559769180352 0 -0.013124412347533258 0.0039142622373587619 0 -0.013124412347533258 0.0039142622373587619 0 -0.014169121120463124 0.0034664545587606045 0 -0.013642124724965069 0.0046011093909344705 0 -0.012732172868200308 0.0025472819847333103 0 -0.012387652033151893 0.0032978189043249249 0 -0.013291334795543178 0.0030938827242806889 0 -0.013124412347533258 0.0039142622373587619 0 -0.014169121120463124 0.0034664545587606045 0 -0.011499267642821191 0.0014968103678984698 0 -0.01154082973753856 0.001623757470906039 0 -0.011112476567529351 0.0021199374512094298 0 -0.011852182224089942 0.0012892558300399092 0 -0.01141771889232396 0.0015634438247196522 0 -0.011724506922760383 0.0020955308411606983 0 -0.011247192478102337 0.0016608390925144391 0 -0.011217467636475128 0.0022748441577408636 0 -0.01141771889232396 0.0015634438247196522 0 -0.01112434471110238 0.0023589968846040674 0 -0.011724506922760383 0.0020955308411606983 0 -0.01154082973753856 0.001623757470906039 0 -0.011112476567529351 0.0021199374512094298 0 -0.01112434471110238 0.0023589968846040674 0 -0.012387652033151893 0.0032978189043249249 0 -0.012004718918754497 0.0045191756420840399 0 -0.012539892913835667 0.004865008811278237 0 -0.013642124724965069 0.0046011093909344705 0 -0.013008136638797402 0.0057235146100905031 0 -0.011112476567529351 0.0021199374512094298 0 -0.01112434471110238 0.0023589968846040674 0 -0.010773420126305458 0.0027569332698929145 0 -0.01112434471110238 0.0023589968846040674 0 -0.010773420126305458 0.0027569332698929145 0 -0.011114397851241702 0.0027584014197229089 0 -0.0097259229215682867 0.0012641397517135049 0 -0.010229066046800123 0.001065552441671563 0 -0.01112434471110238 0.0023589968846040674 0 -0.011114397851241702 0.0027584014197229089 0 -0.011724506922760383 0.0020955308411606983 0 -0.0083882095870179644 0.00018292834253625347 0 -0.0087100507090123926 0.00015815282110134135 0 -0.0087050394697605511 -9.8572135629061602e-06 0 -0.0083882095870179644 0.00018292834253625347 0 -0.0085719919683275424 0.00040400921603261019 0 -0.0084284976333785337 0.0004452465461420122 0 -0.0083882095870179644 0.00018292834253625347 0 -0.0085719919683275424 0.00040400921603261019 0 -0.0087100507090123926 0.00015815282110134135 0 -0.0097259229215682867 0.0012641397517135049 0 -0.0096490950378552657 0.0031751955085371031 0 -0.010773420126305458 0.0027569332698929145 0 -0.011114397851241702 0.0027584014197229089 0 -0.010448526580801885 0.0034321237589968107 0 -0.012004718918754497 0.0045191756420840399 0 -0.0096490950378552657 0.0031751955085371031 0 -0.013008136638797402 0.0057235146100905031 0 -0.012196393312409706 0.0056865860811456974 0 -0.012434610575676578 0.0067395140819138336 0 -0.012539892913835667 0.004865008811278237 0 -0.013008136638797402 0.0057235146100905031 0 -0.012196393312409706 0.0056865860811456974 0 -0.012539892913835667 0.004865008811278237 0 -0.012196393312409706 0.0056865860811456974 0 -0.011764566968211678 0.0052449022211898226 0 -0.011332922693879756 0.0056413527881652272 0 -0.012196393312409706 0.0056865860811456974 0 -0.011764566968211678 0.0052449022211898226 0 -0.011070842733117153 0.0050636818651461019 0 -0.011700298066288145 0.0046637508165149871 0 -0.011764566968211678 0.0052449022211898226 0 -0.012539892913835667 0.004865008811278237 0 -0.011700298066288145 0.0046637508165149871 0 -0.011764566968211678 0.0052449022211898226 0 -0.011332922693879756 0.0056413527881652272 0 -0.011070842733117153 0.0050636818651461019 0 -0.011764566968211678 0.0052449022211898226 0 -0.012196393312409706 0.0056865860811456974 0 -0.011645934880418179 0.0060632628748867306 0 -0.011714680171999928 0.0064230434231433613 0 -0.013432028125555717 0.0065802834817158947 0 -0.0075893419937334023 0.0050616098600089745 0 -0.011304165262855928 0.0060910918625180646 0 -0.011332922693879756 0.0056413527881652272 0 -0.011645934880418179 0.0060632628748867306 0 -0.012196393312409706 0.0056865860811456974 0 -0.011714680171999928 0.0064230434231433613 0 -0.01189165407477627 0.0070852934794695711 0 -0.011332922693879756 0.0056413527881652272 0 -0.012196393312409706 0.0056865860811456974 0 -0.011645934880418179 0.0060632628748867306 0 -0.011645934880418179 0.0060632628748867306 0 -0.011513519343260293 0.0063432352669762588 0 -0.011714680171999928 0.0064230434231433613 0 -0.011304165262855928 0.0060910918625180646 0 -0.011645934880418179 0.0060632628748867306 0 -0.011513519343260293 0.0063432352669762588 0 -0.011304165262855928 0.0060910918625180646 0 -0.011513519343260293 0.0063432352669762588 0 -0.011333057763060305 0.006327164748784685 0 -0.011299035126743221 0.0064428350840428214 0 -0.011513519343260293 0.0063432352669762588 0 -0.011333057763060305 0.006327164748784685 0 -0.011299035126743221 0.0064428350840428214 0 -0.011513519343260293 0.0063432352669762588 0 -0.011459120618443055 0.0065672762168078542 0 -0.011459120618443055 0.0065672762168078542 0 -0.011714680171999928 0.0064230434231433613 0 -0.011606381653847494 0.0067908837913711736 0 -0.011299035126743221 0.0064428350840428214 0 -0.011210464657034503 0.0064229949435681017 0 -0.011459120618443055 0.0065672762168078542 0 -0.0056051465935900999 0.0045347792753333074 0 -0.0063946412348465115 0.0056909070388345513 0 -0.011210464657034503 0.0064229949435681017 0 -0.011459120618443055 0.0065672762168078542 0 -0.011589257517857922 0.0067618556366402594 0 0.0030541072249468601 0.0048160964823116036 0 0.0031302926513103279 0.0045810463254590383 0 0.0026114217836286633 0.0048752548404076626 0 -0.0086626450117082681 0.0072547544053423695 0 -0.0063946412348465115 0.0056909070388345513 0 -0.011513519343260293 0.0063432352669762588 0 -0.011459120618443055 0.0065672762168078542 0 -0.011714680171999928 0.0064230434231433613 0 -0.011714680171999928 0.0064230434231433613 0 -0.01189165407477627 0.0070852934794695711 0 -0.011606381653847494 0.0067908837913711736 0 -0.0075893419937334023 0.0050616098600089745 0 -0.0063946412348465115 0.0056909070388345513 0 -0.0046644517033782992 0.0048911957564299058 0 -0.006130939654298723 0.0062438856213162279 0 -0.0049936486010558369 0.0045487643644562563 0 0.0026275977120041941 0.0051605439444284496 0 0.0026114217836286633 0.0048752548404076626 0 0.0023447986181603284 0.0052305194116864292 0 -0.0063946412348465115 0.0056909070388345513 0 -0.0038541100078757617 0.0049032758984536772 0 -0.0075893419937334023 0.0050616098600089745 0 -0.0038541100078757617 0.0049032758984536772 0 0.0030541072249468601 0.0048160964823116036 0 0.0028341626417133694 0.005036574625290037 0 0.0026114217836286633 0.0048752548404076626 0 0.0030286585708112195 0.0051013587863750808 0 0.0028341626417133694 0.005036574625290037 0 0.0028698773840962577 0.0053248226787888792 0 0.0026275977120041941 0.0051605439444284496 0 0.0028341626417133694 0.005036574625290037 0 0.0028698773840962577 0.0053248226787888792 0 0.0026275977120041941 0.0051605439444284496 0 0.0028341626417133694 0.005036574625290037 0 0.0026114217836286633 0.0048752548404076626 0 -0.012196393312409706 0.0056865860811456974 0 -0.012021544568392715 0.0071339203597295502 0 -0.012434610575676578 0.0067395140819138336 0 -0.0067013551980780288 0.0044117401982941024 0 -0.0084284869036183561 0.0026366347315063174 0 -0.0073391278328438043 0.0049995238796890504 0 -0.0080699624292889325 0.00045028627119672636 0 -0.0081208513053738843 0.00056598680150333851 0 -0.0079669963572062338 0.00062687061024574225 0 -0.0075893419937334023 0.0050616098600089745 0 -0.0096490950378552657 0.0031751955085371031 0 -0.0096490950378552657 0.0031751955085371031 0 -0.0052942548822808959 0.0027694105679611099 0 -0.0080699624292889325 0.00045028627119672636 0 -0.0081208513053738843 0.00056598680150333851 0 -0.0082567855399729093 0.00050895591890564836 0 -0.0053647647460036392 0.0020584541962944784 0 -0.0043048421006905415 0.0010810278908328246 0 -0.0038705835279918802 0.0020219687761826861 0 -0.0081208513053738843 0.00056598680150333851 0 -0.0079953013121406812 0.00065215278286177218 0 -0.0083486719654087879 0.00064087252388536956 0 -0.0021499167538655654 0.0035039952288241426 0 -0.00046718025389123164 0.0020828765602635539 0 0.00061509603273926712 0.0031248675509200465 0 0.0005316854123143599 0.0029206597745996864 0 0.00099457813880107207 0.0025704336215641023 0 -0.002827984315676674 0.0033965702877638347 0 -0.0031085055552080021 0.0032518467340505361 0 -0.0020045261635303143 0.0016345928684662588 0 -0.0050477726420385472 0.0025806871820742432 0 -0.0028956025267987333 0.0016545686356168481 0 -0.0050477726420385472 0.0025806871820742432 0 -0.0066891314424285158 0.00082525702379734813 0 -0.002827984315676674 0.0033965702877638347 0 -0.0020045261635303143 0.0016345928684662588 0 -0.0014863620681952363 0.0021685971940072295 0 -0.0081208513053738843 0.00056598680150333851 0 -0.0079953013121406812 0.00065215278286177218 0 -0.0079669963572062338 0.00062687061024574225 0 -0.0045847383620754474 0.002064854115359639 0 -0.0054614802896528194 0.0028734312712282556 0 -0.005816213614520822 0.0020907455914724871 0 -0.0050477726420385472 0.0025806871820742432 0 -0.0038040380909094957 0.0031795540097805564 0 -0.0052942548822808959 0.0027694105679611099 0 -0.0038040380909094957 0.0031795540097805564 0 -0.0044210586199352579 0.0034761940948737557 0 -0.0046286066726911159 0.0030167814977286977 0 -0.0049545285265672192 0.0034999065395901431 0 -0.0050477726420385472 0.0025806871820742432 0 -0.0052942548822808959 0.0027694105679611099 0 -0.002827984315676674 0.0033965702877638347 0 -0.0030419525178849338 0.003401871719821327 0 -0.0031085055552080021 0.0032518467340505361 0 0.0026275977120041941 0.0051605439444284496 0 0.0028698773840962577 0.0053248226787888792 0 0.0024716220045725408 0.0053549056182626521 0 0.0026521652793166772 0.0051716549244456463 0 -0.00023181755397156528 0.0050856772480930203 0 0.0029650291145634647 0.0057704825743131998 0 0.0028698773840962577 0.0053248226787888792 0 0.0025075683703623384 0.0053307682330740397 0 0.0026275977120041941 0.0051605439444284496 0 0.0024716220045725408 0.0053549056182626521 0 0.0023447986181603284 0.0052305194116864292 0 -0.0011957879055220983 0.0035249655542864702 0 -0.0012754259503847316 0.003588148034096089 0 -0.0011561528949163022 0.0038335005221162475 0 0.0012337826587690082 0.004028829912439762 0 0.0011925510710026868 0.0040294182901550344 0 0.0012127195317632265 0.0041299717088207509 0 -0.00023181755397156528 0.0050856772480930203 0 -0.0038541100078757617 0.0049032758984536772 0 -0.002890022496066247 0.0046261479922118437 0 -0.0029229313992170836 0.004596701600183186 0 -0.0029290554360141079 0.0046253123793449447 0 -0.00023181755397156528 0.0050856772480930203 0 -0.0023109631310556651 0.0040198194603975369 0 -0.0075893419937334023 0.0050616098600089745 0 -0.0052942548822808959 0.0027694105679611099 0 -0.0052857147846228011 0.0042729402314520834 0 -0.0044210586199352579 0.0034761940948737557 0 -0.0049545285265672192 0.0034999065395901431 0 -0.0052857147846228011 0.0042729402314520834 0 -0.0049545285265672192 0.0034999065395901431 0 -0.0057294580263555269 0.0038105494953671053 0 -0.0049545285265672192 0.0034999065395901431 0 -0.0057294580263555269 0.0038105494953671053 0 -0.0055235206690368742 0.0030365125393752553 0 -0.0038541100078757617 0.0049032758984536772 0 -0.0023109631310556651 0.0040198194603975369 0 -0.0046286066726911159 0.0030167814977286977 0 -0.0049545285265672192 0.0034999065395901431 0 -0.0055235206690368742 0.0030365125393752553 0 -0.0038040380909094957 0.0031795540097805564 0 -0.0023109631310556651 0.0040198194603975369 0 -0.0023109631310556651 0.0040198194603975369 0 -0.0021499167538655654 0.0035039952288241426 0 -0.0018645809925887243 0.0043164914072090403 0 -0.0027724073641380324 0.0043364197253132298 0 -0.0020967784694848842 0.0038034029186447831 0 -0.0038040380909094957 0.0031795540097805564 0 -0.0021499167538655654 0.0035039952288241426 0 -0.0023109631310556651 0.0040198194603975369 0 -1.1598832883791689e-05 0.0036738118995531853 0 -0.0021499167538655654 0.0035039952288241426 0 -1.1598832883791689e-05 0.0036738118995531853 0 0.0030896430615533761 0.004575455353922538 0 -0.00023181755397156528 0.0050856772480930203 0 0.0013687270460050437 0.0041494034239415237 0 0.0012337826587690082 0.004028829912439762 0 0.0012127195317632265 0.0041299717088207509 0 -1.1598832883791689e-05 0.0036738118995531853 0 0.0028223267299945587 0.0036539362710483396 0 0.001536201754002512 0.003365784613032136 0 0.0014993362094289516 0.0032268140760543054 0 0.0015446303555090755 0.0032393561205037807 0 0.0030896430615533761 0.004575455353922538 0 0.0028223267299945587 0.0036539362710483396 0 0.0013687270460050437 0.0041494034239415237 0 0.0012127195317632265 0.0041299717088207509 0 0.0013188881894210757 0.0043169233578640642 0 -1.1598832883791689e-05 0.0036738118995531853 0 0.0010295631549713197 0.0027232241132477057 0 0.00051042153311577521 0.0024890946249419817 0 0.00099457813880107207 0.0025704336215641023 0 0.00091946055185281061 0.0021295883269837729 0 0.0005316854123143599 0.0029206597745996864 0 0.00051042153311577521 0.0024890946249419817 0 0.00099457813880107207 0.0025704336215641023 0 0.00091946055185281061 0.0021295883269837729 0 0.00049078259191873152 0.0020733550313208806 0 0.0010538279070183153 0.0016760862623708738 0 0.0042298080142036919 0.0033838577192608467 0 0.0028223267299945587 0.0036539362710483396 0 0.0042191158919106537 0.0032566007249202381 0 0.0041789888593307765 0.0032068613457059622 0 0.0041739069669363997 0.0032469034477890166 0 0.00051042153311577521 0.0024890946249419817 0 0.00091946055185281061 0.0021295883269837729 0 0.00049078259191873152 0.0020733550313208806 0 0.0028223267299945587 0.0036539362710483396 0 0.0025349639044543728 0.0029867317908539711 0 0.0014993362094289516 0.0032268140760543054 0 0.0015446303555090755 0.0032393561205037807 0 0.0015485038812398527 0.0031139696749846271 0 0.0010295631549713197 0.0027232241132477057 0 0.0025349639044543728 0.0029867317908539711 0 -0.00089194559780562466 0.00036629082164226591 0 0.00069201352072585328 -0.00033816903033213983 0 -0.0018573573214422418 0.00034906501537963151 0 -0.00098937728955191093 0.00014608700214678778 0 -0.00073539525457527657 -0.00067475332956256869 0 0.0016526332325247062 -0.0004129711318533661 0 0.0016424809746480465 -0.00031539726873355985 0 0.0014707036525034806 -0.00025432787755932929 0 0.0016526332325247062 -0.0004129711318533661 0 0.0016424809746480465 -0.00031539726873355985 0 0.0017390881573336237 -0.00031631000873055603 0 0.00099457813880107207 0.0025704336215641023 0 0.00091946055185281061 0.0021295883269837729 0 0.0013484149814943181 0.0020346045217473768 0 -0.00046718025389123164 0.0020828765602635539 0 0.00080605076705758715 0.00074746657685980159 0 -0.0020045261635303143 0.0016345928684662588 0 -0.0001646913566861625 0.00095427122781669522 0 -0.00091817458565916364 3.9357652422131147e-05 0 -0.00089194559780562466 0.00036629082164226591 0 0.00080605076705758715 0.00074746657685980159 0 -0.00089194559780562466 0.00036629082164226591 0 -0.0028956025267987333 0.0016545686356168481 0 -0.0020045261635303143 0.0016345928684662588 0 -0.0001646913566861625 0.00095427122781669522 0 -0.0014863620681952363 0.0021685971940072295 0 -0.0032332850975786841 0.00010249089676567492 0 -0.0043048421006905415 0.0010810278908328246 0 -0.0027849589684917223 0.00065135724942507801 0 -0.0018573573214422418 0.00034906501537963151 0 -0.0014985732868093185 0.00078817657718349211 0 -0.00098937728955191093 0.00014608700214678778 0 -0.00089194559780562466 0.00036629082164226591 0 -0.0032792816411817767 0.0003482155855996312 0 -0.0032792816411817767 0.0003482155855996312 0 -0.0021706267256297275 0.00013994723296790627 0 -0.0056741186671232817 0.00037943466569923445 0 -0.0056849847073008877 0.00065288296415883494 0 -0.005469214396757985 0.00064656967636041152 0 -0.0056741186671232817 0.00037943466569923445 0 -0.0056849847073008877 0.00065288296415883494 0 -0.0059097964626033837 0.00065945864074081764 0 -0.007295541743440063 0.00059671498367322234 0 -0.0066891314424285158 0.00082525702379734813 0 -0.0032792816411817767 0.0003482155855996312 0 -0.0066891314424285158 0.00082525702379734813 0 -0.0043048421006905415 0.0010810278908328246 0 -0.0027849589684917223 0.00065135724942507801 0 -0.0038705835279918802 0.0020219687761826861 0 -0.0083882095870179644 0.00018292834253625347 0 -0.0082567855399729093 0.00050895591890564836 0 -0.0084284976333785337 0.0004452465461420122 0 -0.0083882095870179644 0.00018292834253625347 0 -0.0080699624292889325 0.00045028627119672636 0 -0.0082567855399729093 0.00050895591890564836 0 -0.0081208513053738843 0.00056598680150333851 0 -0.0083486719654087879 0.00064087252388536956 0 -0.0082567855399729093 0.00050895591890564836 0 -0.0066891314424285158 0.00082525702379734813 0 -0.0079137949361710799 0.0009339527435723538 0 -0.008339185384488846 0.00057259055758874058 0 -0.0082567855399729093 0.00050895591890564836 0 -0.0084284976333785337 0.0004452465461420122 0 -0.0085055091867727028 0.00052525484967926831 0 -0.0085719919683275424 0.00040400921603261019 0 -0.0084284976333785337 0.0004452465461420122 0 -0.0085055091867727028 0.00052525484967926831 0 -0.008339185384488846 0.00057259055758874058 0 -0.0084284976333785337 0.0004452465461420122 0 -0.0085055091867727028 0.00052525484967926831 0 -0.0085719919683275424 0.00040400921603261019 0 -0.0085538755968258568 0.00045384056330241963 0 -0.0088334291560841147 0.0004180549213130841 0 -0.008099648206170219 0.00054277910449351298 0 -0.0085538755968258568 0.00045384056330241963 0 -0.0085220455059728025 0.00047755358687938366 0 -0.0085432274285048813 0.0004610312877877932 0 -0.0085719919683275424 0.00040400921603261019 0 -0.0089320091392900754 0.00048208736534363162 0 -0.0087686372186865352 0.00029523631346220909 0 -0.0085719919683275424 0.00040400921603261019 0 -0.0085538755968258568 0.00045384056330241963 0 -0.0085220455059728025 0.00047755358687938366 0 -0.0088717372307121189 0.00020780052930608625 0 -0.0089000369497211664 0.0001797232731780244 0 -0.0088869997286243618 0.0001720384759893623 0 -0.008099648206170219 0.00054277910449351298 0 -0.0090130543833138732 0.00012546187420009737 0 -0.0032426639832966084 0.00013776924566213659 0 -0.0032983261212517147 0.00013919011861891599 0 -0.0032595966204163889 8.2998402996903027e-05 0 -0.0054612915208707494 -7.1829967361228847e-05 0 -0.0061032928316876638 0.00051854912398011479 0 -0.0085074683894688259 0.00045547251988318848 0 -0.0085432274285048813 0.0004610312877877932 0 -0.0085443383528644567 0.0004563849935475442 0 -0.008099648206170219 0.00054277910449351298 0 -0.0054612915208707494 -7.1829967361228847e-05 0 -0.0085220455059728025 0.00047755358687938366 0 -0.0085074683894688259 0.00045547251988318848 0 -0.0085432274285048813 0.0004610312877877932 0 -0.0032792816411817767 0.0003482155855996312 0 -0.0061032928316876638 0.00051854912398011479 0 -0.0085055091867727028 0.00052525484967926831 0 -0.0085538755968258568 0.00045384056330241963 0 -0.0085505182345505595 0.0004661752854447523 0 -0.007295541743440063 0.00059671498367322234 0 -0.0061032928316876638 0.00051854912398011479 0 -0.0085538755968258568 0.00045384056330241963 0 -0.0085432274285048813 0.0004610312877877932 0 -0.0085505182345505595 0.0004661752854447523 0 -0.0065135058699575515 0.00026475014423581178 0 -0.0061032928316876638 0.00051854912398011479 0 -0.0033370805675632252 7.3006670074592775e-05 0 -0.0032983261212517147 0.00013919011861891599 0 -0.0032913487082403404 7.1802180468302264e-05 0 -0.0032983261212517147 0.00013919011861891599 0 -0.0032913487082403404 7.1802180468302264e-05 0 -0.0032595966204163889 8.2998402996903027e-05 0 -0.0033370805675632252 7.3006670074592775e-05 0 -0.0032913487082403404 7.1802180468302264e-05 0 -0.0032962285881204464 2.8052355052890604e-05 0 -0.0032913487082403404 7.1802180468302264e-05 0 -0.0032595966204163889 8.2998402996903027e-05 0 -0.0032497307069875134 3.8350170536650696e-05 0 -0.0032426639832966084 0.00013776924566213659 0 -0.0032595966204163889 8.2998402996903027e-05 0 -0.0031990010324948266 4.0097550763944575e-05 0 -0.0054612915208707494 -7.1829967361228847e-05 0 -0.0017554284259923222 -2.9115855497467587e-05 0 -0.0032595966204163889 8.2998402996903027e-05 0 -0.0032497307069875134 3.8350170536650696e-05 0 -0.0031990010324948266 4.0097550763944575e-05 0 0.00092633797172300843 -0.00010877980230770895 0 0.00090087545786233961 -0.0001252827051878808 0 0.00089790207771007916 0.00012947448005645656 0 -0.00083767846916150935 -0.00017530578520597606 0 -0.00057531904550034841 -0.00035546120783102719 0 -0.00087696495940360597 -8.7965335980589408e-05 0 0.00075514762593900523 4.4861222247206535e-05 0 -0.00083767846916150935 -0.00017530578520597606 0 0.001134167841780077 -1.7551091422197404e-05 0 -0.0032497307069875134 3.8350170536650696e-05 0 -0.0031992067967931644 2.5954207853427303e-05 0 -0.003247074113447592 -1.7425581024080221e-05 0 -0.0032497307069875134 3.8350170536650696e-05 0 -0.0031990010324948266 4.0097550763944575e-05 0 -0.0031992067967931644 2.5954207853427303e-05 0 -0.0017554284259923222 -2.9115855497467587e-05 0 -0.00087696495940360597 -8.7965335980589408e-05 0 -0.0017554284259923222 -2.9115855497467587e-05 0 -0.00083767846916150935 -0.00017530578520597606 0 -0.001330656858656884 -0.00012887292096020565 0 -0.0012861576327678937 1.534227011914309e-05 0 -0.0013393472413097448 -2.0969575214836122e-05 0 -0.00083767846916150935 -0.00017530578520597606 0 -0.00087696495940360597 -8.7965335980589408e-05 0 -0.0032497307069875134 3.8350170536650696e-05 0 -0.0032962285881204464 2.8052355052890604e-05 0 -0.003247074113447592 -1.7425581024080221e-05 0 -0.00098937728955191093 0.00014608700214678778 0 -0.00073539525457527657 -0.00067475332956256869 0 -0.00048005726392946746 -0.00049775456589439037 0 -0.0021706267256297275 0.00013994723296790627 0 -0.00057531904550034841 -0.00035546120783102719 0 -0.0032913487082403404 7.1802180468302264e-05 0 -0.0032497307069875134 3.8350170536650696e-05 0 -0.0032962285881204464 2.8052355052890604e-05 0 -0.00046914854421224766 5.3287383742114963e-07 0 0.00028365864951993155 2.6527566068396247e-05 0 -0.00026718639388436315 -0.00025374592170182211 0 -0.0023675075829078162 3.6357261772192225e-05 0 -0.002366499995049945 4.3549874313401028e-05 0 -0.0024052611332810998 1.4913505546415795e-05 0 0.00069916152234669163 -0.00014092751258145387 0 0.00028365864951993155 2.6527566068396247e-05 0 -0.00026718639388436315 -0.00025374592170182211 0 0.00069916152234669163 -0.00014092751258145387 0 0.00065176275577264549 5.2111583212335152e-05 0 0.00089790207771007916 0.00012947448005645656 0 0.00069916152234669163 -0.00014092751258145387 0 0.00028365864951993155 2.6527566068396247e-05 0 0.00065176275577264549 5.2111583212335152e-05 0 -0.00087696495940360597 -8.7965335980589408e-05 0 -0.0013013681717708476 -2.5487564620217119e-05 0 -0.0023675075829078162 3.6357261772192225e-05 0 -0.0024052611332810998 1.4913505546415795e-05 0 -0.0023940633118398292 1.2220619313612048e-05 0 -0.0023675075829078162 3.6357261772192225e-05 0 -0.0023940633118398292 1.2220619313612048e-05 0 -0.0023722870075958899 -2.1947247093776743e-05 0 -0.0017554284259923222 -2.9115855497467587e-05 0 -0.0042058894757390254 -3.7747149731117319e-05 0 -0.0024052611332810998 1.4913505546415795e-05 0 -0.0022757425804747398 4.3237291081677642e-08 0 -0.0023942861611289858 3.4910194911423111e-05 0 -0.0013013681717708476 -2.5487564620217119e-05 0 -0.0022731087395450882 -1.6101402788808394e-08 0 -0.0024052611332810998 1.4913505546415795e-05 0 -0.0023942861611289858 3.4910194911423111e-05 0 -0.0023940633118398292 1.2220619313612048e-05 0 -0.00046914854421224766 5.3287383742114963e-07 0 -0.00026718639388436315 -0.00025374592170182211 0 -0.0022710904796613765 -1.540022734564763e-06 0 -0.0023942861611289858 3.4910194911423111e-05 0 -0.0027954772510416369 -4.5490816476260019e-08 0 -0.0024624611598933381 -7.5272393020379798e-05 0 -0.0022757425804747398 4.3237291081677642e-08 0 -0.0023942861611289858 3.4910194911423111e-05 0 -0.0027954772510416369 -4.5490816476260019e-08 0 -0.0030219123640626098 -0.00019348203690437558 0 -0.0042058894757390254 -3.7747149731117319e-05 0 -0.0023942861611289858 3.4910194911423111e-05 0 -0.0024624611598933381 -7.5272393020379798e-05 0 -0.0023940633118398292 1.2220619313612048e-05 0 -0.0030219123640626098 -0.00019348203690437558 0 -0.0057533622908522292 -0.00022042969829898262 0 -0.0027997468633274383 -9.7185972127539398e-07 0 -0.0037067823485446086 -0.00017724134607574065 0 -0.0040855677617061704 5.0047338653612765e-05 0 -0.0027978902144374426 -2.3224908886200257e-07 0 -0.0030219123640626098 -0.00019348203690437558 0 -0.0032766209930350561 -0.00038290062938581976 0 -0.004827237832339324 8.6009620254161532e-05 0 -0.0049772162599870783 -0.00042026419115661614 0 -0.0036035386262701675 -0.00017502538804795709 0 -0.0035978395029443301 8.7584614960755774e-05 0 -0.0037038690213176289 -0.00017299091488952895 0 -0.0024624611598933381 -7.5272393020379798e-05 0 -0.0023940633118398292 1.2220619313612048e-05 0 -0.0023722870075958899 -2.1947247093776743e-05 0 -0.0057533622908522292 -0.00022042969829898262 0 -0.0042058894757390254 -3.7747149731117319e-05 0 -0.0063937298496154499 -0.00025717906309845253 0 -0.0053308975035346031 0.00014533220556582903 0 -0.0054549762672284081 -0.00027671528304255475 0 -0.0064659703119944604 0.00048854881409384529 0 -0.0063937298496154499 -0.00025717906309845253 0 -0.0053308975035346031 0.00014533220556582903 0 -0.0054612915208707494 -7.1829967361228847e-05 0 -0.0042058894757390254 -3.7747149731117319e-05 0 -0.0088980758806106956 0.00022814085900730956 0 -0.0089000369497211664 0.0001797232731780244 0 -0.0089499235877747805 0.00012844998138103025 0 -0.0057533622908522292 -0.00022042969829898262 0 -0.0069799540078938861 0.00020133740455686598 0 -0.0088717372307121189 0.00020780052930608625 0 -0.0088980758806106956 0.00022814085900730956 0 -0.0089000369497211664 0.0001797232731780244 0 -0.008099648206170219 0.00054277910449351298 0 -0.0057533622908522292 -0.00022042969829898262 0 -0.0042568053325557015 -5.7079572892153909e-05 0 -0.0040855677617061704 5.0047338653612765e-05 0 -0.0047564171937871146 9.5543197797045998e-05 0 -0.0027997468633274383 -9.7185972127539398e-07 0 -0.0040855677617061704 5.0047338653612765e-05 0 -0.0047034486482326367 7.5237844527688272e-07 0 -0.0037067823485446086 -0.00017724134607574065 0 -0.0042568053325557015 -5.7079572892153909e-05 0 -0.0040855677617061704 5.0047338653612765e-05 0 -0.0040855677617061704 5.0047338653612765e-05 0 -0.0047034486482326367 7.5237844527688272e-07 0 -0.0047564171937871146 9.5543197797045998e-05 0 -0.0047034486482326367 7.5237844527688272e-07 0 -0.0047564171937871146 9.5543197797045998e-05 0 -0.0066093673870148946 -2.0160235442558273e-07 0 -0.0069799540078938861 0.00020133740455686598 0 -0.007655735054566213 6.3887763945480369e-05 0 -0.0047564171937871146 9.5543197797045998e-05 0 -0.0066093673870148946 -2.0160235442558273e-07 0 -0.006478366485823687 -3.9014137090017198e-05 0 -0.0089499235877747805 0.00012844998138103025 0 -0.0089349997314584588 1.8576900494222876e-05 0 -0.0089369452163159235 -7.9283682629186216e-05 0 -0.0089499235877747805 0.00012844998138103025 0 -0.0088869997286243618 0.0001720384759893623 0 -0.0089349997314584588 1.8576900494222876e-05 0 -0.0089000369497211664 0.0001797232731780244 0 -0.0089499235877747805 0.00012844998138103025 0 -0.0088869997286243618 0.0001720384759893623 0 -0.0089320091392900754 0.00048208736534363162 0 -0.0088869997286243618 0.0001720384759893623 0 -0.0087686372186865352 0.00029523631346220909 0 -0.0085719919683275424 0.00040400921603261019 0 -0.0087686372186865352 0.00029523631346220909 0 -0.0087100507090123926 0.00015815282110134135 0 -0.0088869997286243618 0.0001720384759893623 0 -0.0087686372186865352 0.00029523631346220909 0 -0.0087100507090123926 0.00015815282110134135 0 -0.0087100507090123926 0.00015815282110134135 0 -0.0089349997314584588 1.8576900494222876e-05 0 -0.0087050394697605511 -9.8572135629061602e-06 0 -0.0088869997286243618 0.0001720384759893623 0 -0.0087100507090123926 0.00015815282110134135 0 -0.0089349997314584588 1.8576900494222876e-05 0 -0.0089349997314584588 1.8576900494222876e-05 0 -0.0087050394697605511 -9.8572135629061602e-06 0 -0.0089644033401955602 -4.3155504927772522e-05 0 -0.010229066046800123 0.001065552441671563 0 -0.010531636461957573 0.00080037754675501356 0 -0.011852182224089942 0.0012892558300399092 0 -0.011724506922760383 0.0020955308411606983 0 -0.012322317359811291 0.001436524200298152 0 -0.0089349997314584588 1.8576900494222876e-05 0 -0.0089644033401955602 -4.3155504927772522e-05 0 -0.009099286421446617 1.0955651808906351e-05 0 -0.009099286421446617 1.0955651808906351e-05 0 -0.0085188046843522915 9.0741883487887529e-08 0 -0.0089369452163159235 -7.9283682629186216e-05 0 -0.0085154637298249566 -1.335817754656725e-07 0 -0.0066093673870148946 -2.0160235442558273e-07 0 -0.006478366485823687 -3.9014137090017198e-05 0 -0.0085156499148276929 3.1132260858865232e-07 0 -0.007655735054566213 6.3887763945480369e-05 0 -0.0089349997314584588 1.8576900494222876e-05 0 -0.009099286421446617 1.0955651808906351e-05 0 -0.0089369452163159235 -7.9283682629186216e-05 0 -0.0053957638979688863 0.0037571208718754114 0 -0.0068488440687449453 0.0025386301246133141 0 -0.0070651036585236693 0.0046831274506517829 0 -0.0055923311908880847 0.004102396989307918 0 -0.0056201319080346913 0.0050217342688553017 0 -0.0053957638979688863 0.0037571208718754114 0 -0.0044406063243766555 0.0033597509181102748 0 -0.0043189546076114593 0.0039414743814840583 0 -0.0053957638979688863 0.0037571208718754114 0 -0.0044406063243766555 0.0033597509181102748 0 -0.0045556189682017583 0.0022452120069352565 0 -0.0044406063243766555 0.0033597509181102748 0 -0.0045556189682017583 0.0022452120069352565 0 -0.0038382096885246075 0.0034450353974902238 0 -0.0044406063243766555 0.0033597509181102748 0 -0.0043189546076114593 0.0039414743814840583 0 -0.0038382096885246075 0.0034450353974902238 0 -0.0043662193806886509 0.0031401089521860001 0 -0.0038382096885246075 0.0034450353974902238 0 -0.0041056993181339055 0.0028637950199072223 0 -0.0046084067237793722 0.0026168308611768214 0 -0.0038342525121228118 0.003378516459201189 0 -0.0053957638979688863 0.0037571208718754114 0 -0.0045556189682017583 0.0022452120069352565 0 -0.0068488440687449453 0.0025386301246133141 0 -0.0045556189682017583 0.0022452120069352565 0 -0.0068488440687449453 0.0025386301246133141 0 -0.006881645607529783 0.00024859410297971187 0 -0.0046084067237793722 0.0026168308611768214 0 -0.0053086802568111094 0.0018266695060678213 0 -0.0068488440687449453 0.0025386301246133141 0 -0.0090060643492907502 0.00080414048769281827 0 -0.006881645607529783 0.00024859410297971187 0 -0.0068488440687449453 0.0025386301246133141 0 -0.0088543547991145194 0.0034328230703123057 0 -0.0090060643492907502 0.00080414048769281827 0 -0.010781404639891506 0.0020180394669848242 0 -0.0088543547991145194 0.0034328230703123057 0 -0.0090060643492907502 0.00080414048769281827 0 -0.0095751444578210838 0.0038880367126367874 0 -0.0087537394873820375 0.0040725041483075097 0 -0.0091495435021461697 0.0042948695943882806 0 -0.0081999177364442226 0.0051464760070203926 0 -0.0079591664542172612 0.0062009878932422127 0 -0.0095751444578210838 0.0038880367126367874 0 -0.0078031431925822039 0.0064154714074971019 0 -0.0091963843725567339 0.005755446508590536 0 -0.0079591664542172612 0.0062009878932422127 0 -0.0087544960196406143 0.0063180820757158121 0 -0.0090068662429214855 0.0046994123524688042 0 -0.0091963843725567339 0.005755446508590536 0 -0.0079591664542172612 0.0062009878932422127 0 -0.0068488440687449453 0.0025386301246133141 0 -0.0088543547991145194 0.0034328230703123057 0 -0.0070651036585236693 0.0046831274506517829 0 -0.0087537394873820375 0.0040725041483075097 0 -0.0056201319080346913 0.0050217342688553017 0 -0.0081999177364442226 0.0051464760070203926 0 -0.0073038297441405083 0.0060056285879391044 0 -0.0079591664542172612 0.0062009878932422127 0 -0.0031140236071695872 0.0056343764793705675 0 -0.0030763978389441037 0.0052941430523235104 0 -0.002780903280220261 0.0054393921329183425 0 -0.0030763978389441037 0.0052941430523235104 0 -0.002780903280220261 0.0054393921329183425 0 -0.0028944244463269828 0.0050310885750990079 0 -0.0073038297441405083 0.0060056285879391044 0 -0.0079591664542172612 0.0062009878932422127 0 -0.0083233031838126966 0.0064539694356198218 0 -0.0056201319080346913 0.0050217342688553017 0 -0.0058887019182439588 0.0060772637083445543 0 -0.002780903280220261 0.0054393921329183425 0 -0.0028944244463269828 0.0050310885750990079 0 -0.0025340122228906486 0.0053259293498368991 0 -0.0091963843725567339 0.005755446508590536 0 -0.0087544960196406143 0.0063180820757158121 0 -0.0092198955956564847 0.0068395680679994341 0 -0.0087544960196406143 0.0063180820757158121 0 -0.0083233031838126966 0.0064539694356198218 0 -0.0092198955956564847 0.0068395680679994341 0 -0.0079591664542172612 0.0062009878932422127 0 -0.0087544960196406143 0.0063180820757158121 0 -0.0083233031838126966 0.0064539694356198218 0 -0.0058887019182439588 0.0060772637083445543 0 -0.0036447521367078714 0.0052894032921567231 0 -0.0023429597341225431 0.0052291527928956328 0 -0.0036447521367078714 0.0052894032921567231 0 -0.0028944244463269828 0.0050310885750990079 0 -0.0020911747013029735 0.0056691447608214658 0 -0.0018848185416233797 0.0052343722072206566 0 -0.0030763978389441037 0.0052941430523235104 0 -0.0028944244463269828 0.0050310885750990079 0 -0.0033359047640095451 0.0050114760939361036 0 -0.0028944244463269828 0.0050310885750990079 0 -0.0033359047640095451 0.0050114760939361036 0 -0.0034497888408742136 0.0047171054095743086 0 -0.0033359047640095451 0.0050114760939361036 0 -0.0040312072101133549 0.0047350041889379592 0 -0.0034497888408742136 0.0047171054095743086 0 -0.0033359047640095451 0.0050114760939361036 0 -0.0034617506842997501 0.0053907817362734336 0 -0.0040312072101133549 0.0047350041889379592 0 -0.0030763978389441037 0.0052941430523235104 0 -0.0033359047640095451 0.0050114760939361036 0 -0.0034617506842997501 0.0053907817362734336 0 -0.0042371061685006961 0.0049197086971154852 0 -0.0041637102508312153 0.0047610594748019658 0 -0.0053957638979688863 0.0037571208718754114 0 -0.0051546202779750149 0.0043278241072221999 0 -0.0043189546076114593 0.0039414743814840583 0 -0.0053957638979688863 0.0037571208718754114 0 -0.0057243343261387126 0.0039564798824951201 0 -0.0051546202779750149 0.0043278241072221999 0 -0.0056201319080346913 0.0050217342688553017 0 -0.0042371061685006961 0.0049197086971154852 0 -0.0031140236071695872 0.0056343764793705675 0 -0.0030763978389441037 0.0052941430523235104 0 -0.0034617506842997501 0.0053907817362734336 0 -0.0051546202779750149 0.0043278241072221999 0 -0.0043189546076114593 0.0039414743814840583 0 -0.0040312072101133549 0.0047350041889379592 0 -0.0043189546076114593 0.0039414743814840583 0 -0.0040312072101133549 0.0047350041889379592 0 -0.0038290961430819835 0.0041821488845844128 0 -0.0040312072101133549 0.0047350041889379592 0 -0.0037908574999167988 0.0044668907155180947 0 -0.0038290961430819835 0.0041821488845844128 0 -0.0040312072101133549 0.0047350041889379592 0 -0.0037553718918134568 0.0045925410872655458 0 -0.0034497888408742136 0.0047171054095743086 0 -0.0040312072101133549 0.0047350041889379592 0 -0.0037908574999167988 0.0044668907155180947 0 -0.0037553718918134568 0.0045925410872655458 0 -0.0037908574999167988 0.0044668907155180947 0 -0.0036121852168179182 0.0042558971495198104 0 -0.0036671564893876064 0.0044618589944306836 0 -0.0037908574999167988 0.0044668907155180947 0 -0.0036121852168179182 0.0042558971495198104 0 -0.0038290961430819835 0.0041821488845844128 0 -0.0036121852168179182 0.0042558971495198104 0 -0.0034492004205316385 0.0040597574852523875 0 -0.003593012820235253 0.0039022520885363273 0 -0.0036121852168179182 0.0042558971495198104 0 -0.0034492004205316385 0.0040597574852523875 0 -0.003429780657478983 0.0042258258146809363 0 -0.003593012820235253 0.0039022520885363273 0 -0.0033692556408236145 0.0038003776794890759 0 -0.0035546787763207281 0.0034484887943963087 0 -0.0034492004205316385 0.0040597574852523875 0 -0.003593012820235253 0.0039022520885363273 0 -0.0033692556408236145 0.0038003776794890759 0 -0.0036121852168179182 0.0042558971495198104 0 -0.003593012820235253 0.0039022520885363273 0 -0.0038290961430819835 0.0041821488845844128 0 -0.0043189546076114593 0.0039414743814840583 0 -0.0038290961430819835 0.0041821488845844128 0 -0.0038382096885246075 0.0034450353974902238 0 -0.003593012820235253 0.0039022520885363273 0 -0.0038290961430819835 0.0041821488845844128 0 -0.0038382096885246075 0.0034450353974902238 0 -0.0029774768767554167 0.0039705786271018563 0 -0.0032320193651386485 0.0040780390311380378 0 -0.0031203026594595075 0.0037178348284334865 0 -0.0028388970112220866 0.003653910555308506 0 -0.0029774768767554167 0.0039705786271018563 0 -0.0031203026594595075 0.0037178348284334865 0 -0.0034492004205316385 0.0040597574852523875 0 -0.0032320193651386485 0.0040780390311380378 0 -0.0033692556408236145 0.0038003776794890759 0 -0.0032320193651386485 0.0040780390311380378 0 -0.0033692556408236145 0.0038003776794890759 0 -0.0031203026594595075 0.0037178348284334865 0 -0.0034492004205316385 0.0040597574852523875 0 -0.0032320193651386485 0.0040780390311380378 0 -0.003429780657478983 0.0042258258146809363 0 -0.0033692556408236145 0.0038003776794890759 0 -0.0031203026594595075 0.0037178348284334865 0 -0.0032755463037371269 0.0033545150653968851 0 -0.0030185018067784386 0.0033872228357880963 0 -0.0031203026594595075 0.0037178348284334865 0 -0.0032755463037371269 0.0033545150653968851 0 -0.0028388970112220866 0.003653910555308506 0 -0.0030185018067784386 0.0033872228357880963 0 -0.0031203026594595075 0.0037178348284334865 0 -0.0030185018067784386 0.0033872228357880963 0 -0.0031169206993753706 0.0029535245443599936 0 -0.0032755463037371269 0.0033545150653968851 0 -0.0032755463037371269 0.0033545150653968851 0 -0.0035134110955130568 0.0030499486739136964 0 -0.0035546787763207281 0.0034484887943963087 0 -0.0033692556408236145 0.0038003776794890759 0 -0.0032755463037371269 0.0033545150653968851 0 -0.0035546787763207281 0.0034484887943963087 0 -0.0031169206993753706 0.0029535245443599936 0 -0.0032755463037371269 0.0033545150653968851 0 -0.0035134110955130568 0.0030499486739136964 0 -0.0031169206993753706 0.0029535245443599936 0 -0.0035134110955130568 0.0030499486739136964 0 -0.0034521853200713886 0.0027393253470462948 0 -0.0038382096885246075 0.0034450353974902238 0 -0.0035546787763207281 0.0034484887943963087 0 -0.0037707248365662581 0.0030057881156436853 0 -0.003593012820235253 0.0039022520885363273 0 -0.0038382096885246075 0.0034450353974902238 0 -0.0035546787763207281 0.0034484887943963087 0 -0.0035134110955130568 0.0030499486739136964 0 -0.0035546787763207281 0.0034484887943963087 0 -0.0037707248365662581 0.0030057881156436853 0 -0.0038382096885246075 0.0034450353974902238 0 -0.0037707248365662581 0.0030057881156436853 0 -0.0041056993181339055 0.0028637950199072223 0 -0.0037707248365662581 0.0030057881156436853 0 -0.0041056993181339055 0.0028637950199072223 0 -0.003943859947942537 0.0026358124845111677 0 -0.0035134110955130568 0.0030499486739136964 0 -0.0037707248365662581 0.0030057881156436853 0 -0.0036811533213794699 0.0027078635722730111 0 -0.0037707248365662581 0.0030057881156436853 0 -0.003943859947942537 0.0026358124845111677 0 -0.0036811533213794699 0.0027078635722730111 0 -0.003943859947942537 0.0026358124845111677 0 -0.0036811533213794699 0.0027078635722730111 0 -0.0038266025393885583 0.0024451956509608398 0 -0.003943859947942537 0.0026358124845111677 0 -0.0040355317369593991 0.0023867312121468283 0 -0.0038266025393885583 0.0024451956509608398 0 -0.003943859947942537 0.0026358124845111677 0 -0.0040355317369593991 0.0023867312121468283 0 -0.0042093326094423513 0.0025571625306345146 0 -0.0041056993181339055 0.0028637950199072223 0 -0.003943859947942537 0.0026358124845111677 0 -0.0042093326094423513 0.0025571625306345146 0 -0.0031169206993753706 0.0029535245443599936 0 -0.0033788492581893078 0.0025371321384514158 0 -0.0034521853200713886 0.0027393253470462948 0 -0.0035134110955130568 0.0030499486739136964 0 -0.0034521853200713886 0.0027393253470462948 0 -0.0036811533213794699 0.0027078635722730111 0 -0.0036811533213794699 0.0027078635722730111 0 -0.0036182783219552853 0.0024613489132558259 0 -0.0038266025393885583 0.0024451956509608398 0 -0.0034521853200713886 0.0027393253470462948 0 -0.0036811533213794699 0.0027078635722730111 0 -0.0036182783219552853 0.0024613489132558259 0 -0.0033788492581893078 0.0025371321384514158 0 -0.0034521853200713886 0.0027393253470462948 0 -0.0036182783219552853 0.0024613489132558259 0 -0.0033788492581893078 0.0025371321384514158 0 -0.0036182783219552853 0.0024613489132558259 0 -0.0036260499481775401 0.0022760715737648891 0 -0.0036182783219552853 0.0024613489132558259 0 -0.0036260499481775401 0.0022760715737648891 0 -0.0037720693950154889 0.0022582905402176532 0 -0.0037720693950154889 0.0022582905402176532 0 -0.0038266025393885583 0.0024451956509608398 0 -0.0039056349584429989 0.0022779636561358306 0 -0.0036182783219552853 0.0024613489132558259 0 -0.0037720693950154889 0.0022582905402176532 0 -0.0038266025393885583 0.0024451956509608398 0 -0.0038085935568894836 0.0021183152719710095 0 -0.0039059934583175098 0.0021251850908892405 0 -0.0037720693950154889 0.0022582905402176532 0 -0.0039059934583175098 0.0021251850908892405 0 -0.0037720693950154889 0.0022582905402176532 0 -0.0039056349584429989 0.0022779636561358306 0 -0.0038085935568894836 0.0021183152719710095 0 -0.0036260499481775401 0.0022760715737648891 0 -0.0037720693950154889 0.0022582905402176532 0 -0.0040355317369593991 0.0023867312121468283 0 -0.0042575450407792079 0.0022755890286938773 0 -0.0042093326094423513 0.0025571625306345146 0 -0.0040355317369593991 0.0023867312121468283 0 -0.0038266025393885583 0.0024451956509608398 0 -0.0039056349584429989 0.0022779636561358306 0 -0.0039059934583175098 0.0021251850908892405 0 -0.0039056349584429989 0.0022779636561358306 0 -0.0040501194954437525 0.0021895267495840249 0 -0.0040355317369593991 0.0023867312121468283 0 -0.0039056349584429989 0.0022779636561358306 0 -0.0040501194954437525 0.0021895267495840249 0 -0.0042641379319486262 0.0020385624927947753 0 -0.0040501194954437525 0.0021895267495840249 0 -0.0042575450407792079 0.0022755890286938773 0 -0.0040355317369593991 0.0023867312121468283 0 -0.0040501194954437525 0.0021895267495840249 0 -0.0042575450407792079 0.0022755890286938773 0 -0.0042641379319486262 0.0020385624927947753 0 -0.0045050176615572621 0.0021478216615096958 0 -0.0042575450407792079 0.0022755890286938773 0 -0.0093892931437670104 -0.00033254691831412106 0 -0.0093451801964503037 -0.00033575553746020462 0 -0.0045050176615572621 0.0021478216615096958 0 -0.0044899599641362543 0.0024286313155664689 0 -0.0047967087355430945 0.0023413057354665862 0 -0.0044899599641362543 0.0024286313155664689 0 -0.0047844519219360782 0.0026021310188854333 0 -0.0047967087355430945 0.0023413057354665862 0 -0.0045050176615572621 0.0021478216615096958 0 -0.0044899599641362543 0.0024286313155664689 0 -0.0042575450407792079 0.0022755890286938773 0 -0.0044899599641362543 0.0024286313155664689 0 -0.0042575450407792079 0.0022755890286938773 0 -0.0042093326094423513 0.0025571625306345146 0 -0.0044899599641362543 0.0024286313155664689 0 -0.0042093326094423513 0.0025571625306345146 0 -0.0044249797720491493 0.0027965852697407851 0 -0.0044899599641362543 0.0024286313155664689 0 -0.0044249797720491493 0.0027965852697407851 0 -0.0047844519219360782 0.0026021310188854333 0 -0.0043662193806886509 0.0031401089521860001 0 -0.0044249797720491493 0.0027965852697407851 0 -0.0047280188765260233 0.0028755646880366729 0 -0.0044249797720491493 0.0027965852697407851 0 -0.0047280188765260233 0.0028755646880366729 0 -0.0047844519219360782 0.0026021310188854333 0 -0.0041056993181339055 0.0028637950199072223 0 -0.0042093326094423513 0.0025571625306345146 0 -0.0044249797720491493 0.0027965852697407851 0 -0.0043662193806886509 0.0031401089521860001 0 -0.0041056993181339055 0.0028637950199072223 0 -0.0044249797720491493 0.0027965852697407851 0 -0.010745541828597228 -0.00069811173888281557 0 -0.0090060643492907502 0.00080414048769281827 0 -0.0098244517632217494 -0.0017805822620885683 0 -0.010781404639891506 0.0020180394669848242 0 -0.010745541828597228 -0.00069811173888281557 0 -0.0090060643492907502 0.00080414048769281827 0 -0.0053086802568111094 0.0018266695060678213 0 -0.010139175865376054 -0.00037881605845523661 0 -0.0090060643492907502 0.00080414048769281827 0 -0.006881645607529783 0.00024859410297971187 0 -0.0098244517632217494 -0.0017805822620885683 0 -0.0047280188765260233 0.0028755646880366729 0 -0.0047844519219360782 0.0026021310188854333 0 -0.0051038697485434785 0.0026191265046747706 0 -0.010139175865376054 -0.00037881605845523661 0 -0.0093451801964503037 -0.00033575553746020462 0 -0.0047844519219360782 0.0026021310188854333 0 -0.0051038697485434785 0.0026191265046747706 0 -0.0047967087355430945 0.0023413057354665862 0 -0.013834221354204456 -0.0032891398152350882 0 -0.01375372440918838 -0.0029428032682207086 0 -0.013277524766607266 -0.002885989594265189 0 -0.010745541828597228 -0.00069811173888281557 0 -0.010173631013700737 -0.0015310271720638422 0 -0.01277832655232912 -0.00090355487637687156 0 -0.010255508839884825 -0.00081591838122136199 0 -0.010139175865376054 -0.00037881605845523661 0 -0.013834221354204456 -0.0032891398152350882 0 -0.01375372440918838 -0.0029428032682207086 0 -0.014059629302136107 -0.0029563184644100481 0 -0.01375372440918838 -0.0029428032682207086 0 -0.013826757466513804 -0.0027967312343299138 0 -0.013640590548456183 -0.0028149030397903825 0 -0.01375372440918838 -0.0029428032682207086 0 -0.014059629302136107 -0.0029563184644100481 0 -0.014014131526253592 -0.0028241190317037572 0 -0.014235231378026257 -0.0028083570079489827 0 -0.014059629302136107 -0.0029563184644100481 0 -0.014014131526253592 -0.0028241190317037572 0 -0.014034948051387242 -0.0027141671595417413 0 -0.014235231378026257 -0.0028083570079489827 0 -0.014014131526253592 -0.0028241190317037572 0 -0.013795483387750586 -0.0027360771523231384 0 -0.014034948051387242 -0.0027141671595417413 0 -0.013826757466513804 -0.0027967312343299138 0 -0.01375372440918838 -0.0029428032682207086 0 -0.014014131526253592 -0.0028241190317037572 0 -0.013826757466513804 -0.0027967312343299138 0 -0.014034948051387242 -0.0027141671595417413 0 -0.014014131526253592 -0.0028241190317037572 0 -0.013826757466513804 -0.0027967312343299138 0 -0.013795483387750586 -0.0027360771523231384 0 -0.013826757466513804 -0.0027967312343299138 0 -0.013640590548456183 -0.0028149030397903825 0 -0.013795483387750586 -0.0027360771523231384 0 -0.01367240169487878 -0.0028422735280656938 0 -0.013640590548456183 -0.0028149030397903825 0 -0.01367240169487878 -0.0028422735280656938 0 -0.013640590548456183 -0.0028149030397903825 0 -0.013277524766607266 -0.002885989594265189 0 -0.01375372440918838 -0.0029428032682207086 0 -0.013640590548456183 -0.0028149030397903825 0 -0.013277524766607266 -0.002885989594265189 0 -0.01367240169487878 -0.0028422735280656938 0 -0.013277524766607266 -0.002885989594265189 0 -0.013809750822411334 -0.0028563696046758893 0 -0.010776127864528541 0.0024320549341816842 0 -0.011405159042089703 0.0022718672186977959 0 -0.011309443752444826 0.0028094136948674316 0 -0.01367240169487878 -0.0028422735280656938 0 -0.013809750822411334 -0.0028563696046758893 0 -0.013670138162739506 -0.0027569631175715895 0 -0.012250157755174631 -0.00013579570103129559 0 -0.012614488365212383 -0.00067977831898742732 0 -0.013792082865715063 -0.0026540915010314289 0 -0.01367240169487878 -0.0028422735280656938 0 -0.013670138162739506 -0.0027569631175715895 0 -0.011536316049228293 0.0014147421328800521 0 -0.012650653715843667 0.0016198338091664422 0 -0.011998427752710808 0.0024430570842085293 0 -0.012650653715843667 0.0016198338091664422 0 -0.012697463309196156 0.0025073839391899348 0 -0.011998427752710808 0.0024430570842085293 0 -0.012650653715843667 0.0016198338091664422 0 -0.012697463309196156 0.0025073839391899348 0 -0.013152909120011106 0.0021486913219458084 0 -0.012697463309196156 0.0025073839391899348 0 -0.011998427752710808 0.0024430570842085293 0 -0.012314574238399399 0.0031792783325503742 0 -0.011536316049228293 0.0014147421328800521 0 -0.011405159042089703 0.0022718672186977959 0 -0.011998427752710808 0.0024430570842085293 0 -0.010776127864528541 0.0024320549341816842 0 -0.011536316049228293 0.0014147421328800521 0 -0.011405159042089703 0.0022718672186977959 0 -0.011405159042089703 0.0022718672186977959 0 -0.011998427752710808 0.0024430570842085293 0 -0.011309443752444826 0.0028094136948674316 0 -0.011309443752444826 0.0028094136948674316 0 -0.011762524067553374 0.0030687369098975938 0 -0.011191084985625403 0.0032788301664179974 0 -0.011998427752710808 0.0024430570842085293 0 -0.011309443752444826 0.0028094136948674316 0 -0.011762524067553374 0.0030687369098975938 0 -0.011762524067553374 0.0030687369098975938 0 -0.012314574238399399 0.0031792783325503742 0 -0.011582173849209267 0.003587172710340477 0 -0.011762524067553374 0.0030687369098975938 0 -0.011191084985625403 0.0032788301664179974 0 -0.011582173849209267 0.003587172710340477 0 -0.011191084985625403 0.0032788301664179974 0 -0.011582173849209267 0.003587172710340477 0 -0.011080438078855781 0.0036561879133201755 0 -0.011998427752710808 0.0024430570842085293 0 -0.011762524067553374 0.0030687369098975938 0 -0.012314574238399399 0.0031792783325503742 0 -0.012148019965125064 0.0038875318252554665 0 -0.011704736262077171 0.0041914740016001512 0 -0.012249826237556072 0.0048898506950000005 0 -0.012148019965125064 0.0038875318252554665 0 -0.01287711589426551 0.0037904416824408372 0 -0.012249826237556072 0.0048898506950000005 0 -0.013114802049538563 0.0035851365664998146 0 -0.0067555188288729818 0.0039704015267791794 0 -0.012314574238399399 0.0031792783325503742 0 -0.012148019965125064 0.0038875318252554665 0 -0.01287711589426551 0.0037904416824408372 0 -0.012314574238399399 0.0031792783325503742 0 -0.012148019965125064 0.0038875318252554665 0 -0.011582173849209267 0.003587172710340477 0 -0.011582173849209267 0.003587172710340477 0 -0.011251817810314497 0.0040564181879407489 0 -0.011080438078855781 0.0036561879133201755 0 -0.012148019965125064 0.0038875318252554665 0 -0.011582173849209267 0.003587172710340477 0 -0.011704736262077171 0.0041914740016001512 0 -0.011582173849209267 0.003587172710340477 0 -0.011704736262077171 0.0041914740016001512 0 -0.011251817810314497 0.0040564181879407489 0 -0.011704736262077171 0.0041914740016001512 0 -0.011251817810314497 0.0040564181879407489 0 -0.011449350261870023 0.0045306099734318261 0 -0.011251817810314497 0.0040564181879407489 0 -0.010706759842034556 0.0039149197056728077 0 -0.011008671046640578 0.004461558371232281 0 -0.010706759842034556 0.0039149197056728077 0 -0.010461585940892035 0.0043483236193287969 0 -0.011008671046640578 0.004461558371232281 0 -0.010706759842034556 0.0039149197056728077 0 -0.011080438078855781 0.0036561879133201755 0 -0.010829443295403259 0.0034612195498263409 0 -0.011251817810314497 0.0040564181879407489 0 -0.010706759842034556 0.0039149197056728077 0 -0.011080438078855781 0.0036561879133201755 0 -0.010706759842034556 0.0039149197056728077 0 -0.010484157642123234 0.0035350658440676339 0 -0.010121213741235783 0.0038445008412292237 0 -0.010706759842034556 0.0039149197056728077 0 -0.010484157642123234 0.0035350658440676339 0 -0.010829443295403259 0.0034612195498263409 0 -0.010706759842034556 0.0039149197056728077 0 -0.010121213741235783 0.0038445008412292237 0 -0.010461585940892035 0.0043483236193287969 0 -0.0095751444578210838 0.0038880367126367874 0 -0.011471137121902956 0.0011742714090986546 0 -0.010781404639891506 0.0020180394669848242 0 -0.010745541828597228 -0.00069811173888281557 0 -0.01277832655232912 -0.00090355487637687156 0 -0.009425235370390762 0.0044761784646523322 0 -0.010121213741235783 0.0038445008412292237 0 -0.0099765206498200736 0.0035462710331642428 0 -0.0095751444578210838 0.0038880367126367874 0 -0.0098603956334089114 0.0041243941077919776 0 -0.010484157642123234 0.0035350658440676339 0 -0.010121213741235783 0.0038445008412292237 0 -0.0099765206498200736 0.0035462710331642428 0 -0.010173631013700737 -0.0015310271720638422 0 -0.013277524766607266 -0.002885989594265189 0 -0.01277832655232912 -0.00090355487637687156 0 -0.010139175865376054 -0.00037881605845523661 0 -0.014022779471941787 -0.0036660000598887034 0 -0.013277524766607266 -0.002885989594265189 0 -0.013809750822411334 -0.0028563696046758893 0 -0.01277832655232912 -0.00090355487637687156 0 -0.012250157755174631 -0.00013579570103129559 0 -0.011471137121902956 0.0011742714090986546 0 -0.010776127864528541 0.0024320549341816842 0 -0.0099765206498200736 0.0035462710331642428 0 -0.010756245560150991 0.0031742667649303012 0 -0.010776127864528541 0.0024320549341816842 0 -0.011309443752444826 0.0028094136948674316 0 -0.010756245560150991 0.0031742667649303012 0 -0.011309443752444826 0.0028094136948674316 0 -0.011191084985625403 0.0032788301664179974 0 -0.010756245560150991 0.0031742667649303012 0 -0.011191084985625403 0.0032788301664179974 0 -0.010756245560150991 0.0031742667649303012 0 -0.010829443295403259 0.0034612195498263409 0 -0.011191084985625403 0.0032788301664179974 0 -0.011080438078855781 0.0036561879133201755 0 -0.010829443295403259 0.0034612195498263409 0 -0.010484157642123234 0.0035350658440676339 0 -0.0099765206498200736 0.0035462710331642428 0 -0.010756245560150991 0.0031742667649303012 0 -0.010484157642123234 0.0035350658440676339 0 -0.010756245560150991 0.0031742667649303012 0 -0.010829443295403259 0.0034612195498263409 0 -0.011518594164947873 0.00089923083438415714 0 -0.0096434729352995133 0.0013267231697768219 0 -0.015062048697083807 0.0022328256239894347 0 -0.014607860503866742 0.0022236724939023638 0 -0.014669129446329648 0.0016712289125121694 0 -0.015062048697083807 0.0022328256239894347 0 -0.014607860503866742 0.0022236724939023638 0 -0.014502199928718229 0.0026648459980253792 0 -0.014607860503866742 0.0022236724939023638 0 -0.014176913182590662 0.0024162768480576239 0 -0.014502199928718229 0.0026648459980253792 0 -0.014607860503866742 0.0022236724939023638 0 -0.014669129446329648 0.0016712289125121694 0 -0.014280314615127644 0.0020727812212552213 0 -0.014257244600060465 0.0015121693544215553 0 -0.014669129446329648 0.0016712289125121694 0 -0.014081139628800988 0.0017808732940965456 0 -0.014669129446329648 0.0016712289125121694 0 -0.014081139628800988 0.0017808732940965456 0 -0.014280314615127644 0.0020727812212552213 0 -0.01394224190198704 0.0015014657791827604 0 -0.014257244600060465 0.0015121693544215553 0 -0.014081139628800988 0.0017808732940965456 0 -0.014081139628800988 0.0017808732940965456 0 -0.014005625181552975 0.0020704697665581587 0 -0.014280314615127644 0.0020727812212552213 0 -0.014005625181552975 0.0020704697665581587 0 -0.014280314615127644 0.0020727812212552213 0 -0.014176913182590662 0.0024162768480576239 0 -0.014607860503866742 0.0022236724939023638 0 -0.014280314615127644 0.0020727812212552213 0 -0.014176913182590662 0.0024162768480576239 0 -0.014005625181552975 0.0020704697665581587 0 -0.014176913182590662 0.0024162768480576239 0 -0.013768262491536802 0.0023954024617005663 0 -0.013768262491536802 0.0023954024617005663 0 -0.013810000742455066 0.0018577888874284725 0 -0.013052467167033283 0.0025572157848336697 0 -0.01376870285561888 0.0019012217811759597 0 -0.01317833789141565 0.0027059922928247874 0 -0.014005625181552975 0.0020704697665581587 0 -0.013768262491536802 0.0023954024617005663 0 -0.013810000742455066 0.0018577888874284725 0 -0.013810000742455066 0.0018577888874284725 0 -0.013694578966940868 0.0018039217759707625 0 -0.013457779320556428 0.0027323719838297051 0 -0.014081139628800988 0.0017808732940965456 0 -0.014005625181552975 0.0020704697665581587 0 -0.013810000742455066 0.0018577888874284725 0 -0.014216982115071079 0.0013910056564340688 0 -0.01381196048848643 0.0017333762419670799 0 -0.01394224190198704 0.0015014657791827604 0 -0.013810000742455066 0.0018577888874284725 0 -0.013694578966940868 0.0018039217759707625 0 -0.01394224190198704 0.0015014657791827604 0 -0.014081139628800988 0.0017808732940965456 0 -0.013810000742455066 0.0018577888874284725 0 -0.013837823841813503 0.0011879639384167206 0 -0.014609590521484483 0.0011883487733214057 0 -0.013694578966940868 0.0018039217759707625 0 -0.013299334317015995 0.00086264186480993963 0 -0.012650653715843667 0.0016198338091664422 0 -0.013325617819756925 0.0015433631735885832 0 -0.013694578966940868 0.0018039217759707625 0 -0.013325617819756925 0.0015433631735885832 0 -0.013152909120011106 0.0021486913219458084 0 -0.013837823841813503 0.0011879639384167206 0 -0.013694578966940868 0.0018039217759707625 0 -0.013325617819756925 0.0015433631735885832 0 -0.012650653715843667 0.0016198338091664422 0 -0.013325617819756925 0.0015433631735885832 0 -0.013152909120011106 0.0021486913219458084 0 -0.013694578966940868 0.0018039217759707625 0 -0.013152909120011106 0.0021486913219458084 0 -0.013457779320556428 0.0027323719838297051 0 -0.012697463309196156 0.0025073839391899348 0 -0.013152909120011106 0.0021486913219458084 0 -0.013457779320556428 0.0027323719838297051 0 -0.01317833789141565 0.0027059922928247874 0 -0.013114802049538563 0.0035851365664998146 0 -0.012697463309196156 0.0025073839391899348 0 -0.012314574238399399 0.0031792783325503742 0 -0.013457779320556428 0.0027323719838297051 0 -0.012314574238399399 0.0031792783325503742 0 -0.013457779320556428 0.0027323719838297051 0 -0.01287711589426551 0.0037904416824408372 0 -0.013052467167033283 0.0025572157848336697 0 -0.013054993068247509 0.003253118695444872 0 -0.012256689361200416 0.0035504049948310874 0 -0.012256689361200416 0.0035504049948310874 0 -0.012766862210748704 0.0040316146309099877 0 -0.011406625972687528 0.0048617228368068631 0 -0.013054993068247509 0.003253118695444872 0 -0.012256689361200416 0.0035504049948310874 0 -0.012766862210748704 0.0040316146309099877 0 -0.0020292311929875693 0.0020677863356426975 0 -0.0030971324299408926 0.0021232250293871466 0 -0.0033280554486135416 0.0009961347687542396 0 -0.0073212474409195868 0.0030560597162378844 0 -0.0086044065535323625 0.0021245168689359357 0 -0.013054993068247509 0.003253118695444872 0 -0.012766862210748704 0.0040316146309099877 0 -0.013798750768257222 0.0032622234526594337 0 -0.013768262491536802 0.0023954024617005663 0 -0.013052467167033283 0.0025572157848336697 0 -0.013798750768257222 0.0032622234526594337 0 -0.013052467167033283 0.0025572157848336697 0 -0.013054993068247509 0.003253118695444872 0 -0.013798750768257222 0.0032622234526594337 0 -0.0033280554486135416 0.0009961347687542396 0 -0.0043177616556647246 0.0012895616382193646 0 -0.0050414885375658575 -6.6026101611724346e-05 0 -0.014176913182590662 0.0024162768480576239 0 -0.013768262491536802 0.0023954024617005663 0 -0.013798750768257222 0.0032622234526594337 0 -0.014176913182590662 0.0024162768480576239 0 -0.013798750768257222 0.0032622234526594337 0 -0.014502199928718229 0.0026648459980253792 0 -0.0086044065535323625 0.0021245168689359357 0 -0.0096434729352995133 0.0013267231697768219 0 -0.0030971324299408926 0.0021232250293871466 0 -0.0033280554486135416 0.0009961347687542396 0 -0.0043177616556647246 0.0012895616382193646 0 -0.0030971324299408926 0.0021232250293871466 0 -0.0043177616556647246 0.0012895616382193646 0 -0.0045724338091996317 0.0025252566506928698 0 -0.0064080277820303469 0.0015551138748223484 0 -0.0056947208060363682 0.00075172068001569609 0 -0.0053980901291018572 0.0018904645688157583 0 -0.005663315180023421 0.00079848827211970055 0 -0.0049635818653245125 0.0022031547899259906 0 -0.0043177616556647246 0.0012895616382193646 0 -0.0056947208060363682 0.00075172068001569609 0 -0.0045724338091996317 0.0025252566506928698 0 -0.0063348018834554374 0.000185746532426536 0 -0.0056947208060363682 0.00075172068001569609 0 -0.0050414885375658575 -6.6026101611724346e-05 0 -0.0043177616556647246 0.0012895616382193646 0 -0.0056947208060363682 0.00075172068001569609 0 -0.0050414885375658575 -6.6026101611724346e-05 0 -0.0065578395953218146 -0.00090237792334083293 0 -0.0063348018834554374 0.000185746532426536 0 -0.0050414885375658575 -6.6026101611724346e-05 0 -0.0062615839511587874 0.0027215553911672007 0 -0.0053980901291018572 0.0018904645688157583 0 -0.0056325918320068421 0.0030250499770904027 0 -0.0065561318835798167 0.0021981356009438658 0 -0.0062615839511587874 0.0027215553911672007 0 -0.0053980901291018572 0.0018904645688157583 0 -0.0030971324299408926 0.0021232250293871466 0 -0.0045724338091996317 0.0025252566506928698 0 -0.0029644633704098925 0.0031510266624287715 0 -0.0049635818653245125 0.0022031547899259906 0 -0.0044683918171393392 0.0031328532300006736 0 -0.0053980901291018572 0.0018904645688157583 0 -0.0049893745463322767 0.0028560515647903986 0 -0.0056325918320068421 0.0030250499770904027 0 -0.0045724338091996317 0.0025252566506928698 0 -0.0035493392553881194 0.0038413669191126542 0 -0.0029644633704098925 0.0031510266624287715 0 -0.0035493392553881194 0.0038413669191126542 0 -0.0026380907079570138 0.0038069576789557858 0 -0.0029644633704098925 0.0031510266624287715 0 -0.0026380907079570138 0.0038069576789557858 0 -0.0022273827089036333 0.0034934256365284173 0 -0.0021174873423525122 0.0040602561820699927 0 -0.0029644633704098925 0.0031510266624287715 0 -0.0023943078901007644 0.0028251305560237604 0 -0.0022273827089036333 0.0034934256365284173 0 -0.0026380907079570138 0.0038069576789557858 0 -0.0029644633704098925 0.0031510266624287715 0 -0.0022273827089036333 0.0034934256365284173 0 -0.0030971324299408926 0.0021232250293871466 0 -0.0029644633704098925 0.0031510266624287715 0 -0.0023943078901007644 0.0028251305560237604 0 -0.0020292311929875693 0.0020677863356426975 0 -0.0030971324299408926 0.0021232250293871466 0 -0.0023943078901007644 0.0028251305560237604 0 -0.0020292311929875693 0.0020677863356426975 0 -0.0017543619262687671 0.003185144230273336 0 -0.0011137116215800568 0.0029368720644829195 0 -0.0020292311929875693 0.0020677863356426975 0 -0.0023943078901007644 0.0028251305560237604 0 -0.0017543619262687671 0.003185144230273336 0 -0.0073212474409195868 0.0030560597162378844 0 -0.0067555188288729818 0.0039704015267791794 0 -0.0017543619262687671 0.003185144230273336 0 -0.0022273827089036333 0.0034934256365284173 0 -0.0017753795106365535 0.0038740791103641626 0 -0.0023943078901007644 0.0028251305560237604 0 -0.0017543619262687671 0.003185144230273336 0 -0.0022273827089036333 0.0034934256365284173 0 -0.0022273827089036333 0.0034934256365284173 0 -0.0017753795106365535 0.0038740791103641626 0 -0.0021174873423525122 0.0040602561820699927 0 -0.0017543619262687671 0.003185144230273336 0 -0.0017753795106365535 0.0038740791103641626 0 -0.0013334383614494378 0.0037415017801585896 0 -0.0017753795106365535 0.0038740791103641626 0 -0.0021174873423525122 0.0040602561820699927 0 -0.0016549005754527546 0.0043173582064828016 0 -0.0017753795106365535 0.0038740791103641626 0 -0.0016549005754527546 0.0043173582064828016 0 -0.0014780850391681059 0.0040709065970689316 0 -0.0021174873423525122 0.0040602561820699927 0 -0.0019881937954054664 0.0044427426365419229 0 -0.0016549005754527546 0.0043173582064828016 0 -0.0016549005754527546 0.0043173582064828016 0 -0.0015390618992260508 0.0047780905434216571 0 -0.0013112813662664838 0.0043726505282728765 0 -0.0019881937954054664 0.0044427426365419229 0 -0.0016549005754527546 0.0043173582064828016 0 -0.0015390618992260508 0.0047780905434216571 0 -0.0015390618992260508 0.0047780905434216571 0 -0.002018205252548577 0.0048968635640452866 0 -0.0015653418873495934 0.0050239883360767229 0 -0.0015390618992260508 0.0047780905434216571 0 -0.0020445923468682737 0.004679396580877607 0 -0.002018205252548577 0.0048968635640452866 0 -0.0019881937954054664 0.0044427426365419229 0 -0.0015390618992260508 0.0047780905434216571 0 -0.0020445923468682737 0.004679396580877607 0 -0.0020445923468682737 0.004679396580877607 0 -0.0024695313140493322 0.0047046874363448716 0 -0.0022429288436495603 0.0045206294679414477 0 -0.00024982819565641962 0.0070145087226807911 0 3.6705489261546521e-05 0.0063252574116280484 0 -0.00059921183629010682 0.0062476646643119908 0 -0.002018205252548577 0.0048968635640452866 0 -0.0024927487738116826 0.0047589792711911208 0 -0.0017993382842386024 0.0051247213164376882 0 -0.0020445923468682737 0.004679396580877607 0 -0.002018205252548577 0.0048968635640452866 0 -0.0024695313140493322 0.0047046874363448716 0 -0.0021972411782482213 0.004995256442900612 0 -0.0011092691501175891 0.005826827796120794 0 -0.002018205252548577 0.0048968635640452866 0 -0.0024927487738116826 0.0047589792711911208 0 -0.0024695313140493322 0.0047046874363448716 0 -0.0021972411782482213 0.004995256442900612 0 -0.0022270317019177726 0.0049757767055504006 0 -0.0035493392553881194 0.0038413669191126542 0 -0.0025784023980213299 0.0048086424182723951 0 -0.0024695313140493322 0.0047046874363448716 0 -0.0035493392553881194 0.0038413669191126542 0 -0.0024695313140493322 0.0047046874363448716 0 -0.0024861095555567263 0.0042501086983918746 0 -0.0024695313140493322 0.0047046874363448716 0 -0.0022429288436495603 0.0045206294679414477 0 -0.0024861095555567263 0.0042501086983918746 0 -0.0019881937954054664 0.0044427426365419229 0 -0.0022429288436495603 0.0045206294679414477 0 -0.0024861095555567263 0.0042501086983918746 0 -0.0019881937954054664 0.0044427426365419229 0 -0.0020445923468682737 0.004679396580877607 0 -0.0022429288436495603 0.0045206294679414477 0 -0.0026380907079570138 0.0038069576789557858 0 -0.0021174873423525122 0.0040602561820699927 0 -0.0024861095555567263 0.0042501086983918746 0 -0.0021174873423525122 0.0040602561820699927 0 -0.0019881937954054664 0.0044427426365419229 0 -0.0024861095555567263 0.0042501086983918746 0 -0.0035493392553881194 0.0038413669191126542 0 -0.0026380907079570138 0.0038069576789557858 0 -0.0024861095555567263 0.0042501086983918746 0 -0.0049893745463322767 0.0028560515647903986 0 -0.005185047731613779 0.0038368519774513153 0 -0.005562268261696572 0.0035873918207103908 0 -0.0049893745463322767 0.0028560515647903986 0 -0.004541683020020503 0.0038377790557427602 0 -0.005185047731613779 0.0038368519774513153 0 -0.0044683918171393392 0.0031328532300006736 0 -0.0021972411782482213 0.004995256442900612 0 -0.004541683020020503 0.0038377790557427602 0 -0.005185047731613779 0.0038368519774513153 0 -0.0054825035103064582 0.0046726803819538802 0 -0.0021972411782482213 0.004995256442900612 0 -0.0026220948184423145 0.0055047464376701645 0 -0.005185047731613779 0.0038368519774513153 0 -0.0055836722799851727 0.0041213353112835071 0 -0.0054825035103064582 0.0046726803819538802 0 -0.005185047731613779 0.0038368519774513153 0 -0.0055836722799851727 0.0041213353112835071 0 -0.005562268261696572 0.0035873918207103908 0 -0.0055836722799851727 0.0041213353112835071 0 -0.0060262192742743291 0.0039402413200480225 0 -0.0058333945298863401 0.0044665516686787036 0 -0.0055836722799851727 0.0041213353112835071 0 -0.0060262192742743291 0.0039402413200480225 0 -0.005562268261696572 0.0035873918207103908 0 -0.0061900969587943807 0.0033412262956171611 0 -0.0060262192742743291 0.0039402413200480225 0 -0.005562268261696572 0.0035873918207103908 0 -0.0049893745463322767 0.0028560515647903986 0 -0.005562268261696572 0.0035873918207103908 0 -0.0056325918320068421 0.0030250499770904027 0 -0.0061900969587943807 0.0033412262956171611 0 -0.005562268261696572 0.0035873918207103908 0 -0.0056325918320068421 0.0030250499770904027 0 -0.0062615839511587874 0.0027215553911672007 0 -0.0061900969587943807 0.0033412262956171611 0 -0.0056325918320068421 0.0030250499770904027 0 -0.010179319309151839 0.0055100102731152137 0 -0.010731056416532171 0.0051159808999690247 0 -0.011301325136706305 0.0055151506349231981 0 -0.010179319309151839 0.0055100102731152137 0 -0.011301325136706305 0.0055151506349231981 0 -0.010287040548814444 0.0061760404821364591 0 -0.0010188777891236302 0.0037847603628063851 0 -0.00088323547597365709 0.0041893007860150325 0 -0.00052770769719861219 0.0042016511982734999 0 -0.006181564075433796 0.0046571829822317249 0 -0.0055481968497797518 0.0051462530584856702 0 -0.0091963843725567339 0.005755446508590536 0 -0.010179319309151839 0.0055100102731152137 0 -0.010038164227968455 0.0048479429733376076 0 -0.0091963843725567339 0.005755446508590536 0 -0.010179319309151839 0.0055100102731152137 0 -0.010287040548814444 0.0061760404821364591 0 -0.0090068662429214855 0.0046994123524688042 0 -0.0091963843725567339 0.005755446508590536 0 -0.010038164227968455 0.0048479429733376076 0 -0.010121213741235783 0.0038445008412292237 0 -0.010038164227968455 0.0048479429733376076 0 -0.010461585940892035 0.0043483236193287969 0 -0.0090068662429214855 0.0046994123524688042 0 -0.010121213741235783 0.0038445008412292237 0 -0.010038164227968455 0.0048479429733376076 0 -0.010038164227968455 0.0048479429733376076 0 -0.010461585940892035 0.0043483236193287969 0 -0.010626018643593891 0.0046866904894254024 0 -0.010179319309151839 0.0055100102731152137 0 -0.010038164227968455 0.0048479429733376076 0 -0.010731056416532171 0.0051159808999690247 0 -0.010038164227968455 0.0048479429733376076 0 -0.010626018643593891 0.0046866904894254024 0 -0.010731056416532171 0.0051159808999690247 0 -0.010626018643593891 0.0046866904894254024 0 -0.010731056416532171 0.0051159808999690247 0 -0.011278606344979169 0.0049467239972244056 0 -0.010626018643593891 0.0046866904894254024 0 -0.011008671046640578 0.004461558371232281 0 -0.011278606344979169 0.0049467239972244056 0 -0.010461585940892035 0.0043483236193287969 0 -0.010626018643593891 0.0046866904894254024 0 -0.011008671046640578 0.004461558371232281 0 -0.0067555188288729818 0.0039704015267791794 0 -0.006181564075433796 0.0046571829822317249 0 -0.011251817810314497 0.0040564181879407489 0 -0.011008671046640578 0.004461558371232281 0 -0.011449350261870023 0.0045306099734318261 0 -0.011278606344979169 0.0049467239972244056 0 -0.012249826237556072 0.0048898506950000005 0 -0.011301325136706305 0.0055151506349231981 0 -0.011008671046640578 0.004461558371232281 0 -0.011449350261870023 0.0045306099734318261 0 -0.011278606344979169 0.0049467239972244056 0 -0.011449350261870023 0.0045306099734318261 0 -0.011278606344979169 0.0049467239972244056 0 -0.012249826237556072 0.0048898506950000005 0 -0.011704736262077171 0.0041914740016001512 0 -0.011449350261870023 0.0045306099734318261 0 -0.012249826237556072 0.0048898506950000005 0 -0.010731056416532171 0.0051159808999690247 0 -0.011278606344979169 0.0049467239972244056 0 -0.011301325136706305 0.0055151506349231981 0 -0.0017543619262687671 0.003185144230273336 0 -0.0011137116215800568 0.0029368720644829195 0 -0.0013334383614494378 0.0037415017801585896 0 -0.0067555188288729818 0.0039704015267791794 0 -0.00072131896188356551 0.0041305353828719749 0 -0.0011137116215800568 0.0029368720644829195 0 -0.0013334383614494378 0.0037415017801585896 0 -0.0008445247707434436 0.0038552359874510088 0 -0.0013334383614494378 0.0037415017801585896 0 -0.0008445247707434436 0.0038552359874510088 0 -0.0011626230059531076 0.0040662248457009522 0 -0.0013334383614494378 0.0037415017801585896 0 -0.0014780850391681059 0.0040709065970689316 0 -0.0011626230059531076 0.0040662248457009522 0 -0.0017753795106365535 0.0038740791103641626 0 -0.0013334383614494378 0.0037415017801585896 0 -0.0014780850391681059 0.0040709065970689316 0 -0.0018404657365685734 0.0032845228402482505 0 -0.0010188777891236302 0.0037847603628063851 0 -0.0013148369993486973 0.0040458829210658206 0 -0.0010188777891236302 0.0037847603628063851 0 -0.0013148369993486973 0.0040458829210658206 0 -0.00088323547597365709 0.0041893007860150325 0 -0.0013148369993486973 0.0040458829210658206 0 -0.00088323547597365709 0.0041893007860150325 0 -0.00081981667118685708 0.004507391558069956 0 -0.00072131896188356551 0.0041305353828719749 0 -0.00093346108910560713 0.004319586314358497 0 -0.0008445247707434436 0.0038552359874510088 0 -0.0010409402301922545 0.0043021409958316102 0 -0.00081981667118685708 0.004507391558069956 0 -0.0008445247707434436 0.0038552359874510088 0 -0.0010409402301922545 0.0043021409958316102 0 -0.0011626230059531076 0.0040662248457009522 0 -0.0010409402301922545 0.0043021409958316102 0 -0.00081981667118685708 0.004507391558069956 0 -0.0011504999512004785 0.0046265216040265464 0 -0.0016549005754527546 0.0043173582064828016 0 -0.0014780850391681059 0.0040709065970689316 0 -0.0013112813662664838 0.0043726505282728765 0 -0.0014780850391681059 0.0040709065970689316 0 -0.0011626230059531076 0.0040662248457009522 0 -0.0013112813662664838 0.0043726505282728765 0 -0.0010409402301922545 0.0043021409958316102 0 -0.0011626230059531076 0.0040662248457009522 0 -0.0013112813662664838 0.0043726505282728765 0 -0.0010409402301922545 0.0043021409958316102 0 -0.0013112813662664838 0.0043726505282728765 0 -0.0011504999512004785 0.0046265216040265464 0 -0.0015390618992260508 0.0047780905434216571 0 -0.0011504999512004785 0.0046265216040265464 0 -0.0011065155559178983 0.0049946196795292363 0 -0.0015390618992260508 0.0047780905434216571 0 -0.0011065155559178983 0.0049946196795292363 0 -0.0012666301379097909 0.0051161531051548831 0 -0.0015390618992260508 0.0047780905434216571 0 -0.0013112813662664838 0.0043726505282728765 0 -0.0011504999512004785 0.0046265216040265464 0 -0.00081981667118685708 0.004507391558069956 0 -0.0011065155559178983 0.0049946196795292363 0 -0.00059903657646368424 0.0046613348581185949 0 -0.0013120345470919608 0.0050802738486857794 0 -0.00053555422066682069 0.0048654099187243815 0 -0.00081981667118685708 0.004507391558069956 0 -0.0011504999512004785 0.0046265216040265464 0 -0.0011065155559178983 0.0049946196795292363 0 -0.0014544816295254672 0.0053497972549798644 0 -0.0018848185416233797 0.0052343722072206566 0 -0.0013733567418306653 0.0050216890315348314 0 -0.0011065155559178983 0.0049946196795292363 0 -0.0014544816295254672 0.0053497972549798644 0 -0.0013733567418306653 0.0050216890315348314 0 -0.00088323547597365709 0.0041893007860150325 0 -0.00081981667118685708 0.004507391558069956 0 -0.00060658966095110227 0.0044208279380109064 0 -0.00081981667118685708 0.004507391558069956 0 -0.00059903657646368424 0.0046613348581185949 0 -0.00060658966095110227 0.0044208279380109064 0 -0.00088323547597365709 0.0041893007860150325 0 -0.00060658966095110227 0.0044208279380109064 0 -0.00052770769719861219 0.0042016511982734999 0 -0.0091963843725567339 0.005755446508590536 0 -0.010287040548814444 0.0061760404821364591 0 -0.0092198955956564847 0.0068395680679994341 0 -0.00059903657646368424 0.0046613348581185949 0 -0.00060658966095110227 0.0044208279380109064 0 -0.00021953583312568707 0.0044539655442731273 0 -0.0055481968497797518 0.0051462530584856702 0 -0.0036447521367078714 0.0052894032921567231 0 -0.00060658966095110227 0.0044208279380109064 0 -0.00052770769719861219 0.0042016511982734999 0 -0.00021953583312568707 0.0044539655442731273 0 -0.00053555422066682069 0.0048654099187243815 0 -0.0036447521367078714 0.0052894032921567231 0 -0.0014544816295254672 0.0053497972549798644 0 -0.0020911747013029735 0.0056691447608214658 0 -0.0018848185416233797 0.0052343722072206566 0 -0.0018848185416233797 0.0052343722072206566 0 -0.0019434309490905216 0.0048568421107990263 0 -0.0013733567418306653 0.0050216890315348314 0 -0.0019434309490905216 0.0048568421107990263 0 -0.0012296598784057161 0.0048343393000126363 0 -0.0019080855209954487 0.0044781140488074278 0 -0.0019434309490905216 0.0048568421107990263 0 -0.0012296598784057161 0.0048343393000126363 0 -0.0013733567418306653 0.0050216890315348314 0 -0.0012296598784057161 0.0048343393000126363 0 -0.0013733567418306653 0.0050216890315348314 0 -0.0011815306705458715 0.0050023041603216292 0 -0.0011065155559178983 0.0049946196795292363 0 -0.0013733567418306653 0.0050216890315348314 0 -0.0011815306705458715 0.0050023041603216292 0 -0.0011065155559178983 0.0049946196795292363 0 -0.0012666301379097909 0.0051161531051548831 0 -0.0011815306705458715 0.0050023041603216292 0 -0.0012666301379097909 0.0051161531051548831 0 -0.001168152665744236 0.005096657215984993 0 -0.0011815306705458715 0.0050023041603216292 0 -0.001168152665744236 0.005096657215984993 0 -0.0011815306705458715 0.0050023041603216292 0 -0.0012869212424579685 0.004861217919449207 0 -0.0012296598784057161 0.0048343393000126363 0 -0.0011815306705458715 0.0050023041603216292 0 -0.0012869212424579685 0.004861217919449207 0 -0.0011892182423590989 0.0048289359204183174 0 -0.00081659456164448886 0.0045864369195903424 0 -0.0003515804470811728 0.0043571054205138364 0 -0.00071377963106701917 0.0038412504920536938 0 -0.0014579695489417665 0.0040840803956820777 0 -0.0012296598784057161 0.0048343393000126363 0 -0.0003515804470811728 0.0043571054205138364 0 -0.0014579695489417665 0.0040840803956820777 0 -0.001168152665744236 0.005096657215984993 0 -0.0012869212424579685 0.004861217919449207 0 -0.00086981311408080111 0.0048569031460009649 0 -0.00081659456164448886 0.0045864369195903424 0 -0.00022701738077272329 0.0040797857166730584 0 -0.0003515804470811728 0.0043571054205138364 0 0.00034322010104234407 0.0039240731978387152 0 -0.00026091926447452396 0.0035155902233451508 0 -0.0003515804470811728 0.0043571054205138364 0 -0.00071377963106701917 0.0038412504920536938 0 -0.00026091926447452396 0.0035155902233451508 0 -0.0014579695489417665 0.0040840803956820777 0 -0.0018292097585607978 0.0035275900118325498 0 -0.0023822887491777305 0.0040284661445186241 0 -0.0014579695489417665 0.0040840803956820777 0 -0.0019080855209954487 0.0044781140488074278 0 -0.0023822887491777305 0.0040284661445186241 0 -0.0012296598784057161 0.0048343393000126363 0 -0.0014579695489417665 0.0040840803956820777 0 -0.0019080855209954487 0.0044781140488074278 0 0.00092115868016384446 0.0054784269645059549 0 0.00071721975597579125 0.0061246296784021612 0 0.00052529933965224514 0.0056554868718448562 0 0.0015355870518322979 0.0053337825530694726 0 0.00092115868016384446 0.0054784269645059549 0 0.001047326999716098 0.0050383695937500847 0 0.0015355870518322979 0.0053337825530694726 0 0.00092115868016384446 0.0054784269645059549 0 0.00071721975597579125 0.0061246296784021612 0 -0.0061190173308496828 0.00534932240616336 0 -0.0057047985482978868 0.0048354392297717931 0 -0.0054825035103064582 0.0046726803819538802 0 -0.0012339969243714527 0.0054663315864975403 0 -0.0026220948184423145 0.0055047464376701645 0 0.00092115868016384446 0.0054784269645059549 0 0.00059005607942832778 0.0051394388911774622 0 0.001047326999716098 0.0050383695937500847 0 0.00092115868016384446 0.0054784269645059549 0 0.00052529933965224514 0.0056554868718448562 0 0.00059005607942832778 0.0051394388911774622 0 -0.0062002074322297157 0.0047153776958773416 0 -0.0057047985482978868 0.0048354392297717931 0 -0.0058333945298863401 0.0044665516686787036 0 -0.0057047985482978868 0.0048354392297717931 0 -0.0058333945298863401 0.0044665516686787036 0 -0.0054825035103064582 0.0046726803819538802 0 -0.0055836722799851727 0.0041213353112835071 0 -0.0058333945298863401 0.0044665516686787036 0 -0.0054825035103064582 0.0046726803819538802 0 0.00071721975597579125 0.0061246296784021612 0 0.00024305661031040314 0.0059290033656998692 0 0.00052529933965224514 0.0056554868718448562 0 -0.00024982819565641962 0.0070145087226807911 0 0.00071721975597579125 0.0061246296784021612 0 3.6705489261546521e-05 0.0063252574116280484 0 0.00071721975597579125 0.0061246296784021612 0 3.6705489261546521e-05 0.0063252574116280484 0 0.00024305661031040314 0.0059290033656998692 0 3.6705489261546521e-05 0.0063252574116280484 0 0.00024305661031040314 0.0059290033656998692 0 -0.00018949486612015873 0.005954421108423113 0 0.00024305661031040314 0.0059290033656998692 0 6.6452119368682846e-05 0.0055267235704609795 0 -0.00018949486612015873 0.005954421108423113 0 6.6452119368682846e-05 0.0055267235704609795 0 -0.00015776984002842964 0.0049676904285859023 0 0.00059005607942832778 0.0051394388911774622 0 0.00024305661031040314 0.0059290033656998692 0 6.6452119368682846e-05 0.0055267235704609795 0 0.00052529933965224514 0.0056554868718448562 0 6.6452119368682846e-05 0.0055267235704609795 0 0.00052529933965224514 0.0056554868718448562 0 0.00059005607942832778 0.0051394388911774622 0 6.6452119368682846e-05 0.0055267235704609795 0 -0.0010122559038035781 0.0053254503707288337 0 -0.00015776984002842964 0.0049676904285859023 0 6.6452119368682846e-05 0.0055267235704609795 0 -0.00018949486612015873 0.005954421108423113 0 -0.0010122559038035781 0.0053254503707288337 0 -0.00018949486612015873 0.005954421108423113 0 -0.00059921183629010682 0.0062476646643119908 0 -0.0010122559038035781 0.0053254503707288337 0 -0.0011092691501175891 0.005826827796120794 0 -0.0011351149146211336 0.005276120928287097 0 3.6705489261546521e-05 0.0063252574116280484 0 -0.00018949486612015873 0.005954421108423113 0 -0.00059921183629010682 0.0062476646643119908 0 -0.002018205252548577 0.0048968635640452866 0 -0.0017993382842386024 0.0051247213164376882 0 -0.0015653418873495934 0.0050239883360767229 0 -0.0017993382842386024 0.0051247213164376882 0 -0.0015653418873495934 0.0050239883360767229 0 -0.0010122559038035781 0.0053254503707288337 0 -0.0015390618992260508 0.0047780905434216571 0 -0.0012666301379097909 0.0051161531051548831 0 -0.0015653418873495934 0.0050239883360767229 0 -0.0012666301379097909 0.0051161531051548831 0 -0.0015653418873495934 0.0050239883360767229 0 -0.0010122559038035781 0.0053254503707288337 0 -0.0012666301379097909 0.0051161531051548831 0 -0.001168152665744236 0.005096657215984993 0 -0.0010122559038035781 0.0053254503707288337 0 -0.001168152665744236 0.005096657215984993 0 -0.0010122559038035781 0.0053254503707288337 0 -0.00086981311408080111 0.0048569031460009649 0 -0.00086981311408080111 0.0048569031460009649 0 -0.00084147091720646495 0.0042300755907343415 0 -0.00023594773893598455 0.0044824600414861589 0 -0.0012869212424579685 0.004861217919449207 0 -0.00086981311408080111 0.0048569031460009649 0 -0.00084147091720646495 0.0042300755907343415 0 -0.00023594773893598455 0.0044824600414861589 0 -0.00015776984002842964 0.0049676904285859023 0 0.00053833709463986653 0.0043525219578350993 0 -0.00086981311408080111 0.0048569031460009649 0 -0.00023594773893598455 0.0044824600414861589 0 -0.00015776984002842964 0.0049676904285859023 0 -0.0010122559038035781 0.0053254503707288337 0 -0.00086981311408080111 0.0048569031460009649 0 -0.00015776984002842964 0.0049676904285859023 0 0.00059005607942832778 0.0051394388911774622 0 0.00053833709463986653 0.0043525219578350993 0 0.00088671204085185055 0.0047506715537713688 0 -0.00015776984002842964 0.0049676904285859023 0 0.00059005607942832778 0.0051394388911774622 0 0.00053833709463986653 0.0043525219578350993 0 0.0012777562636681462 0.0045182535666689868 0 0.00053833709463986653 0.0043525219578350993 0 0.00088671204085185055 0.0047506715537713688 0 0.0012777562636681462 0.0045182535666689868 0 0.00053833709463986653 0.0043525219578350993 0 0.0011796462604732483 0.0037826248476773832 0 0.0012777562636681462 0.0045182535666689868 0 0.00088671204085185055 0.0047506715537713688 0 0.001047326999716098 0.0050383695937500847 0 0.00059005607942832778 0.0051394388911774622 0 0.00088671204085185055 0.0047506715537713688 0 0.001047326999716098 0.0050383695937500847 0 0.0017837916482891809 0.0038925979574835107 0 0.0016143940787340478 0.0031774392973340443 0 0.0029608596400444048 0.0034539950876325601 0 0.0025116941764467592 0.0041811855668393624 0 0.0016139097321559426 0.0031652989306608305 0 0.0011796462604732483 0.0037826248476773832 0 0.00094470846588513781 0.0035536932889311773 0 0.0016139097321559426 0.0031652989306608305 0 0.0024754981395604405 0.0046847589193836419 0 0.0017837916482891809 0.0038925979574835107 0 0.00053833709463986653 0.0043525219578350993 0 0.0011796462604732483 0.0037826248476773832 0 0.00094470846588513781 0.0035536932889311773 0 0.00053833709463986653 0.0043525219578350993 0 0.00094470846588513781 0.0035536932889311773 0 0.00012933365933531866 0.0035803687383419215 0 0.00059766291438470825 0.0035916200712496882 0 0.0017358949272234115 0.0031554397464836213 0 0.0010548110815791229 0.0035627582102963078 0 0.0014736033619354948 0.0031079405090193497 0 0.0019418678066827105 0.0031536337397493953 0 0.00094470846588513781 0.0035536932889311773 0 0.00012933365933531866 0.0035803687383419215 0 0.0015034013221850956 0.0031439778314195526 0 0.00094470846588513781 0.0035536932889311773 0 0.0015034013221850956 0.0031439778314195526 0 0.0016139097321559426 0.0031652989306608305 0 0.0010548110815791229 0.0035627582102963078 0 0.0010736486767130343 0.0030059753493092314 0 0.0014736033619354948 0.0031079405090193497 0 0.0010548110815791229 0.0035627582102963078 0 0.00055678428011620622 0.0030473081134501996 0 0.0010736486767130343 0.0030059753493092314 0 -0.00022701738077272329 0.0040797857166730584 0 0.00059766291438470825 0.0035916200712496882 0 -0.00084147091720646495 0.0042300755907343415 0 -0.00023594773893598455 0.0044824600414861589 0 0.00012933365933531866 0.0035803687383419215 0 -0.00023594773893598455 0.0044824600414861589 0 0.00053833709463986653 0.0043525219578350993 0 0.00012933365933531866 0.0035803687383419215 0 0.00034322010104234407 0.0039240731978387152 0 0.0010548110815791229 0.0035627582102963078 0 0.00018971728436526175 0.003325679389729243 0 0.00055678428011620622 0.0030473081134501996 0 0.00018971728436526175 0.003325679389729243 0 2.012983244717207e-05 0.0028808382342640458 0 0.0010548110815791229 0.0035627582102963078 0 0.00055678428011620622 0.0030473081134501996 0 0.00018971728436526175 0.003325679389729243 0 0.00055678428011620622 0.0030473081134501996 0 0.0003875641639521108 0.0027466293302686766 0 2.012983244717207e-05 0.0028808382342640458 0 0.00055678428011620622 0.0030473081134501996 0 0.00074527181863734361 0.002763442321212819 0 0.0003875641639521108 0.0027466293302686766 0 0.00074527181863734361 0.002763442321212819 0 0.0003875641639521108 0.0027466293302686766 0 0.00052624343381160634 0.0025033364532431645 0 0.0003875641639521108 0.0027466293302686766 0 0.00052624343381160634 0.0025033364532431645 0 0.00015984111121130886 0.0024453382774210688 0 0.00042847778689087616 0.0022595304916822219 0 0.00052624343381160634 0.0025033364532431645 0 0.00015984111121130886 0.0024453382774210688 0 0.00042847778689087616 0.0022595304916822219 0 0.00023797295541160267 0.002204594584538388 0 0.00015984111121130886 0.0024453382774210688 0 0.00042847778689087616 0.0022595304916822219 0 0.00062445014807415832 0.0020807827750776971 0 0.00036531534546460582 0.0020304024711434972 0 0.00042847778689087616 0.0022595304916822219 0 0.00023797295541160267 0.002204594584538388 0 0.00036531534546460582 0.0020304024711434972 0 0.00062445014807415832 0.0020807827750776971 0 0.00066039643173384371 0.0023178555791053242 0 0.00090603563661004313 0.0022419095508953981 0 0.00042847778689087616 0.0022595304916822219 0 0.00062445014807415832 0.0020807827750776971 0 0.00066039643173384371 0.0023178555791053242 0 0.00042847778689087616 0.0022595304916822219 0 0.00066039643173384371 0.0023178555791053242 0 0.00052624343381160634 0.0025033364532431645 0 0.00074527181863734361 0.002763442321212819 0 0.00052624343381160634 0.0025033364532431645 0 0.00082778365852590071 0.0024962431252607466 0 0.00066039643173384371 0.0023178555791053242 0 0.00052624343381160634 0.0025033364532431645 0 0.00082778365852590071 0.0024962431252607466 0 0.00074527181863734361 0.002763442321212819 0 0.00082778365852590071 0.0024962431252607466 0 0.0010790966566192523 0.0026757250303191069 0 0.0010398928124747747 0.0024558257529895284 0 0.00082778365852590071 0.0024962431252607466 0 0.0010790966566192523 0.0026757250303191069 0 0.0010398928124747747 0.0024558257529895284 0 0.00082778365852590071 0.0024962431252607466 0 0.00090603563661004313 0.0022419095508953981 0 0.00090603563661004313 0.0022419095508953981 0 0.0012144216190144626 0.0020531629925962724 0 0.00086710441523726314 0.0019627943643900137 0 0.00066039643173384371 0.0023178555791053242 0 0.00082778365852590071 0.0024962431252607466 0 0.00090603563661004313 0.0022419095508953981 0 0.0010398928124747747 0.0024558257529895284 0 0.00090603563661004313 0.0022419095508953981 0 0.001183454832256365 0.0023215579179061327 0 0.00062445014807415832 0.0020807827750776971 0 0.00090603563661004313 0.0022419095508953981 0 0.00086710441523726314 0.0019627943643900137 0 0.0014335635313582739 0.002319203858810499 0 0.0015758483370974673 0.0020988794907543132 0 0.0012144216190144626 0.0020531629925962724 0 0.001183454832256365 0.0023215579179061327 0 0.0014335635313582739 0.002319203858810499 0 0.0012144216190144626 0.0020531629925962724 0 0.00090603563661004313 0.0022419095508953981 0 0.001183454832256365 0.0023215579179061327 0 0.0012144216190144626 0.0020531629925962724 0 0.001183454832256365 0.0023215579179061327 0 0.0013012557609648674 0.0025138190137009202 0 0.0014335635313582739 0.002319203858810499 0 0.0013012557609648674 0.0025138190137009202 0 0.0010790966566192523 0.0026757250303191069 0 0.0015172671212934682 0.0027763967944955735 0 0.0010398928124747747 0.0024558257529895284 0 0.001183454832256365 0.0023215579179061327 0 0.0013012557609648674 0.0025138190137009202 0 0.0010398928124747747 0.0024558257529895284 0 0.0013012557609648674 0.0025138190137009202 0 0.0010790966566192523 0.0026757250303191069 0 0.0010790966566192523 0.0026757250303191069 0 0.0010736486767130343 0.0030059753493092314 0 0.0015172671212934682 0.0027763967944955735 0 0.00074527181863734361 0.002763442321212819 0 0.0010790966566192523 0.0026757250303191069 0 0.0010736486767130343 0.0030059753493092314 0 0.00055678428011620622 0.0030473081134501996 0 0.00074527181863734361 0.002763442321212819 0 0.0010736486767130343 0.0030059753493092314 0 0.0010736486767130343 0.0030059753493092314 0 0.0014736033619354948 0.0031079405090193497 0 0.0015172671212934682 0.0027763967944955735 0 0.0014736033619354948 0.0031079405090193497 0 0.0019418678066827105 0.0031536337397493953 0 0.0016966330759461891 0.0029624926080404112 0 0.0019418678066827105 0.0031536337397493953 0 0.0018568240029337608 0.0028057191382352617 0 0.0022772146094518935 0.002674463609452689 0 0.0019418678066827105 0.0031536337397493953 0 0.0018568240029337608 0.0028057191382352617 0 0.0016966330759461891 0.0029624926080404112 0 0.0018568240029337608 0.0028057191382352617 0 0.0015172671212934682 0.0027763967944955735 0 0.0017287549755436453 0.0026489156371331366 0 0.0018568240029337608 0.0028057191382352617 0 0.0016966330759461891 0.0029624926080404112 0 0.0015172671212934682 0.0027763967944955735 0 0.0014736033619354948 0.0031079405090193497 0 0.0016966330759461891 0.0029624926080404112 0 0.0015172671212934682 0.0027763967944955735 0 0.0013012557609648674 0.0025138190137009202 0 0.0015172671212934682 0.0027763967944955735 0 0.0015888049775060948 0.0025073973394387273 0 0.0015172671212934682 0.0027763967944955735 0 0.0017287549755436453 0.0026489156371331366 0 0.0015888049775060948 0.0025073973394387273 0 0.0013012557609648674 0.0025138190137009202 0 0.0015888049775060948 0.0025073973394387273 0 0.0014335635313582739 0.002319203858810499 0 0.0015888049775060948 0.0025073973394387273 0 0.0014335635313582739 0.002319203858810499 0 0.0017579463015669993 0.0023048592559128177 0 0.0014335635313582739 0.002319203858810499 0 0.0017579463015669993 0.0023048592559128177 0 0.0015758483370974673 0.0020988794907543132 0 0.0017579463015669993 0.0023048592559128177 0 0.0020534410877125057 0.0020927827551509236 0 0.0015758483370974673 0.0020988794907543132 0 0.0017579463015669993 0.0023048592559128177 0 0.0019566148945588408 0.002501334697286518 0 0.0020534410877125057 0.0020927827551509236 0 0.0018568240029337608 0.0028057191382352617 0 0.0019566148945588408 0.002501334697286518 0 0.0022772146094518935 0.002674463609452689 0 0.0015888049775060948 0.0025073973394387273 0 0.0017579463015669993 0.0023048592559128177 0 0.0019566148945588408 0.002501334697286518 0 0.0018568240029337608 0.0028057191382352617 0 0.0017287549755436453 0.0026489156371331366 0 0.0019566148945588408 0.002501334697286518 0 0.0017287549755436453 0.0026489156371331366 0 0.0015888049775060948 0.0025073973394387273 0 0.0019566148945588408 0.002501334697286518 0 0.0019566148945588408 0.002501334697286518 0 0.0025150177117699386 0.00227501558716134 0 0.0020534410877125057 0.0020927827551509236 0 0.0019566148945588408 0.002501334697286518 0 0.0022772146094518935 0.002674463609452689 0 0.0025150177117699386 0.00227501558716134 0 0.0030403291323313967 0.0026262823483285918 0 0.0022772146094518935 0.002674463609452689 0 0.0025150177117699386 0.00227501558716134 0 0.0030403291323313967 0.0026262823483285918 0 0.0019418678066827105 0.0031536337397493953 0 0.0022772146094518935 0.002674463609452689 0 0.0029608596400444048 0.0034539950876325601 0 0.0030403291323313967 0.0026262823483285918 0 0.0016139097321559426 0.0031652989306608305 0 0.0030403291323313967 0.0026262823483285918 0 0.0015034013221850956 0.0031439778314195526 0 0.0016139097321559426 0.0031652989306608305 0 0.0029126570619819481 0.0026183314682727624 0 0.0017358949272234115 0.0031554397464836213 0 -0.00085995892535418647 0.0032391051676230399 0 -0.00044248812391955425 0.0030486855479065125 0 -0.00065059592276962928 0.0029830301168394819 0 -0.00056309347885511688 0.0029732053714795988 0 -0.00085995892535418647 0.0032391051676230399 0 -0.00065059592276962928 0.0029830301168394819 0 -0.0011520101099300657 0.002960256623351865 0 -0.00083583886894217363 0.0032167565059203328 0 -0.0017268232296538861 0.0028995447599406668 0 -0.0018292097585607978 0.0035275900118325498 0 -0.00085995892535418647 0.0032391051676230399 0 -0.0017268232296538861 0.0028995447599406668 0 -0.0018292097585607978 0.0035275900118325498 0 -0.0021715724049583647 0.0031102693707563459 0 -0.0014579695489417665 0.0040840803956820777 0 -0.0018292097585607978 0.0035275900118325498 0 -0.00085995892535418647 0.0032391051676230399 0 -0.00071377963106701917 0.0038412504920536938 0 -0.0014579695489417665 0.0040840803956820777 0 -0.00085995892535418647 0.0032391051676230399 0 -0.00071377963106701917 0.0038412504920536938 0 -0.00085995892535418647 0.0032391051676230399 0 -0.00026091926447452396 0.0035155902233451508 0 0.00034322010104234407 0.0039240731978387152 0 -0.00026091926447452396 0.0035155902233451508 0 0.00018971728436526175 0.003325679389729243 0 0.00018971728436526175 0.003325679389729243 0 -0.00044248812391955425 0.0030486855479065125 0 2.012983244717207e-05 0.0028808382342640458 0 -0.00026091926447452396 0.0035155902233451508 0 0.00018971728436526175 0.003325679389729243 0 -0.00044248812391955425 0.0030486855479065125 0 -0.00085995892535418647 0.0032391051676230399 0 -0.00026091926447452396 0.0035155902233451508 0 -0.00044248812391955425 0.0030486855479065125 0 -0.00044248812391955425 0.0030486855479065125 0 -0.00034937569689936425 0.0028391427545203466 0 2.012983244717207e-05 0.0028808382342640458 0 -0.00044248812391955425 0.0030486855479065125 0 -0.00034937569689936425 0.0028391427545203466 0 -0.00056184392006354089 0.0027760379152931784 0 -0.00044248812391955425 0.0030486855479065125 0 -0.00056184392006354089 0.0027760379152931784 0 -0.00065059592276962928 0.0029830301168394819 0 -0.00034937569689936425 0.0028391427545203466 0 2.012983244717207e-05 0.0028808382342640458 0 -0.00014992671353864396 0.0025486370665984393 0 0.0003875641639521108 0.0027466293302686766 0 2.012983244717207e-05 0.0028808382342640458 0 0.00015984111121130886 0.0024453382774210688 0 2.012983244717207e-05 0.0028808382342640458 0 0.00015984111121130886 0.0024453382774210688 0 -0.00014992671353864396 0.0025486370665984393 0 0.00015984111121130886 0.0024453382774210688 0 -0.00014992671353864396 0.0025486370665984393 0 -0.00011458803264521347 0.0022791410396409378 0 -0.00014992671353864396 0.0025486370665984393 0 -0.00011458803264521347 0.0022791410396409378 0 -0.00043790231760214347 0.0022651132688658623 0 -0.00011458803264521347 0.0022791410396409378 0 -0.00043790231760214347 0.0022651132688658623 0 -0.00016351163413602421 0.0020414349605959396 0 -0.00011458803264521347 0.0022791410396409378 0 4.0336703859664415e-05 0.002090201537922809 0 -0.00016351163413602421 0.0020414349605959396 0 0.00015984111121130886 0.0024453382774210688 0 -0.00011458803264521347 0.0022791410396409378 0 4.0336703859664415e-05 0.002090201537922809 0 0.00023797295541160267 0.002204594584538388 0 0.00015984111121130886 0.0024453382774210688 0 4.0336703859664415e-05 0.002090201537922809 0 -0.00034937569689936425 0.0028391427545203466 0 -0.00056184392006354089 0.0027760379152931784 0 -0.00043790231760214347 0.0022651132688658623 0 -0.00034937569689936425 0.0028391427545203466 0 -0.00014992671353864396 0.0025486370665984393 0 -0.00043790231760214347 0.0022651132688658623 0 -0.00056184392006354089 0.0027760379152931784 0 -0.00060526499746522413 0.002906868976729047 0 -0.00051672436176551 0.0029480843265044273 0 -0.00055126356530012645 0.0027150783228965486 0 -0.00053706168740645069 0.0026373606494315685 0 -0.00023872731552026957 0.0028534310469056786 0 5.1483684197882747e-06 0.0028115554581935953 0 -0.00056184392006354089 0.0027760379152931784 0 -0.00029245353514920601 0.0028632645437347611 0 -0.00051672436176551 0.0029480843265044273 0 -0.00056184392006354089 0.0027760379152931784 0 -0.00065059592276962928 0.0029830301168394819 0 -0.00048456341034031579 0.0029307083622161908 0 -0.00056184392006354089 0.0027760379152931784 0 -0.00048456341034031579 0.0029307083622161908 0 -0.00029245353514920601 0.0028632645437347611 0 -0.00056309347885511688 0.0029732053714795988 0 -0.00065059592276962928 0.0029830301168394819 0 -0.00048456341034031579 0.0029307083622161908 0 -0.00056309347885511688 0.0029732053714795988 0 -0.00048456341034031579 0.0029307083622161908 0 -0.00054417175401648356 0.0029370468401684491 0 -0.00048456341034031579 0.0029307083622161908 0 -0.00050038094733771622 0.0028782700918932322 0 -0.00054417175401648356 0.0029370468401684491 0 -0.00048456341034031579 0.0029307083622161908 0 -0.00029245353514920601 0.0028632645437347611 0 -0.00050038094733771622 0.0028782700918932322 0 -0.00029245353514920601 0.0028632645437347611 0 -0.00050038094733771622 0.0028782700918932322 0 -0.00033489009101945788 0.0026188384850471418 0 -0.00050038094733771622 0.0028782700918932322 0 -0.00060080593542869961 0.0027744095389381765 0 -0.00033489009101945788 0.0026188384850471418 0 -0.00060080593542869961 0.0027744095389381765 0 -0.00067136352125660734 0.0026415056681768525 0 -0.00033489009101945788 0.0026188384850471418 0 -0.00050038094733771622 0.0028782700918932322 0 -0.00062785489758303314 0.002846363443273805 0 -0.00058733262217649683 0.0029118558705025386 0 -0.00050038094733771622 0.0028782700918932322 0 -0.00062785489758303314 0.002846363443273805 0 -0.00060080593542869961 0.0027744095389381765 0 -0.00062785489758303314 0.002846363443273805 0 -0.00060080593542869961 0.0027744095389381765 0 -0.00068551792173954316 0.0027838204148180187 0 -0.00060080593542869961 0.0027744095389381765 0 -0.00068551792173954316 0.0027838204148180187 0 -0.00067136352125660734 0.0026415056681768525 0 -0.00023196059490353561 0.0021912129440147289 0 -0.00019522268757889903 0.0021361560279808721 0 -0.0001933162062093086 0.0021510473496253379 0 -0.00021827302709764352 0.0021991727650071107 0 -0.00023196059490353561 0.0021912129440147289 0 -0.0001933162062093086 0.0021510473496253379 0 0.000926342910100929 0.0024689194942015 0 -0.00063110720482251615 0.0021346133736427869 0 -0.00022736109901191838 0.0029153414612832912 0 -0.00043529737913853525 0.002357224763003546 0 -0.00068551792173954316 0.0027838204148180187 0 -0.00084040039894041233 0.0028973754850049713 0 -0.00067136352125660734 0.0026415056681768525 0 -0.00030012049491837106 0.0021901872055263348 0 -0.0002659315241853 0.0021415903986102035 0 -0.00019522268757889903 0.0021361560279808721 0 -0.00068551792173954316 0.0027838204148180187 0 -0.0007055527035590884 0.0028531891291525228 0 -0.00084040039894041233 0.0028973754850049713 0 -0.00062785489758303314 0.002846363443273805 0 -0.00068551792173954316 0.0027838204148180187 0 -0.0007055527035590884 0.0028531891291525228 0 -0.00062785489758303314 0.002846363443273805 0 -0.0007055527035590884 0.0028531891291525228 0 -0.00066771902244876365 0.0029103108796488422 0 -0.00066771902244876365 0.0029103108796488422 0 -0.00084040039894041233 0.0028973754850049713 0 -0.00064319668011633181 0.0029767739840197184 0 -0.0007055527035590884 0.0028531891291525228 0 -0.00066771902244876365 0.0029103108796488422 0 -0.00084040039894041233 0.0028973754850049713 0 -0.00140656957092204 0.002845452921003236 0 -0.0021883128053472715 0.0029853985643179021 0 -0.00098602658073104624 0.0030292821497898727 0 -0.0011725480244394232 0.0029269470589563334 0 -0.00092447558120554833 0.0028298752789711057 0 -0.00022736109901191838 0.0029153414612832912 0 -0.00140656957092204 0.002845452921003236 0 -0.00056309347885511688 0.0029732053714795988 0 -0.00061218552234921944 0.0029618697316184201 0 -0.00060713712975640072 0.0029596562712471564 0 -0.00056309347885511688 0.0029732053714795988 0 -0.00054417175401648356 0.0029370468401684491 0 -0.00060713712975640072 0.0029596562712471564 0 -0.0011520101099300657 0.002960256623351865 0 -0.00140656957092204 0.002845452921003236 0 -0.00140656957092204 0.002845452921003236 0 -0.0012932175166612263 0.0028193245930203796 0 -0.00050038094733771622 0.0028782700918932322 0 -0.00054417175401648356 0.0029370468401684491 0 -0.00058733262217649683 0.0029118558705025386 0 -0.00054417175401648356 0.0029370468401684491 0 -0.00058733262217649683 0.0029118558705025386 0 -0.00060713712975640072 0.0029596562712471564 0 -0.00062785489758303314 0.002846363443273805 0 -0.00066771902244876365 0.0029103108796488422 0 -0.00058733262217649683 0.0029118558705025386 0 -0.00066771902244876365 0.0029103108796488422 0 -0.00064319668011633181 0.0029767739840197184 0 -0.00060713712975640072 0.0029596562712471564 0 -0.00066771902244876365 0.0029103108796488422 0 -0.00058733262217649683 0.0029118558705025386 0 -0.00060713712975640072 0.0029596562712471564 0 0.0030927897897086191 0.0022575048163759465 0 0.0030087087176918644 0.0022466549400239747 0 0.002978459334320093 0.0021432629789703418 0 0.0030805774683361612 0.0022900826048750838 0 0.0030758484807284605 0.002332237895240819 0 0.0031584963007633741 0.0022935294570373206 0 0.0030337327522569355 0.0022859135427453375 0 0.0030178981385075407 0.0023422531718830745 0 0.0029640358062864892 0.0023347045388552928 0 0.0030337327522569355 0.0022859135427453375 0 0.0030758484807284605 0.002332237895240819 0 0.0030178981385075407 0.0023422531718830745 0 0.0030337327522569355 0.0022859135427453375 0 0.0030805774683361612 0.0022900826048750838 0 0.0030758484807284605 0.002332237895240819 0 0.0030337327522569355 0.0022859135427453375 0 0.0030927897897086191 0.0022575048163759465 0 0.0030087087176918644 0.0022466549400239747 0 0.0024178672276398594 0.0021392863425684474 0 0.0026071262575446921 0.0021076709687858782 0 0.0030337327522569355 0.0022859135427453375 0 0.0030927897897086191 0.0022575048163759465 0 0.0030805774683361612 0.0022900826048750838 0 0.0024178672276398594 0.0021392863425684474 0 0.000926342910100929 0.0024689194942015 0 0.003091442501025068 0.0022631072893542136 0 0.0030805774683361612 0.0022900826048750838 0 0.0031584963007633741 0.0022935294570373206 0 -0.0003335167299916811 0.0021641487193057381 0 -0.00030012049491837106 0.0021901872055263348 0 -0.00030661381137022032 0.0021429520383983739 0 -0.00030012049491837106 0.0021901872055263348 0 -0.00030661381137022032 0.0021429520383983739 0 -0.0002659315241853 0.0021415903986102035 0 -0.00022736109901191838 0.0029153414612832912 0 0.000926342910100929 0.0024689194942015 0 0.0016287438799768195 0.0034851232646863762 0 0.0017417293231033911 0.0031475411204267938 0 0.0020851528102467519 0.0031672667235811162 0 0.001460642105366728 0.0033940928949699393 0 0.0016287438799768195 0.0034851232646863762 0 0.0017417293231033911 0.0031475411204267938 0 -0.00098602658073104624 0.0030292821497898727 0 -0.00083200390428787147 0.0028805629241779613 0 -0.00092447558120554833 0.0028298752789711057 0 -0.00022736109901191838 0.0029153414612832912 0 0.00060770310345743871 0.0028831659456520675 0 0.0030758484807284605 0.002332237895240819 0 0.0031584963007633741 0.0022935294570373206 0 0.0030706352395922132 0.0024583353235811609 0 0.000926342910100929 0.0024689194942015 0 0.0028232153215772249 0.0028048005714033358 0 0.0030706352395922132 0.0024583353235811609 0 0.0030178981385075407 0.0023422531718830745 0 0.002978924438446412 0.0023778165914400836 0 0.0030758484807284605 0.002332237895240819 0 0.0030706352395922132 0.0024583353235811609 0 0.0030178981385075407 0.0023422531718830745 0 0.0020851528102467519 0.0031672667235811162 0 0.0020066976074495299 0.0029479728457935737 0 0.0023445659252695713 0.0028756734443407201 0 0.0017417293231033911 0.0031475411204267938 0 0.0020851528102467519 0.0031672667235811162 0 0.0020066976074495299 0.0029479728457935737 0 -0.0033767733357716045 0.003311277232723901 0 -0.0033284367584338324 0.0035526898806753134 0 -0.0034980807697646923 0.0035234140175043642 0 0.00060770310345743871 0.0028831659456520675 0 -0.0007835687287060392 0.00290288935433972 0 -0.0007835687287060392 0.00290288935433972 0 -0.0021883128053472715 0.0029853985643179021 0 -0.00083200390428787147 0.0028805629241779613 0 -0.00067918924559295392 0.0027394579079092142 0 -0.00092447558120554833 0.0028298752789711057 0 -0.0028964242863240858 0.0029892229860533077 0 -0.0031167542902343203 0.0035845157349229484 0 -0.0027649751596565235 0.0036080816464568377 0 -0.0033767733357716045 0.003311277232723901 0 -0.0028964242863240858 0.0029892229860533077 0 -0.0031167542902343203 0.0035845157349229484 0 -0.0031167542902343203 0.0035845157349229484 0 -0.0027649751596565235 0.0036080816464568377 0 -0.0030269959433003612 0.0040148775562501848 0 -0.0031167542902343203 0.0035845157349229484 0 -0.0030269959433003612 0.0040148775562501848 0 -0.0034091201250177616 0.0039508944232398988 0 -0.0033767733357716045 0.003311277232723901 0 -0.0031167542902343203 0.0035845157349229484 0 -0.0033284367584338324 0.0035526898806753134 0 -0.0031167542902343203 0.0035845157349229484 0 -0.0033284367584338324 0.0035526898806753134 0 -0.0034091201250177616 0.0039508944232398988 0 -0.0033284367584338324 0.0035526898806753134 0 -0.003523075779711427 0.0036314155166496643 0 -0.0034091201250177616 0.0039508944232398988 0 -0.003523075779711427 0.0036314155166496643 0 -0.0034091201250177616 0.0039508944232398988 0 -0.0036073792967475657 0.0037051202743603614 0 -0.0033284367584338324 0.0035526898806753134 0 -0.003523075779711427 0.0036314155166496643 0 -0.0034980807697646923 0.0035234140175043642 0 -0.0023572524095513349 0.0026739010023409987 0 -0.0021715724049583647 0.0031102693707563459 0 -0.0025174451644015975 0.0031763719679441405 0 -0.0017268232296538861 0.0028995447599406668 0 -0.0023572524095513349 0.0026739010023409987 0 -0.0021715724049583647 0.0031102693707563459 0 -0.0021715724049583647 0.0031102693707563459 0 -0.0025174451644015975 0.0031763719679441405 0 -0.0023493320435015435 0.0034677112903399175 0 -0.0028964242863240858 0.0029892229860533077 0 -0.0025174451644015975 0.0031763719679441405 0 -0.0027649751596565235 0.0036080816464568377 0 -0.0023572524095513349 0.0026739010023409987 0 -0.0028964242863240858 0.0029892229860533077 0 -0.0025174451644015975 0.0031763719679441405 0 -0.0027649751596565235 0.0036080816464568377 0 -0.0023493320435015435 0.0034677112903399175 0 -0.0023822887491777305 0.0040284661445186241 0 -0.0025174451644015975 0.0031763719679441405 0 -0.0027649751596565235 0.0036080816464568377 0 -0.0023493320435015435 0.0034677112903399175 0 -0.0018292097585607978 0.0035275900118325498 0 -0.0021715724049583647 0.0031102693707563459 0 -0.0023493320435015435 0.0034677112903399175 0 -0.0018292097585607978 0.0035275900118325498 0 -0.0023493320435015435 0.0034677112903399175 0 -0.0023822887491777305 0.0040284661445186241 0 -0.0019080855209954487 0.0044781140488074278 0 -0.0023822887491777305 0.0040284661445186241 0 -0.0025357943431828997 0.0045402498435177258 0 -0.0023822887491777305 0.0040284661445186241 0 -0.0028218334119474737 0.0042612750024627047 0 -0.0025357943431828997 0.0045402498435177258 0 -0.0023822887491777305 0.0040284661445186241 0 -0.0028218334119474737 0.0042612750024627047 0 -0.0030269959433003612 0.0040148775562501848 0 -0.0027649751596565235 0.0036080816464568377 0 -0.0023822887491777305 0.0040284661445186241 0 -0.0030269959433003612 0.0040148775562501848 0 -0.0030269959433003612 0.0040148775562501848 0 -0.0034091201250177616 0.0039508944232398988 0 -0.0033731432142931929 0.0041994739758889447 0 -0.0034091201250177616 0.0039508944232398988 0 -0.0033731432142931929 0.0041994739758889447 0 -0.0034941620504386809 0.0042207306768239361 0 -0.0033731432142931929 0.0041994739758889447 0 -0.0034791140325605222 0.0042996635622380673 0 -0.0034941620504386809 0.0042207306768239361 0 -0.0033731432142931929 0.0041994739758889447 0 -0.0034517254481778972 0.0043464756746747846 0 -0.0034791140325605222 0.0042996635622380673 0 -0.0033731432142931929 0.0041994739758889447 0 -0.0034517254481778972 0.0043464756746747846 0 -0.0032187412578368103 0.0043299063741183454 0 -0.0030269959433003612 0.0040148775562501848 0 -0.0033731432142931929 0.0041994739758889447 0 -0.0032187412578368103 0.0043299063741183454 0 -0.0028218334119474737 0.0042612750024627047 0 -0.0030269959433003612 0.0040148775562501848 0 -0.0032187412578368103 0.0043299063741183454 0 -0.0028218334119474737 0.0042612750024627047 0 -0.0032187412578368103 0.0043299063741183454 0 -0.0031957450768663551 0.0045362914672873265 0 -0.0032187412578368103 0.0043299063741183454 0 -0.0031957450768663551 0.0045362914672873265 0 -0.0034203375798403015 0.0044308510349972303 0 -0.0031957450768663551 0.0045362914672873265 0 -0.0034203375798403015 0.0044308510349972303 0 -0.0035745971012084939 0.0045207440451597173 0 -0.0034517254481778972 0.0043464756746747846 0 -0.0034203375798403015 0.0044308510349972303 0 -0.0035499400703443386 0.0044279781209577559 0 -0.0034517254481778972 0.0043464756746747846 0 -0.0032187412578368103 0.0043299063741183454 0 -0.0034203375798403015 0.0044308510349972303 0 -0.0034203375798403015 0.0044308510349972303 0 -0.0035745971012084939 0.0045207440451597173 0 -0.0035499400703443386 0.0044279781209577559 0 -0.0035745971012084939 0.0045207440451597173 0 -0.0036671564893876064 0.0044618589944306836 0 -0.0035499400703443386 0.0044279781209577559 0 -0.0035745971012084939 0.0045207440451597173 0 -0.0037553718918134568 0.0045925410872655458 0 -0.0034497888408742136 0.0047171054095743086 0 -0.0035745971012084939 0.0045207440451597173 0 -0.0037553718918134568 0.0045925410872655458 0 -0.0036671564893876064 0.0044618589944306836 0 -0.0031957450768663551 0.0045362914672873265 0 -0.0035745971012084939 0.0045207440451597173 0 -0.0034497888408742136 0.0047171054095743086 0 -0.0028944244463269828 0.0050310885750990079 0 -0.0031957450768663551 0.0045362914672873265 0 -0.0034497888408742136 0.0047171054095743086 0 -0.0028944244463269828 0.0050310885750990079 0 -0.0031957450768663551 0.0045362914672873265 0 -0.0025357943431828997 0.0045402498435177258 0 -0.0028944244463269828 0.0050310885750990079 0 -0.0019434309490905216 0.0048568421107990263 0 -0.0025357943431828997 0.0045402498435177258 0 -0.0028944244463269828 0.0050310885750990079 0 -0.0018848185416233797 0.0052343722072206566 0 -0.0019434309490905216 0.0048568421107990263 0 -0.0019434309490905216 0.0048568421107990263 0 -0.0019080855209954487 0.0044781140488074278 0 -0.0025357943431828997 0.0045402498435177258 0 -0.0028218334119474737 0.0042612750024627047 0 -0.0031957450768663551 0.0045362914672873265 0 -0.0025357943431828997 0.0045402498435177258 0 -0.0033906786290058073 0.0043421474606038174 0 -0.0032372065202243296 0.0044307335175512684 0 -0.0031386364308277747 0.0042741955886390244 0 -0.0033906786290058073 0.0043421474606038174 0 -0.0033878744312105333 0.004409681443399891 0 -0.0032372065202243296 0.0044307335175512684 0 -0.0032372065202243296 0.0044307335175512684 0 -0.0030041907445090008 0.0044161184040619229 0 -0.0031386364308277747 0.0042741955886390244 0 -0.0030041907445090008 0.0044161184040619229 0 -0.0029356944508853087 0.0043023524753050251 0 -0.0031386364308277747 0.0042741955886390244 0 -0.0028303185057636077 0.0041426318022030149 0 -0.0029774768767554167 0.0039705786271018563 0 -0.0031386364308277747 0.0042741955886390244 0 -0.0028303185057636077 0.0041426318022030149 0 -0.0029356944508853087 0.0043023524753050251 0 -0.0031386364308277747 0.0042741955886390244 0 -0.0029774768767554167 0.0039705786271018563 0 -0.0032320193651386485 0.0040780390311380378 0 -0.0031386364308277747 0.0042741955886390244 0 -0.0032320193651386485 0.0040780390311380378 0 -0.0031386364308277747 0.0042741955886390244 0 -0.0033037756028172893 0.0042332385039204343 0 -0.0032320193651386485 0.0040780390311380378 0 -0.0033037756028172893 0.0042332385039204343 0 -0.003429780657478983 0.0042258258146809363 0 -0.0033906786290058073 0.0043421474606038174 0 -0.0031386364308277747 0.0042741955886390244 0 -0.0033037756028172893 0.0042332385039204343 0 -0.0033906786290058073 0.0043421474606038174 0 -0.0033037756028172893 0.0042332385039204343 0 -0.003429780657478983 0.0042258258146809363 0 -0.0036121852168179182 0.0042558971495198104 0 -0.003429780657478983 0.0042258258146809363 0 -0.0035361275917467445 0.0043609057635721135 0 -0.0033906786290058073 0.0043421474606038174 0 -0.003429780657478983 0.0042258258146809363 0 -0.0035361275917467445 0.0043609057635721135 0 -0.0036121852168179182 0.0042558971495198104 0 -0.0035361275917467445 0.0043609057635721135 0 -0.0036671564893876064 0.0044618589944306836 0 -0.0037908574999167988 0.0044668907155180947 0 -0.0037553718918134568 0.0045925410872655458 0 -0.0036671564893876064 0.0044618589944306836 0 -0.0035361275917467445 0.0043609057635721135 0 -0.0036671564893876064 0.0044618589944306836 0 -0.0035529018775212777 0.0044040806415631805 0 -0.0036671564893876064 0.0044618589944306836 0 -0.0035499400703443386 0.0044279781209577559 0 -0.0035529018775212777 0.0044040806415631805 0 -0.0035529018775212777 0.0044040806415631805 0 -0.0034802155070293357 0.0044003519567620041 0 -0.0035201977471908895 0.0043707494343999901 0 -0.0035499400703443386 0.0044279781209577559 0 -0.0035529018775212777 0.0044040806415631805 0 -0.0035201977471908895 0.0043707494343999901 0 -0.0034517254481778972 0.0043464756746747846 0 -0.0035499400703443386 0.0044279781209577559 0 -0.0035201977471908895 0.0043707494343999901 0 -0.0033906786290058073 0.0043421474606038174 0 -0.0035361275917467445 0.0043609057635721135 0 -0.0034864345662705639 0.0043858747143408735 0 -0.0035361275917467445 0.0043609057635721135 0 -0.0035529018775212777 0.0044040806415631805 0 -0.0034864345662705639 0.0043858747143408735 0 -0.0035529018775212777 0.0044040806415631805 0 -0.0034864345662705639 0.0043858747143408735 0 -0.0034802155070293357 0.0044003519567620041 0 -0.0033906786290058073 0.0043421474606038174 0 -0.0033878744312105333 0.004409681443399891 0 -0.0034864345662705639 0.0043858747143408735 0 -0.0033878744312105333 0.004409681443399891 0 -0.0034864345662705639 0.0043858747143408735 0 -0.0034802155070293357 0.0044003519567620041 0 -0.0033878744312105333 0.004409681443399891 0 -0.0034802155070293357 0.0044003519567620041 0 -0.0033523895350447207 0.0044646205758138782 0 -0.0034802155070293357 0.0044003519567620041 0 -0.003439381084080814 0.0044176479036396217 0 -0.0034949391682871432 0.0043456045742814968 0 -0.0034802155070293357 0.0044003519567620041 0 -0.003439381084080814 0.0044176479036396217 0 -0.0033523895350447207 0.0044646205758138782 0 -0.003439381084080814 0.0044176479036396217 0 -0.0033799406823433143 0.0044688406707011265 0 -0.0033523895350447207 0.0044646205758138782 0 -0.0034517254481778972 0.0043464756746747846 0 -0.0035201977471908895 0.0043707494343999901 0 -0.0034791140325605222 0.0042996635622380673 0 -0.0034802155070293357 0.0044003519567620041 0 -0.0035201977471908895 0.0043707494343999901 0 -0.0034949391682871432 0.0043456045742814968 0 -0.0035201977471908895 0.0043707494343999901 0 -0.0034949391682871432 0.0043456045742814968 0 -0.0034791140325605222 0.0042996635622380673 0 -0.0034949391682871432 0.0043456045742814968 0 -0.0034941620504386809 0.0042207306768239361 0 -0.0034383568560633938 0.0044201503210220539 0 -0.0034941620504386809 0.0042207306768239361 0 -0.0034383568560633938 0.0044201503210220539 0 -0.003490074578717482 0.0043286974113468293 0 -0.0034091201250177616 0.0039508944232398988 0 -0.0034941620504386809 0.0042207306768239361 0 -0.003490074578717482 0.0043286974113468293 0 -0.0034949391682871432 0.0043456045742814968 0 -0.0034791140325605222 0.0042996635622380673 0 -0.0034941620504386809 0.0042207306768239361 0 -0.0034383568560633938 0.0044201503210220539 0 -0.0032741101019498888 0.0045739911407220221 0 -0.00337979165023826 0.0045458118406619041 0 -0.0033799406823433143 0.0044688406707011265 0 -0.0034383568560633938 0.0044201503210220539 0 -0.0032741101019498888 0.0045739911407220221 0 -0.003439381084080814 0.0044176479036396217 0 -0.0033799406823433143 0.0044688406707011265 0 -0.0034383568560633938 0.0044201503210220539 0 -0.003439381084080814 0.0044176479036396217 0 -0.0034949391682871432 0.0043456045742814968 0 -0.0034383568560633938 0.0044201503210220539 0 -0.0032741101019498888 0.0045739911407220221 0 -0.0030791473923179025 0.0047348469858675135 0 -0.00337979165023826 0.0045458118406619041 0 -0.0032741101019498888 0.0045739911407220221 0 -0.0033523895350447207 0.0044646205758138782 0 -0.0031913190979648287 0.004557490739605265 0 -0.0032741101019498888 0.0045739911407220221 0 -0.0031913190979648287 0.004557490739605265 0 -0.0031587938173348643 0.0046251121524557431 0 -0.0033799406823433143 0.0044688406707011265 0 -0.0032741101019498888 0.0045739911407220221 0 -0.0033523895350447207 0.0044646205758138782 0 -0.0032372065202243296 0.0044307335175512684 0 -0.0033523895350447207 0.0044646205758138782 0 -0.0031913190979648287 0.004557490739605265 0 -0.0033878744312105333 0.004409681443399891 0 -0.0032372065202243296 0.0044307335175512684 0 -0.0033523895350447207 0.0044646205758138782 0 -0.0028463823928864523 0.0045549026610229104 0 -0.0030041907445090008 0.0044161184040619229 0 -0.0030384935091858308 0.0045488056643184834 0 -0.0032372065202243296 0.0044307335175512684 0 -0.0031913190979648287 0.004557490739605265 0 -0.0030384935091858308 0.0045488056643184834 0 -0.0032372065202243296 0.0044307335175512684 0 -0.0030041907445090008 0.0044161184040619229 0 -0.0030384935091858308 0.0045488056643184834 0 -0.0031913190979648287 0.004557490739605265 0 -0.0030384935091858308 0.0045488056643184834 0 -0.0030783039292305138 0.004628995628029757 0 -0.0029028612278661986 0.0046635223986442433 0 -0.0030384935091858308 0.0045488056643184834 0 -0.0030783039292305138 0.004628995628029757 0 -0.0029028612278661986 0.0046635223986442433 0 -0.0028463823928864523 0.0045549026610229104 0 -0.0030384935091858308 0.0045488056643184834 0 -0.0029028612278661986 0.0046635223986442433 0 -0.0030783039292305138 0.004628995628029757 0 -0.0030791473923179025 0.0047348469858675135 0 -0.0032741101019498888 0.0045739911407220221 0 -0.0031587938173348643 0.0046251121524557431 0 -0.0030791473923179025 0.0047348469858675135 0 -0.0030783039292305138 0.004628995628029757 0 -0.0031587938173348643 0.0046251121524557431 0 -0.0030791473923179025 0.0047348469858675135 0 -0.0031913190979648287 0.004557490739605265 0 -0.0030783039292305138 0.004628995628029757 0 -0.0031587938173348643 0.0046251121524557431 0 0.0024542072942333811 0.0027804553635184925 0 0.0024460390664999398 0.0030709240811375663 0 0.002811739178436063 0.0028591308082450704 0 0.001750499808046408 0.0034810608465787526 0 0.001508032717295132 0.0033435562593671143 0 0.0013610381769319647 0.0037570874315649106 0 0.0020360614587736688 0.0033150972959420121 0 0.0023492568421103416 0.0031051444784602595 0 0.002443754562123888 0.0027758369427734035 0 0.0023492568421103416 0.0031051444784602595 0 0.0018484899529840435 0.0029987565348761859 0 0.0021842988544677807 0.0030487368035324583 0 0.0022169527520658283 0.0029377006073366737 0 -0.00085979013282699499 0.0041044075669933525 0 -0.00098093664757639893 0.0037419025023082328 0 0.001508032717295132 0.0033435562593671143 0 0.0013610381769319647 0.0037570874315649106 0 0.00069536744057889629 0.0036251559101369733 0 0.0023492568421103416 0.0031051444784602595 0 -0.00098093664757639893 0.0037419025023082328 0 0.0025839641721652315 0.0027458158826869209 0 0.0026577246790235828 0.0025293857165953923 0 0.0028312323942548188 0.0025309325387713041 0 0.0026577246790235828 0.0025293857165953923 0 0.0028312323942548188 0.0025309325387713041 0 0.0027521308782533804 0.0024011270470348442 0 0.0023492568421103416 0.0031051444784602595 0 0.0024945261893268441 0.002624786578388179 0 0.0018484899529840435 0.0029987565348761859 0 0.0022169527520658283 0.0029377006073366737 0 0.0021822098120176775 0.0027778395964604252 0 0.0025839641721652315 0.0027458158826869209 0 0.0026577246790235828 0.0025293857165953923 0 0.0024795432333186576 0.002572610950656955 0 0.0026577246790235828 0.0025293857165953923 0 0.0024795432333186576 0.002572610950656955 0 0.0025825317992923861 0.002406222023128673 0 0.0023753439137201848 0.0027342457083515195 0 0.0025839641721652315 0.0027458158826869209 0 0.0024795432333186576 0.002572610950656955 0 -0.0032492799273620252 0.0040238113493766261 0 -0.0040171866204913474 0.0039505261113968364 0 -0.0034091201250177616 0.0039508944232398988 0 -0.0036073792967475657 0.0037051202743603614 0 -0.0037353118524207267 0.0037361887309764956 0 -0.003523075779711427 0.0036314155166496643 0 -0.0034980807697646923 0.0035234140175043642 0 -0.0037223402654395035 0.0035821029779631052 0 -0.003523075779711427 0.0036314155166496643 0 -0.0036073792967475657 0.0037051202743603614 0 -0.0037223402654395035 0.0035821029779631052 0 -0.0036073792967475657 0.0037051202743603614 0 -0.0037353118524207267 0.0037361887309764956 0 -0.0037223402654395035 0.0035821029779631052 0 -0.0034383568560633938 0.0044201503210220539 0 -0.003490074578717482 0.0043286974113468293 0 -0.00337979165023826 0.0045458118406619041 0 0.0023445659252695713 0.0028756734443407201 0 0.0021842988544677807 0.0030487368035324583 0 0.0022169527520658283 0.0029377006073366737 0 -0.0037353118524207267 0.0037361887309764956 0 -0.0037223402654395035 0.0035821029779631052 0 -0.0038699805874488078 0.0036905575680821075 0 -0.00065005986631396602 0.0032083586539433935 0 -0.00098093664757639893 0.0037419025023082328 0 -0.0040171866204913474 0.0039505261113968364 0 -0.00098093664757639893 0.0037419025023082328 0 0.0024945261893268441 0.002624786578388179 0 0.0028680697620509328 0.0024345366178005201 0 0.0023445659252695713 0.0028756734443407201 0 0.0022169527520658283 0.0029377006073366737 0 0.0023847466413389586 0.0028981547588928492 0 0.0021822098120176775 0.0027778395964604252 0 0.0023847466413389586 0.0028981547588928492 0 0.0028890363680058183 0.0024084657823014366 0 0.0022169527520658283 0.0029377006073366737 0 0.0021822098120176775 0.0027778395964604252 0 0.0023847466413389586 0.0028981547588928492 0 0.0020851528102467519 0.0031672667235811162 0 0.0023445659252695713 0.0028756734443407201 0 0.0023847466413389586 0.0028981547588928492 0 -0.0033767733357716045 0.003311277232723901 0 -0.0034980807697646923 0.0035234140175043642 0 -0.0037223402654395035 0.0035821029779631052 0 -0.0007835687287060392 0.00290288935433972 0 -0.00065005986631396602 0.0032083586539433935 0 0.0028232153215772249 0.0028048005714033358 0 0.002309180714839871 0.0029223197533642894 0 0.0030706352395922132 0.0024583353235811609 0 0.0023847466413389586 0.0028981547588928492 0 0.0028890363680058183 0.0024084657823014366 0 0.0029640358062864892 0.0023347045388552928 0 0.0028890363680058183 0.0024084657823014366 0 0.0029046792116656844 0.002371414147168138 0 0.0029640358062864892 0.0023347045388552928 0 0.002978924438446412 0.0023778165914400836 0 0.0028890363680058183 0.0024084657823014366 0 0.0030178981385075407 0.0023422531718830745 0 0.0029640358062864892 0.0023347045388552928 0 0.002978924438446412 0.0023778165914400836 0 0.0030706352395922132 0.0024583353235811609 0 0.002978924438446412 0.0023778165914400836 0 0.0028890363680058183 0.0024084657823014366 0 0.0028890363680058183 0.0024084657823014366 0 0.0029046792116656844 0.002371414147168138 0 0.0028613860134521023 0.0024250897140916461 0 0.0029046792116656844 0.002371414147168138 0 0.0028613860134521023 0.0024250897140916461 0 0.0029152317697055735 0.0022984598281517452 0 0.0028312323942548188 0.0025309325387713041 0 0.0028890363680058183 0.0024084657823014366 0 0.0028613860134521023 0.0024250897140916461 0 0.0028312323942548188 0.0025309325387713041 0 0.0028613860134521023 0.0024250897140916461 0 0.0027521308782533804 0.0024011270470348442 0 0.0028613860134521023 0.0024250897140916461 0 0.0028296019395813881 0.0023062781392486523 0 0.0027521308782533804 0.0024011270470348442 0 0.0028613860134521023 0.0024250897140916461 0 0.0028296019395813881 0.0023062781392486523 0 0.0029152317697055735 0.0022984598281517452 0 0.0028296019395813881 0.0023062781392486523 0 0.0029152317697055735 0.0022984598281517452 0 0.0028725629468766885 0.002157660126244995 0 0.0029152317697055735 0.0022984598281517452 0 0.0030087087176918644 0.0022466549400239747 0 0.002978459334320093 0.0021432629789703418 0 0.0029640358062864892 0.0023347045388552928 0 0.0029046792116656844 0.002371414147168138 0 0.0029152317697055735 0.0022984598281517452 0 0.0029640358062864892 0.0023347045388552928 0 0.0029152317697055735 0.0022984598281517452 0 0.0030087087176918644 0.0022466549400239747 0 0.0030337327522569355 0.0022859135427453375 0 0.0029640358062864892 0.0023347045388552928 0 0.0030087087176918644 0.0022466549400239747 0 0.0023576918404811225 0.0024308933787271069 0 0.0024795432333186576 0.002572610950656955 0 0.0025825317992923861 0.002406222023128673 0 0.0023576918404811225 0.0024308933787271069 0 0.0025825317992923861 0.002406222023128673 0 0.0024946192929020039 0.0022688530273941372 0 0.0025825317992923861 0.002406222023128673 0 0.0027521308782533804 0.0024011270470348442 0 0.0026953770457717029 0.0022150587855371026 0 0.0026577246790235828 0.0025293857165953923 0 0.0025825317992923861 0.002406222023128673 0 0.0027521308782533804 0.0024011270470348442 0 0.0028296019395813881 0.0023062781392486523 0 0.0027521308782533804 0.0024011270470348442 0 0.0026953770457717029 0.0022150587855371026 0 0.0028296019395813881 0.0023062781392486523 0 0.0026953770457717029 0.0022150587855371026 0 0.0028725629468766885 0.002157660126244995 0 0.0025825317992923861 0.002406222023128673 0 0.0026953770457717029 0.0022150587855371026 0 0.0024946192929020039 0.0022688530273941372 0 0.0026953770457717029 0.0022150587855371026 0 0.0024946192929020039 0.0022688530273941372 0 0.0024916643983798645 0.0021331386333072748 0 0.0026953770457717029 0.0022150587855371026 0 0.0026657408984350683 0.0020208239256231781 0 0.0024916643983798645 0.0021331386333072748 0 0.0026953770457717029 0.0022150587855371026 0 0.0028456622475386338 0.0020335265667826576 0 0.0026657408984350683 0.0020208239256231781 0 0.0026953770457717029 0.0022150587855371026 0 0.0028456622475386338 0.0020335265667826576 0 0.0028725629468766885 0.002157660126244995 0 0.0028456622475386338 0.0020335265667826576 0 0.0026657408984350683 0.0020208239256231781 0 0.0029285803622484509 0.0019035378790570809 0 0.0028456622475386338 0.0020335265667826576 0 0.0029806056795115199 0.0020181546267231958 0 0.0029285803622484509 0.0019035378790570809 0 0.002978459334320093 0.0021432629789703418 0 0.0029806056795115199 0.0020181546267231958 0 0.0030812582947614764 0.0021215057584502697 0 0.0029152317697055735 0.0022984598281517452 0 0.002978459334320093 0.0021432629789703418 0 0.0028725629468766885 0.002157660126244995 0 0.002978459334320093 0.0021432629789703418 0 0.0028725629468766885 0.002157660126244995 0 0.0029806056795115199 0.0020181546267231958 0 0.0028456622475386338 0.0020335265667826576 0 0.0028725629468766885 0.002157660126244995 0 0.0029806056795115199 0.0020181546267231958 0 0.0029806056795115199 0.0020181546267231958 0 0.0030082859941859921 0.0019059088365127063 0 0.0031011396303606375 0.0019593862601343546 0 0.0037140960401760574 0.002318648878187694 0 0.0050219838345256394 0.0028702318969210899 0 0.0029806056795115199 0.0020181546267231958 0 0.0030082859941859921 0.0019059088365127063 0 0.0029285803622484509 0.0019035378790570809 0 0.0046086792336368868 0.0028570742578691026 0 0.0031707521984916144 0.0018842381782617343 0 0.0042972200472656619 0.0018293249834962755 0 0.0037140960401760574 0.002318648878187694 0 0.003249496793169623 0.0019629016969479971 0 0.0046086792336368868 0.0028570742578691026 0 0.0042972200472656619 0.0018293249834962755 0 0.0055302680687091812 0.00213442308031611 0 0.0046086792336368868 0.0028570742578691026 0 0.0055302680687091812 0.00213442308031611 0 0.0060691622047193616 0.0034634674938166083 0 0.0026657408984350683 0.0020208239256231781 0 0.0029285803622484509 0.0019035378790570809 0 0.0026038482550687528 0.0018651506414596095 0 0.0029285803622484509 0.0019035378790570809 0 0.002848358561942477 0.0017987109252309678 0 0.0026038482550687528 0.0018651506414596095 0 0.0030082859941859921 0.0019059088365127063 0 0.0029285803622484509 0.0019035378790570809 0 0.0031707521984916144 0.0018842381782617343 0 0.0029285803622484509 0.0019035378790570809 0 0.0031707521984916144 0.0018842381782617343 0 0.002848358561942477 0.0017987109252309678 0 0.0031707521984916144 0.0018842381782617343 0 0.002848358561942477 0.0017987109252309678 0 0.00286406924442726 0.0016000446994674617 0 0.0031707521984916144 0.0018842381782617343 0 0.00286406924442726 0.0016000446994674617 0 0.0031230330624478619 0.0012981602096881701 0 0.00286406924442726 0.0016000446994674617 0 0.0031230330624478619 0.0012981602096881701 0 0.0025823978727933391 0.0013577934430096048 0 0.0031230330624478619 0.0012981602096881701 0 0.0033497595038931112 0.00037023724726459583 0 0.0028542938838326771 0.000621859150535906 0 0.0031230330624478619 0.0012981602096881701 0 0.0033497595038931112 0.00037023724726459583 0 0.0043598200413058263 0.00042103086634180171 0 0.003222740788385625 0.0012898700741340115 0 0.0043317504147820148 0.0010887242589687398 0 0.0031230330624478619 0.0012981602096881701 0 0.0047830363162660343 0.0012524711957013815 0 0.0043598200413058263 0.00042103086634180171 0 0.0031707521984916144 0.0018842381782617343 0 0.0031230330624478619 0.0012981602096881701 0 0.0038610255787096602 0.00094593555822654633 0 0.0031707521984916144 0.0018842381782617343 0 0.0042972200472656619 0.0018293249834962755 0 0.0038610255787096602 0.00094593555822654633 0 0.0042972200472656619 0.0018293249834962755 0 0.0048566078963888804 0.0013593542818852871 0 0.0038610255787096602 0.00094593555822654633 0 0.0042972200472656619 0.0018293249834962755 0 0.0055302680687091812 0.00213442308031611 0 0.0048566078963888804 0.0013593542818852871 0 0.0055302680687091812 0.00213442308031611 0 0.0048566078963888804 0.0013593542818852871 0 0.0057380563512040312 0.0012981942482946966 0 0.0048566078963888804 0.0013593542818852871 0 0.0053010286370994888 0.00055331634900093014 0 0.0057380563512040312 0.0012981942482946966 0 0.0058794645919186747 0.00073707938081051449 0 0.0043317504147820148 0.0010887242589687398 0 0.0048566078963888804 0.0013593542818852871 0 0.0053010286370994888 0.00055331634900093014 0 0.0038610255787096602 0.00094593555822654633 0 0.0064565424399886193 0.00093459544123729484 0 0.0047830363162660343 0.0012524711957013815 0 0.0055124077403680321 0.00053129033488858921 0 0.0047830363162660343 0.0012524711957013815 0 0.0055124077403680321 0.00053129033488858921 0 0.0043598200413058263 0.00042103086634180171 0 0.0055124077403680321 0.00053129033488858921 0 0.0053627528633218534 -6.474189134602601e-05 0 0.0043598200413058263 0.00042103086634180171 0 0.0055124077403680321 0.00053129033488858921 0 0.0053627528633218534 -6.474189134602601e-05 0 0.0062014365145277367 6.0816596721058378e-05 0 0.0053627528633218534 -6.474189134602601e-05 0 0.0047498875843089514 -0.00047414983374234983 0 0.0043598200413058263 0.00042103086634180171 0 0.0062014365145277367 6.0816596721058378e-05 0 0.0065920796320829205 -0.00082429246653319545 0 0.0071491146738020227 0.00046069775486313932 0 0.0064565424399886193 0.00093459544123729484 0 0.0062014365145277367 6.0816596721058378e-05 0 0.0071491146738020227 0.00046069775486313932 0 0.0064565424399886193 0.00093459544123729484 0 0.0055124077403680321 0.00053129033488858921 0 0.0062014365145277367 6.0816596721058378e-05 0 0.0053627528633218534 -6.474189134602601e-05 0 0.0062014365145277367 6.0816596721058378e-05 0 0.0059365842830905076 -0.00050713832437110102 0 0.0059365842830905076 -0.00050713832437110102 0 0.0065920796320829205 -0.00082429246653319545 0 0.0056011558526002951 -0.0010827241124499378 0 0.0062014365145277367 6.0816596721058378e-05 0 0.0059365842830905076 -0.00050713832437110102 0 0.0065920796320829205 -0.00082429246653319545 0 0.0053627528633218534 -6.474189134602601e-05 0 0.0056011558526002951 -0.0010827241124499378 0 0.0047498875843089514 -0.00047414983374234983 0 0.0056011558526002951 -0.0010827241124499378 0 0.0047498875843089514 -0.00047414983374234983 0 0.0046064353952663065 -0.0014494577312617058 0 0.0053627528633218534 -6.474189134602601e-05 0 0.0059365842830905076 -0.00050713832437110102 0 0.0056011558526002951 -0.0010827241124499378 0 0.0047498875843089514 -0.00047414983374234983 0 0.0038349401334430841 -0.00023605514500365501 0 0.0046064353952663065 -0.0014494577312617058 0 0.0069197808491063568 -0.00032449018843043015 0 0.0080666119282939933 -8.1224747454237292e-05 0 0.0038349401334430841 -0.00023605514500365501 0 0.0031158087332012496 -0.00054308638624673644 0 0.0046064353952663065 -0.0014494577312617058 0 0.010090163999310417 0.0013531151727852585 0 0.01085151497162763 0.00083480940060244797 0 0.0099298974433445625 0.0011772801840400019 0 0.0069197808491063568 -0.00032449018843043015 0 0.0092755812729580119 -0.000124341455380858 0 0.0031158087332012496 -0.00054308638624673644 0 0.0031349248394422773 -0.00022771569278058835 0 0.0029839267390438552 -4.6851860779116119e-05 0 0.0031158087332012496 -0.00054308638624673644 0 0.0031349248394422773 -0.00022771569278058835 0 0.0033478605054082602 -0.00012757128357724376 0 0.0031349248394422773 -0.00022771569278058835 0 0.0031345853195124417 6.0767961669911058e-05 0 0.0029839267390438552 -4.6851860779116119e-05 0 0.0031349248394422773 -0.00022771569278058835 0 0.0033478605054082602 -0.00012757128357724376 0 0.0031345853195124417 6.0767961669911058e-05 0 0.0038349401334430841 -0.00023605514500365501 0 0.0031158087332012496 -0.00054308638624673644 0 0.0033478605054082602 -0.00012757128357724376 0 0.0038349401334430841 -0.00023605514500365501 0 0.0033478605054082602 -0.00012757128357724376 0 0.0033497595038931112 0.00037023724726459583 0 0.0031345853195124417 6.0767961669911058e-05 0 0.0033497595038931112 0.00037023724726459583 0 0.0029150479456944074 0.00028802273457560637 0 0.0033478605054082602 -0.00012757128357724376 0 0.0031345853195124417 6.0767961669911058e-05 0 0.0033497595038931112 0.00037023724726459583 0 0.0033497595038931112 0.00037023724726459583 0 0.0029150479456944074 0.00028802273457560637 0 0.0028542938838326771 0.000621859150535906 0 0.0038349401334430841 -0.00023605514500365501 0 0.0033497595038931112 0.00037023724726459583 0 0.0043598200413058263 0.00042103086634180171 0 0.0047498875843089514 -0.00047414983374234983 0 0.0038349401334430841 -0.00023605514500365501 0 0.0043598200413058263 0.00042103086634180171 0 0.0094470528243779522 -3.2430381196516274e-05 0 0.009579082189564431 0.00088324307084919676 0 0.01103393182852763 0.00020469909067024445 0 0.0094470528243779522 -3.2430381196516274e-05 0 0.010562448007815906 -0.00093387062905313158 0 0.01103393182852763 0.00020469909067024445 0 0.0094470528243779522 -3.2430381196516274e-05 0 0.010562448007815906 -0.00093387062905313158 0 0.0093683522630803404 -0.0010921514414279244 0 0.010562448007815906 -0.00093387062905313158 0 0.0093683522630803404 -0.0010921514414279244 0 0.0098006148579615933 -0.0020952744616358136 0 0.0094470528243779522 -3.2430381196516274e-05 0 0.0093683522630803404 -0.0010921514414279244 0 0.0086431833164698456 -0.00048880404129512326 0 0.0093683522630803404 -0.0010921514414279244 0 0.0087410609645498828 -0.0012225835928350449 0 0.0086431833164698456 -0.00048880404129512326 0 0.0087410609645498828 -0.0012225835928350449 0 0.0082504311621110771 -0.0011227322142968585 0 0.0086431833164698456 -0.00048880404129512326 0 0.0082504311621110771 -0.0011227322142968585 0 0.0086431833164698456 -0.00048880404129512326 0 0.0078037059916143837 -0.00030345858922284233 0 0.0073984326870838984 -0.0010347438294909194 0 0.0074707594880009205 -0.00064337509457469146 0 0.0076546820780169838 -0.0013090549201825003 0 0.0074707594880009205 -0.00064337509457469146 0 0.0078037059916143837 -0.00030345858922284233 0 0.0076546820780169838 -0.0013090549201825003 0 0.0071111034178320768 -0.00084330763133443217 0 0.0074707594880009205 -0.00064337509457469146 0 0.0071491146738020227 0.00046069775486313932 0 0.0082504311621110771 -0.0011227322142968585 0 0.0078037059916143837 -0.00030345858922284233 0 0.0076862178454685679 -0.0017499538089751222 0 0.0078607655286170256 -0.00029412092341383231 0 0.0073677147743077039 -0.0017111386590471477 0 0.0071111034178320768 -0.00084330763133443217 0 0.0073984326870838984 -0.0010347438294909194 0 0.0074707594880009205 -0.00064337509457469146 0 0.0064565424399886193 0.00093459544123729484 0 0.0071491146738020227 0.00046069775486313932 0 0.0081645251203070618 0.00043335317516528639 0 0.0066995296070492547 -0.00090177002341263867 0 0.0071850264463600624 0.00044701049075585898 0 0.0074707594880009205 -0.00064337509457469146 0 0.0078037059916143837 -0.00030345858922284233 0 0.0071491146738020227 0.00046069775486313932 0 0.0078037059916143837 -0.00030345858922284233 0 0.0071491146738020227 0.00046069775486313932 0 0.0081645251203070618 0.00043335317516528639 0 0.0093014532334021321 -1.8467174429614735e-05 0 0.0076365598970254767 0.0003029818630453468 0 0.0094470528243779522 -3.2430381196516274e-05 0 0.0070834998500434116 0.0001435723575305066 0 0.0076163125628918261 0.00099436823597780178 0 0.0094470528243779522 -3.2430381196516274e-05 0 0.0086431833164698456 -0.00048880404129512326 0 0.0081645251203070618 0.00043335317516528639 0 0.0086431833164698456 -0.00048880404129512326 0 0.0078037059916143837 -0.00030345858922284233 0 0.0081645251203070618 0.00043335317516528639 0 0.0070834998500434116 0.0001435723575305066 0 0.0076163125628918261 0.00099436823597780178 0 0.0064405948020732429 0.00090360580654492712 0 0.0076163125628918261 0.00099436823597780178 0 0.0064405948020732429 0.00090360580654492712 0 0.0068304704338248692 0.0015748698319295335 0 0.0076163125628918261 0.00099436823597780178 0 0.0083050801570631883 0.0022569122127624871 0 0.0085723462988605489 0.0013645831129840103 0 0.0064405948020732429 0.00090360580654492712 0 0.0057380563512040312 0.0012981942482946966 0 0.0068304704338248692 0.0015748698319295335 0 0.0058794645919186747 0.00073707938081051449 0 0.0076365598970254767 0.0003029818630453468 0 0.0053010286370994888 0.00055331634900093014 0 0.0070834998500434116 0.0001435723575305066 0 0.0064405948020732429 0.00090360580654492712 0 0.0053010286370994888 0.00055331634900093014 0 0.0064405948020732429 0.00090360580654492712 0 0.0057380563512040312 0.0012981942482946966 0 0.0055302680687091812 0.00213442308031611 0 0.0068304704338248692 0.0015748698319295335 0 0.0067506348786414106 0.0024674530110032431 0 0.0055302680687091812 0.00213442308031611 0 0.0057380563512040312 0.0012981942482946966 0 0.0068304704338248692 0.0015748698319295335 0 0.0068304704338248692 0.0015748698319295335 0 0.0074474396341452321 0.0019223806252866851 0 0.0067506348786414106 0.0024674530110032431 0 0.0076163125628918261 0.00099436823597780178 0 0.0068304704338248692 0.0015748698319295335 0 0.0083050801570631883 0.0022569122127624871 0 0.0067271099629578508 0.0015503050615824137 0 0.0085366449682684978 0.0023715615363547591 0 0.0074474396341452321 0.0019223806252866851 0 0.0081505587078716871 0.0022468146549164498 0 0.0073528804908328744 0.0025600295322021661 0 0.0083050801570631883 0.0022569122127624871 0 0.0090740266432867735 0.001960835727697187 0 0.0093757042489883615 0.0026547301599800207 0 0.0085366449682684978 0.0023715615363547591 0 0.004242869208213716 0.001840561031058018 0 0.0083050801570631883 0.0022569122127624871 0 0.0090740266432867735 0.001960835727697187 0 0.0085723462988605489 0.0013645831129840103 0 0.0094470528243779522 -3.2430381196516274e-05 0 0.009579082189564431 0.00088324307084919676 0 0.0085723462988605489 0.0013645831129840103 0 0.0094470528243779522 -3.2430381196516274e-05 0 0.0076163125628918261 0.00099436823597780178 0 0.0085723462988605489 0.0013645831129840103 0 0.0090740266432867735 0.001960835727697187 0 0.0085723462988605489 0.0013645831129840103 0 0.0099710597847573121 0.0014829320118455046 0 0.0096998394391434803 0.0013654609956035024 0 0.0075955948968945983 0.001752431396980385 0 0.009579082189564431 0.00088324307084919676 0 0.0085723462988605489 0.0013645831129840103 0 0.010413647269680042 0.0014712751022777529 0 0.0075955948968945983 0.001752431396980385 0 0.01139039742342436 -0.00014719257435221808 0 0.009579082189564431 0.00088324307084919676 0 0.010413647269680042 0.0014712751022777529 0 0.01103393182852763 0.00020469909067024445 0 0.00076308755422202208 0.0012968241492479487 0 0.00074639579945045772 0.0013320843487491419 0 0.00074187405669054354 0.0013230595966858714 0 0.0075955948968945983 0.001752431396980385 0 0.004242869208213716 0.001840561031058018 0 0.0090740266432867735 0.001960835727697187 0 0.0099710597847573121 0.0014829320118455046 0 0.0093757042489883615 0.0026547301599800207 0 -0.00016038046308380389 0.0013655651587651562 0 -9.6440476870298097e-05 0.0016209777108891496 0 -0.00029469612368188125 0.001658172696641104 0 -0.00016038046308380389 0.0013655651587651562 0 -9.6440476870298097e-05 0.0016209777108891496 0 0.00013815477241484582 0.001438883893337909 0 0.00074639579945045772 0.0013320843487491419 0 0.00071738153259402878 0.0013840621196788358 0 0.00074187405669054354 0.0013230595966858714 0 0.004242869208213716 0.001840561031058018 0 -0.00032037370923340718 0.0011740384725918817 0 0.0081505587078716871 0.0022468146549164498 0 0.0077459746341114535 0.0030744984262030951 0 0.0073528804908328744 0.0025600295322021661 0 0.004242869208213716 0.001840561031058018 0 0.0036956783406855579 0.0024464672647847205 0 0.0077459746341114535 0.0030744984262030951 0 0.0073528804908328744 0.0025600295322021661 0 0.0070456200285605852 0.0031381311932759054 0 -0.00029469612368188125 0.001658172696641104 0 -0.00036720543884275842 0.001938457504888529 0 -0.00030857989447609488 0.001966210379589483 0 0.0036956783406855579 0.0024464672647847205 0 0.0032295723081828005 0.0023621721614678856 0 0.0077459746341114535 0.0030744984262030951 0 0.0070456200285605852 0.0031381311932759054 0 0.0073070629335168927 0.0039361493300449565 0 -0.00029469612368188125 0.001658172696641104 0 -0.00021181204949722831 0.0018442550160493935 0 -0.00030857989447609488 0.001966210379589483 0 -9.6440476870298097e-05 0.0016209777108891496 0 -0.00029469612368188125 0.001658172696641104 0 -0.00021181204949722831 0.0018442550160493935 0 -0.00021181204949722831 0.0018442550160493935 0 -0.00016892256244236005 0.0020234361673317916 0 3.2576439093619057e-05 0.0018051201327004399 0 -9.6440476870298097e-05 0.0016209777108891496 0 0.00013815477241484582 0.001438883893337909 0 3.2576439093619057e-05 0.0018051201327004399 0 -9.6440476870298097e-05 0.0016209777108891496 0 -0.00021181204949722831 0.0018442550160493935 0 3.2576439093619057e-05 0.0018051201327004399 0 0.0055302680687091812 0.00213442308031611 0 0.0067506348786414106 0.0024674530110032431 0 0.0060691622047193616 0.0034634674938166083 0 0.0067506348786414106 0.0024674530110032431 0 0.0070456200285605852 0.0031381311932759054 0 0.0060691622047193616 0.0034634674938166083 0 0.0074474396341452321 0.0019223806252866851 0 0.0067506348786414106 0.0024674530110032431 0 0.0073528804908328744 0.0025600295322021661 0 0.0067506348786414106 0.0024674530110032431 0 0.0073528804908328744 0.0025600295322021661 0 0.0070456200285605852 0.0031381311932759054 0 0.0031011396303606375 0.0019593862601343546 0 0.0031258310758819816 0.0020372465962549191 0 0.0032255488245245909 0.0020188877113635566 0 0.0070456200285605852 0.0031381311932759054 0 0.0060691622047193616 0.0034634674938166083 0 0.0073070629335168927 0.0039361493300449565 0 0.0050219838345256394 0.0028702318969210899 0 0.0032295723081828005 0.0023621721614678856 0 0.0029806056795115199 0.0020181546267231958 0 0.0031011396303606375 0.0019593862601343546 0 0.0031258310758819816 0.0020372465962549191 0 0.0031258310758819816 0.0020372465962549191 0 0.0031734785109222416 0.0021134889566065741 0 0.0030812582947614764 0.0021215057584502697 0 0.0029806056795115199 0.0020181546267231958 0 0.0031258310758819816 0.0020372465962549191 0 0.0030812582947614764 0.0021215057584502697 0 0.0032295723081828005 0.0023621721614678856 0 0.0012648308550161796 0.0022177185605072509 0 -0.00031862034869127267 0.0019627409352839403 0 -0.00032795586605062997 0.0020884384708156371 0 -0.00029373209899325066 0.0020337760068288939 0 0.0031258310758819816 0.0020372465962549191 0 0.0032255488245245909 0.0020188877113635566 0 0.0031734785109222416 0.0021134889566065741 0 0.0024178672276398594 0.0021392863425684474 0 0.0012648308550161796 0.0022177185605072509 0 -0.0003335167299916811 0.0021641487193057381 0 -0.00030661381137022032 0.0021429520383983739 0 -0.00032795586605062997 0.0020884384708156371 0 -0.00032795586605062997 0.0020884384708156371 0 -0.00029373209899325066 0.0020337760068288939 0 -0.00028329125910304438 0.00210168900156489 0 -0.00030661381137022032 0.0021429520383983739 0 -0.00028329125910304438 0.00210168900156489 0 -0.0002659315241853 0.0021415903986102035 0 -0.00030661381137022032 0.0021429520383983739 0 -0.00032795586605062997 0.0020884384708156371 0 -0.00028329125910304438 0.00210168900156489 0 0.0024178672276398594 0.0021392863425684474 0 0.0032473790560603776 0.002232918152986259 0 0.0031224092867250509 0.002218163577141307 0 0.0031734785109222416 0.0021134889566065741 0 0.0030812582947614764 0.0021215057584502697 0 0.0031224092867250509 0.002218163577141307 0 0.002978459334320093 0.0021432629789703418 0 0.0030812582947614764 0.0021215057584502697 0 -0.00016892256244236005 0.0020234361673317916 0 -9.7237018644291898e-05 0.0021525503489554804 0 3.2576439093619057e-05 0.0018051201327004399 0 -0.00016892256244236005 0.0020234361673317916 0 -0.00024451824149970965 0.0020090461692325915 0 -0.00020810578890028607 0.0020682854886490292 0 -0.00016892256244236005 0.0020234361673317916 0 -0.00020810578890028607 0.0020682854886490292 0 -0.00015924149703422624 0.0021193915298836899 0 -0.00016892256244236005 0.0020234361673317916 0 -0.00015924149703422624 0.0021193915298836899 0 -9.7237018644291898e-05 0.0021525503489554804 0 -0.00021181204949722831 0.0018442550160493935 0 -0.00030857989447609488 0.001966210379589483 0 -0.00024451824149970965 0.0020090461692325915 0 -0.00021181204949722831 0.0018442550160493935 0 -0.00016892256244236005 0.0020234361673317916 0 -0.00024451824149970965 0.0020090461692325915 0 -0.00031862034869127267 0.0019627409352839403 0 -0.00030857989447609488 0.001966210379589483 0 -0.00029373209899325066 0.0020337760068288939 0 -0.00030857989447609488 0.001966210379589483 0 -0.00029373209899325066 0.0020337760068288939 0 -0.00024451824149970965 0.0020090461692325915 0 0.0032295723081828005 0.0023621721614678856 0 0.0014624735410261025 0.0018064255157988283 0 -0.00029373209899325066 0.0020337760068288939 0 -0.00024451824149970965 0.0020090461692325915 0 -0.00024864029192938686 0.0020739689416554119 0 -0.00024451824149970965 0.0020090461692325915 0 -0.00020810578890028607 0.0020682854886490292 0 -0.00024864029192938686 0.0020739689416554119 0 -0.00024248071064229498 0.0021123660451561541 0 -0.00021513118957784027 0.0021046979705954009 0 -0.00019522268757889903 0.0021361560279808721 0 -0.00020810578890028607 0.0020682854886490292 0 -0.00024864029192938686 0.0020739689416554119 0 -0.00021513118957784027 0.0021046979705954009 0 -0.00024864029192938686 0.0020739689416554119 0 -0.00024248071064229498 0.0021123660451561541 0 -0.00021513118957784027 0.0021046979705954009 0 -0.00029373209899325066 0.0020337760068288939 0 -0.00024864029192938686 0.0020739689416554119 0 -0.00028329125910304438 0.00210168900156489 0 -0.00024864029192938686 0.0020739689416554119 0 -0.00024248071064229498 0.0021123660451561541 0 -0.00028329125910304438 0.00210168900156489 0 -0.00024248071064229498 0.0021123660451561541 0 -0.00028329125910304438 0.00210168900156489 0 -0.0002659315241853 0.0021415903986102035 0 -0.00024248071064229498 0.0021123660451561541 0 -0.0002659315241853 0.0021415903986102035 0 -0.00019522268757889903 0.0021361560279808721 0 -0.00019522268757889903 0.0021361560279808721 0 -0.0001933162062093086 0.0021510473496253379 0 -0.00015924149703422624 0.0021193915298836899 0 -0.00043529737913853525 0.002357224763003546 0 -0.00012762859055705483 0.0021717496068183731 0 -0.0001933162062093086 0.0021510473496253379 0 -0.00015924149703422624 0.0021193915298836899 0 -9.7237018644291898e-05 0.0021525503489554804 0 -0.00067136352125660734 0.0026415056681768525 0 -0.00033489009101945788 0.0026188384850471418 0 -9.7237018644291898e-05 0.0021525503489554804 0 -0.00021513118957784027 0.0021046979705954009 0 -0.00019522268757889903 0.0021361560279808721 0 -0.00015924149703422624 0.0021193915298836899 0 -0.00020810578890028607 0.0020682854886490292 0 -0.00021513118957784027 0.0021046979705954009 0 -0.00015924149703422624 0.0021193915298836899 0 -0.00029245353514920601 0.0028632645437347611 0 -0.00033489009101945788 0.0026188384850471418 0 0.00026632000652534457 0.0022723390857270235 0 -0.00033489009101945788 0.0026188384850471418 0 -9.7237018644291898e-05 0.0021525503489554804 0 0.00026632000652534457 0.0022723390857270235 0 -9.7237018644291898e-05 0.0021525503489554804 0 0.00036615571197282575 0.0018981305131849458 0 3.2576439093619057e-05 0.0018051201327004399 0 -9.7237018644291898e-05 0.0021525503489554804 0 0.00036615571197282575 0.0018981305131849458 0 0.00026632000652534457 0.0022723390857270235 0 0.00036615571197282575 0.0018981305131849458 0 0.00026632000652534457 0.0022723390857270235 0 0.00069725064765757336 0.0019603877352679447 0 0.00026632000652534457 0.0022723390857270235 0 0.00071268439254713336 0.0022251142291564241 0 0.00069725064765757336 0.0019603877352679447 0 0.00026632000652534457 0.0022723390857270235 0 0.0005801177786264784 0.002619062648111388 0 0.00071268439254713336 0.0022251142291564241 0 -0.00029245353514920601 0.0028632645437347611 0 0.00026632000652534457 0.0022723390857270235 0 0.0005801177786264784 0.002619062648111388 0 5.1483684197882747e-06 0.0028115554581935953 0 0.00021472895853924491 0.0022866813963509456 0 0.0005801177786264784 0.002619062648111388 0 0.00084824363676491352 0.0023123820910243395 0 0.0011130104808175641 0.0023322118126359588 0 -0.00060526499746522413 0.002906868976729047 0 -0.00051672436176551 0.0029480843265044273 0 -0.00065319392765064721 0.0029922548698486629 0 -0.00053706168740645069 0.0026373606494315685 0 0.00021472895853924491 0.0022866813963509456 0 0.00084824363676491352 0.0023123820910243395 0 0.0011130104808175641 0.0023322118126359588 0 0.00097915114166431997 0.002093204403605311 0 0.0005801177786264784 0.002619062648111388 0 0.00084824363676491352 0.0023123820910243395 0 0.00071268439254713336 0.0022251142291564241 0 0.00010437718060388774 0.0018346998270170646 0 0.00020635604554463936 0.0019824941410537832 0 0.00028745601812149476 0.0017918301190755826 0 0.00010437718060388774 0.0018346998270170646 0 0.00020635604554463936 0.0019824941410537832 0 4.0336703859664415e-05 0.002090201537922809 0 0.00023797295541160267 0.002204594584538388 0 0.00020635604554463936 0.0019824941410537832 0 4.0336703859664415e-05 0.002090201537922809 0 0.00010437718060388774 0.0018346998270170646 0 4.0336703859664415e-05 0.002090201537922809 0 -6.4503889430873274e-05 0.0018122125424572812 0 -0.00043790231760214347 0.0022651132688658623 0 -0.00016351163413602421 0.0020414349605959396 0 -0.00022663221585392867 0.0017100268250590277 0 -0.00016351163413602421 0.0020414349605959396 0 -0.00022663221585392867 0.0017100268250590277 0 -6.4503889430873274e-05 0.0018122125424572812 0 4.0336703859664415e-05 0.002090201537922809 0 -0.00016351163413602421 0.0020414349605959396 0 -6.4503889430873274e-05 0.0018122125424572812 0 0.00042675882869359065 0.0022077413971742328 0 0.0006453550018343118 0.00210416525651587 0 0.00070801558782079431 0.0017397484649720196 0 0.00021472895853924491 0.0022866813963509456 0 0.00046682404053489203 0.001914060449261233 0 -0.00022663221585392867 0.0017100268250590277 0 -7.1754758746986834e-05 0.0016160502290402375 0 -6.4503889430873274e-05 0.0018122125424572812 0 -7.1754758746986834e-05 0.0016160502290402375 0 0.00014009141603183128 0.0016676046366094193 0 0.00039356971441219235 0.0014188243290328229 0 0.00010437718060388774 0.0018346998270170646 0 -6.4503889430873274e-05 0.0018122125424572812 0 0.00014009141603183128 0.0016676046366094193 0 -7.1754758746986834e-05 0.0016160502290402375 0 -6.4503889430873274e-05 0.0018122125424572812 0 0.00014009141603183128 0.0016676046366094193 0 0.00010437718060388774 0.0018346998270170646 0 0.00014009141603183128 0.0016676046366094193 0 0.00028745601812149476 0.0017918301190755826 0 0.00093675956986117052 0.0017709699509483245 0 0.0013377592786200775 0.0014992146668501201 0 0.00055901964257726875 0.0018513990978227279 0 0.00062150875754502259 0.0014830218006707152 0 0.0013838264130244908 0.0014385711652621733 0 0.00046682404053489203 0.001914060449261233 0 0.00093675956986117052 0.0017709699509483245 0 0.00021472895853924491 0.0022866813963509456 0 0.00093675956986117052 0.0017709699509483245 0 0.0011130104808175641 0.0023322118126359588 0 0.0012359163502332119 0.0020800643365627394 0 0.00097915114166431997 0.002093204403605311 0 0.0012359163502332119 0.0020800643365627394 0 0.00097915114166431997 0.002093204403605311 0 0.00101993882407939 0.001797744739049488 0 0.00093675956986117052 0.0017709699509483245 0 0.0013008294355247791 0.0010978313413713507 0 0.00084824363676491352 0.0023123820910243395 0 0.00071268439254713336 0.0022251142291564241 0 0.00097915114166431997 0.002093204403605311 0 0.00071268439254713336 0.0022251142291564241 0 0.00097915114166431997 0.002093204403605311 0 0.00069725064765757336 0.0019603877352679447 0 0.00097915114166431997 0.002093204403605311 0 0.00069725064765757336 0.0019603877352679447 0 0.00101993882407939 0.001797744739049488 0 0.00069725064765757336 0.0019603877352679447 0 0.00101993882407939 0.001797744739049488 0 0.0006627781556887381 0.0015481904347676928 0 0.00101993882407939 0.001797744739049488 0 0.0010310502269995478 0.0015258136756777679 0 0.0006627781556887381 0.0015481904347676928 0 0.0013064712547367025 0.0018542821411145357 0 0.0014164263096695122 0.0012446053311118835 0 0.0016234570087110976 0.0013346115371416134 0 0.0012359163502332119 0.0020800643365627394 0 0.00101993882407939 0.001797744739049488 0 0.0012708674085667054 0.0017005152818847927 0 0.00101993882407939 0.001797744739049488 0 0.0012708674085667054 0.0017005152818847927 0 0.0010310502269995478 0.0015258136756777679 0 0.0012708674085667054 0.0017005152818847927 0 0.0012954031162855839 0.0014192595141908459 0 0.0010310502269995478 0.0015258136756777679 0 0.0018551604710386796 0.0011171812939493996 0 0.00098479408309565513 0.0014005401234775644 0 0.0013377592786200775 0.0014992146668501201 0 0.0018551604710386796 0.0011171812939493996 0 0.0014164263096695122 0.0012446053311118835 0 0.0015233728842595404 0.00063816372576268147 0 0.0016370099327898304 0.0010031011858845759 0 0.0012954031162855839 0.0014192595141908459 0 0.0010310502269995478 0.0015258136756777679 0 0.0010376351069870734 0.0013217498454058576 0 0.00087477745641239809 0.0014322692301090188 0 0.0010310502269995478 0.0015258136756777679 0 0.0010376351069870734 0.0013217498454058576 0 0.00087477745641239809 0.0014322692301090188 0 0.0010310502269995478 0.0015258136756777679 0 0.0006627781556887381 0.0015481904347676928 0 0.00087477745641239809 0.0014322692301090188 0 0.0006627781556887381 0.0015481904347676928 0 0.00078347394071761624 0.0013555898023905029 0 0.00071738153259402878 0.0013840621196788358 0 0.0006627781556887381 0.0015481904347676928 0 0.00078347394071761624 0.0013555898023905029 0 -0.00032037370923340718 0.0011740384725918817 0 0.00095063805055699518 0.0016531258290566253 0 0.00013815477241484582 0.001438883893337909 0 3.2576439093619057e-05 0.0018051201327004399 0 0.0006627781556887381 0.0015481904347676928 0 0.00036615571197282575 0.0018981305131849458 0 3.2576439093619057e-05 0.0018051201327004399 0 0.0006627781556887381 0.0015481904347676928 0 0.00036615571197282575 0.0018981305131849458 0 0.00069725064765757336 0.0019603877352679447 0 0.0006627781556887381 0.0015481904347676928 0 0.0024451999557721375 0.0011104057752598529 0 0.0031715529162462701 0.0016869474678666808 0 0.0032095784871849884 0.00051155044281906315 0 0.0024451999557721375 0.0011104057752598529 0 0.0024751903484332267 0.00034717881321728872 0 0.0032095784871849884 0.00051155044281906315 0 0.0024451999557721375 0.0011104057752598529 0 0.0019466107414774249 0.00062520863396779756 0 0.0024751903484332267 0.00034717881321728872 0 0.0030403291323313967 0.0026262823483285918 0 0.0025150177117699386 0.00227501558716134 0 0.0031715529162462701 0.0016869474678666808 0 0.0024451999557721375 0.0011104057752598529 0 0.0024324786366162741 0.0017793503426569339 0 0.0031715529162462701 0.0016869474678666808 0 0.0025150177117699386 0.00227501558716134 0 0.0024324786366162741 0.0017793503426569339 0 0.0031715529162462701 0.0016869474678666808 0 0.0025150177117699386 0.00227501558716134 0 0.0024324786366162741 0.0017793503426569339 0 0.0020534410877125057 0.0020927827551509236 0 0.0024451999557721375 0.0011104057752598529 0 0.0024324786366162741 0.0017793503426569339 0 0.0019710560916264687 0.0016232112554398501 0 0.0024324786366162741 0.0017793503426569339 0 0.0019710560916264687 0.0016232112554398501 0 0.0020534410877125057 0.0020927827551509236 0 0.0019710560916264687 0.0016232112554398501 0 0.0020534410877125057 0.0020927827551509236 0 0.001497700674126919 0.0017030542386061917 0 0.0020534410877125057 0.0020927827551509236 0 0.0015758483370974673 0.0020988794907543132 0 0.001497700674126919 0.0017030542386061917 0 0.0019710560916264687 0.0016232112554398501 0 0.001497700674126919 0.0017030542386061917 0 0.0016538043510576383 0.0013568092508986116 0 0.001497700674126919 0.0017030542386061917 0 0.0016538043510576383 0.0013568092508986116 0 0.0012815957622109959 0.001387812697215637 0 0.0016538043510576383 0.0013568092508986116 0 0.0019787094135241853 0.0010991820896795936 0 0.0015658178440483594 0.00095688887211404377 0 0.0016538043510576383 0.0013568092508986116 0 0.0015658178440483594 0.00095688887211404377 0 0.0012815957622109959 0.001387812697215637 0 0.0019710560916264687 0.0016232112554398501 0 0.0016538043510576383 0.0013568092508986116 0 0.0019787094135241853 0.0010991820896795936 0 0.0024451999557721375 0.0011104057752598529 0 0.0019710560916264687 0.0016232112554398501 0 0.0019787094135241853 0.0010991820896795936 0 0.0019787094135241853 0.0010991820896795936 0 0.0019466107414774249 0.00062520863396779756 0 0.0015658178440483594 0.00095688887211404377 0 0.0024451999557721375 0.0011104057752598529 0 0.0019787094135241853 0.0010991820896795936 0 0.0019466107414774249 0.00062520863396779756 0 0.0015658178440483594 0.00095688887211404377 0 0.0012641453168098136 0.0008378050539649993 0 0.0015232013071605909 0.00046781630422840117 0 0.0019466107414774249 0.00062520863396779756 0 0.0015658178440483594 0.00095688887211404377 0 0.0015232013071605909 0.00046781630422840117 0 0.0012641453168098136 0.0008378050539649993 0 0.00063103421218232785 0.0010981026558564691 0 0.0015232013071605909 0.00046781630422840117 0 0.00073624172982451126 0.0010357708301349418 0 0.0014495659018417695 0.0005071121779422769 0 0.0012641453168098136 0.0008378050539649993 0 0.00092623231559190691 0.0010559748044196608 0 0.0012397090157313401 0.0010768197674848865 0 0.0015658178440483594 0.00095688887211404377 0 0.0012641453168098136 0.0008378050539649993 0 0.0012397090157313401 0.0010768197674848865 0 0.0012641453168098136 0.0008378050539649993 0 0.00092623231559190691 0.0010559748044196608 0 0.00063103421218232785 0.0010981026558564691 0 0.001048501067858493 0.0012710383614993491 0 0.0012815957622109959 0.001387812697215637 0 0.00095053616244774729 0.0015317183494336789 0 0.00092623231559190691 0.0010559748044196608 0 0.001048501067858493 0.0012710383614993491 0 0.0012397090157313401 0.0010768197674848865 0 0.00092623231559190691 0.0010559748044196608 0 0.00076653596493990233 0.0011760201388624626 0 0.00063103421218232785 0.0010981026558564691 0 0.00092623231559190691 0.0010559748044196608 0 0.00082468494177307782 0.0013061574985060421 0 0.00076653596493990233 0.0011760201388624626 0 0.00092623231559190691 0.0010559748044196608 0 0.00082468494177307782 0.0013061574985060421 0 0.001048501067858493 0.0012710383614993491 0 0.00082468494177307782 0.0013061574985060421 0 0.001048501067858493 0.0012710383614993491 0 0.00095053616244774729 0.0015317183494336789 0 0.0015658178440483594 0.00095688887211404377 0 0.0012397090157313401 0.0010768197674848865 0 0.0012815957622109959 0.001387812697215637 0 0.001048501067858493 0.0012710383614993491 0 0.0012397090157313401 0.0010768197674848865 0 0.0012815957622109959 0.001387812697215637 0 0.0012815957622109959 0.001387812697215637 0 0.0010993409874333097 0.0017310364217814893 0 0.00095053616244774729 0.0015317183494336789 0 0.001497700674126919 0.0017030542386061917 0 0.0012815957622109959 0.001387812697215637 0 0.0010993409874333097 0.0017310364217814893 0 0.0015758483370974673 0.0020988794907543132 0 0.001497700674126919 0.0017030542386061917 0 0.0012144216190144626 0.0020531629925962724 0 0.001497700674126919 0.0017030542386061917 0 0.0010993409874333097 0.0017310364217814893 0 0.0012144216190144626 0.0020531629925962724 0 0.0010993409874333097 0.0017310364217814893 0 0.0012144216190144626 0.0020531629925962724 0 0.00086710441523726314 0.0019627943643900137 0 0.0010993409874333097 0.0017310364217814893 0 0.00086710441523726314 0.0019627943643900137 0 0.00081417936719742551 0.0017259531194121326 0 0.00086710441523726314 0.0019627943643900137 0 0.00081417936719742551 0.0017259531194121326 0 0.00068619434255667909 0.0018589145698266842 0 0.0010993409874333097 0.0017310364217814893 0 0.00081417936719742551 0.0017259531194121326 0 0.00095053616244774729 0.0015317183494336789 0 0.00081417936719742551 0.0017259531194121326 0 0.00095053616244774729 0.0015317183494336789 0 0.00076741360600238498 0.0015134434672416377 0 0.00082468494177307782 0.0013061574985060421 0 0.00095053616244774729 0.0015317183494336789 0 0.00076741360600238498 0.0015134434672416377 0 0.00076741360600238498 0.0015134434672416377 0 0.00063336657800790121 0.0016744080320162638 0 0.00060924471515042661 0.0014282459514110737 0 0.00063336657800790121 0.0016744080320162638 0 0.00045081932118533352 0.001623205803778525 0 0.00060924471515042661 0.0014282459514110737 0 0.00063336657800790121 0.0016744080320162638 0 0.00049933248582831389 0.0018456380589399136 0 0.00045081932118533352 0.001623205803778525 0 0.00081417936719742551 0.0017259531194121326 0 0.00063336657800790121 0.0016744080320162638 0 0.00068619434255667909 0.0018589145698266842 0 0.00081417936719742551 0.0017259531194121326 0 0.00076741360600238498 0.0015134434672416377 0 0.00063336657800790121 0.0016744080320162638 0 0.00063336657800790121 0.0016744080320162638 0 0.00068619434255667909 0.0018589145698266842 0 0.00049933248582831389 0.0018456380589399136 0 0.00062445014807415832 0.0020807827750776971 0 0.00068619434255667909 0.0018589145698266842 0 0.00049933248582831389 0.0018456380589399136 0 0.00062445014807415832 0.0020807827750776971 0 0.00086710441523726314 0.0019627943643900137 0 0.00068619434255667909 0.0018589145698266842 0 0.00023797295541160267 0.002204594584538388 0 0.00020635604554463936 0.0019824941410537832 0 0.00036531534546460582 0.0020304024711434972 0 0.00062445014807415832 0.0020807827750776971 0 0.00049933248582831389 0.0018456380589399136 0 0.00036531534546460582 0.0020304024711434972 0 0.00049933248582831389 0.0018456380589399136 0 0.00036531534546460582 0.0020304024711434972 0 0.00028745601812149476 0.0017918301190755826 0 0.00020635604554463936 0.0019824941410537832 0 0.00036531534546460582 0.0020304024711434972 0 0.00028745601812149476 0.0017918301190755826 0 0.00028745601812149476 0.0017918301190755826 0 0.00045081932118533352 0.001623205803778525 0 0.00031163816331669587 0.0016109620267571241 0 0.00014009141603183128 0.0016676046366094193 0 0.00028745601812149476 0.0017918301190755826 0 0.00031163816331669587 0.0016109620267571241 0 0.00049933248582831389 0.0018456380589399136 0 0.00028745601812149476 0.0017918301190755826 0 0.00045081932118533352 0.001623205803778525 0 0.00045081932118533352 0.001623205803778525 0 0.00031163816331669587 0.0016109620267571241 0 0.00039356971441219235 0.0014188243290328229 0 0.00045081932118533352 0.001623205803778525 0 0.00039356971441219235 0.0014188243290328229 0 0.00060924471515042661 0.0014282459514110737 0 0.00014009141603183128 0.0016676046366094193 0 0.00031163816331669587 0.0016109620267571241 0 0.00039356971441219235 0.0014188243290328229 0 0.00062150875754502259 0.0014830218006707152 0 0.0013838264130244908 0.0014385711652621733 0 0.0010545161907793131 0.00075798994167918215 0 0.00046682404053489203 0.001914060449261233 0 0.00073911517985817852 0.0011311598273040647 0 -7.1754758746986834e-05 0.0016160502290402375 0 0.00039356971441219235 0.0014188243290328229 0 0.00052019350273612742 0.0011848045199129072 0 0.00039356971441219235 0.0014188243290328229 0 0.00057989261555720247 0.0012953947683925497 0 0.00060924471515042661 0.0014282459514110737 0 0.00057989261555720247 0.0012953947683925497 0 0.00060924471515042661 0.0014282459514110737 0 0.00068679368246352189 0.0012422090637244044 0 0.00082468494177307782 0.0013061574985060421 0 0.00060924471515042661 0.0014282459514110737 0 0.00068679368246352189 0.0012422090637244044 0 0.00082468494177307782 0.0013061574985060421 0 0.00076741360600238498 0.0015134434672416377 0 0.00060924471515042661 0.0014282459514110737 0 0.00057989261555720247 0.0012953947683925497 0 0.00068679368246352189 0.0012422090637244044 0 0.00063103421218232785 0.0010981026558564691 0 0.00082468494177307782 0.0013061574985060421 0 0.00068679368246352189 0.0012422090637244044 0 0.00076653596493990233 0.0011760201388624626 0 0.00068679368246352189 0.0012422090637244044 0 0.00076653596493990233 0.0011760201388624626 0 0.00063103421218232785 0.0010981026558564691 0 0.00039356971441219235 0.0014188243290328229 0 0.00052019350273612742 0.0011848045199129072 0 0.00063103421218232785 0.0010981026558564691 0 0.00039356971441219235 0.0014188243290328229 0 0.00057989261555720247 0.0012953947683925497 0 0.00063103421218232785 0.0010981026558564691 0 0.00073911517985817852 0.0011311598273040647 0 0.00073624172982451126 0.0010357708301349418 0 0.0004950549954543422 0.00096291968478094442 0 0.00063343555947054531 0.00089331126633717588 0 0.00091116554601157094 0.00038420545629833423 0 0.0004950549954543422 0.00096291968478094442 0 0.00070802733140139609 -0.00024786101362660895 0 0.00091116554601157094 0.00038420545629833423 0 0.0013838264130244908 0.0014385711652621733 0 0.0010545161907793131 0.00075798994167918215 0 0.0016263146279657794 9.0326077697051174e-05 0 0.00073911517985817852 0.0011311598273040647 0 0.0015366109451999143 -0.00010602883315159384 0 0.0010545161907793131 0.00075798994167918215 0 0.0016263146279657794 9.0326077697051174e-05 0 0.0014910271412724326 3.1237005218174897e-05 0 0.0013008294355247791 0.0010978313413713507 0 0.0024279065404155605 0.0002952047178682293 0 0.0016234570087110976 0.0013346115371416134 0 0.0016370099327898304 0.0010031011858845759 0 0.0019365965363800153 0.00081543970273932306 0 0.0014164263096695122 0.0012446053311118835 0 0.0016234570087110976 0.0013346115371416134 0 0.0016370099327898304 0.0010031011858845759 0 0.0015233728842595404 0.00063816372576268147 0 0.0016370099327898304 0.0010031011858845759 0 0.0019365965363800153 0.00081543970273932306 0 0.0018551604710386796 0.0011171812939493996 0 0.0024279065404155605 0.0002952047178682293 0 0.0038082861697554052 -5.6027588036373247e-05 0 0.0041757373142089381 -5.0813469992332958e-05 0 0.0042259162016349576 0.00011373125048481064 0 0.0038082861697554052 -5.6027588036373247e-05 0 0.0040568854118613268 -0.00017133926360824659 0 0.0041757373142089381 -5.0813469992332958e-05 0 0.0040568854118613268 -0.00017133926360824659 0 0.0041757373142089381 -5.0813469992332958e-05 0 0.0043373937753614618 -8.0510203541047881e-05 0 0.0041852414681552846 -2.8921466643882772e-05 0 0.0027916243628229526 -0.00032032682799018212 0 0.0040568854118613268 -0.00017133926360824659 0 0.00438798313950784 -7.3077808459440119e-05 0 0.0044255488871592173 -0.0001348989486899684 0 0.0027916243628229526 -0.00032032682799018212 0 0.0032469404820270951 -0.00051994116253092568 0 0.0041757373142089381 -5.0813469992332958e-05 0 0.0043373937753614618 -8.0510203541047881e-05 0 0.0042259162016349576 0.00011373125048481064 0 0.0027916243628229526 -0.00032032682799018212 0 0.0024279065404155605 0.0002952047178682293 0 0.0024085636691193991 -0.00031962830236270011 0 0.002340774713076844 0.00043407364691144628 0 0.0020371321119918586 0.00030152943775214826 0 0.0027916243628229526 -0.00032032682799018212 0 0.0015366109451999143 -0.00010602883315159384 0 0.0015366109451999143 -0.00010602883315159384 0 0.0024279065404155605 0.0002952047178682293 0 0.00080313961979544047 -0.00052483644840958929 0 0.0015409997425656977 -0.00016804380596987525 0 0.0014839228400062277 -0.00061413424065436429 0 0.00083251949059333342 -0.00080037869523815787 0 0.00080313961979544047 -0.00052483644840958929 0 0.0014839228400062277 -0.00061413424065436429 0 0.0027916243628229526 -0.00032032682799018212 0 0.0020660927464407801 -0.0008632076305780872 0 0.0029630743156491392 -0.001004957283038895 0 0.0030432254174686591 -0.0010359748872472332 0 0.0030918881883804988 -0.00096927200234088592 0 0.0029630743156491392 -0.001004957283038895 0 0.0029708379025873664 -0.0010182615739948277 0 0.0030432254174686591 -0.0010359748872472332 0 0.0030432254174686591 -0.0010359748872472332 0 0.0030918881883804988 -0.00096927200234088592 0 0.0031326618318712664 -0.0010389255619623324 0 0.0015366109451999143 -0.00010602883315159384 0 0.0014034270374497905 -9.5809524109943505e-05 0 0.00063343555947054531 0.00089331126633717588 0 0.00091116554601157094 0.00038420545629833423 0 0.0015232013071605909 0.00046781630422840117 0 0.00070802733140139609 -0.00024786101362660895 0 0.0012357124083105255 0.00027958416167679753 0 0.0015164611503928154 8.8584451775198243e-05 0 0.00070802733140139609 -0.00024786101362660895 0 0.00091116554601157094 0.00038420545629833423 0 0.0012357124083105255 0.00027958416167679753 0 0.0012357124083105255 0.00027958416167679753 0 0.0015232013071605909 0.00046781630422840117 0 0.0015164611503928154 8.8584451775198243e-05 0 0.00091116554601157094 0.00038420545629833423 0 0.0012357124083105255 0.00027958416167679753 0 0.0015232013071605909 0.00046781630422840117 0 0.0014034270374497905 -9.5809524109943505e-05 0 0.0024650717037233388 0.00034960290408739752 0 0.0015409997425656977 -0.00016804380596987525 0 0.0022413443497272699 -0.00043402104861249607 0 0.0023707283962233531 -0.0002838258266286783 0 0.0019466107414774249 0.00062520863396779756 0 0.0015164611503928154 8.8584451775198243e-05 0 0.0024751903484332267 0.00034717881321728872 0 0.0015409997425656977 -0.00016804380596987525 0 0.0023707283962233531 -0.0002838258266286783 0 0.0024751903484332267 0.00034717881321728872 0 0.0019466107414774249 0.00062520863396779756 0 0.0015232013071605909 0.00046781630422840117 0 0.0015164611503928154 8.8584451775198243e-05 0 0.0020660927464407801 -0.0008632076305780872 0 0.0031317661337487515 -0.00066460777175281595 0 0.0030918881883804988 -0.00096927200234088592 0 0.0031326618318712664 -0.0010389255619623324 0 0.0032141848928456934 -0.00093194626408475592 0 0.0038481770213594385 -0.0014132264862022847 0 0.0042006852649076332 -0.00086838043606666561 0 0.0044341217488554933 -0.0013069076718809386 0 0.0015409997425656977 -0.00016804380596987525 0 0.0014839228400062277 -0.00061413424065436429 0 0.0022413443497272699 -0.00043402104861249607 0 0.0034843448947974582 -0.0012259573065575367 0 0.0031317661337487515 -0.00066460777175281595 0 0.0042006852649076332 -0.00086838043606666561 0 0.0047255621178447114 -0.00097870373249263733 0 0.0051253378114071426 -0.00038336043517878023 0 0.0042006852649076332 -0.00086838043606666561 0 0.0044341217488554933 -0.0013069076718809386 0 0.0047255621178447114 -0.00097870373249263733 0 0.0044341217488554933 -0.0013069076718809386 0 0.0046935671170867162 -0.0016336356216385443 0 0.0048110195382007415 -0.0013327678691167392 0 0.0044341217488554933 -0.0013069076718809386 0 0.0047255621178447114 -0.00097870373249263733 0 0.0048110195382007415 -0.0013327678691167392 0 0.0031317661337487515 -0.00066460777175281595 0 0.00451159178720437 -0.00027784695377849059 0 0.0022105052385450259 -0.00044825318144433755 0 0.0023707283962233531 -0.0002838258266286783 0 0.0037470513566265386 -0.00023854937399703019 0 0.0031317661337487515 -0.00066460777175281595 0 0.0029546603748970301 -0.00067798406538769999 0 0.0023707283962233531 -0.0002838258266286783 0 0.0024751903484332267 0.00034717881321728872 0 0.0032095784871849884 0.00051155044281906315 0 0.004562860551425566 -0.0022695178300686115 0 0.0045187012184522875 -0.0024204328458940017 0 0.0051034653707278848 -0.002329837574609161 0 0.0045187012184522875 -0.0024204328458940017 0 0.0043607807733383897 -0.0026556314102678595 0 0.0051034653707278848 -0.002329837574609161 0 0.004562860551425566 -0.0022695178300686115 0 0.0045187012184522875 -0.0024204328458940017 0 0.0042227619140664122 -0.002372788028095138 0 0.004562860551425566 -0.0022695178300686115 0 0.0045751155601580868 -0.0019362492922676919 0 0.0041448522200702703 -0.0020089860508203999 0 0.004562860551425566 -0.0022695178300686115 0 0.0041448522200702703 -0.0020089860508203999 0 0.0042227619140664122 -0.002372788028095138 0 0.004562860551425566 -0.0022695178300686115 0 0.0045751155601580868 -0.0019362492922676919 0 0.0048481823842762371 -0.0021284817569663245 0 0.0045751155601580868 -0.0019362492922676919 0 0.0049286795373692672 -0.0019336487761485719 0 0.0048481823842762371 -0.0021284817569663245 0 0.0045751155601580868 -0.0019362492922676919 0 0.0046935671170867162 -0.0016336356216385443 0 0.0043029166254657004 -0.0016884556535350565 0 0.0045751155601580868 -0.0019362492922676919 0 0.0046935671170867162 -0.0016336356216385443 0 0.0049286795373692672 -0.0019336487761485719 0 0.0044341217488554933 -0.0013069076718809386 0 0.0046935671170867162 -0.0016336356216385443 0 0.0043029166254657004 -0.0016884556535350565 0 0.0045751155601580868 -0.0019362492922676919 0 0.0043029166254657004 -0.0016884556535350565 0 0.0041448522200702703 -0.0020089860508203999 0 0.0038481770213594385 -0.0014132264862022847 0 0.0044341217488554933 -0.0013069076718809386 0 0.0043029166254657004 -0.0016884556535350565 0 0.0038481770213594385 -0.0014132264862022847 0 0.0041448522200702703 -0.0020089860508203999 0 0.003461197368444126 -0.0020352727987111665 0 0.0039888510920410543 -0.0020203850045376567 0 0.0039501874944027991 -0.0019352401739223069 0 0.0038481770213594385 -0.0014132264862022847 0 0.0043029166254657004 -0.0016884556535350565 0 0.0041448522200702703 -0.0020089860508203999 0 0.0041448522200702703 -0.0020089860508203999 0 0.0039439165353738525 -0.0022743062648944452 0 0.0038203757698759655 -0.0020686624908968702 0 0.0041448522200702703 -0.0020089860508203999 0 0.0042227619140664122 -0.002372788028095138 0 0.0039439165353738525 -0.0022743062648944452 0 0.0042227619140664122 -0.002372788028095138 0 0.0039439165353738525 -0.0022743062648944452 0 0.0040372718186768566 -0.0025728316308539561 0 0.0063909894125092669 -0.0019512597454876253 0 0.0064923796620035366 -0.0021433757572814709 0 0.0037078599451176942 -0.0021943182402936958 0 0.0038209836688698549 -0.0022004155079743252 0 0.00378895354937559 -0.0025814054352065962 0 0.0039439165353738525 -0.0022743062648944452 0 0.0038209836688698549 -0.0022004155079743252 0 0.00378895354937559 -0.0025814054352065962 0 0.0063909894125092669 -0.0019512597454876253 0 0.0055041286476912301 -0.0015467940261201746 0 0.0056703985310984787 -0.0016530417958816081 0 0.0055079018540274667 -0.0018496084885462861 0 0.005703275112282284 -0.0018422698380001687 0 0.0037078599451176942 -0.0021943182402936958 0 0.0038209836688698549 -0.0022004155079743252 0 0.0037929788196388453 -0.0020910703854075956 0 0.0063909894125092669 -0.0019512597454876253 0 0.0044221730438453307 -0.0019071622438626395 0 0.0039746207028047561 -0.0021972319451421273 0 0.0039501874944027991 -0.0019352401739223069 0 0.0039439165353738525 -0.0022743062648944452 0 0.0038209836688698549 -0.0022004155079743252 0 0.0038429817872832443 -0.0020904835071968433 0 0.0038209836688698549 -0.0022004155079743252 0 0.0037929788196388453 -0.0020910703854075956 0 0.0038429817872832443 -0.0020904835071968433 0 0.0032469404820270951 -0.00051994116253092568 0 0.0055041286476912301 -0.0015467940261201746 0 0.0038481770213594385 -0.0014132264862022847 0 0.003461197368444126 -0.0020352727987111665 0 0.0034209045782904123 -0.0019678497903663833 0 0.0032469404820270951 -0.00051994116253092568 0 0.0039029239288630156 -0.0018267179511654204 0 0.0029708379025873664 -0.0010182615739948277 0 0.0030432254174686591 -0.0010359748872472332 0 0.0030515098032715647 -0.0011513401473672458 0 0.0038271376818480394 -0.00048224181343519047 0 0.0045935269982729466 -0.0017613399093689775 0 0.0040946452347308147 -0.0019150957017400948 0 0.0038939355874493954 -0.0020921819039321455 0 0.004080939067957378 -0.0020856581078920909 0 0.0040035842794754924 -0.001955627382853836 0 0.0044221730438453307 -0.0019071622438626395 0 0.0039501874944027991 -0.0019352401739223069 0 0.0044221730438453307 -0.0019071622438626395 0 0.0039029239288630156 -0.0018267179511654204 0 0.0039501874944027991 -0.0019352401739223069 0 0.0039029239288630156 -0.0018267179511654204 0 0.0034843448947974582 -0.0012259573065575367 0 0.0039029239288630156 -0.0018267179511654204 0 0.0030432254174686591 -0.0010359748872472332 0 0.0031326618318712664 -0.0010389255619623324 0 0.0030515098032715647 -0.0011513401473672458 0 0.0044809784568465103 -0.0019016968968603974 0 0.0045935269982729466 -0.0017613399093689775 0 0.0040946452347308147 -0.0019150957017400948 0 0.0044221730438453307 -0.0019071622438626395 0 0.0055041286476912301 -0.0015467940261201746 0 0.0040568854118613268 -0.00017133926360824659 0 0.0042601102638598889 -0.00049408984821973422 0 0.0039564871782776815 -0.00082623442581305877 0 0.0044255488871592173 -0.0001348989486899684 0 0.0045614092189574466 -0.00081318694112356529 0 0.0042601102638598889 -0.00049408984821973422 0 0.0038082861697554052 -5.6027588036373247e-05 0 0.0040568854118613268 -0.00017133926360824659 0 0.0039564871782776815 -0.00082623442581305877 0 0.0045614092189574466 -0.00081318694112356529 0 0.0042601102638598889 -0.00049408984821973422 0 0.0039564871782776815 -0.00082623442581305877 0 0.0018551604710386796 0.0011171812939493996 0 0.0073986968483750835 -0.00034662303176748014 0 0.0040568854118613268 -0.00017133926360824659 0 0.0044255488871592173 -0.0001348989486899684 0 0.0042601102638598889 -0.00049408984821973422 0 0.0055041286476912301 -0.0015467940261201746 0 0.0073986968483750835 -0.00034662303176748014 0 0.0075777073689775329 -0.0012098692819663527 0 0.0088417148248984487 -0.0015136211321542508 0 0.0086068497214995057 3.2270033367067079e-05 0 0.0075777073689775329 -0.0012098692819663527 0 0.0076379952256905598 -0.001560535106164336 0 0.0088417148248984487 -0.0015136211321542508 0 0.0063909894125092669 -0.0019512597454876253 0 0.011996150700580202 -0.00054065453569554825 0 0.0073986968483750835 -0.00034662303176748014 0 0.011996150700580202 -0.00054065453569554825 0 0.011996150700580202 -0.00054065453569554825 0 0.014652725556700202 6.5788215807483809e-05 0 0.014302717486131889 -0.00062995761632064589 0 0.015107710063139896 -0.0015336527097303894 0 0.014592019793000092 -0.0014290464914180137 0 0.011996150700580202 -0.00054065453569554825 0 0.012657649915199938 -0.0013000487215328277 0 0.0098426151791544091 -0.0017254533491058933 0 0.0091083605874105484 -0.001100776020141338 0 0.0096928955201649441 -0.00071264149388915144 0 0.014813964114152435 2.7851107942952131e-05 0 0.014302717486131889 -0.00062995761632064589 0 0.015107710063139896 -0.0015336527097303894 0 0.007783180306806017 -0.002190904356357807 0 0.012657649915199938 -0.0013000487215328277 0 0.007783180306806017 -0.002190904356357807 0 0.011166449763334418 -0.0024009392179000408 0 0.007783180306806017 -0.002190904356357807 0 0.0064923796620035366 -0.0021433757572814709 0 0.0098426151791544091 -0.0017254533491058933 0 0.0091083605874105484 -0.001100776020141338 0 0.0092102510780016408 -0.0017245657290438218 0 0.0093066225894483569 -0.0023519209607948252 0 0.0098426151791544091 -0.0017254533491058933 0 0.0092102510780016408 -0.0017245657290438218 0 0.0038810163763190039 -0.0029446936641249143 0 0.00378895354937559 -0.0025814054352065962 0 0.0040372718186768566 -0.0025728316308539561 0 0.0039439165353738525 -0.0022743062648944452 0 0.00378895354937559 -0.0025814054352065962 0 0.0040372718186768566 -0.0025728316308539561 0 0.0038810163763190039 -0.0029446936641249143 0 0.0040372718186768566 -0.0025728316308539561 0 0.0043607807733383897 -0.0026556314102678595 0 0.0042227619140664122 -0.002372788028095138 0 0.0040372718186768566 -0.0025728316308539561 0 0.0043607807733383897 -0.0026556314102678595 0 0.0091470614741975924 -0.0020634985011017313 0 0.0091428448848947397 -0.0021802347899237788 0 0.0089192785470426517 -0.0022661969126271339 0 0.0079894839479876939 -0.0023722839212325306 0 0.0081649076235455701 -0.002328897701574691 0 0.0081455196952498494 -0.0022129301747014023 0 0.0079894839479876939 -0.0023722839212325306 0 0.0081649076235455701 -0.002328897701574691 0 0.0080222054866828426 -0.0024684724016981988 0 0.0081468326547799695 -0.002314558619641307 0 0.011166449763334418 -0.0024009392179000408 0 0.007783180306806017 -0.002190904356357807 0 0.0058825755495778799 -0.0025886527721360473 0 0.0091470614741975924 -0.0020634985011017313 0 0.0091428448848947397 -0.0021802347899237788 0 0.0092055434252037247 -0.0020904029253332899 0 0.0091428448848947397 -0.0021802347899237788 0 0.0092055434252037247 -0.0020904029253332899 0 0.0092391706642496949 -0.0021910654916953713 0 0.0091470614741975924 -0.0020634985011017313 0 0.0092055434252037247 -0.0020904029253332899 0 0.0092079259216220014 -0.002017657965787218 0 0.0081649076235455701 -0.002328897701574691 0 0.0081455196952498494 -0.0022129301747014023 0 0.0084901825303955718 -0.0020760417920496913 0 0.0058825755495778799 -0.0025886527721360473 0 0.0068956696161093199 -0.0020982416372451311 0 0.0081468326547799695 -0.002314558619641307 0 0.0089625503025276068 -0.0019363601247217625 0 0.0091470614741975924 -0.0020634985011017313 0 0.0092195681271305171 -0.0019302165548994625 0 0.0092079259216220014 -0.002017657965787218 0 0.0045187012184522875 -0.0024204328458940017 0 0.0042227619140664122 -0.002372788028095138 0 0.0043607807733383897 -0.0026556314102678595 0 0.011887220882446316 0.0012527441780679281 0 0.012951928690514187 0.00046428597412602652 0 0.012097365221661764 0.00022651512611671456 0 0.0058938868463427252 0.0011645870557005047 0 0.0074434080130005402 0.001299562865845659 0 0.011887220882446316 0.0012527441780679281 0 0.012097365221661764 0.00022651512611671456 0 0.01103393182852763 0.00020469909067024445 0 0.0075955948968945983 0.001752431396980385 0 0.0058938868463427252 0.0011645870557005047 0 0.010463316739819551 0.0012287494986829336 0 0.011887220882446316 0.0012527441780679281 0 0.01103393182852763 0.00020469909067024445 0 0.00071738153259402878 0.0013840621196788358 0 0.00074187405669054354 0.0013230595966858714 0 0.00078347394071761624 0.0013555898023905029 0 0.00076308755422202208 0.0012968241492479487 0 0.00079733835587498083 0.0012195757584113726 0 0.00074187405669054354 0.0013230595966858714 0 0.00079733835587498083 0.0012195757584113726 0 0.00074187405669054354 0.0013230595966858714 0 0.00078347394071761624 0.0013555898023905029 0 0.00079733835587498083 0.0012195757584113726 0 0.00078347394071761624 0.0013555898023905029 0 0.0010971254481319276 0.0010701430071022192 0 0.00078347394071761624 0.0013555898023905029 0 0.0010376351069870734 0.0013217498454058576 0 0.0010971254481319276 0.0010701430071022192 0 0.00087477745641239809 0.0014322692301090188 0 0.00078347394071761624 0.0013555898023905029 0 0.0010376351069870734 0.0013217498454058576 0 0.0010376351069870734 0.0013217498454058576 0 0.0014337067840901818 0.0012297778196501542 0 0.0010971254481319276 0.0010701430071022192 0 0.001862288304929521 0.00097392384489601515 0 0.0014337067840901818 0.0012297778196501542 0 0.0010971254481319276 0.0010701430071022192 0 0.0017305612145681103 0.0016772519300039821 0 0.001862288304929521 0.00097392384489601515 0 0.0014337067840901818 0.0012297778196501542 0 0.0017305612145681103 0.0016772519300039821 0 0.0010376351069870734 0.0013217498454058576 0 0.0014337067840901818 0.0012297778196501542 0 0.0073986968483750835 -0.00034662303176748014 0 0.0074434080130005402 0.001299562865845659 0 0.014531917829657445 0.0012480669183705774 0 0.013247942302235236 0.0012389574804771183 0 0.013885918484320444 0.00036274484533540126 0 0.014531917829657445 0.0012480669183705774 0 0.014783998508545811 5.4007359517628531e-05 0 0.013885918484320444 0.00036274484533540126 0 0.013247942302235236 0.0012389574804771183 0 0.012951928690514187 0.00046428597412602652 0 0.013885918484320444 0.00036274484533540126 0 0.011887220882446316 0.0012527441780679281 0 0.013247942302235236 0.0012389574804771183 0 0.012951928690514187 0.00046428597412602652 0 0.012951928690514187 0.00046428597412602652 0 0.013437028323677989 -0.00023211621201325093 0 0.013885918484320444 0.00036274484533540126 0 0.012951928690514187 0.00046428597412602652 0 0.013437028323677989 -0.00023211621201325093 0 0.012778351969769761 -0.00035187434249018743 0 0.013437028323677989 -0.00023211621201325093 0 0.013885918484320444 0.00036274484533540126 0 0.014302717486131889 -0.00062995761632064589 0 0.014783998508545811 5.4007359517628531e-05 0 0.013885918484320444 0.00036274484533540126 0 0.014302717486131889 -0.00062995761632064589 0 0.013437028323677989 -0.00023211621201325093 0 0.014302717486131889 -0.00062995761632064589 0 0.013542542027034079 -0.00094709920816775015 0 0.014302717486131889 -0.00062995761632064589 0 0.013542542027034079 -0.00094709920816775015 0 0.014133390378467432 -0.0013616553029389207 0 0.014302717486131889 -0.00062995761632064589 0 0.014133390378467432 -0.0013616553029389207 0 0.014592019793000092 -0.0014290464914180137 0 0.012778351969769761 -0.00035187434249018743 0 0.013542542027034079 -0.00094709920816775015 0 0.012708133757725877 -0.0014457095480531789 0 0.013437028323677989 -0.00023211621201325093 0 0.012778351969769761 -0.00035187434249018743 0 0.013542542027034079 -0.00094709920816775015 0 0.012778351969769761 -0.00035187434249018743 0 0.011805416832241976 -0.00043540908896609837 0 0.012708133757725877 -0.0014457095480531789 0 0.011805416832241976 -0.00043540908896609837 0 0.011619033991969724 -0.0013351067858815701 0 0.012708133757725877 -0.0014457095480531789 0 0.012778351969769761 -0.00035187434249018743 0 0.012097365221661764 0.00022651512611671456 0 0.011805416832241976 -0.00043540908896609837 0 0.012951928690514187 0.00046428597412602652 0 0.012778351969769761 -0.00035187434249018743 0 0.012097365221661764 0.00022651512611671456 0 0.012097365221661764 0.00022651512611671456 0 0.011805416832241976 -0.00043540908896609837 0 0.01103393182852763 0.00020469909067024445 0 0.010562448007815906 -0.00093387062905313158 0 0.011805416832241976 -0.00043540908896609837 0 0.01103393182852763 0.00020469909067024445 0 0.010562448007815906 -0.00093387062905313158 0 0.011805416832241976 -0.00043540908896609837 0 0.011619033991969724 -0.0013351067858815701 0 0.010562448007815906 -0.00093387062905313158 0 0.011619033991969724 -0.0013351067858815701 0 0.011052996043503861 -0.0023121463519181606 0 0.011619033991969724 -0.0013351067858815701 0 0.011052996043503861 -0.0023121463519181606 0 0.012658332441406543 -0.002529726098256677 0 0.011052996043503861 -0.0023121463519181606 0 0.012658332441406543 -0.002529726098256677 0 0.011545633924822437 -0.0036531262041870367 0 0.013069971953136668 -0.0022160445145979605 0 0.010636639653275886 -0.0042725442122196677 0 0.011619033991969724 -0.0013351067858815701 0 0.012658332441406543 -0.002529726098256677 0 0.012708133757725877 -0.0014457095480531789 0 0.012658332441406543 -0.002529726098256677 0 0.012708133757725877 -0.0014457095480531789 0 0.013688218183341835 -0.0018795916119712503 0 0.013542542027034079 -0.00094709920816775015 0 0.012708133757725877 -0.0014457095480531789 0 0.013688218183341835 -0.0018795916119712503 0 0.013542542027034079 -0.00094709920816775015 0 0.013688218183341835 -0.0018795916119712503 0 0.014133390378467432 -0.0013616553029389207 0 0.014133390378467432 -0.0013616553029389207 0 0.014446820304992881 -0.0018049381876318251 0 0.014592019793000092 -0.0014290464914180137 0 0.013688218183341835 -0.0018795916119712503 0 0.014133390378467432 -0.0013616553029389207 0 0.014446820304992881 -0.0018049381876318251 0 0.013688218183341835 -0.0018795916119712503 0 0.014446820304992881 -0.0018049381876318251 0 0.014416905543550599 -0.0023112540324824334 0 0.013688218183341835 -0.0018795916119712503 0 0.014416905543550599 -0.0023112540324824334 0 0.013616786601949139 -0.0027037399055764655 0 0.014416905543550599 -0.0023112540324824334 0 0.013616786601949139 -0.0027037399055764655 0 0.014242334033445093 -0.0033054523768430051 0 0.012658332441406543 -0.002529726098256677 0 0.013616786601949139 -0.0027037399055764655 0 0.013135985932246051 -0.0036719787492414547 0 0.012658332441406543 -0.002529726098256677 0 0.013688218183341835 -0.0018795916119712503 0 0.013616786601949139 -0.0027037399055764655 0 0.013616786601949139 -0.0027037399055764655 0 0.013135985932246051 -0.0036719787492414547 0 0.014242334033445093 -0.0033054523768430051 0 0.013135985932246051 -0.0036719787492414547 0 0.014242334033445093 -0.0033054523768430051 0 0.014634155168996845 -0.0043322595713925728 0 0.013135985932246051 -0.0036719787492414547 0 0.014634155168996845 -0.0043322595713925728 0 0.013729454568116301 -0.005062011713193715 0 0.013135985932246051 -0.0036719787492414547 0 0.012575986831092182 -0.0045060693163440435 0 0.013729454568116301 -0.005062011713193715 0 0.013135985932246051 -0.0036719787492414547 0 0.012185795162868968 -0.0033251734668714979 0 0.012575986831092182 -0.0045060693163440435 0 0.022555561650439041 -0.0019005839814111808 0 0.018350896972688508 -0.0022004803862661687 0 0.012185795162868968 -0.0033251734668714979 0 0.012575986831092182 -0.0045060693163440435 0 0.011618989897076928 -0.0040489173395332123 0 0.031154450809018481 0.00068242831389848252 0 0.031391214669288063 0.00076601809591585939 0 0.030862698578207677 0.00097929938314797525 0 0.010636639653275886 -0.0042725442122196677 0 0.018350896972688508 -0.0022004803862661687 0 0.012658332441406543 -0.002529726098256677 0 0.013135985932246051 -0.0036719787492414547 0 0.012185795162868968 -0.0033251734668714979 0 0.0092387871106086907 -0.0025441415667231382 0 0.009161694195343191 -0.0023151885586780675 0 0.0090715624113251458 -0.002442034187147708 0 0.0092387871106086907 -0.0025441415667231382 0 0.009161694195343191 -0.0023151885586780675 0 0.0093781039950177284 -0.0023442857893822616 0 0.0092391706642496949 -0.0021910654916953713 0 0.009161694195343191 -0.0023151885586780675 0 0.0093781039950177284 -0.0023442857893822616 0 0.0091428448848947397 -0.0021802347899237788 0 0.0092391706642496949 -0.0021910654916953713 0 0.009161694195343191 -0.0023151885586780675 0 0.0091428448848947397 -0.0021802347899237788 0 0.009161694195343191 -0.0023151885586780675 0 0.0089192785470426517 -0.0022661969126271339 0 0.009161694195343191 -0.0023151885586780675 0 0.0090715624113251458 -0.002442034187147708 0 0.0089192785470426517 -0.0022661969126271339 0 0.0090715624113251458 -0.002442034187147708 0 0.0089192785470426517 -0.0022661969126271339 0 0.0089733196324322771 -0.0026582356603735576 0 0.0092387871106086907 -0.0025441415667231382 0 0.0090715624113251458 -0.002442034187147708 0 0.0089733196324322771 -0.0026582356603735576 0 0.011166449763334418 -0.0024009392179000408 0 0.013043882871723646 -0.0025211513024839378 0 0.016455630964347639 -0.0020181302918795023 0 0.016230819057294069 -0.0022408281033345981 0 0.016620391375038457 -0.0024872281431151705 0 0.010887919226291827 -0.0018407197204470536 0 0.012351073035740743 -0.0020593639322188991 0 0.012148704380725033 -0.00076583045612271697 0 0.011071801362211768 -0.0029257284895524939 0 0.010887919226291827 -0.0018407197204470536 0 0.012351073035740743 -0.0020593639322188991 0 0.011166449763334418 -0.0024009392179000408 0 0.014828001074055245 -0.0018556704228807239 0 0.012657649915199938 -0.0013000487215328277 0 0.014828001074055245 -0.0018556704228807239 0 0.01509214394059114 -0.0015467872091549627 0 0.014850692621303735 -0.0020419667282040757 0 0.015210727033672515 -0.0023548820953098429 0 0.01509214394059114 -0.0015467872091549627 0 0.014937942078366183 -0.0016533292067290458 0 0.014850692621303735 -0.0020419667282040757 0 0.012657649915199938 -0.0013000487215328277 0 0.013361333484011265 -0.0010630031090457027 0 0.015107710063139896 -0.0015336527097303894 0 0.014592019793000092 -0.0014290464914180137 0 0.014937942078366183 -0.0016533292067290458 0 0.014446820304992881 -0.0018049381876318251 0 0.014592019793000092 -0.0014290464914180137 0 0.014937942078366183 -0.0016533292067290458 0 0.014446820304992881 -0.0018049381876318251 0 0.014416905543550599 -0.0023112540324824334 0 0.014850692621303735 -0.0020419667282040757 0 0.014446820304992881 -0.0018049381876318251 0 0.014937942078366183 -0.0016533292067290458 0 0.014850692621303735 -0.0020419667282040757 0 0.014416905543550599 -0.0023112540324824334 0 0.014850692621303735 -0.0020419667282040757 0 0.015210727033672515 -0.0023548820953098429 0 0.014828001074055245 -0.0018556704228807239 0 0.016257856061096643 -0.003136014953411414 0 0.014416905543550599 -0.0023112540324824334 0 0.014242334033445093 -0.0033054523768430051 0 0.015210727033672515 -0.0023548820953098429 0 0.014450451108443989 -0.003355223564829262 0 0.014828001074055245 -0.0018556704228807239 0 0.014242334033445093 -0.0033054523768430051 0 0.014634155168996845 -0.0043322595713925728 0 0.015765654809807184 -0.0035398630195333019 0 0.014242334033445093 -0.0033054523768430051 0 0.01552311406695382 -0.0021513897006876495 0 0.015765654809807184 -0.0035398630195333019 0 0.014634155168996845 -0.0043322595713925728 0 0.015765654809807184 -0.0035398630195333019 0 0.016056205576416318 -0.00481567792340536 0 0.016257856061096643 -0.003136014953411414 0 0.015479311402558671 -0.0043163573797049106 0 0.016564046984486318 -0.0028707496146053437 0 0.016353552452889736 -0.0026752020864382496 0 0.016506406334189202 -0.0031369815720697558 0 0.016564046984486318 -0.0028707496146053437 0 0.016837131093791056 -0.0030183260187809577 0 0.016506406334189202 -0.0031369815720697558 0 0.016230819057294069 -0.0022408281033345981 0 0.016353552452889736 -0.0026752020864382496 0 0.016620391375038457 -0.0024872281431151705 0 0.016564046984486318 -0.0028707496146053437 0 0.016353552452889736 -0.0026752020864382496 0 0.016620391375038457 -0.0024872281431151705 0 0.0092387871106086907 -0.0025441415667231382 0 0.0089733196324322771 -0.0026582356603735576 0 0.0092333127526890296 -0.0028615333847290948 0 0.0089733196324322771 -0.0026582356603735576 0 0.0090897349254321236 -0.0031894726272640134 0 0.0092333127526890296 -0.0028615333847290948 0 0.016564046984486318 -0.0028707496146053437 0 0.016620391375038457 -0.0024872281431151705 0 0.016837131093791056 -0.0030183260187809577 0 0.013043882871723646 -0.0025211513024839378 0 0.012615204409894356 -0.0032565693687716035 0 0.0090897349254321236 -0.0031894726272640134 0 0.0094406971067570091 -0.003403721942299967 0 0.0095751502758400307 -0.0030093409426146379 0 0.0090897349254321236 -0.0031894726272640134 0 0.0092333127526890296 -0.0028615333847290948 0 0.0095751502758400307 -0.0030093409426146379 0 0.009259418967352509 -0.0025717145690639371 0 0.0094906821250813015 -0.0029804501828927486 0 0.0092387871106086907 -0.0025441415667231382 0 0.0092333127526890296 -0.0028615333847290948 0 0.0095751502758400307 -0.0030093409426146379 0 0.0094406971067570091 -0.003403721942299967 0 0.0092453945705473304 -0.0037055901160808801 0 0.0096355909667064001 -0.0039240100408360675 0 0.016837131093791056 -0.0030183260187809577 0 0.016760502586764113 -0.0032757527479238412 0 0.016898572657725298 -0.0034727585345346182 0 0.0090897349254321236 -0.0031894726272640134 0 0.0094406971067570091 -0.003403721942299967 0 0.0092453945705473304 -0.0037055901160808801 0 0.012615204409894356 -0.0032565693687716035 0 0.015617723043493875 -0.0027812465222154083 0 0.016837131093791056 -0.0030183260187809577 0 0.016898572657725298 -0.0034727585345346182 0 0.01702659712771484 -0.0035366940335984859 0 0.016760502586764113 -0.0032757527479238412 0 0.016898572657725298 -0.0034727585345346182 0 0.017020373575932089 -0.0037072934189202387 0 0.016760502586764113 -0.0032757527479238412 0 0.016688028459139182 -0.0037535379247336472 0 0.017165566375829635 -0.0039249426440196326 0 0.015368054380762941 -0.0033898117367950993 0 0.023126407844534409 -0.0025909924445820108 0 0.016844593360142931 -0.0034265155825796128 0 0.015617723043493875 -0.0027812465222154083 0 0.016898572657725298 -0.0034727585345346182 0 0.017056089330624396 -0.0035280551321959387 0 0.017020373575932089 -0.0037072934189202387 0 0.016381178544125949 -0.0061128385806489965 0 0.016056205576416318 -0.00481567792340536 0 0.015024919637257612 -0.0056091364283571967 0 0.024378108977653631 -0.002581285181302614 0 0.015479311402558671 -0.0043163573797049106 0 0.016760502586764113 -0.0032757527479238412 0 0.016688028459139182 -0.0037535379247336472 0 0.016506406334189202 -0.0031369815720697558 0 0.016837131093791056 -0.0030183260187809577 0 0.016760502586764113 -0.0032757527479238412 0 0.016506406334189202 -0.0031369815720697558 0 0.014634155168996845 -0.0043322595713925728 0 0.016056205576416318 -0.00481567792340536 0 0.015024919637257612 -0.0056091364283571967 0 0.024378108977653631 -0.002581285181302614 0 0.023704240297721065 -0.0027064029554424223 0 0.032611460025149468 0.00012549639206018483 0 0.032263504300672104 0.00031295811721953855 0 0.032291183765738793 5.8854191397731068e-05 0 0.032611460025149468 0.00012549639206018483 0 0.032291183765738793 5.8854191397731068e-05 0 0.0324574476548605 -0.00012898803566524346 0 0.032291183765738793 5.8854191397731068e-05 0 0.0324574476548605 -0.00012898803566524346 0 0.03223667388844477 -0.00016647032058818959 0 0.0324574476548605 -0.00012898803566524346 0 0.032541038057039534 -0.00033226157762045747 0 0.032408175804352519 -0.00037264292480195378 0 0.0324574476548605 -0.00012898803566524346 0 0.03223667388844477 -0.00016647032058818959 0 0.032408175804352519 -0.00037264292480195378 0 0.0324574476548605 -0.00012898803566524346 0 0.032541038057039534 -0.00033226157762045747 0 0.032722603430111026 -0.00026854763950117457 0 0.032611460025149468 0.00012549639206018483 0 0.0324574476548605 -0.00012898803566524346 0 0.032722603430111026 -0.00026854763950117457 0 0.024378108977653631 -0.002581285181302614 0 0.033262808254211677 -8.9434483573804614e-05 0 0.025937050679344317 -0.0014874793386877487 0 0.025640385673467107 -0.0013756531070550004 0 0.026222603682367819 -0.0026539829084699855 0 0.031787511829797985 -0.00045553903310562705 0 0.031972524946176126 -0.00072716347380727094 0 0.031998387340356663 -0.00051980154619552909 0 0.024378108977653631 -0.002581285181302614 0 0.023126407844534409 -0.0025909924445820108 0 0.017056089330624396 -0.0035280551321959387 0 0.017130863625852578 -0.0037450937285418719 0 0.017020373575932089 -0.0037072934189202387 0 0.015617723043493875 -0.0027812465222154083 0 0.022990793239059431 -0.0022899669725007289 0 0.022990793239059431 -0.0022899669725007289 0 0.023126407844534409 -0.0025909924445820108 0 0.023126407844534409 -0.0025909924445820108 0 0.029773819984695405 -0.0015611271796783593 0 0.031972524946176126 -0.00072716347380727094 0 0.031998387340356663 -0.00051980154619552909 0 0.032179616399498824 -0.0007547790286089387 0 0.022990793239059431 -0.0022899669725007289 0 0.029773819984695405 -0.0015611271796783593 0 0.029140861532637306 -0.0013958950083400483 0 0.029246520441742373 -0.0015811442478028675 0 0.029382507520250314 -0.0014885183401896593 0 0.022990793239059431 -0.0022899669725007289 0 0.024580127479294625 -0.0022056372887164868 0 0.015617723043493875 -0.0027812465222154083 0 0.014120683956992229 -0.0032516638631228147 0 0.01871267846799431 -0.0023573452563219982 0 0.018783404534988949 -0.0026492338420853437 0 0.019303849095447276 -0.0026631358831972034 0 0.018783404534988949 -0.0026492338420853437 0 0.019303849095447276 -0.0026631358831972034 0 0.019357087777019874 -0.0028819953622224782 0 0.031660582640321289 0.00038984180327980507 0 0.031375322559419619 0.00040641850350755176 0 0.031620141743569766 0.00015810561635323949 0 0.031375322559419619 0.00040641850350755176 0 0.031353823278021005 7.9949371292092398e-05 0 0.031039420835393166 0.00035048398280670268 0 0.031375322559419619 0.00040641850350755176 0 0.031154450809018481 0.00068242831389848252 0 0.031039420835393166 0.00035048398280670268 0 0.031375322559419619 0.00040641850350755176 0 0.031154450809018481 0.00068242831389848252 0 0.031391214669288063 0.00076601809591585939 0 0.022555561650439041 -0.0019005839814111808 0 0.02267091642790257 -0.0022272561146521827 0 0.031660582640321289 0.00038984180327980507 0 0.031375322559419619 0.00040641850350755176 0 0.031391214669288063 0.00076601809591585939 0 0.031660582640321289 0.00038984180327980507 0 0.031391214669288063 0.00076601809591585939 0 0.031861537866274055 0.00054001842605441719 0 0.023704240297721065 -0.0027064029554424223 0 0.02267091642790257 -0.0022272561146521827 0 0.014634155168996845 -0.0043322595713925728 0 0.015024919637257612 -0.0056091364283571967 0 0.013729454568116301 -0.005062011713193715 0 0.032263504300672104 0.00031295811721953855 0 0.031861537866274055 0.00054001842605441719 0 0.032006370916099106 0.00011152930170290652 0 0.032263504300672104 0.00031295811721953855 0 0.032291183765738793 5.8854191397731068e-05 0 0.032006370916099106 0.00011152930170290652 0 0.031660582640321289 0.00038984180327980507 0 0.031861537866274055 0.00054001842605441719 0 0.032006370916099106 0.00011152930170290652 0 0.031660582640321289 0.00038984180327980507 0 0.032006370916099106 0.00011152930170290652 0 0.031620141743569766 0.00015810561635323949 0 0.032291183765738793 5.8854191397731068e-05 0 0.032006370916099106 0.00011152930170290652 0 0.03223667388844477 -0.00016647032058818959 0 0.03223667388844477 -0.00016647032058818959 0 0.032025508296221146 -0.00023873912401865455 0 0.032235832699932625 -0.00041512210220484119 0 0.03223667388844477 -0.00016647032058818959 0 0.032235832699932625 -0.00041512210220484119 0 0.032408175804352519 -0.00037264292480195378 0 0.032006370916099106 0.00011152930170290652 0 0.03223667388844477 -0.00016647032058818959 0 0.032025508296221146 -0.00023873912401865455 0 0.032006370916099106 0.00011152930170290652 0 0.032025508296221146 -0.00023873912401865455 0 0.03172691397444391 -0.00013140943112542863 0 0.03172691397444391 -0.00013140943112542863 0 0.031485247792858218 -0.00027203398697312137 0 0.031837179082920261 -0.0003704576999303791 0 0.032025508296221146 -0.00023873912401865455 0 0.03172691397444391 -0.00013140943112542863 0 0.031837179082920261 -0.0003704576999303791 0 0.03172691397444391 -0.00013140943112542863 0 0.031620141743569766 0.00015810561635323949 0 0.031353823278021005 7.9949371292092398e-05 0 0.032006370916099106 0.00011152930170290652 0 0.03172691397444391 -0.00013140943112542863 0 0.031620141743569766 0.00015810561635323949 0 0.031375322559419619 0.00040641850350755176 0 0.031620141743569766 0.00015810561635323949 0 0.031353823278021005 7.9949371292092398e-05 0 0.031353823278021005 7.9949371292092398e-05 0 0.031485247792858218 -0.00027203398697312137 0 0.030987978810638899 -4.2899569826336287e-05 0 0.03172691397444391 -0.00013140943112542863 0 0.031353823278021005 7.9949371292092398e-05 0 0.031485247792858218 -0.00027203398697312137 0 0.031485247792858218 -0.00027203398697312137 0 0.031103531225255616 -0.00032428917693465596 0 0.030987978810638899 -4.2899569826336287e-05 0 0.030987978810638899 -4.2899569826336287e-05 0 0.030692185769551336 5.5551275053269654e-06 0 0.030603095715959278 -0.00035085031951415823 0 0.031103531225255616 -0.00032428917693465596 0 0.030987978810638899 -4.2899569826336287e-05 0 0.030603095715959278 -0.00035085031951415823 0 0.030692185769551336 5.5551275053269654e-06 0 0.030743774642195298 0.00023599871417026621 0 0.030434439459246398 0.00016634122399128334 0 0.030987978810638899 -4.2899569826336287e-05 0 0.030692185769551336 5.5551275053269654e-06 0 0.030743774642195298 0.00023599871417026621 0 0.030987978810638899 -4.2899569826336287e-05 0 0.030743774642195298 0.00023599871417026621 0 0.031039420835393166 0.00035048398280670268 0 0.031353823278021005 7.9949371292092398e-05 0 0.030987978810638899 -4.2899569826336287e-05 0 0.031039420835393166 0.00035048398280670268 0 0.030743774642195298 0.00023599871417026621 0 0.031039420835393166 0.00035048398280670268 0 0.030766511508758761 0.00045575710107834453 0 0.031039420835393166 0.00035048398280670268 0 0.030766511508758761 0.00045575710107834453 0 0.030916522215817671 0.00056339931543261397 0 0.030743774642195298 0.00023599871417026621 0 0.030540016637594855 0.00038433218694426143 0 0.030434439459246398 0.00016634122399128334 0 0.030743774642195298 0.00023599871417026621 0 0.030766511508758761 0.00045575710107834453 0 0.030540016637594855 0.00038433218694426143 0 0.030589707641313243 0.00058249450372150984 0 0.030484117490524345 0.00057143252023311893 0 0.030540016637594855 0.00038433218694426143 0 0.030766511508758761 0.00045575710107834453 0 0.030589707641313243 0.00058249450372150984 0 0.030540016637594855 0.00038433218694426143 0 0.030770415069805473 0.00061495659576848603 0 0.030589707641313243 0.00058249450372150984 0 0.03079014131810668 0.00077250193755177773 0 0.030766511508758761 0.00045575710107834453 0 0.030770415069805473 0.00061495659576848603 0 0.030589707641313243 0.00058249450372150984 0 0.030589707641313243 0.00058249450372150984 0 0.030526809745496958 0.00066571347690543589 0 0.030484117490524345 0.00057143252023311893 0 0.020224409768109387 -7.8273336646732098e-05 0 0.020677922714491325 4.9378787170448948e-05 0 0.020384596768805545 0.00021316814619653119 0 0.030589707641313243 0.00058249450372150984 0 0.030526809745496958 0.00066571347690543589 0 0.030622901836780236 0.00068379060056560374 0 0.030919060343350645 0.0010610508124407911 0 0.028103149685057366 0.00075070897940940058 0 0.024841447471542558 0.00016542041614538299 0 0.028103149685057366 0.00075070897940940058 0 0.030770415069805473 0.00061495659576848603 0 0.030883896058582688 0.00071066020129699232 0 0.03079014131810668 0.00077250193755177773 0 0.030883896058582688 0.00071066020129699232 0 0.03079014131810668 0.00077250193755177773 0 0.030887904538787231 0.00082071630889690933 0 0.031154450809018481 0.00068242831389848252 0 0.031039420835393166 0.00035048398280670268 0 0.030916522215817671 0.00056339931543261397 0 0.031154450809018481 0.00068242831389848252 0 0.030883896058582688 0.00071066020129699232 0 0.030887904538787231 0.00082071630889690933 0 0.031154450809018481 0.00068242831389848252 0 0.030883896058582688 0.00071066020129699232 0 0.030916522215817671 0.00056339931543261397 0 0.030766511508758761 0.00045575710107834453 0 0.030770415069805473 0.00061495659576848603 0 0.030916522215817671 0.00056339931543261397 0 0.030770415069805473 0.00061495659576848603 0 0.030883896058582688 0.00071066020129699232 0 0.030916522215817671 0.00056339931543261397 0 0.021687129735221463 0.0023392518094142037 0 0.020734354105922993 0.0020499761260869736 0 0.021462818917092879 0.0011111649135973972 0 0.025545854688534254 0.0028116254487043357 0 0.019645321735032781 0.0013256991278315056 0 0.025916360166065338 0.0015239789591221374 0 0.020231395950825039 0.00078214264614681205 0 0.025545854688534254 0.0028116254487043357 0 0.025916360166065338 0.0015239789591221374 0 0.024841447471542558 0.00016542041614538299 0 0.025916360166065338 0.0015239789591221374 0 0.020224409768109387 -7.8273336646732098e-05 0 0.01978671748676384 -0.00020811618690692613 0 0.019992632859853563 0.00016478238825934065 0 0.030526809745496958 0.00066571347690543589 0 0.030484117490524345 0.00057143252023311893 0 0.030269993786801778 0.00063335694251028223 0 0.025916360166065338 0.0015239789591221374 0 0.031653256692599586 0.0016318988723723886 0 0.030269993786801778 0.00063335694251028223 0 0.030540016637594855 0.00038433218694426143 0 0.030434439459246398 0.00016634122399128334 0 0.031493264310868886 0.0036761528275849375 0 0.031355292945932055 0.0032295438788578091 0 0.031745327427696465 0.0029943467859951064 0 0.030484117490524345 0.00057143252023311893 0 0.030269993786801778 0.00063335694251028223 0 0.030540016637594855 0.00038433218694426143 0 0.031090464340868665 0.003556243729515054 0 0.031355292945932055 0.0032295438788578091 0 0.0310182788678755 0.0029947663844274459 0 0.031090464340868665 0.003556243729515054 0 0.031493264310868886 0.0036761528275849375 0 0.031355292945932055 0.0032295438788578091 0 0.031355292945932055 0.0032295438788578091 0 0.031745327427696465 0.0029943467859951064 0 0.031396614380434153 0.0027106386386232376 0 0.031355292945932055 0.0032295438788578091 0 0.031396614380434153 0.0027106386386232376 0 0.0310182788678755 0.0029947663844274459 0 0.031396614380434153 0.0027106386386232376 0 0.030952915340105271 0.0025497812779558624 0 0.0310182788678755 0.0029947663844274459 0 0.031653256692599586 0.0016318988723723886 0 0.031795188014145735 0.00094673728630780322 0 0.031745327427696465 0.0029943467859951064 0 0.031396614380434153 0.0027106386386232376 0 0.031915813708038698 0.002339215294112526 0 0.030692185769551336 5.5551275053269654e-06 0 0.030434439459246398 0.00016634122399128334 0 0.030603095715959278 -0.00035085031951415823 0 0.031487135604277308 0.0030554192050118818 0 0.031795188014145735 0.00094673728630780322 0 0.031396614380434153 0.0027106386386232376 0 0.031639567782721437 0.002077178887650626 0 0.032464470316527723 0.0021712032816895124 0 0.030952915340105271 0.0025497812779558624 0 0.031003594157162997 0.0020023991575650372 0 0.031639567782721437 0.002077178887650626 0 0.031396614380434153 0.0027106386386232376 0 0.030952915340105271 0.0025497812779558624 0 0.031639567782721437 0.002077178887650626 0 0.030935899724526403 0.0026587914442296272 0 0.030986255253228175 0.0022597214070419766 0 0.030952915340105271 0.0025497812779558624 0 0.030373065555475857 0.0026058871949591767 0 0.031003594157162997 0.0020023991575650372 0 0.030952915340105271 0.0025497812779558624 0 0.030373065555475857 0.0026058871949591767 0 0.030706095438263692 0.0028263498312813703 0 0.030443623801045799 0.0032870968660581954 0 0.030098122510587754 0.0024527404251859495 0 0.031142824904202789 0.0023540059273741989 0 0.030443623801045799 0.0032870968660581954 0 0.029410490770181669 0.0030261789583193341 0 0.030098122510587754 0.0024527404251859495 0 0.030935899724526403 0.0026587914442296272 0 0.025282967573694196 0.0038351575808315591 0 0.030373065555475857 0.0026058871949591767 0 0.030130700215536491 0.0032273438538880286 0 0.030460071647135756 0.003174166964224004 0 0.030373065555475857 0.0026058871949591767 0 0.030130700215536491 0.0032273438538880286 0 0.029712273511577379 0.0032958704652248242 0 0.030443623801045799 0.0032870968660581954 0 0.029410490770181669 0.0030261789583193341 0 0.029710436560561382 0.0042046688945546161 0 0.030130700215536491 0.0032273438538880286 0 0.030460071647135756 0.003174166964224004 0 0.030237901624294385 0.0034787571592711556 0 0.030460071647135756 0.003174166964224004 0 0.0310182788678755 0.0029947663844274459 0 0.030644144865206936 0.0034956561451548983 0 0.030952915340105271 0.0025497812779558624 0 0.0310182788678755 0.0029947663844274459 0 0.030706095438263692 0.0028263498312813703 0 0.030373065555475857 0.0026058871949591767 0 0.030460071647135756 0.003174166964224004 0 0.030706095438263692 0.0028263498312813703 0 0.030460071647135756 0.003174166964224004 0 0.0310182788678755 0.0029947663844274459 0 0.030706095438263692 0.0028263498312813703 0 0.022069731805338184 0.0047880669232487376 0 0.022989184918178918 0.0044744667566151263 0 0.022487780318317115 0.0050780693790443412 0 0.022069731805338184 0.0047880669232487376 0 0.022326396077688413 0.0041687747684784797 0 0.022989184918178918 0.0044744667566151263 0 0.022069731805338184 0.0047880669232487376 0 0.021958656773851802 0.0044324036932169861 0 0.021704181845245727 0.0045705363538406357 0 0.022069731805338184 0.0047880669232487376 0 0.021958656773851802 0.0044324036932169861 0 0.022326396077688413 0.0041687747684784797 0 0.021958656773851802 0.0044324036932169861 0 0.022326396077688413 0.0041687747684784797 0 0.021733227385812764 0.0042004899168567259 0 0.022766230152014389 0.0052922643010166479 0 0.021870520729673833 0.0054305714996013199 0 0.023026759075027228 0.0057444166192128178 0 0.026348017602495825 0.0039825702426871555 0 0.025282967573694196 0.0038351575808315591 0 0.022989184918178918 0.0044744667566151263 0 0.02323958550068124 0.0054769939626476017 0 0.022766230152014389 0.0052922643010166479 0 0.022989184918178918 0.0044744667566151263 0 0.022766230152014389 0.0052922643010166479 0 0.022487780318317115 0.0050780693790443412 0 0.02323958550068124 0.0054769939626476017 0 0.022766230152014389 0.0052922643010166479 0 0.023026759075027228 0.0057444166192128178 0 0.022766230152014389 0.0052922643010166479 0 0.022487780318317115 0.0050780693790443412 0 0.021870520729673833 0.0054305714996013199 0 0.022069731805338184 0.0047880669232487376 0 0.022487780318317115 0.0050780693790443412 0 0.021870520729673833 0.0054305714996013199 0 0.018680308365782473 0.0044456124382380204 0 0.019522442479061305 0.0034278753938502319 0 0.015472401003635108 0.0031905708096298586 0 0.015577790763633045 0.0032478714074495986 0 0.015771030406441209 0.0032190710366969675 0 0.015497145980080613 0.0032670636639683514 0 0.015577790763633045 0.0032478714074495986 0 0.015534771822449592 0.0033576974135024447 0 0.015497145980080613 0.0032670636639683514 0 0.015534771822449592 0.0033576974135024447 0 0.015418971200283465 0.0033250408862863577 0 0.015472401003635108 0.0031905708096298586 0 0.015497650728454365 0.0032252320783572419 0 0.015577790763633045 0.0032478714074495986 0 0.015497145980080613 0.0032670636639683514 0 0.015497650728454365 0.0032252320783572419 0 0.01546095540036815 0.0031986919661260069 0 0.015497145980080613 0.0032670636639683514 0 0.015497650728454365 0.0032252320783572419 0 0.015577790763633045 0.0032478714074495986 0 0.015472401003635108 0.0031905708096298586 0 0.015497650728454365 0.0032252320783572419 0 0.01546095540036815 0.0031986919661260069 0 0.015577790763633045 0.0032478714074495986 0 0.015713095532949264 0.0032880495567368484 0 0.015534771822449592 0.0033576974135024447 0 0.014442633975083694 0.0024050842042202133 0 0.013639379028028715 0.0020115441476653223 0 0.015577790763633045 0.0032478714074495986 0 0.015713095532949264 0.0032880495567368484 0 0.015771030406441209 0.0032190710366969675 0 0.016181480319874771 0.0032955628620380617 0 0.017428903675087436 0.001658930069720783 0 0.018652793086256423 0.0020249768101312337 0 0.021934235887955556 0.0031851570242142063 0 0.021750910642317323 0.0034108964829517837 0 0.021908669706274388 0.0034561075185726843 0 0.025282967573694196 0.0038351575808315591 0 0.019522442479061305 0.0034278753938502319 0 0.019522442479061305 0.0034278753938502319 0 0.018840123183033471 0.0027611848503260573 0 0.011847444597315323 0.00064324226870946216 0 0.011857219473269169 0.00065877426541361111 0 0.011829898402235649 0.00062752484960263419 0 0.011857219473269169 0.00065877426541361111 0 0.011829898402235649 0.00062752484960263419 0 0.011853368542166851 0.00065884590209652413 0 0.014442633975083694 0.0024050842042202133 0 0.018840123183033471 0.0027611848503260573 0 0.014442633975083694 0.0024050842042202133 0 0.019522442479061305 0.0034278753938502319 0 0.011829898402235649 0.00062752484960263419 0 0.011795064471431966 0.00060719948193540554 0 0.011804418672721336 0.0005902785593091686 0 0.011829898402235649 0.00062752484960263419 0 0.011822799348864052 0.00060339451058482024 0 0.011804418672721336 0.0005902785593091686 0 0.011822799348864052 0.00060339451058482024 0 0.011808070724282313 0.00058317929529208524 0 0.011804418672721336 0.0005902785593091686 0 0.011847444597315323 0.00064324226870946216 0 0.011829898402235649 0.00062752484960263419 0 0.011822799348864052 0.00060339451058482024 0 0.011847444597315323 0.00064324226870946216 0 0.011822799348864052 0.00060339451058482024 0 0.011809712474543816 0.00056903611650800125 0 0.014442633975083694 0.0024050842042202133 0 0.011187273809907436 0.00018605640429422801 0 0.01184895445291057 0.00064444561444306208 0 0.011816119760285317 0.00057434694062454038 0 0.011832399879797128 0.00060984206111811977 0 0.01184895445291057 0.00064444561444306208 0 0.011816119760285317 0.00057434694062454038 0 0.011809712474543816 0.00056903611650800125 0 0.011822799348864052 0.00060339451058482024 0 0.011811009208031048 0.0005816828002383615 0 0.011809712474543816 0.00056903611650800125 0 0.011822799348864052 0.00060339451058482024 0 0.011811009208031048 0.0005816828002383615 0 0.011808070724282313 0.00058317929529208524 0 0.011816119760285317 0.00057434694062454038 0 0.011832399879797128 0.00060984206111811977 0 0.011896943271619418 0.00059020517884194104 0 0.031042970308888876 0.0039977707841641523 0 0.0310182788678755 0.0029947663844274459 0 0.030644144865206936 0.0034956561451548983 0 0.025545854688534254 0.0028116254487043357 0 0.032132950839661327 0.0035813624831878533 0 0.031042970308888876 0.0039977707841641523 0 0.030451475239984319 0.0038191855188112397 0 0.030644144865206936 0.0034956561451548983 0 0.025545854688534254 0.0028116254487043357 0 0.025097317357641032 0.0033844383734717176 0 0.030451475239984319 0.0038191855188112397 0 0.030644144865206936 0.0034956561451548983 0 0.030237901624294385 0.0034787571592711556 0 0.030460071647135756 0.003174166964224004 0 0.030644144865206936 0.0034956561451548983 0 0.030237901624294385 0.0034787571592711556 0 0.030451475239984319 0.0038191855188112397 0 0.030237901624294385 0.0034787571592711556 0 0.029799523907965624 0.0036420582100005418 0 0.018747564662157004 0.0026520880935126997 0 0.019431389220438678 0.0028577484075943843 0 0.019135549485170978 0.0019342611790216634 0 0.030237901624294385 0.0034787571592711556 0 0.029799523907965624 0.0036420582100005418 0 0.029779509158139764 0.0035600433328937318 0 0.030130700215536491 0.0032273438538880286 0 0.030237901624294385 0.0034787571592711556 0 0.029779509158139764 0.0035600433328937318 0 0.030130700215536491 0.0032273438538880286 0 0.029712273511577379 0.0032958704652248242 0 0.029779509158139764 0.0035600433328937318 0 0.021934235887955556 0.0031851570242142063 0 0.021908669706274388 0.0034561075185726843 0 0.021991214927014939 0.0034138708646653275 0 0.025282967573694196 0.0038351575808315591 0 0.021065701625465887 0.0026633862628824916 0 0.020285294113022007 0.002599462160381363 0 0.021065701625465887 0.0026633862628824916 0 0.021032855224466109 0.0028767628931194119 0 0.020181522577806529 0.0026196856147827946 0 0.020356147997691011 0.0032267608584366776 0 0.018840123183033471 0.0027611848503260573 0 0.020285294113022007 0.002599462160381363 0 0.018840123183033471 0.0027611848503260573 0 0.021065701625465887 0.0026633862628824916 0 0.025097317357641032 0.0033844383734717176 0 0.020285294113022007 0.002599462160381363 0 0.018747564662157004 0.0026520880935126997 0 0.019135549485170978 0.0019342611790216634 0 0.018530073035809926 0.0018982636637456631 0 0.020285294113022007 0.002599462160381363 0 0.015117567059527623 0.00092425092178694294 0 0.011829898402235649 0.00062752484960263419 0 0.011853368542166851 0.00065884590209652413 0 0.011795064471431966 0.00060719948193540554 0 0.018069403376790558 0.0024469926702177574 0 0.018747564662157004 0.0026520880935126997 0 0.018530073035809926 0.0018982636637456631 0 0.018069403376790558 0.0024469926702177574 0 0.018530073035809926 0.0018982636637456631 0 0.017872780577390751 0.0014390764775930355 0 0.018530073035809926 0.0018982636637456631 0 0.018824883225000567 0.0010128487420573505 0 0.017872780577390751 0.0014390764775930355 0 0.011795064471431966 0.00060719948193540554 0 0.0117788351837346 0.00057935664731457754 0 0.011804418672721336 0.0005902785593091686 0 0.019135549485170978 0.0019342611790216634 0 0.018530073035809926 0.0018982636637456631 0 0.018824883225000567 0.0010128487420573505 0 0.015117567059527623 0.00092425092178694294 0 0.015469038294973895 0.00092116425541936906 0 0.011795064471431966 0.00060719948193540554 0 0.0117788351837346 0.00057935664731457754 0 0.011751111779901438 0.00056719315385102167 0 0.0117788351837346 0.00057935664731457754 0 0.011751111779901438 0.00056719315385102167 0 0.01175894543789876 0.00056355629582595466 0 0.011751111779901438 0.00056719315385102167 0 0.01175894543789876 0.00056355629582595466 0 0.011730170784041826 0.00054409631619136258 0 0.011751111779901438 0.00056719315385102167 0 0.011730170784041826 0.00054409631619136258 0 0.011725395864910578 0.00053939088349132843 0 0.01175894543789876 0.00056355629582595466 0 0.011730170784041826 0.00054409631619136258 0 0.011741418263230278 0.00054932091660392086 0 0.018824883225000567 0.0010128487420573505 0 0.018512423597452223 9.9803311739971395e-05 0 0.017687919547676317 0.00043662275086503639 0 0.018824883225000567 0.0010128487420573505 0 0.017872780577390751 0.0014390764775930355 0 0.017687919547676317 0.00043662275086503639 0 0.015469038294973895 0.00092116425541936906 0 0.012796819112471155 0.00047895905080875764 0 0.011771349979307203 0.00055964556694798877 0 0.011782505938580415 0.00056288479609435682 0 0.011776264615699923 0.00055891414357467676 0 0.011771349979307203 0.00055964556694798877 0 0.011782505938580415 0.00056288479609435682 0 0.011777502149358155 0.00056279458649656511 0 0.011782505938580415 0.00056288479609435682 0 0.011792928354838928 0.00056480475190692552 0 0.011792547553386976 0.00056764651760210624 0 0.011782505938580415 0.00056288479609435682 0 0.011792547553386976 0.00056764651760210624 0 0.011777502149358155 0.00056279458649656511 0 0.011782505938580415 0.00056288479609435682 0 0.011792928354838928 0.00056480475190692552 0 0.011776264615699923 0.00055891414357467676 0 0.011792928354838928 0.00056480475190692552 0 0.011788470242853627 0.00055763821485688256 0 0.011776264615699923 0.00055891414357467676 0 0.011816119760285317 0.00057434694062454038 0 0.011809712474543816 0.00056903611650800125 0 0.011788470242853627 0.00055763821485688256 0 0.011792928354838928 0.00056480475190692552 0 0.011809712474543816 0.00056903611650800125 0 0.011788470242853627 0.00055763821485688256 0 0.011792928354838928 0.00056480475190692552 0 0.011809712474543816 0.00056903611650800125 0 0.011800038365790813 0.00056854374155782775 0 0.011792928354838928 0.00056480475190692552 0 0.011800038365790813 0.00056854374155782775 0 0.011792547553386976 0.00056764651760210624 0 0.011800038365790813 0.00056854374155782775 0 0.011803207926347979 0.00057334399838584484 0 0.011792547553386976 0.00056764651760210624 0 0.011809712474543816 0.00056903611650800125 0 0.011800038365790813 0.00056854374155782775 0 0.011803207926347979 0.00057334399838584484 0 0.011811009208031048 0.0005816828002383615 0 0.011809712474543816 0.00056903611650800125 0 0.011803207926347979 0.00057334399838584484 0 0.011803207926347979 0.00057334399838584484 0 0.011808070724282313 0.00058317929529208524 0 0.011797430100864965 0.00057515701146640462 0 0.011811009208031048 0.0005816828002383615 0 0.011803207926347979 0.00057334399838584484 0 0.011808070724282313 0.00058317929529208524 0 0.011803207926347979 0.00057334399838584484 0 0.011797430100864965 0.00057515701146640462 0 0.011792547553386976 0.00056764651760210624 0 0.011797430100864965 0.00057515701146640462 0 0.011785817865294515 0.00056777078837943139 0 0.011792547553386976 0.00056764651760210624 0 0.011785817865294515 0.00056777078837943139 0 0.011792547553386976 0.00056764651760210624 0 0.011777502149358155 0.00056279458649656511 0 0.011785817865294515 0.00056777078837943139 0 0.011777502149358155 0.00056279458649656511 0 0.011775133861328021 0.00056367111119236257 0 0.011785817865294515 0.00056777078837943139 0 0.01178005967722894 0.00056962328254902335 0 0.011775133861328021 0.00056367111119236257 0 0.011797430100864965 0.00057515701146640462 0 0.011785817865294515 0.00056777078837943139 0 0.01178005967722894 0.00056962328254902335 0 0.011808070724282313 0.00058317929529208524 0 0.011797430100864965 0.00057515701146640462 0 0.011804418672721336 0.0005902785593091686 0 0.011797430100864965 0.00057515701146640462 0 0.01178005967722894 0.00056962328254902335 0 0.011804418672721336 0.0005902785593091686 0 0.0117788351837346 0.00057935664731457754 0 0.01178005967722894 0.00056962328254902335 0 0.011804418672721336 0.0005902785593091686 0 0.0117788351837346 0.00057935664731457754 0 0.01175894543789876 0.00056355629582595466 0 0.01178005967722894 0.00056962328254902335 0 0.01175894543789876 0.00056355629582595466 0 0.011760162302247294 0.00055948684687791902 0 0.011741418263230278 0.00054932091660392086 0 0.01175894543789876 0.00056355629582595466 0 0.01178005967722894 0.00056962328254902335 0 0.011760162302247294 0.00055948684687791902 0 0.011760162302247294 0.00055948684687791902 0 0.011741418263230278 0.00054932091660392086 0 0.011744609776179705 0.00055102158802585322 0 0.011744609776179705 0.00055102158802585322 0 0.011763688062954476 0.00055926919237087676 0 0.011752861693360416 0.00055411036778243213 0 0.011760162302247294 0.00055948684687791902 0 0.011744609776179705 0.00055102158802585322 0 0.011763688062954476 0.00055926919237087676 0 0.01178005967722894 0.00056962328254902335 0 0.011760162302247294 0.00055948684687791902 0 0.011763688062954476 0.00055926919237087676 0 0.01178005967722894 0.00056962328254902335 0 0.011763688062954476 0.00055926919237087676 0 0.011775133861328021 0.00056367111119236257 0 0.011777502149358155 0.00056279458649656511 0 0.011775133861328021 0.00056367111119236257 0 0.011765070518110607 0.00055881282798118546 0 0.011763688062954476 0.00055926919237087676 0 0.011775133861328021 0.00056367111119236257 0 0.011765070518110607 0.00055881282798118546 0 0.011763688062954476 0.00055926919237087676 0 0.011765070518110607 0.00055881282798118546 0 0.011752861693360416 0.00055411036778243213 0 0.011765070518110607 0.00055881282798118546 0 0.011752359013870197 0.00055444267332061437 0 0.011762041226730134 0.00055763267669849733 0 0.011765070518110607 0.00055881282798118546 0 0.011752861693360416 0.00055411036778243213 0 0.011752359013870197 0.00055444267332061437 0 0.011777502149358155 0.00056279458649656511 0 0.011765070518110607 0.00055881282798118546 0 0.011762041226730134 0.00055763267669849733 0 0.011771349979307203 0.00055964556694798877 0 0.011777502149358155 0.00056279458649656511 0 0.011762041226730134 0.00055763267669849733 0 0.011733725400082115 0.00054332856635957842 0 0.011744915993112937 0.00055127894829632459 0 0.01173843748647314 0.00054875294748425979 0 0.011752861693360416 0.00055411036778243213 0 0.011752359013870197 0.00055444267332061437 0 0.011744915993112937 0.00055127894829632459 0 0.011733725400082115 0.00054332856635957842 0 0.011744915993112937 0.00055127894829632459 0 0.011744742338975763 0.00055298820944439295 0 0.011752359013870197 0.00055444267332061437 0 0.011744915993112937 0.00055127894829632459 0 0.011744742338975763 0.00055298820944439295 0 0.011744609776179705 0.00055102158802585322 0 0.011752861693360416 0.00055411036778243213 0 0.01173843748647314 0.00054875294748425979 0 0.011752861693360416 0.00055411036778243213 0 0.011744915993112937 0.00055127894829632459 0 0.01173843748647314 0.00054875294748425979 0 0.01173843748647314 0.00054875294748425979 0 0.011723947824945607 0.00054626526088582942 0 0.011728094187119707 0.00054257353869530437 0 0.011733725400082115 0.00054332856635957842 0 0.01173843748647314 0.00054875294748425979 0 0.011728094187119707 0.00054257353869530437 0 0.011723947824945607 0.00054626526088582942 0 0.011719917263644887 0.00054558783379520133 0 0.011728094187119707 0.00054257353869530437 0 0.011723947824945607 0.00054626526088582942 0 0.011705124440971415 0.00055436236544028836 0 0.011719917263644887 0.00054558783379520133 0 0.011744609776179705 0.00055102158802585322 0 0.011723947824945607 0.00054626526088582942 0 0.011728298734791512 0.00054331664124517205 0 0.011744609776179705 0.00055102158802585322 0 0.01173843748647314 0.00054875294748425979 0 0.011723947824945607 0.00054626526088582942 0 0.011741418263230278 0.00054932091660392086 0 0.011744609776179705 0.00055102158802585322 0 0.011728298734791512 0.00054331664124517205 0 0.011741418263230278 0.00054932091660392086 0 0.011728298734791512 0.00054331664124517205 0 0.011724730989812781 0.00053573076474330535 0 0.011728298734791512 0.00054331664124517205 0 0.011705642178888431 0.000536746842157918 0 0.011724730989812781 0.00053573076474330535 0 0.011723947824945607 0.00054626526088582942 0 0.011705642178888431 0.000536746842157918 0 0.011705124440971415 0.00055436236544028836 0 0.011705642178888431 0.000536746842157918 0 0.011705124440971415 0.00055436236544028836 0 0.011677937343322804 0.00059298434387401494 0 0.011723947824945607 0.00054626526088582942 0 0.011728298734791512 0.00054331664124517205 0 0.011705642178888431 0.000536746842157918 0 0.011513169231257789 0.00068080370881746751 0 0.011559659224105187 0.00061268154156928997 0 0.011705124440971415 0.00055436236544028836 0 0.011720942430794553 0.00052910430893167134 0 0.011677937343322804 0.00059298434387401494 0 0.010090163999310417 0.0013531151727852585 0 0.011314723404781252 0.00088743851483743153 0 0.01085151497162763 0.00083480940060244797 0 0.011314723404781252 0.00088743851483743153 0 0.01085151497162763 0.00083480940060244797 0 0.011677937343322804 0.00059298434387401494 0 0.011720942430794553 0.00052910430893167134 0 0.011719917263644887 0.00054558783379520133 0 0.011728094187119707 0.00054257353869530437 0 0.011705124440971415 0.00055436236544028836 0 0.011720942430794553 0.00052910430893167134 0 0.011719917263644887 0.00054558783379520133 0 0.011733725400082115 0.00054332856635957842 0 0.011725915166110512 0.00053555402643040543 0 0.011719197899298104 0.00052885242472140432 0 0.011720942430794553 0.00052910430893167134 0 0.011725915166110512 0.00053555402643040543 0 0.011719197899298104 0.00052885242472140432 0 0.011513169231257789 0.00068080370881746751 0 0.0092755812729580119 -0.000124341455380858 0 0.011720942430794553 0.00052910430893167134 0 0.011725915166110512 0.00053555402643040543 0 0.011728094187119707 0.00054257353869530437 0 0.011733725400082115 0.00054332856635957842 0 0.011725915166110512 0.00053555402643040543 0 0.011728094187119707 0.00054257353869530437 0 0.012796819112471155 0.00047895905080875764 0 0.014133295936072626 -0.00053501799862351259 0 0.0073257228587064504 -0.0018833189925783491 0 0.0070341698165079089 -0.0019169631429833715 0 0.0076144890277730177 -0.002150994443044413 0 0.0071330439031681283 -0.0016398397040149101 0 0.0073257228587064504 -0.0018833189925783491 0 0.0073620305478206347 -0.0013380124617223034 0 0.0070934316312293707 -0.001621397449893253 0 0.0071330439031681283 -0.0016398397040149101 0 0.0070341698165079089 -0.0019169631429833715 0 0.0081948269522272368 -0.0016194553608572058 0 0.012796819112471155 0.00047895905080875764 0 0.012240920658408578 0.00054620748643959167 0 0.012111989181704329 0.00023392869815270037 0 0.011938924447719877 0.00046508405177828933 0 0.0081948269522272368 -0.0016194553608572058 0 0.0081031391280784598 -0.0015916820285460191 0 0.0071330439031681283 -0.0016398397040149101 0 0.0073257228587064504 -0.0018833189925783491 0 0.0070341698165079089 -0.0019169631429833715 0 0.012240920658408578 0.00054620748643959167 0 0.011938924447719877 0.00046508405177828933 0 0.011677937343322804 0.00059298434387401494 0 0.012796819112471155 0.00047895905080875764 0 0.011514117137847639 0.00058807636707027108 0 0.011730170784041826 0.00054409631619136258 0 0.011725395864910578 0.00053939088349132843 0 0.011704439987685531 0.00051089067264150528 0 0.011730170784041826 0.00054409631619136258 0 0.011724730989812781 0.00053573076474330535 0 0.011704439987685531 0.00051089067264150528 0 0.011730170784041826 0.00054409631619136258 0 0.011741418263230278 0.00054932091660392086 0 0.011724730989812781 0.00053573076474330535 0 0.011704439987685531 0.00051089067264150528 0 0.011938924447719877 0.00046508405177828933 0 0.011677937343322804 0.00059298434387401494 0 0.011705642178888431 0.000536746842157918 0 0.011724730989812781 0.00053573076474330535 0 0.011704439987685531 0.00051089067264150528 0 0.011705642178888431 0.000536746842157918 0 0.011704439987685531 0.00051089067264150528 0 0.011677937343322804 0.00059298434387401494 0 0.012111989181704329 0.00023392869815270037 0 0.011704439987685531 0.00051089067264150528 0 0.011938924447719877 0.00046508405177828933 0 0.0080666119282939933 -8.1224747454237292e-05 0 0.0081948269522272368 -0.0016194553608572058 0 0.011314723404781252 0.00088743851483743153 0 0.012240920658408578 0.00054620748643959167 0 0.011677937343322804 0.00059298434387401494 0 0.0056011558526002951 -0.0010827241124499378 0 0.0046064353952663065 -0.0014494577312617058 0 0.0062059274658038148 -0.0021785413378376233 0 0.0065920796320829205 -0.00082429246653319545 0 0.0056011558526002951 -0.0010827241124499378 0 0.0062059274658038148 -0.0021785413378376233 0 0.0066995296070492547 -0.00090177002341263867 0 0.0081948269522272368 -0.0016194553608572058 0 0.0071111034178320768 -0.00084330763133443217 0 0.0070862545558351888 -0.0016257219648899202 0 0.0073620305478206347 -0.0013380124617223034 0 0.0070862545558351888 -0.0016257219648899202 0 0.0071330439031681283 -0.0016398397040149101 0 0.0073620305478206347 -0.0013380124617223034 0 0.0073620305478206347 -0.0013380124617223034 0 0.0076546820780169838 -0.0013090549201825003 0 0.0076021423811359528 -0.0021055911452911714 0 0.0073984326870838984 -0.0010347438294909194 0 0.0073620305478206347 -0.0013380124617223034 0 0.0076546820780169838 -0.0013090549201825003 0 0.0071111034178320768 -0.00084330763133443217 0 0.0073984326870838984 -0.0010347438294909194 0 0.0073620305478206347 -0.0013380124617223034 0 0.0076862178454685679 -0.0017499538089751222 0 0.0079445822060670718 -0.002478865290120882 0 0.008360578560781878 -0.0018479340856330209 0 0.0073257228587064504 -0.0018833189925783491 0 0.0073620305478206347 -0.0013380124617223034 0 0.007626241748504352 -0.0020037625569111466 0 0.0073677147743077039 -0.0017111386590471477 0 0.010788893021865619 -0.0019240320676987806 0 0.0076862178454685679 -0.0017499538089751222 0 0.0079445822060670718 -0.002478865290120882 0 0.0075744204178644376 -0.0031414967234639616 0 0.00685402337504164 -0.001264780985683065 0 0.010788893021865619 -0.0019240320676987806 0 0.0079445822060670718 -0.002478865290120882 0 0.0080185036066511145 -0.0029645769597011918 0 0.0075744204178644376 -0.0031414967234639616 0 0.0080185036066511145 -0.0029645769597011918 0 0.0076622488858563145 -0.0034705610004195217 0 0.0084733223511896782 -0.0032633600287810334 0 0.0080185036066511145 -0.0029645769597011918 0 0.0075744204178644376 -0.0031414967234639616 0 0.0076622488858563145 -0.0034705610004195217 0 0.0073257228587064504 -0.0018833189925783491 0 0.007626241748504352 -0.0020037625569111466 0 0.0076144890277730177 -0.002150994443044413 0 0.0086559433534909198 -0.0025769467932909378 0 0.0092419105923746449 -0.0030707739456442783 0 0.0084733223511896782 -0.0032633600287810334 0 0.0080185036066511145 -0.0029645769597011918 0 0.0086559433534909198 -0.0025769467932909378 0 0.0084733223511896782 -0.0032633600287810334 0 0.0079445822060670718 -0.002478865290120882 0 0.0080185036066511145 -0.0029645769597011918 0 0.0086559433534909198 -0.0025769467932909378 0 0.0086559433534909198 -0.0025769467932909378 0 0.008360578560781878 -0.0018479340856330209 0 0.0090550038150375364 -0.0018753854033924189 0 0.0079445822060670718 -0.002478865290120882 0 0.0086559433534909198 -0.0025769467932909378 0 0.008360578560781878 -0.0018479340856330209 0 0.0087410609645498828 -0.0012225835928350449 0 0.0082504311621110771 -0.0011227322142968585 0 0.008360578560781878 -0.0018479340856330209 0 0.0082504311621110771 -0.0011227322142968585 0 0.0076862178454685679 -0.0017499538089751222 0 0.008360578560781878 -0.0018479340856330209 0 0.0087410609645498828 -0.0012225835928350449 0 0.008360578560781878 -0.0018479340856330209 0 0.0090550038150375364 -0.0018753854033924189 0 0.0086559433534909198 -0.0025769467932909378 0 0.0098006148579615933 -0.0020952744616358136 0 0.0090550038150375364 -0.0018753854033924189 0 0.0093683522630803404 -0.0010921514414279244 0 0.0098006148579615933 -0.0020952744616358136 0 0.0090550038150375364 -0.0018753854033924189 0 0.0093683522630803404 -0.0010921514414279244 0 0.0087410609645498828 -0.0012225835928350449 0 0.0090550038150375364 -0.0018753854033924189 0 0.010562448007815906 -0.00093387062905313158 0 0.011052996043503861 -0.0023121463519181606 0 0.0098006148579615933 -0.0020952744616358136 0 0.011052996043503861 -0.0023121463519181606 0 0.0098006148579615933 -0.0020952744616358136 0 0.010183576596878531 -0.0033505307046428532 0 0.011052996043503861 -0.0023121463519181606 0 0.011545633924822437 -0.0036531262041870367 0 0.010183576596878531 -0.0033505307046428532 0 0.0098006148579615933 -0.0020952744616358136 0 0.0092419105923746449 -0.0030707739456442783 0 0.010183576596878531 -0.0033505307046428532 0 0.0086559433534909198 -0.0025769467932909378 0 0.0098006148579615933 -0.0020952744616358136 0 0.0092419105923746449 -0.0030707739456442783 0 0.0092419105923746449 -0.0030707739456442783 0 0.0091039162347508005 -0.0040675266156501569 0 0.010183576596878531 -0.0033505307046428532 0 0.0091039162347508005 -0.0040675266156501569 0 0.010183576596878531 -0.0033505307046428532 0 0.010586631130479673 -0.0046589423898189906 0 0.011545633924822437 -0.0036531262041870367 0 0.010183576596878531 -0.0033505307046428532 0 0.010586631130479673 -0.0046589423898189906 0 0.020677922714491325 4.9378787170448948e-05 0 0.020939677618422914 0.00032773381709238884 0 0.020384596768805545 0.00021316814619653119 0 0.030582749843502371 0.00075111985239832951 0 0.030862698578207677 0.00097929938314797525 0 0.030887904538787231 0.00082071630889690933 0 0.028103149685057366 0.00075070897940940058 0 0.030885589479292454 0.0011537163768946051 0 0.028103149685057366 0.00075070897940940058 0 0.018350896972688508 -0.0022004803862661687 0 0.031154450809018481 0.00068242831389848252 0 0.030862698578207677 0.00097929938314797525 0 0.030887904538787231 0.00082071630889690933 0 0.013920578380087284 -0.0016401939537368149 0 0.018350896972688508 -0.0022004803862661687 0 0.020177402851207726 0.00064302286505845362 0 0.020939677618422914 0.00032773381709238884 0 0.020384596768805545 0.00021316814619653119 0 0.020177402851207726 0.00064302286505845362 0 0.020384596768805545 0.00021316814619653119 0 0.019992632859853563 0.00016478238825934065 0 0.020224409768109387 -7.8273336646732098e-05 0 0.020384596768805545 0.00021316814619653119 0 0.019992632859853563 0.00016478238825934065 0 0.01978671748676384 -0.00020811618690692613 0 0.019992632859853563 0.00016478238825934065 0 0.019583727500338599 0.00035714313574110551 0 0.020177402851207726 0.00064302286505845362 0 0.019992632859853563 0.00016478238825934065 0 0.019583727500338599 0.00035714313574110551 0 0.020734354105922993 0.0020499761260869736 0 0.020932984376939315 0.00099128356192002887 0 0.021462818917092879 0.0011111649135973972 0 0.020932984376939315 0.00099128356192002887 0 0.021462818917092879 0.0011111649135973972 0 0.021095416038104831 -6.3902461633185805e-05 0 0.019645321735032781 0.0013256991278315056 0 0.014133295936072626 -0.00053501799862351259 0 0.021462818917092879 0.0011111649135973972 0 0.021200827903483693 -0.00010869806871531796 0 0.021095416038104831 -6.3902461633185805e-05 0 0.020231395950825039 0.00078214264614681205 0 0.01470259800471364 -0.00076872422148803704 0 0.012658500506702213 -0.0013889167623696457 0 0.012726882125136082 -0.00092552951453273068 0 0.012537769798913643 -0.00084844568511278028 0 0.010788893021865619 -0.0019240320676987806 0 0.014133295936072626 -0.00053501799862351259 0 0.010788893021865619 -0.0019240320676987806 0 0.01470259800471364 -0.00076872422148803704 0 0.014133295936072626 -0.00053501799862351259 0 0.01470259800471364 -0.00076872422148803704 0 0.020177402851207726 0.00064302286505845362 0 0.019583727500338599 0.00035714313574110551 0 0.019385542166088326 0.00094582523873254411 0 0.0092419105923746449 -0.0030707739456442783 0 0.0091039162347508005 -0.0040675266156501569 0 0.0084733223511896782 -0.0032633600287810334 0 0.013920578380087284 -0.0016401939537368149 0 0.01470259800471364 -0.00076872422148803704 0 0.0091039162347508005 -0.0040675266156501569 0 0.0076622488858563145 -0.0034705610004195217 0 0.0084733223511896782 -0.0032633600287810334 0 0.0069775845644375013 0.00016387852173916932 0 0.0070391148073022883 7.2987441632222814e-05 0 0.0067169402649225234 0.00012011163075185723 0 0.0091361281349849385 -0.00053255973740889398 0 0.0089934921348990612 -0.00033630949692395367 0 0.0069775845644375013 0.00016387852173916932 0 0.0070391148073022883 7.2987441632222814e-05 0 0.0073350612789777562 -5.4767195855360997e-06 0 0.0072674296147531431 1.1255512445138066e-06 0 0.0070391148073022883 7.2987441632222814e-05 0 0.0067169402649225234 0.00012011163075185723 0 0.0072674296147531431 1.1255512445138066e-06 0 0.0070391148073022883 7.2987441632222814e-05 0 0.0073350612789777562 -5.4767195855360997e-06 0 0.0089934921348990612 -0.00033630949692395367 0 0.0092068422992479162 1.0647830049676905e-07 0 0.0072674296147531431 1.1255512445138066e-06 0 0.0073350612789777562 -5.4767195855360997e-06 0 0.0092055342136548902 -1.0880970815116332e-06 0 0.011292175263211815 -0.0011821722251215633 0 0.010692597596134158 -0.0009061789361373097 0 0.011539734600182525 -0.00073343775392540516 0 0.010692597596134158 -0.0009061789361373097 0 0.011539734600182525 -0.00073343775392540516 0 0.011563084233120061 -0.00011953936121629258 0 0.011539734600182525 -0.00073343775392540516 0 0.012055277079473792 -0.00049752915507479852 0 0.011869943865404509 -0.00097599515733599635 0 0.012055277079473792 -0.00049752915507479852 0 0.012151673336776889 -0.00084093613490017743 0 0.011869943865404509 -0.00097599515733599635 0 0.012151673336776889 -0.00084093613490017743 0 0.011869943865404509 -0.00097599515733599635 0 0.012263720976436731 -0.0011602053575586987 0 0.011292175263211815 -0.0011821722251215633 0 0.011539734600182525 -0.00073343775392540516 0 0.011869943865404509 -0.00097599515733599635 0 0.0095843109789014152 -0.00069505254571862777 0 0.0071085656942620166 -0.00022284855196669679 0 0.0091361281349849385 -0.00053255973740889398 0 0.0095843109789014152 -0.00069505254571862777 0 0.011292175263211815 -0.0011821722251215633 0 0.011869943865404509 -0.00097599515733599635 0 0.011655632307421329 -0.0014602931191844363 0 0.0069775845644375013 0.00016387852173916932 0 0.0073134445653801365 -0.00017865215240203691 0 0.006970734497027958 -0.00025388501762914773 0 0.0095843109789014152 -0.00069505254571862777 0 0.011554374579582721 -0.0009462153166889236 0 0.011869943865404509 -0.00097599515733599635 0 0.011655632307421329 -0.0014602931191844363 0 0.012263720976436731 -0.0011602053575586987 0 0.0096002111286128469 -0.00089704891783065079 0 0.010124443299949349 -0.0010471529815849763 0 0.010431196177915523 -0.00063905896077094909 0 0.0096002111286128469 -0.00089704891783065079 0 0.010124443299949349 -0.0010471529815849763 0 0.010052347676509628 -0.0013747080742229859 0 0.0095843109789014152 -0.00069505254571862777 0 0.0098574677649505144 -0.0011527001268982603 0 0.0088324422437180156 0.00022070622495740414 0 0.0091346640342973157 -0.00084004992970731455 0 0.010052347676509628 -0.0013747080742229859 0 0.0088324422437180156 0.00022070622495740414 0 0.008057089521899043 -0.0011453359157626575 0 0.0074651610329455444 -0.00010051583107429664 0 0.008057089521899043 -0.0011453359157626575 0 0.0091346640342973157 -0.00084004992970731455 0 0.0099544993787942689 -0.0016515317449512443 0 0.0088324422437180156 0.00022070622495740414 0 0.008057089521899043 -0.0011453359157626575 0 0.0091346640342973157 -0.00084004992970731455 0 0.0071085656942620166 -0.00022284855196669679 0 0.0053958068230787453 -0.00023913288958290978 0 0.0031390123001040818 -0.00026428644930981941 0 0.0040197661305465052 -0.00036426419985858042 0 0.0038588577131837744 0.00012748045771880884 0 0.0055098980965728357 -0.00069458345526022701 0 0.0053958068230787453 -0.00023913288958290978 0 0.008057089521899043 -0.0011453359157626575 0 0.0074651610329455444 -0.00010051583107429664 0 0.0060709146451642815 -0.00045527526306625063 0 0.006970734497027958 -0.00025388501762914773 0 0.0066439942759028807 -6.8551231038486914e-05 0 0.0062104828693129565 -0.00049542156932355142 0 0.0069775845644375013 0.00016387852173916932 0 0.006970734497027958 -0.00025388501762914773 0 0.0066439942759028807 -6.8551231038486914e-05 0 0.0069775845644375013 0.00016387852173916932 0 0.0067169402649225234 0.00012011163075185723 0 0.0066439942759028807 -6.8551231038486914e-05 0 0.0072674296147531431 1.1255512445138066e-06 0 0.0067169402649225234 0.00012011163075185723 0 0.0053308396289563614 -1.1935276913640023e-06 0 0.0067169402649225234 0.00012011163075185723 0 0.0066439942759028807 -6.8551231038486914e-05 0 0.0053308396289563614 -1.1935276913640023e-06 0 0.0053958068230787453 -0.00023913288958290978 0 0.0049087754477235958 -3.4238778792279539e-07 0 0.0053263512082041796 5.9824589792385418e-09 0 0.0050883191694830457 -7.7578335488855918e-07 0 0.0049110719859087526 -6.5690470538557908e-09 0 0.0053285546183809819 -2.4640153137846039e-07 0 0.0053958068230787453 -0.00023913288958290978 0 0.0066439942759028807 -6.8551231038486914e-05 0 0.0053308396289563614 -1.1935276913640023e-06 0 0.0062104828693129565 -0.00049542156932355142 0 0.0040197661305465052 -0.00036426419985858042 0 0.0049054680303565025 -1.0181039422925776e-06 0 0.0038588577131837744 0.00012748045771880884 0 0.0038588577131837744 0.00012748045771880884 0 0.0036314451107904446 0.00029782687534000773 0 0.0031436501703467333 9.8055674070877744e-07 0 0.0049054680303565025 -1.0181039422925776e-06 0 0.0038588577131837744 0.00012748045771880884 0 0.0031436501703467333 9.8055674070877744e-07 0 0.0031390123001040818 -0.00026428644930981941 0 0.0038588577131837744 0.00012748045771880884 0 0.0036314451107904446 0.00029782687534000773 0 0.0025301836554249991 4.592510777079962e-05 0 0.0020004074496710409 0.00020956898226152595 0 0.0014593344503961564 -0.00026664494671263886 0 0.0014829107571193768 0.00016978199623520217 0 0.0012144782610772455 4.9015595325606822e-05 0 0.0031371056318431163 -1.1765091955287092e-06 0 0.0013361299135671233 8.3438564101431932e-07 0 0.0014829107571193768 0.00016978199623520217 0 0.0025301836554249991 4.592510777079962e-05 0 0.0031399974409790235 5.3020988408327735e-09 0 0.0014593344503961564 -0.00026664494671263886 0 0.0031371056318431163 -1.1765091955287092e-06 0 0.0014829107571193768 0.00016978199623520217 0 0.0013361299135671233 8.3438564101431932e-07 0 0.0014829107571193768 0.00016978199623520217 0 0.00090042812918912694 0.00018458142477938659 0 0.0014829107571193768 0.00016978199623520217 0 0.001158244428021079 0.00016748198191170077 0 0.00090042812918912694 0.00018458142477938659 0 0.0014829107571193768 0.00016978199623520217 0 0.001158244428021079 0.00016748198191170077 0 0.0012144782610772455 4.9015595325606822e-05 0 0.001158244428021079 0.00016748198191170077 0 0.00090042812918912694 0.00018458142477938659 0 0.0010155876194490538 0.00016847600138425965 0 0.00028365864951993155 2.6527566068396247e-05 0 0.00090042812918912694 0.00018458142477938659 0 0.00075671800182181275 0.00013882382665091471 0 0.00090042812918912694 0.00018458142477938659 0 0.0010155876194490538 0.00016847600138425965 0 0.00075671800182181275 0.00013882382665091471 0 0.0010155876194490538 0.00016847600138425965 0 0.00089790207771007916 0.00012947448005645656 0 0.00075671800182181275 0.00013882382665091471 0 0.00065176275577264549 5.2111583212335152e-05 0 0.00089790207771007916 0.00012947448005645656 0 0.00075671800182181275 0.00013882382665091471 0 0.00028365864951993155 2.6527566068396247e-05 0 0.00065176275577264549 5.2111583212335152e-05 0 0.00075671800182181275 0.00013882382665091471 0 -0.00046914854421224766 5.3287383742114963e-07 0 0.0013361299135671233 8.3438564101431932e-07 0 0.00090042812918912694 0.00018458142477938659 0 -0.00046914854421224766 5.3287383742114963e-07 0 0.00028365864951993155 2.6527566068396247e-05 0 0.00090042812918912694 0.00018458142477938659 0 0.0013240943198431147 -0.0002502475549960586 0 0.0014412749572050936 -0.00016494568256906754 0 0.0014142585392234038 -0.00031944749622118507 0 0.0013240943198431147 -0.0002502475549960586 0 0.0014412749572050936 -0.00016494568256906754 0 0.0013273467627265695 -0.00012902896317187334 0 0.0015464955965321006 -0.00020531022165895814 0 0.0014412749572050936 -0.00016494568256906754 0 0.0014142585392234038 -0.00031944749622118507 0 0.0015464955965321006 -0.00020531022165895814 0 0.0014412749572050936 -0.00016494568256906754 0 0.0015606830855396914 -7.6349960754018263e-05 0 0.0014745929768023272 -7.183528198336841e-05 0 0.00069201352072585328 -0.00033816903033213983 0 0.0015464955965321006 -0.00020531022165895814 0 0.0014707036525034806 -0.00025432787755932929 0 0.0016032416687804044 -0.00023805722893814331 0 0.0013240943198431147 -0.0002502475549960586 0 0.0014127596104090772 -0.00033883001870096719 0 0.0013228429198920456 -0.00040285981999432357 0 0.00069201352072585328 -0.00033816903033213983 0 -0.00057531904550034841 -0.00035546120783102719 0 0.0010808814813645384 -0.00045807196364713604 0 0.00069201352072585328 -0.00033816903033213983 0 0.0012886538874352044 -0.00040306034504533893 0 0.0011024025677634107 -0.00028216206944484243 0 0.001159654455013169 -0.00020338642672060095 0 -0.00057531904550034841 -0.00035546120783102719 0 0.0011580489389132636 -0.00062411114114693193 0 0.00092633797172300843 -0.00010877980230770895 0 0.00089790207771007916 0.00012947448005645656 0 0.0010388706778186097 0.00015155524162424461 0 0.0013240943198431147 -0.0002502475549960586 0 0.0013228429198920456 -0.00040285981999432357 0 0.001159654455013169 -0.00020338642672060095 0 0.00098150455839921338 -0.0006045948160726003 0 0.0012886538874352044 -0.00040306034504533893 0 0.0011024025677634107 -0.00028216206944484243 0 0.0011024025677634107 -0.00028216206944484243 0 0.001159654455013169 -0.00020338642672060095 0 0.0012456404696012848 5.1146914231382345e-05 0 0.0010155876194490538 0.00016847600138425965 0 0.0010388706778186097 0.00015155524162424461 0 0.0012456404696012848 5.1146914231382345e-05 0 0.0010155876194490538 0.00016847600138425965 0 0.00089790207771007916 0.00012947448005645656 0 0.0010388706778186097 0.00015155524162424461 0 0.0013240943198431147 -0.0002502475549960586 0 0.001159654455013169 -0.00020338642672060095 0 0.0013273467627265695 -0.00012902896317187334 0 0.001159654455013169 -0.00020338642672060095 0 0.0012456404696012848 5.1146914231382345e-05 0 0.0013273467627265695 -0.00012902896317187334 0 0.001134167841780077 -1.7551091422197404e-05 0 0.0011979193864144239 4.2891993361838038e-05 0 0.001158244428021079 0.00016748198191170077 0 0.0010155876194490538 0.00016847600138425965 0 0.0012456404696012848 5.1146914231382345e-05 0 0.001158244428021079 0.00016748198191170077 0 0.0012456404696012848 5.1146914231382345e-05 0 0.0012144782610772455 4.9015595325606822e-05 0 0.0012456404696012848 5.1146914231382345e-05 0 0.0014266819265844643 3.328976721032151e-05 0 0.0014377642972849853 -6.0722742558669737e-05 0 0.0012456404696012848 5.1146914231382345e-05 0 0.0013273467627265695 -0.00012902896317187334 0 0.0014377642972849853 -6.0722742558669737e-05 0 0.0014412749572050936 -0.00016494568256906754 0 0.0013273467627265695 -0.00012902896317187334 0 0.0014377642972849853 -6.0722742558669737e-05 0 0.0014412749572050936 -0.00016494568256906754 0 0.0014377642972849853 -6.0722742558669737e-05 0 0.0015606830855396914 -7.6349960754018263e-05 0 0.0014266819265844643 3.328976721032151e-05 0 0.0014377642972849853 -6.0722742558669737e-05 0 0.0015711055007794886 3.9945859478833289e-05 0 0.0014377642972849853 -6.0722742558669737e-05 0 0.0015711055007794886 3.9945859478833289e-05 0 0.0015606830855396914 -7.6349960754018263e-05 0 0.0014341464204981858 7.3878793569857233e-05 0 0.0012588250165248361 9.2698901151045833e-05 0 0.0017429201570500967 0.00018891616582423316 0 0.0014266819265844643 3.328976721032151e-05 0 0.0014341464204981858 7.3878793569857233e-05 0 0.0016129211090638368 0.00011535798975336038 0 0.0014266819265844643 3.328976721032151e-05 0 0.0015711055007794886 3.9945859478833289e-05 0 0.0016129211090638368 0.00011535798975336038 0 0.0012456404696012848 5.1146914231382345e-05 0 0.0014266819265844643 3.328976721032151e-05 0 0.0014341464204981858 7.3878793569857233e-05 0 0.0014341464204981858 7.3878793569857233e-05 0 0.0016129211090638368 0.00011535798975336038 0 0.0017429201570500967 0.00018891616582423316 0 0.0014593344503961564 -0.00026664494671263886 0 0.0012144782610772455 4.9015595325606822e-05 0 0.0012588250165248361 9.2698901151045833e-05 0 0.0012456404696012848 5.1146914231382345e-05 0 0.0014341464204981858 7.3878793569857233e-05 0 0.0012144782610772455 4.9015595325606822e-05 0 0.0014341464204981858 7.3878793569857233e-05 0 0.0012144782610772455 4.9015595325606822e-05 0 0.0012588250165248361 9.2698901151045833e-05 0 0.0055098980965728357 -0.00069458345526022701 0 0.0059566678840099899 -0.00078902491964617794 0 0.0031390123001040818 -0.00026428644930981941 0 0.0036314451107904446 0.00029782687534000773 0 0.0026793984438849708 0.0004129730325578456 0 0.0031390123001040818 -0.00026428644930981941 0 0.0026793984438849708 0.0004129730325578456 0 0.0019106714664524603 2.659557606384516e-05 0 0.0026793984438849708 0.0004129730325578456 0 0.0017429201570500967 0.00018891616582423316 0 0.0019106714664524603 2.659557606384516e-05 0 0.0020004074496710409 0.00020956898226152595 0 0.0017684753732788668 0.00020815229019289505 0 0.0091346640342973157 -0.00084004992970731455 0 0.0099544993787942689 -0.0016515317449512443 0 0.010052347676509628 -0.0013747080742229859 0 0.0099544993787942689 -0.0016515317449512443 0 0.010052347676509628 -0.0013747080742229859 0 0.010322706949417853 -0.0014352089992580742 0 0.0059566678840099899 -0.00078902491964617794 0 0.005938943855792707 -0.00070983889515987642 0 0.0017429201570500967 0.00018891616582423316 0 0.0019106714664524603 2.659557606384516e-05 0 0.001683693851523153 0.00022099408719403012 0 0.0099544993787942689 -0.0016515317449512443 0 0.010322706949417853 -0.0014352089992580742 0 0.010468748151001931 -0.0015319483721220317 0 0.010322706949417853 -0.0014352089992580742 0 0.010506419073965602 -0.0014259699261488365 0 0.010468748151001931 -0.0015319483721220317 0 0.010506419073965602 -0.0014259699261488365 0 0.010571007790977463 -0.0015331323224247334 0 0.010575970338799059 -0.0014019390737786232 0 0.010506419073965602 -0.0014259699261488365 0 0.010468748151001931 -0.0015319483721220317 0 0.010571007790977463 -0.0015331323224247334 0 0.0017757352505217655 9.189929198279811e-05 0 0.0019449599405326225 2.1914618284594164e-05 0 0.0020492290032913733 0.00015984918634838141 0 0.005938943855792707 -0.00070983889515987642 0 0.0070733602471876964 -0.0001014632380466758 0 0.001683693851523153 0.00022099408719403012 0 0.0017757352505217655 9.189929198279811e-05 0 0.0020492290032913733 0.00015984918634838141 0 0.0017429201570500967 0.00018891616582423316 0 0.001683693851523153 0.00022099408719403012 0 0.001668917704890346 0.00014457740423849249 0 0.0016129211090638368 0.00011535798975336038 0 0.0017429201570500967 0.00018891616582423316 0 0.001668917704890346 0.00014457740423849249 0 0.001683693851523153 0.00022099408719403012 0 0.0017757352505217655 9.189929198279811e-05 0 0.001668917704890346 0.00014457740423849249 0 0.0017757352505217655 9.189929198279811e-05 0 0.001668917704890346 0.00014457740423849249 0 0.0016717038124806187 2.3735527716896703e-05 0 0.0015711055007794886 3.9945859478833289e-05 0 0.001668917704890346 0.00014457740423849249 0 0.0016717038124806187 2.3735527716896703e-05 0 0.0015711055007794886 3.9945859478833289e-05 0 0.0016129211090638368 0.00011535798975336038 0 0.001668917704890346 0.00014457740423849249 0 0.0015711055007794886 3.9945859478833289e-05 0 0.0015606830855396914 -7.6349960754018263e-05 0 0.0016717038124806187 2.3735527716896703e-05 0 0.0015464955965321006 -0.00020531022165895814 0 0.0015606830855396914 -7.6349960754018263e-05 0 0.0016615213048490757 -0.00011115903362730909 0 0.0015606830855396914 -7.6349960754018263e-05 0 0.0016615213048490757 -0.00011115903362730909 0 0.0016717038124806187 2.3735527716896703e-05 0 0.0016615213048490757 -0.00011115903362730909 0 0.0016717038124806187 2.3735527716896703e-05 0 0.0017797343993327577 -8.1020024362471113e-06 0 0.0017757352505217655 9.189929198279811e-05 0 0.0016717038124806187 2.3735527716896703e-05 0 0.0017797343993327577 -8.1020024362471113e-06 0 0.0017797343993327577 -8.1020024362471113e-06 0 0.0019385671751963708 -0.0001943598841322994 0 0.0019449599405326225 2.1914618284594164e-05 0 0.0017797343993327577 -8.1020024362471113e-06 0 0.0017675898269423169 -0.00013643364295922318 0 0.0019385671751963708 -0.0001943598841322994 0 0.0017757352505217655 9.189929198279811e-05 0 0.0017797343993327577 -8.1020024362471113e-06 0 0.0019449599405326225 2.1914618284594164e-05 0 0.0016615213048490757 -0.00011115903362730909 0 0.0017797343993327577 -8.1020024362471113e-06 0 0.0017675898269423169 -0.00013643364295922318 0 0.0017845561102063916 -0.00035731406538898423 0 0.0017033954766303868 -0.00023617693322442379 0 0.0019385671751963708 -0.0001943598841322994 0 0.00091946055185281061 0.0021295883269837729 0 0.0013484149814943181 0.0020346045217473768 0 0.0010538279070183153 0.0016760862623708738 0 0.0017675898269423169 -0.00013643364295922318 0 0.0017033954766303868 -0.00023617693322442379 0 0.0019385671751963708 -0.0001943598841322994 0 0.00080605076705758715 0.00074746657685980159 0 0.0013682879944887625 0.00058593315128881184 0 0.00080605076705758715 0.00074746657685980159 0 0.0018118634632780489 -0.00050071784834631217 0 0.0016424809746480465 -0.00031539726873355985 0 0.0017390881573336237 -0.00031631000873055603 0 0.0017033954766303868 -0.00023617693322442379 0 0.0016424809746480465 -0.00031539726873355985 0 0.0017033954766303868 -0.00023617693322442379 0 0.0016032416687804044 -0.00023805722893814331 0 0.0016424809746480465 -0.00031539726873355985 0 0.0014707036525034806 -0.00025432787755932929 0 0.0016032416687804044 -0.00023805722893814331 0 0.0015464955965321006 -0.00020531022165895814 0 0.0016615213048490757 -0.00011115903362730909 0 0.0016032416687804044 -0.00023805722893814331 0 0.0016615213048490757 -0.00011115903362730909 0 0.0017033954766303868 -0.00023617693322442379 0 0.0016032416687804044 -0.00023805722893814331 0 0.0016615213048490757 -0.00011115903362730909 0 0.0017675898269423169 -0.00013643364295922318 0 0.0017033954766303868 -0.00023617693322442379 0 0.0041683738217921512 0.0032487087678621297 0 0.0041882673288379958 0.0032903936558415989 0 0.004169252971359041 0.003323281760209934 0 0.0025349639044543728 0.0029867317908539711 0 0.0030356220166727821 0.0015875926890144103 0 0.0041882673288379958 0.0032903936558415989 0 0.0042202462650715901 0.0033233523873776815 0 0.0042201600045775039 0.0032995511653390844 0 0.0042191158919106537 0.0032566007249202381 0 0.0041882673288379958 0.0032903936558415989 0 0.0042201600045775039 0.0032995511653390844 0 0.0042191158919106537 0.0032566007249202381 0 0.0041739069669363997 0.0032469034477890166 0 0.0041882673288379958 0.0032903936558415989 0 0.0025349639044543728 0.0029867317908539711 0 0.0039845694672049686 0.0034187861262867133 0 0.00049078259191873152 0.0020733550313208806 0 0.0010538279070183153 0.0016760862623708738 0 0.00077146315390904155 0.0013184671997646877 0 0.0019385671751963708 -0.0001943598841322994 0 0.0019449599405326225 2.1914618284594164e-05 0 0.0020992539628420822 -3.037743470102412e-05 0 0.0013682879944887625 0.00058593315128881184 0 0.0030356220166727821 0.0015875926890144103 0 0.0019449599405326225 2.1914618284594164e-05 0 0.0020992539628420822 -3.037743470102412e-05 0 0.0020492290032913733 0.00015984918634838141 0 0.0030356220166727821 0.0015875926890144103 0 0.0070001053558035754 0.0014058431445343566 0 0.004169252971359041 0.003323281760209934 0 0.0042202462650715901 0.0033233523873776815 0 0.0042047057978560854 0.0033515924543629744 0 0.0041882673288379958 0.0032903936558415989 0 0.004169252971359041 0.003323281760209934 0 0.0042202462650715901 0.0033233523873776815 0 0.0070001053558035754 0.0014058431445343566 0 0.01032882606455088 -0.00012122910737548048 0 0.0090610285085415479 0.00027383327765118055 0 0.0095539047071370748 9.5598627571286389e-05 0 0.0092290689630432493 -0.00051925789472648601 0 0.0030356220166727821 0.0015875926890144103 0 0.0070733602471876964 -0.0001014632380466758 0 0.0070001053558035754 0.0014058431445343566 0 0.0070733602471876964 -0.0001014632380466758 0 0.0056684835372783418 0.0012859587550152322 0 0.0053249549508253497 0.00085800089085632354 0 0.0058948797239191881 0.0006476352795379912 0 0.0070733602471876964 -0.0001014632380466758 0 0.010974652499143523 -0.0013658774381261759 0 0.0095539047071370748 9.5598627571286389e-05 0 0.0092290689630432493 -0.00051925789472648601 0 0.0098601540787945103 -0.0007586374002575703 0 0.010426809532106484 -0.00074336195151264569 0 0.010974652499143523 -0.0013658774381261759 0 0.011818031978198822 -0.0010336622022175297 0 0.011771955775624668 -0.00087802931356627625 0 0.011732101486178646 -0.00073154047042536265 0 0.010426809532106484 -0.00074336195151264569 0 0.01032882606455088 -0.00012122910737548048 0 0.0090610285085415479 0.00027383327765118055 0 0.0092290689630432493 -0.00051925789472648601 0 0.0086187181119453393 -0.00028487721138267477 0 0.011818031978198822 -0.0010336622022175297 0 0.011859011424092977 -0.0010348770789060512 0 0.011771955775624668 -0.00087802931356627625 0 0.011818031978198822 -0.0010336622022175297 0 0.011859011424092977 -0.0010348770789060512 0 0.011767674214470412 -0.0010596415079999135 0 0.011859011424092977 -0.0010348770789060512 0 0.011786399659603574 -0.0010050441041676861 0 0.011767674214470412 -0.0010596415079999135 0 0.011859011424092977 -0.0010348770789060512 0 0.012043655258916158 -0.001000033533415674 0 0.011786399659603574 -0.0010050441041676861 0 0.012043655258916158 -0.001000033533415674 0 0.011786399659603574 -0.0010050441041676861 0 0.01149504099381519 -0.00058869900033120721 0 0.011786399659603574 -0.0010050441041676861 0 0.01148565675928538 -0.00092648417652904246 0 0.01149504099381519 -0.00058869900033120721 0 0.01148565675928538 -0.00092648417652904246 0 0.011623138536472457 -0.0010567864397013991 0 0.011326204881504959 -0.0010845997176795372 0 0.011786399659603574 -0.0010050441041676861 0 0.01148565675928538 -0.00092648417652904246 0 0.011623138536472457 -0.0010567864397013991 0 0.011818031978198822 -0.0010336622022175297 0 0.011767674214470412 -0.0010596415079999135 0 0.011540405240209372 -0.0011901598325845834 0 0.011623138536472457 -0.0010567864397013991 0 0.011540405240209372 -0.0011901598325845834 0 0.011326204881504959 -0.0010845997176795372 0 0.011786399659603574 -0.0010050441041676861 0 0.011623138536472457 -0.0010567864397013991 0 0.011767674214470412 -0.0010596415079999135 0 0.011623138536472457 -0.0010567864397013991 0 0.011767674214470412 -0.0010596415079999135 0 0.011540405240209372 -0.0011901598325845834 0 0.010506419073965602 -0.0014259699261488365 0 0.010575970338799059 -0.0014019390737786232 0 0.010445156711801707 -0.0012188263874835469 0 0.011511913903160987 -0.0016413622080875272 0 0.011326204881504959 -0.0010845997176795372 0 0.010445156711801707 -0.0012188263874835469 0 0.010974652499143523 -0.0013658774381261759 0 0.010508371379362247 -0.0012838965945099045 0 0.010974652499143523 -0.0013658774381261759 0 0.011284216012701506 -0.0012035741396765763 0 0.011326204881504959 -0.0010845997176795372 0 0.010445156711801707 -0.0012188263874835469 0 0.011015461296889791 -0.00086411428137714069 0 0.010052347676509628 -0.0013747080742229859 0 0.010322706949417853 -0.0014352089992580742 0 0.010445156711801707 -0.0012188263874835469 0 0.010124443299949349 -0.0010471529815849763 0 0.010052347676509628 -0.0013747080742229859 0 0.010445156711801707 -0.0012188263874835469 0 0.010322706949417853 -0.0014352089992580742 0 0.010506419073965602 -0.0014259699261488365 0 0.010445156711801707 -0.0012188263874835469 0 0.010124443299949349 -0.0010471529815849763 0 0.010445156711801707 -0.0012188263874835469 0 0.010431196177915523 -0.00063905896077094909 0 0.010445156711801707 -0.0012188263874835469 0 0.010431196177915523 -0.00063905896077094909 0 0.011015461296889791 -0.00086411428137714069 0 0.010431196177915523 -0.00063905896077094909 0 0.011015461296889791 -0.00086411428137714069 0 0.01149504099381519 -0.00058869900033120721 0 0.011554374579582721 -0.0009462153166889236 0 0.011982579157543726 -0.00069442912206288344 0 0.01148565675928538 -0.00092648417652904246 0 0.011326204881504959 -0.0010845997176795372 0 0.011015461296889791 -0.00086411428137714069 0 0.01148565675928538 -0.00092648417652904246 0 0.011015461296889791 -0.00086411428137714069 0 0.01149504099381519 -0.00058869900033120721 0 0.012263720976436731 -0.0011602053575586987 0 0.012414150287300623 -0.0007170126656169067 0 0.012633961775932274 -0.00077065246661425129 0 0.012414150287300623 -0.0007170126656169067 0 0.012592084486916563 -0.00064414199812752029 0 0.012633961775932274 -0.00077065246661425129 0 0.012151673336776889 -0.00084093613490017743 0 0.012263720976436731 -0.0011602053575586987 0 0.012414150287300623 -0.0007170126656169067 0 0.012055277079473792 -0.00049752915507479852 0 0.012414150287300623 -0.0007170126656169067 0 0.012567912658411069 -0.00030666882177966907 0 0.012055277079473792 -0.00049752915507479852 0 0.012151673336776889 -0.00084093613490017743 0 0.012414150287300623 -0.0007170126656169067 0 0.012592084486916563 -0.00064414199812752029 0 0.012710748667963028 -0.00046811461098880929 0 0.012567912658411069 -0.00030666882177966907 0 0.012414150287300623 -0.0007170126656169067 0 0.012592084486916563 -0.00064414199812752029 0 0.012567912658411069 -0.00030666882177966907 0 0.012592084486916563 -0.00064414199812752029 0 0.012710748667963028 -0.00046811461098880929 0 0.012556349367579106 -0.00065490151816310991 0 0.012556349367579106 -0.00065490151816310991 0 0.012570870158168107 -0.00052060181494796587 0 0.012717306534943178 -0.00040135049812019204 0 0.012710748667963028 -0.00046811461098880929 0 0.012556349367579106 -0.00065490151816310991 0 0.012717306534943178 -0.00040135049812019204 0 0.012293868124006504 -0.00065358231496997696 0 0.012556349367579106 -0.00065490151816310991 0 0.012570870158168107 -0.00052060181494796587 0 0.012043655258916158 -0.001000033533415674 0 0.012293868124006504 -0.00065358231496997696 0 0.01149504099381519 -0.00058869900033120721 0 0.012592084486916563 -0.00064414199812752029 0 0.012556349367579106 -0.00065490151816310991 0 0.012633961775932274 -0.00077065246661425129 0 0.012287894326608179 -0.00065123221542919658 0 0.011982579157543726 -0.00069442912206288344 0 0.012293868124006504 -0.00065358231496997696 0 0.012556349367579106 -0.00065490151816310991 0 0.012633961775932274 -0.00077065246661425129 0 0.011274690421995484 -0.0019883305164473341 0 0.010514076705848171 -0.0021679319507114953 0 0.011327871864813724 -0.0019807546172386972 0 0.010131607606159936 -0.0023592374504740766 0 0.010763417909791689 -0.0015868743545245749 0 0.011321895512618809 -0.0021614330760669266 0 0.011327871864813724 -0.0019807546172386972 0 0.011125879702804806 -0.0021831296455050776 0 0.011327871864813724 -0.0019807546172386972 0 0.011125879702804806 -0.0021831296455050776 0 0.010865331292129257 -0.0020133412242401903 0 0.012043655258916158 -0.001000033533415674 0 0.012293868124006504 -0.00065358231496997696 0 0.012630764400999585 -0.00061606409803041055 0 0.012293868124006504 -0.00065358231496997696 0 0.012630764400999585 -0.00061606409803041055 0 0.012570870158168107 -0.00052060181494796587 0 0.011321895512618809 -0.0021614330760669266 0 0.011327871864813724 -0.0019807546172386972 0 0.011837663210437683 -0.0012138173779669154 0 0.011969429555213495 -0.0013465991315961239 0 0.01187908517204837 -0.001178463528590812 0 0.012570870158168107 -0.00052060181494796587 0 0.012868006685115488 -0.00028760704034398358 0 0.012717306534943178 -0.00040135049812019204 0 0.012630764400999585 -0.00061606409803041055 0 0.012570870158168107 -0.00052060181494796587 0 0.012868006685115488 -0.00028760704034398358 0 0.011321895512618809 -0.0021614330760669266 0 0.011125879702804806 -0.0021831296455050776 0 0.011205719661101048 -0.0023370354347825705 0 0.011969429555213495 -0.0013465991315961239 0 0.012033752959295076 -0.0013166116105267462 0 0.011125879702804806 -0.0021831296455050776 0 0.010865331292129257 -0.0020133412242401903 0 0.010884444358762034 -0.0023269143059302623 0 0.010131607606159936 -0.0023592374504740766 0 0.0096545107151478765 -0.0020329380452735173 0 0.0094640334459591101 -0.0022671686936801055 0 0.010865331292129257 -0.0020133412242401903 0 0.010371817104527458 -0.0020252209014967361 0 0.010884444358762034 -0.0023269143059302623 0 0.010514076705848171 -0.0021679319507114953 0 0.0099231474176217343 -0.002157773564328243 0 0.010131607606159936 -0.0023592374504740766 0 0.0096545107151478765 -0.0020329380452735173 0 0.0099045881289397449 -0.0016321287935077949 0 0.010131607606159936 -0.0023592374504740766 0 0.0099045881289397449 -0.0016321287935077949 0 0.010763417909791689 -0.0015868743545245749 0 0.0099045881289397449 -0.0016321287935077949 0 0.010513000640865184 -0.0010929323786654918 0 0.010763417909791689 -0.0015868743545245749 0 0.0096545107151478765 -0.0020329380452735173 0 0.0099045881289397449 -0.0016321287935077949 0 0.0092642403349850831 -0.0016065940293461744 0 0.0099045881289397449 -0.0016321287935077949 0 0.0095994499784789258 -0.0012399473744043649 0 0.0092642403349850831 -0.0016065940293461744 0 0.0095994499784789258 -0.0012399473744043649 0 0.010513000640865184 -0.0010929323786654918 0 0.0098598154976255372 -0.00057288514291875124 0 0.0099045881289397449 -0.0016321287935077949 0 0.0095994499784789258 -0.0012399473744043649 0 0.010513000640865184 -0.0010929323786654918 0 0.010513000640865184 -0.0010929323786654918 0 0.011162829202524489 -0.0011286030506478862 0 0.010763417909791689 -0.0015868743545245749 0 0.010513000640865184 -0.0010929323786654918 0 0.011162829202524489 -0.0011286030506478862 0 0.01106240019562413 -0.00078391165832646375 0 0.011162829202524489 -0.0011286030506478862 0 0.011625225317472477 -0.0009692079238472444 0 0.01106240019562413 -0.00078391165832646375 0 0.011327871864813724 -0.0019807546172386972 0 0.010763417909791689 -0.0015868743545245749 0 0.011837663210437683 -0.0012138173779669154 0 0.011162829202524489 -0.0011286030506478862 0 0.010763417909791689 -0.0015868743545245749 0 0.011837663210437683 -0.0012138173779669154 0 0.012043655258916158 -0.001000033533415674 0 0.012630764400999585 -0.00061606409803041055 0 0.011837663210437683 -0.0012138173779669154 0 0.011859011424092977 -0.0010348770789060512 0 0.012043655258916158 -0.001000033533415674 0 0.011837663210437683 -0.0012138173779669154 0 0.011859011424092977 -0.0010348770789060512 0 0.011837663210437683 -0.0012138173779669154 0 0.011625225317472477 -0.0009692079238472444 0 0.011162829202524489 -0.0011286030506478862 0 0.011837663210437683 -0.0012138173779669154 0 0.011625225317472477 -0.0009692079238472444 0 0.011859011424092977 -0.0010348770789060512 0 0.011625225317472477 -0.0009692079238472444 0 0.011771955775624668 -0.00087802931356627625 0 0.011642071822413218 -0.00071041201532881721 0 0.011844553635270202 -0.00045957760817428499 0 0.01078809401176991 3.0288063593356044e-05 0 0.011625225317472477 -0.0009692079238472444 0 0.011771955775624668 -0.00087802931356627625 0 0.011642071822413218 -0.00071041201532881721 0 0.011771955775624668 -0.00087802931356627625 0 0.011642071822413218 -0.00071041201532881721 0 0.011732101486178646 -0.00073154047042536265 0 0.011625225317472477 -0.0009692079238472444 0 0.011642071822413218 -0.00071041201532881721 0 0.01106240019562413 -0.00078391165832646375 0 0.010994713726696624 -0.00018113187239926073 0 0.01032882606455088 -0.00012122910737548048 0 0.011642071822413218 -0.00071041201532881721 0 0.01106240019562413 -0.00078391165832646375 0 0.01078809401176991 3.0288063593356044e-05 0 0.01106240019562413 -0.00078391165832646375 0 0.01078809401176991 3.0288063593356044e-05 0 0.01053520690748185 -0.00055588651001101845 0 0.010513000640865184 -0.0010929323786654918 0 0.01106240019562413 -0.00078391165832646375 0 0.01053520690748185 -0.00055588651001101845 0 0.0091107774225523443 0.00085892169600098353 0 0.0086855564624128377 0.00098564806981046491 0 0.0088711798202810183 0.0010874020024684108 0 0.01032882606455088 -0.00012122910737548048 0 0.0097512003487226617 0.00054466450457307466 0 0.0086855564624128377 0.00098564806981046491 0 0.0088711798202810183 0.0010874020024684108 0 0.0085942251356016866 0.0012461437269170456 0 0.0092983169106611099 0.0011153473753052587 0 0.0090428241310978336 0.0010879312002666228 0 0.008880881490740903 0.0013031618745506315 0 0.0092983169106611099 0.0011153473753052587 0 0.0091107774225523443 0.00085892169600098353 0 0.0090428241310978336 0.0010879312002666228 0 0.0091107774225523443 0.00085892169600098353 0 0.0088711798202810183 0.0010874020024684108 0 0.0090428241310978336 0.0010879312002666228 0 0.0088711798202810183 0.0010874020024684108 0 0.0090428241310978336 0.0010879312002666228 0 0.008880881490740903 0.0013031618745506315 0 0.0070001053558035754 0.0014058431445343566 0 0.0065079169904311146 0.0024615573690563901 0 0.0042202462650715901 0.0033233523873776815 0 0.0042047057978560854 0.0033515924543629744 0 0.0042952978645479228 0.0033613789395167044 0 0.0042202462650715901 0.0033233523873776815 0 0.0042532712389363224 0.0033237240890035095 0 0.0042952978645479228 0.0033613789395167044 0 0.0042532712389363224 0.0033237240890035095 0 0.0042952978645479228 0.0033613789395167044 0 0.004289932787459475 0.0033358646010197713 0 0.0065079169904311146 0.0024615573690563901 0 0.00639107668341477 0.0024572592323005528 0 0.008880881490740903 0.0013031618745506315 0 0.0083528702476575959 0.0016202338585269735 0 0.0085942251356016866 0.0012461437269170456 0 0.0088711798202810183 0.0010874020024684108 0 0.008880881490740903 0.0013031618745506315 0 0.0085942251356016866 0.0012461437269170456 0 0.0042952978645479228 0.0033613789395167044 0 0.0043378098989738188 0.003328277514515999 0 0.0044098281733161862 0.0033078196558517783 0 0.0042952978645479228 0.0033613789395167044 0 0.004289932787459475 0.0033358646010197713 0 0.0043378098989738188 0.003328277514515999 0 0.0042802347382091639 0.003336677574407454 0 0.0043378098989738188 0.003328277514515999 0 0.0043216536419835617 0.0033249977691558346 0 0.004289932787459475 0.0033358646010197713 0 0.0042802347382091639 0.003336677574407454 0 0.0043378098989738188 0.003328277514515999 0 0.0043901030545593148 0.0033129719315924786 0 0.0043378098989738188 0.003328277514515999 0 0.0043853112738527098 0.003309496379259837 0 0.0043901030545593148 0.0033129719315924786 0 0.0043378098989738188 0.003328277514515999 0 0.0043216536419835617 0.0033249977691558346 0 0.0042802347382091639 0.003336677574407454 0 0.0043216536419835617 0.0033249977691558346 0 0.0041642207712397662 0.0033269455017143727 0 0.004375859794561684 0.0033188037502922293 0 0.0043216536419835617 0.0033249977691558346 0 0.0041642207712397662 0.0033269455017143727 0 0.0041200809384296959 0.0033840591035800703 0 0.0042532712389363224 0.0033237240890035095 0 0.0041642207712397662 0.0033269455017143727 0 0.0042191158919106537 0.0032566007249202381 0 0.0042532712389363224 0.0033237240890035095 0 0.0042201600045775039 0.0032995511653390844 0 0.0042298080142036919 0.0033838577192608467 0 0.0042123690639101069 0.0032919373060375599 0 0.0042202462650715901 0.0033233523873776815 0 0.0042532712389363224 0.0033237240890035095 0 0.0042201600045775039 0.0032995511653390844 0 0.0042532712389363224 0.0033237240890035095 0 0.0042802347382091639 0.003336677574407454 0 0.0041642207712397662 0.0033269455017143727 0 0.0042532712389363224 0.0033237240890035095 0 0.004289932787459475 0.0033358646010197713 0 0.0042802347382091639 0.003336677574407454 0 0.0043831138481176908 0.0032826899600155003 0 0.0044098281733161862 0.0033078196558517783 0 0.0043527428351012561 0.0032434692774788764 0 0.00639107668341477 0.0024572592323005528 0 0.0057763441634186355 0.0027513060786895937 0 0.0083528702476575959 0.0016202338585269735 0 0.0077141403860185899 0.0015490378837142783 0 0.0073120859050122894 0.0023060904254507816 0 0.0043378098989738188 0.003328277514515999 0 0.0044098281733161862 0.0033078196558517783 0 0.0043853112738527098 0.003309496379259837 0 0.0044003435731573594 0.0033024768164143692 0 0.0043831138481176908 0.0032826899600155003 0 0.0044098281733161862 0.0033078196558517783 0 0.0044003435731573594 0.0033024768164143692 0 0.0044098281733161862 0.0033078196558517783 0 0.0043853112738527098 0.003309496379259837 0 0.0044003435731573594 0.0033024768164143692 0 0.0043901030545593148 0.0033129719315924786 0 0.0043853112738527098 0.003309496379259837 0 0.0083528702476575959 0.0016202338585269735 0 0.0085942251356016866 0.0012461437269170456 0 0.0080647197790872024 0.0011026342947548819 0 0.0083528702476575959 0.0016202338585269735 0 0.0077141403860185899 0.0015490378837142783 0 0.0080647197790872024 0.0011026342947548819 0 0.0094095320769563787 0.00057765010354874963 0 0.0098598154976255372 -0.00057288514291875124 0 0.0084646044784423367 -0.001018621782735803 0 0.0097512003487226617 0.00054466450457307466 0 0.008682737254974187 0.00082776323914138695 0 0.0086855564624128377 0.00098564806981046491 0 0.0085942251356016866 0.0012461437269170456 0 0.0080647197790872024 0.0011026342947548819 0 0.01078809401176991 3.0288063593356044e-05 0 0.0094095320769563787 0.00057765010354874963 0 0.0098598154976255372 -0.00057288514291875124 0 0.01078809401176991 3.0288063593356044e-05 0 0.0098598154976255372 -0.00057288514291875124 0 0.01053520690748185 -0.00055588651001101845 0 0.010513000640865184 -0.0010929323786654918 0 0.0098598154976255372 -0.00057288514291875124 0 0.01053520690748185 -0.00055588651001101845 0 0.0095994499784789258 -0.0012399473744043649 0 0.0098598154976255372 -0.00057288514291875124 0 0.0084646044784423367 -0.001018621782735803 0 0.0084646044784423367 -0.001018621782735803 0 0.0064191034695431758 -0.0012677004203427746 0 0.0062314472705922988 -0.0020213424722829326 0 0.0084646044784423367 -0.001018621782735803 0 0.0064191034695431758 -0.0012677004203427746 0 0.0063345219815768962 -0.00050540153510478096 0 0.0084957634286005682 -0.0010431250290611764 0 0.0076289942849411471 -0.0017567316213704407 0 0.0061429332425875019 0.00029134880052596467 0 0.0076235635756348435 7.5279803626160106e-05 0 0.0069870402678743485 0.0012117590023343694 0 0.0084646044784423367 -0.001018621782735803 0 0.0063345219815768962 -0.00050540153510478096 0 0.0076235635756348435 7.5279803626160106e-05 0 0.0063345219815768962 -0.00050540153510478096 0 0.0061429332425875019 0.00029134880052596467 0 0.0076235635756348435 7.5279803626160106e-05 0 0.0094095320769563787 0.00057765010354874963 0 0.0084646044784423367 -0.001018621782735803 0 0.0076235635756348435 7.5279803626160106e-05 0 0.008682737254974187 0.00082776323914138695 0 0.0071061437704408714 0.0012237405952965114 0 0.0077141403860185899 0.0015490378837142783 0 0.0080647197790872024 0.0011026342947548819 0 0.0069870402678743485 0.0012117590023343694 0 0.0077141403860185899 0.0015490378837142783 0 0.0069870402678743485 0.0012117590023343694 0 0.0073120859050122894 0.0023060904254507816 0 0.0094095320769563787 0.00057765010354874963 0 0.0076235635756348435 7.5279803626160106e-05 0 0.0069870402678743485 0.0012117590023343694 0 0.0069870402678743485 0.0012117590023343694 0 0.0059917210963009986 0.002002205633745062 0 0.0051815981804310338 0.0016344565142469591 0 0.0061429332425875019 0.00029134880052596467 0 0.0069870402678743485 0.0012117590023343694 0 0.0051815981804310338 0.0016344565142469591 0 0.0044609969866304354 0.0029254945046493872 0 0.0059917210963009986 0.002002205633745062 0 0.0051815981804310338 0.0016344565142469591 0 0.0044609969866304354 0.0029254945046493872 0 0.0059917210963009986 0.002002205633745062 0 0.0073120859050122894 0.0023060904254507816 0 0.0069870402678743485 0.0012117590023343694 0 0.0059917210963009986 0.002002205633745062 0 0.0073120859050122894 0.0023060904254507816 0 0.0045626724416385168 0.00295388032088119 0 0.0057763441634186355 0.0027513060786895937 0 0.0031715529162462701 0.0016869474678666808 0 0.0039410896825258024 0.0020852898068119256 0 0.0041592826465485441 0.0010571212438133838 0 0.0030403291323313967 0.0026262823483285918 0 0.0031715529162462701 0.0016869474678666808 0 0.0039410896825258024 0.0020852898068119256 0 0.0039410896825258024 0.0020852898068119256 0 0.0051815981804310338 0.0016344565142469591 0 0.0041592826465485441 0.0010571212438133838 0 0.0044609969866304354 0.0029254945046493872 0 0.0039410896825258024 0.0020852898068119256 0 0.0051815981804310338 0.0016344565142469591 0 0.0061429332425875019 0.00029134880052596467 0 0.0051815981804310338 0.0016344565142469591 0 0.0041592826465485441 0.0010571212438133838 0 0.0031715529162462701 0.0016869474678666808 0 0.0041592826465485441 0.0010571212438133838 0 0.0032095784871849884 0.00051155044281906315 0 0.0041592826465485441 0.0010571212438133838 0 0.0032095784871849884 0.00051155044281906315 0 0.0037470513566265386 -0.00023854937399703019 0 0.0023707283962233531 -0.0002838258266286783 0 0.0032095784871849884 0.00051155044281906315 0 0.0037470513566265386 -0.00023854937399703019 0 0.0061429332425875019 0.00029134880052596467 0 0.0041592826465485441 0.0010571212438133838 0 0.0037470513566265386 -0.00023854937399703019 0 0.0060594474695148523 0.000246975984275708 0 0.00451159178720437 -0.00027784695377849059 0 0.0063345219815768962 -0.00050540153510478096 0 0.0061429332425875019 0.00029134880052596467 0 0.0051253378114071426 -0.00038336043517878023 0 0.0063345219815768962 -0.00050540153510478096 0 0.0051253378114071426 -0.00038336043517878023 0 0.0057087897611902208 -0.0010309416936743298 0 0.0064191034695431758 -0.0012677004203427746 0 0.0063345219815768962 -0.00050540153510478096 0 0.0057087897611902208 -0.0010309416936743298 0 0.0057087897611902208 -0.0010309416936743298 0 0.0051440480079947793 -0.0011256041198833798 0 0.005469322257943581 -0.0014879226330161827 0 0.0057087897611902208 -0.0010309416936743298 0 0.005469322257943581 -0.0014879226330161827 0 0.0058821602473311269 -0.0015152885501605177 0 0.0064191034695431758 -0.0012677004203427746 0 0.0057087897611902208 -0.0010309416936743298 0 0.0058821602473311269 -0.0015152885501605177 0 0.0064191034695431758 -0.0012677004203427746 0 0.0058821602473311269 -0.0015152885501605177 0 0.0061168570934173119 -0.0016538897369129146 0 0.0047255621178447114 -0.00097870373249263733 0 0.0051253378114071426 -0.00038336043517878023 0 0.0051440480079947793 -0.0011256041198833798 0 0.0051253378114071426 -0.00038336043517878023 0 0.0057087897611902208 -0.0010309416936743298 0 0.0051440480079947793 -0.0011256041198833798 0 0.0051440480079947793 -0.0011256041198833798 0 0.0050897752694304505 -0.0016146755689230529 0 0.005469322257943581 -0.0014879226330161827 0 0.0047255621178447114 -0.00097870373249263733 0 0.0051440480079947793 -0.0011256041198833798 0 0.0048110195382007415 -0.0013327678691167392 0 0.0051440480079947793 -0.0011256041198833798 0 0.0048110195382007415 -0.0013327678691167392 0 0.0050897752694304505 -0.0016146755689230529 0 0.0046935671170867162 -0.0016336356216385443 0 0.0050897752694304505 -0.0016146755689230529 0 0.0049286795373692672 -0.0019336487761485719 0 0.0046935671170867162 -0.0016336356216385443 0 0.0048110195382007415 -0.0013327678691167392 0 0.0050897752694304505 -0.0016146755689230529 0 0.0050897752694304505 -0.0016146755689230529 0 0.0054189029775893105 -0.001822408954915377 0 0.005469322257943581 -0.0014879226330161827 0 0.0050897752694304505 -0.0016146755689230529 0 0.0051949082602722888 -0.0019496207191441206 0 0.0054189029775893105 -0.001822408954915377 0 0.0051949082602722888 -0.0019496207191441206 0 0.0054505300397961502 -0.0020241626607563172 0 0.0054189029775893105 -0.001822408954915377 0 0.0051949082602722888 -0.0019496207191441206 0 0.0050719469831984982 -0.0021512665892869489 0 0.0052335364190535909 -0.0021164363999170532 0 0.0051949082602722888 -0.0019496207191441206 0 0.0052335364190535909 -0.0021164363999170532 0 0.0054505300397961502 -0.0020241626607563172 0 0.0050897752694304505 -0.0016146755689230529 0 0.0051949082602722888 -0.0019496207191441206 0 0.0049286795373692672 -0.0019336487761485719 0 0.0051949082602722888 -0.0019496207191441206 0 0.0049286795373692672 -0.0019336487761485719 0 0.0050719469831984982 -0.0021512665892869489 0 0.004562860551425566 -0.0022695178300686115 0 0.0048481823842762371 -0.0021284817569663245 0 0.0051034653707278848 -0.002329837574609161 0 0.0048481823842762371 -0.0021284817569663245 0 0.0050719469831984982 -0.0021512665892869489 0 0.0051034653707278848 -0.002329837574609161 0 0.0081455196952498494 -0.0022129301747014023 0 0.0084911481250454449 -0.0019368113745100455 0 0.0084901825303955718 -0.0020760417920496913 0 0.0049286795373692672 -0.0019336487761485719 0 0.0048481823842762371 -0.0021284817569663245 0 0.0050719469831984982 -0.0021512665892869489 0 0.0052335364190535909 -0.0021164363999170532 0 0.0051034653707278848 -0.002329837574609161 0 0.0054505300397961502 -0.0020241626607563172 0 0.0050719469831984982 -0.0021512665892869489 0 0.0052335364190535909 -0.0021164363999170532 0 0.0051034653707278848 -0.002329837574609161 0 0.0092195681271305171 -0.0019302165548994625 0 0.0091419550626876695 -0.0018393982095950482 0 0.0089987648456718028 -0.0016803816394191449 0 0.0089625503025276068 -0.0019363601247217625 0 0.0089760700477647722 -0.0017232349694803709 0 0.0084911481250454449 -0.0019368113745100455 0 0.0084901825303955718 -0.0020760417920496913 0 0.0089987648456718028 -0.0016803816394191449 0 0.0091419550626876695 -0.0018393982095950482 0 0.0091565048000748148 -0.0018457590412973273 0 0.0092112974440839018 -0.0019168940916799904 0 0.0091419550626876695 -0.0018393982095950482 0 0.0091565048000748148 -0.0018457590412973273 0 0.009084203158911508 -0.0017587731522638688 0 0.0092195681271305171 -0.0019302165548994625 0 0.0091419550626876695 -0.0018393982095950482 0 0.0092160357759585605 -0.0019301562300584826 0 0.0091419550626876695 -0.0018393982095950482 0 0.0089987648456718028 -0.0016803816394191449 0 0.009084203158911508 -0.0017587731522638688 0 0.0051034653707278848 -0.002329837574609161 0 0.0058228876285683351 -0.0020117352042341306 0 0.0062314472705922988 -0.0020213424722829326 0 0.0084911481250454449 -0.0019368113745100455 0 0.0089987648456718028 -0.0016803816394191449 0 0.0090151013948233036 -0.0015937010307383352 0 0.0068956696161093199 -0.0020982416372451311 0 0.0076289942849411471 -0.0017567316213704407 0 0.0051034653707278848 -0.002329837574609161 0 0.0058228876285683351 -0.0020117352042341306 0 0.0054505300397961502 -0.0020241626607563172 0 0.0058228876285683351 -0.0020117352042341306 0 0.0054505300397961502 -0.0020241626607563172 0 0.005660533347830521 -0.0017868068599012944 0 0.0054505300397961502 -0.0020241626607563172 0 0.0054189029775893105 -0.001822408954915377 0 0.005660533347830521 -0.0017868068599012944 0 0.005660533347830521 -0.0017868068599012944 0 0.005469322257943581 -0.0014879226330161827 0 0.0058821602473311269 -0.0015152885501605177 0 0.0054189029775893105 -0.001822408954915377 0 0.005660533347830521 -0.0017868068599012944 0 0.005469322257943581 -0.0014879226330161827 0 0.0058228876285683351 -0.0020117352042341306 0 0.0059559233946074536 -0.0017959848070560414 0 0.0062314472705922988 -0.0020213424722829326 0 0.0059559233946074536 -0.0017959848070560414 0 0.0061168570934173119 -0.0016538897369129146 0 0.0062314472705922988 -0.0020213424722829326 0 0.0058228876285683351 -0.0020117352042341306 0 0.005660533347830521 -0.0017868068599012944 0 0.0059559233946074536 -0.0017959848070560414 0 0.0059559233946074536 -0.0017959848070560414 0 0.0058821602473311269 -0.0015152885501605177 0 0.0061168570934173119 -0.0016538897369129146 0 0.005660533347830521 -0.0017868068599012944 0 0.0059559233946074536 -0.0017959848070560414 0 0.0058821602473311269 -0.0015152885501605177 0 0.0064191034695431758 -0.0012677004203427746 0 0.0061168570934173119 -0.0016538897369129146 0 0.0062314472705922988 -0.0020213424722829326 0 0.0084646044784423367 -0.001018621782735803 0 0.0090151013948233036 -0.0015937010307383352 0 0.0090027413673687551 -0.0015786509994893051 0 0.0090151013948233036 -0.0015937010307383352 0 0.0090027413673687551 -0.0015786509994893051 0 0.009035291637687317 -0.0016567480907081207 0 0.0089987648456718028 -0.0016803816394191449 0 0.0090151013948233036 -0.0015937010307383352 0 0.009035291637687317 -0.0016567480907081207 0 0.0084646044784423367 -0.001018621782735803 0 0.0090027413673687551 -0.0015786509994893051 0 0.0092642403349850831 -0.0016065940293461744 0 0.0095994499784789258 -0.0012399473744043649 0 0.0084646044784423367 -0.001018621782735803 0 0.0092642403349850831 -0.0016065940293461744 0 0.0090027413673687551 -0.0015786509994893051 0 0.0092642403349850831 -0.0016065940293461744 0 0.009289640489982225 -0.0019002201440932232 0 0.0096545107151478765 -0.0020329380452735173 0 0.0092642403349850831 -0.0016065940293461744 0 0.009289640489982225 -0.0019002201440932232 0 0.0090027413673687551 -0.0015786509994893051 0 0.0091249596948224584 -0.0017812594945137794 0 0.009289640489982225 -0.0019002201440932232 0 0.0089987648456718028 -0.0016803816394191449 0 0.009035291637687317 -0.0016567480907081207 0 0.009084203158911508 -0.0017587731522638688 0 0.009035291637687317 -0.0016567480907081207 0 0.009084203158911508 -0.0017587731522638688 0 0.0091249596948224584 -0.0017812594945137794 0 0.0090027413673687551 -0.0015786509994893051 0 0.009035291637687317 -0.0016567480907081207 0 0.0091249596948224584 -0.0017812594945137794 0 0.0091565048000748148 -0.0018457590412973273 0 0.009084203158911508 -0.0017587731522638688 0 0.0091249596948224584 -0.0017812594945137794 0 0.0091565048000748148 -0.0018457590412973273 0 0.0091249596948224584 -0.0017812594945137794 0 0.0092773365507433595 -0.0019818872396420561 0 0.0091249596948224584 -0.0017812594945137794 0 0.0092773365507433595 -0.0019818872396420561 0 0.009289640489982225 -0.0019002201440932232 0 0.0096545107151478765 -0.0020329380452735173 0 0.009289640489982225 -0.0019002201440932232 0 0.0094640334459591101 -0.0022671686936801055 0 0.0092773365507433595 -0.0019818872396420561 0 0.009289640489982225 -0.0019002201440932232 0 0.0094640334459591101 -0.0022671686936801055 0 0.0094640334459591101 -0.0022671686936801055 0 0.009402692510847948 -0.0020796983088080304 0 0.0095944082340477296 -0.0021774955899413763 0 0.0092773365507433595 -0.0019818872396420561 0 0.0094640334459591101 -0.0022671686936801055 0 0.009402692510847948 -0.0020796983088080304 0 0.0099231474176217343 -0.002157773564328243 0 0.0096059308787019293 -0.0021834769305443713 0 0.009402692510847948 -0.0020796983088080304 0 0.009300193943695358 -0.0020833818900927396 0 0.0092649680941611131 -0.0019878678255948875 0 0.009402692510847948 -0.0020796983088080304 0 0.009300193943695358 -0.0020833818900927396 0 0.0095944082340477296 -0.0021774955899413763 0 0.0092055434252037247 -0.0020904029253332899 0 0.0092391706642496949 -0.0021910654916953713 0 0.009300193943695358 -0.0020833818900927396 0 0.0092055434252037247 -0.0020904029253332899 0 0.009300193943695358 -0.0020833818900927396 0 0.0092079259216220014 -0.002017657965787218 0 0.009300193943695358 -0.0020833818900927396 0 0.0092371946181962084 -0.001980487310221895 0 0.0092649680941611131 -0.0019878678255948875 0 0.0092371946181962084 -0.001980487310221895 0 0.0092160357759585605 -0.0019301562300584826 0 0.0092649680941611131 -0.0019878678255948875 0 0.009300193943695358 -0.0020833818900927396 0 0.0092371946181962084 -0.001980487310221895 0 0.0092079259216220014 -0.002017657965787218 0 0.0092195681271305171 -0.0019302165548994625 0 0.0092371946181962084 -0.001980487310221895 0 0.0092079259216220014 -0.002017657965787218 0 0.0092195681271305171 -0.0019302165548994625 0 0.0092371946181962084 -0.001980487310221895 0 0.0092160357759585605 -0.0019301562300584826 0 0.0091419550626876695 -0.0018393982095950482 0 0.0092160357759585605 -0.0019301562300584826 0 0.0092112974440839018 -0.0019168940916799904 0 0.0092160357759585605 -0.0019301562300584826 0 0.0092112974440839018 -0.0019168940916799904 0 0.0092649680941611131 -0.0019878678255948875 0 0.009402692510847948 -0.0020796983088080304 0 0.0092112974440839018 -0.0019168940916799904 0 0.0092649680941611131 -0.0019878678255948875 0 0.0092773365507433595 -0.0019818872396420561 0 0.009402692510847948 -0.0020796983088080304 0 0.0092112974440839018 -0.0019168940916799904 0 0.0091565048000748148 -0.0018457590412973273 0 0.0092773365507433595 -0.0019818872396420561 0 0.0092112974440839018 -0.0019168940916799904 0 0.0093781039950177284 -0.0023442857893822616 0 0.0095944082340477296 -0.0021774955899413763 0 0.0097937315786349871 -0.0026949589620159616 0 0.0092387871106086907 -0.0025441415667231382 0 0.0093781039950177284 -0.0023442857893822616 0 0.0094529870004514474 -0.0026308010665007171 0 0.0093781039950177284 -0.0023442857893822616 0 0.0097937315786349871 -0.0026949589620159616 0 0.0094529870004514474 -0.0026308010665007171 0 0.0092391706642496949 -0.0021910654916953713 0 0.009300193943695358 -0.0020833818900927396 0 0.0093781039950177284 -0.0023442857893822616 0 0.009300193943695358 -0.0020833818900927396 0 0.0093781039950177284 -0.0023442857893822616 0 0.0095944082340477296 -0.0021774955899413763 0 0.010371817104527458 -0.0020252209014967361 0 0.0095944082340477296 -0.0021774955899413763 0 0.010100339019067463 -0.0024948858043066895 0 0.010371817104527458 -0.0020252209014967361 0 0.010100339019067463 -0.0024948858043066895 0 0.010593558257164234 -0.0026149223155636945 0 0.010100339019067463 -0.0024948858043066895 0 0.010276836412453541 -0.0028446476131613889 0 0.010593558257164234 -0.0026149223155636945 0 0.0095944082340477296 -0.0021774955899413763 0 0.010100339019067463 -0.0024948858043066895 0 0.0097937315786349871 -0.0026949589620159616 0 0.010100339019067463 -0.0024948858043066895 0 0.010276836412453541 -0.0028446476131613889 0 0.0097937315786349871 -0.0026949589620159616 0 0.010276836412453541 -0.0028446476131613889 0 0.0099554930163132712 -0.0030854818407119503 0 0.0097937315786349871 -0.0026949589620159616 0 0.010276836412453541 -0.0028446476131613889 0 0.010427575836270976 -0.0031587951676592561 0 0.010753702672145435 -0.0029768888488661848 0 0.010276836412453541 -0.0028446476131613889 0 0.010427575836270976 -0.0031587951676592561 0 0.0099554930163132712 -0.0030854818407119503 0 0.0099554930163132712 -0.0030854818407119503 0 0.0097937315786349871 -0.0026949589620159616 0 0.0094122689965580597 -0.0029606290250579134 0 0.0099554930163132712 -0.0030854818407119503 0 0.0094122689965580597 -0.0029606290250579134 0 0.0097022166357387373 -0.0034133563523827022 0 0.0092387871106086907 -0.0025441415667231382 0 0.0094529870004514474 -0.0026308010665007171 0 0.0094122689965580597 -0.0029606290250579134 0 0.0097937315786349871 -0.0026949589620159616 0 0.0094529870004514474 -0.0026308010665007171 0 0.0094122689965580597 -0.0029606290250579134 0 0.0094406971067570091 -0.003403721942299967 0 0.0095751502758400307 -0.0030093409426146379 0 0.0098159751245874508 -0.0034958919122619089 0 0.0094906821250813015 -0.0029804501828927486 0 0.0097587648172531623 -0.0034598033114957875 0 0.0099554930163132712 -0.0030854818407119503 0 0.0097022166357387373 -0.0034133563523827022 0 0.010197307093603144 -0.0035003432997922123 0 0.0097022166357387373 -0.0034133563523827022 0 0.010004477242660813 -0.0039583983212373173 0 0.010197307093603144 -0.0035003432997922123 0 0.0097587648172531623 -0.0034598033114957875 0 0.0099905625339723504 -0.0039295365624366059 0 0.0094406971067570091 -0.003403721942299967 0 0.0098159751245874508 -0.0034958919122619089 0 0.0096355909667064001 -0.0039240100408360675 0 0.0098159751245874508 -0.0034958919122619089 0 0.0096355909667064001 -0.0039240100408360675 0 0.010004477242660813 -0.0039583983212373173 0 0.019303849095447276 -0.0026631358831972034 0 0.019357087777019874 -0.0028819953622224782 0 0.019883424484486895 -0.0029784786542293093 0 0.0096355909667064001 -0.0039240100408360675 0 0.010004477242660813 -0.0039583983212373173 0 0.0099748406699348389 -0.0042679911661514889 0 0.014120683956992229 -0.0032516638631228147 0 0.015170875573545278 -0.003695296152650491 0 0.010004477242660813 -0.0039583983212373173 0 0.0099748406699348389 -0.0042679911661514889 0 0.010318327893626354 -0.0040925091469915954 0 0.019357087777019874 -0.0028819953622224782 0 0.019918206654907067 -0.0031276979484858298 0 0.019883424484486895 -0.0029784786542293093 0 0.024580127479294625 -0.0022056372887164868 0 0.024527251196601371 -0.0023165094168239751 0 0.029382507520250314 -0.0014885183401896593 0 0.02952387578742199 -0.0015966552403480321 0 0.029432352984407103 -0.0015896799761396837 0 0.029246520441742373 -0.0015811442478028675 0 0.029382507520250314 -0.0014885183401896593 0 0.029432352984407103 -0.0015896799761396837 0 0.010961460053428866 -0.005119729508515419 0 0.010633114294332287 -0.0037652664223873354 0 0.012088135771289902 -0.0038909347901000995 0 0.0099748406699348389 -0.0042679911661514889 0 0.010961460053428866 -0.005119729508515419 0 0.010318327893626354 -0.0040925091469915954 0 0.024527251196601371 -0.0023165094168239751 0 0.025804675666715401 -0.0026167149519936827 0 0.019918206654907067 -0.0031276979484858298 0 0.019883424484486895 -0.0029784786542293093 0 0.020469077617120628 -0.0033213860688182232 0 0.019918206654907067 -0.0031276979484858298 0 0.020469077617120628 -0.0033213860688182232 0 0.020486042184892094 -0.0034010349775661906 0 0.010961460053428866 -0.005119729508515419 0 0.010318327893626354 -0.0040925091469915954 0 0.010633114294332287 -0.0037652664223873354 0 0.015170875573545278 -0.003695296152650491 0 0.014900941454697196 -0.0042047111384572794 0 0.010004477242660813 -0.0039583983212373173 0 0.010318327893626354 -0.0040925091469915954 0 0.010276548499445677 -0.0037902399950864667 0 0.010318327893626354 -0.0040925091469915954 0 0.010276548499445677 -0.0037902399950864667 0 0.010633114294332287 -0.0037652664223873354 0 0.010633114294332287 -0.0037652664223873354 0 0.010652916496519499 -0.0035565552181269868 0 0.010755927850133523 -0.0037749579245525888 0 0.010989011004991361 -0.0038083773282257686 0 0.010688471019264033 -0.0037682800116225789 0 0.010633114294332287 -0.0037652664223873354 0 0.010652916496519499 -0.0035565552181269868 0 0.010197307093603144 -0.0035003432997922123 0 0.010276548499445677 -0.0037902399950864667 0 0.010633114294332287 -0.0037652664223873354 0 0.010197307093603144 -0.0035003432997922123 0 0.010004477242660813 -0.0039583983212373173 0 0.010276548499445677 -0.0037902399950864667 0 0.010197307093603144 -0.0035003432997922123 0 0.010427575836270976 -0.0031587951676592561 0 0.0099554930163132712 -0.0030854818407119503 0 0.010197307093603144 -0.0035003432997922123 0 0.010427575836270976 -0.0031587951676592561 0 0.010652916496519499 -0.0035565552181269868 0 0.010197307093603144 -0.0035003432997922123 0 0.010427575836270976 -0.0031587951676592561 0 0.010652916496519499 -0.0035565552181269868 0 0.010825068969860945 -0.0033452950465733176 0 0.010825068969860945 -0.0033452950465733176 0 0.011056681786658161 -0.0035076409508370799 0 0.01110794119941047 -0.0031255036642712478 0 0.010825068969860945 -0.0033452950465733176 0 0.011056681786658161 -0.0035076409508370799 0 0.010859521740326662 -0.0036077366467983196 0 0.010652916496519499 -0.0035565552181269868 0 0.010825068969860945 -0.0033452950465733176 0 0.010859521740326662 -0.0036077366467983196 0 0.010652916496519499 -0.0035565552181269868 0 0.010859521740326662 -0.0036077366467983196 0 0.010755927850133523 -0.0037749579245525888 0 0.010688471019264033 -0.0037682800116225789 0 0.016406044401930841 -0.0026696223249022383 0 0.010859521740326662 -0.0036077366467983196 0 0.010755927850133523 -0.0037749579245525888 0 0.011025091843658297 -0.003834548386504392 0 0.011056681786658161 -0.0035076409508370799 0 0.010859521740326662 -0.0036077366467983196 0 0.011025091843658297 -0.003834548386504392 0 0.011253019371541701 -0.0023209771350257316 0 0.016406044401930841 -0.0026696223249022383 0 0.01256747332196588 -0.00094715414339342091 0 0.012485310377918855 -0.0015096229168051621 0 0.012781745828508023 -0.0012947764766455892 0 0.013580324846707707 -0.0041597073020592096 0 0.012507318022592646 -0.005089666137878225 0 0.013249601598936121 -0.0063117944565685398 0 0.010961460053428866 -0.005119729508515419 0 0.012088135771289902 -0.0038909347901000995 0 0.012507318022592646 -0.005089666137878225 0 0.012088135771289902 -0.0038909347901000995 0 0.013580324846707707 -0.0041597073020592096 0 0.012507318022592646 -0.005089666137878225 0 0.027666527345505124 -0.0023996056263965635 0 0.028199135177321536 -0.0026135641122874364 0 0.028002601454310452 -0.0027355576028632142 0 0.012485310377918855 -0.0015096229168051621 0 0.013032469003411023 -0.0016869920728921446 0 0.012781745828508023 -0.0012947764766455892 0 0.016406044401930841 -0.0026696223249022383 0 0.021391452402098179 -0.0021516562421051173 0 0.013032469003411023 -0.0016869920728921446 0 0.012781745828508023 -0.0012947764766455892 0 0.013047919487913106 -0.0010772081685953606 0 0.013032469003411023 -0.0016869920728921446 0 0.013047919487913106 -0.0010772081685953606 0 0.013416416807344959 -0.0013343485514851893 0 0.01256747332196588 -0.00094715414339342091 0 0.012781745828508023 -0.0012947764766455892 0 0.013047919487913106 -0.0010772081685953606 0 0.01256747332196588 -0.00094715414339342091 0 0.013047919487913106 -0.0010772081685953606 0 0.01302828286634701 -0.0005543383542900459 0 0.01256747332196588 -0.00094715414339342091 0 0.01302828286634701 -0.0005543383542900459 0 0.012705891514378214 -0.00045105743602880105 0 0.011253019371541701 -0.0023209771350257316 0 0.011976741078734374 -0.0017635627889662575 0 0.013047919487913106 -0.0010772081685953606 0 0.01302828286634701 -0.0005543383542900459 0 0.01344816949258181 -0.00067851115316228019 0 0.012835188089348849 -0.0001919143600767681 0 0.012705891514378214 -0.00045105743602880105 0 0.013101966191724124 -0.00020552572849675857 0 0.01302828286634701 -0.0005543383542900459 0 0.012705891514378214 -0.00045105743602880105 0 0.013101966191724124 -0.00020552572849675857 0 0.012835188089348849 -0.0001919143600767681 0 0.012918535455320875 -0.00017760419809407287 0 0.013101966191724124 -0.00020552572849675857 0 0.011987246315208 -0.0014686012289976621 0 0.011976741078734374 -0.0017635627889662575 0 0.011163105888548793 -0.0027124235412088996 0 0.010753702672145435 -0.0029768888488661848 0 0.010593558257164234 -0.0026149223155636945 0 0.010825068969860945 -0.0033452950465733176 0 0.01110794119941047 -0.0031255036642712478 0 0.010753702672145435 -0.0029768888488661848 0 0.011163105888548793 -0.0027124235412088996 0 0.01110794119941047 -0.0031255036642712478 0 0.010753702672145435 -0.0029768888488661848 0 0.010427575836270976 -0.0031587951676592561 0 0.010825068969860945 -0.0033452950465733176 0 0.010753702672145435 -0.0029768888488661848 0 0.010276836412453541 -0.0028446476131613889 0 0.010753702672145435 -0.0029768888488661848 0 0.010593558257164234 -0.0026149223155636945 0 0.011163105888548793 -0.0027124235412088996 0 0.010593558257164234 -0.0026149223155636945 0 0.010884444358762034 -0.0023269143059302623 0 0.010371817104527458 -0.0020252209014967361 0 0.010593558257164234 -0.0026149223155636945 0 0.010884444358762034 -0.0023269143059302623 0 0.011125879702804806 -0.0021831296455050776 0 0.010884444358762034 -0.0023269143059302623 0 0.011205719661101048 -0.0023370354347825705 0 0.012868006685115488 -0.00028760704034398358 0 0.012918535455320875 -0.00017760419809407287 0 0.012717306534943178 -0.00040135049812019204 0 0.012835188089348849 -0.0001919143600767681 0 0.012868006685115488 -0.00028760704034398358 0 0.012918535455320875 -0.00017760419809407287 0 0.011987246315208 -0.0014686012289976621 0 0.012033752959295076 -0.0013166116105267462 0 0.011163105888548793 -0.0027124235412088996 0 0.010884444358762034 -0.0023269143059302623 0 0.011205719661101048 -0.0023370354347825705 0 0.013083788511082727 3.7306352299180624e-05 0 0.012918535455320875 -0.00017760419809407287 0 0.012844434520973889 -0.00027926753691933889 0 0.012918535455320875 -0.00017760419809407287 0 0.012717306534943178 -0.00040135049812019204 0 0.012844434520973889 -0.00027926753691933889 0 0.012710748667963028 -0.00046811461098880929 0 0.012717306534943178 -0.00040135049812019204 0 0.012844434520973889 -0.00027926753691933889 0 0.012710748667963028 -0.00046811461098880929 0 0.013083788511082727 3.7306352299180624e-05 0 0.012844434520973889 -0.00027926753691933889 0 0.013083788511082727 3.7306352299180624e-05 0 0.012567912658411069 -0.00030666882177966907 0 0.012377557355082952 0.00034185698420764803 0 0.012567912658411069 -0.00030666882177966907 0 0.012377557355082952 0.00034185698420764803 0 0.012053715360202989 0.00011143869742207872 0 0.012710748667963028 -0.00046811461098880929 0 0.013083788511082727 3.7306352299180624e-05 0 0.012567912658411069 -0.00030666882177966907 0 0.012055277079473792 -0.00049752915507479852 0 0.012567912658411069 -0.00030666882177966907 0 0.012053715360202989 0.00011143869742207872 0 0.013158268894583569 4.9529187041974607e-05 0 0.013389211007813581 0.00020911973486518361 0 0.013083788511082727 3.7306352299180624e-05 0 0.014357338352724198 0.00015753406640575725 0 0.013594196898696448 -0.00020087950057995612 0 0.014357338352724198 0.00015753406640575725 0 0.014336992394196233 -0.00053565045698075427 0 0.015516697868512449 -8.120495045605238e-05 0 0.014357338352724198 0.00015753406640575725 0 0.013594196898696448 -0.00020087950057995612 0 0.014336992394196233 -0.00053565045698075427 0 0.013594196898696448 -0.00020087950057995612 0 0.013101966191724124 -0.00020552572849675857 0 0.01344816949258181 -0.00067851115316228019 0 0.013083788511082727 3.7306352299180624e-05 0 0.013594196898696448 -0.00020087950057995612 0 0.013101966191724124 -0.00020552572849675857 0 0.013083788511082727 3.7306352299180624e-05 0 0.012918535455320875 -0.00017760419809407287 0 0.013101966191724124 -0.00020552572849675857 0 0.013594196898696448 -0.00020087950057995612 0 0.01344816949258181 -0.00067851115316228019 0 0.014336992394196233 -0.00053565045698075427 0 0.01302828286634701 -0.0005543383542900459 0 0.013101966191724124 -0.00020552572849675857 0 0.01344816949258181 -0.00067851115316228019 0 0.01344816949258181 -0.00067851115316228019 0 0.013988331405642046 -0.0013143462104428178 0 0.014336992394196233 -0.00053565045698075427 0 0.01344816949258181 -0.00067851115316228019 0 0.013416416807344959 -0.0013343485514851893 0 0.013988331405642046 -0.0013143462104428178 0 0.013047919487913106 -0.0010772081685953606 0 0.01344816949258181 -0.00067851115316228019 0 0.013416416807344959 -0.0013343485514851893 0 0.013416416807344959 -0.0013343485514851893 0 0.013988331405642046 -0.0013143462104428178 0 0.01363943314108948 -0.001960670791831676 0 0.013988331405642046 -0.0013143462104428178 0 0.01363943314108948 -0.001960670791831676 0 0.014427725274427382 -0.0022815105673465248 0 0.021391452402098179 -0.0021516562421051173 0 0.0208262817191779 -0.0024544475962980979 0 0.013032469003411023 -0.0016869920728921446 0 0.013416416807344959 -0.0013343485514851893 0 0.01363943314108948 -0.001960670791831676 0 0.013988331405642046 -0.0013143462104428178 0 0.014761732671325566 -0.0017198112053484716 0 0.014427725274427382 -0.0022815105673465248 0 0.013988331405642046 -0.0013143462104428178 0 0.014761732671325566 -0.0017198112053484716 0 0.014652119661926201 -0.0010777469673094928 0 0.014761732671325566 -0.0017198112053484716 0 0.014652119661926201 -0.0010777469673094928 0 0.015462909198986994 -0.0014275331580079467 0 0.014652119661926201 -0.0010777469673094928 0 0.014336992394196233 -0.00053565045698075427 0 0.015518326921831589 -0.00068513422413242237 0 0.013988331405642046 -0.0013143462104428178 0 0.014652119661926201 -0.0010777469673094928 0 0.014336992394196233 -0.00053565045698075427 0 0.014336992394196233 -0.00053565045698075427 0 0.015516697868512449 -8.120495045605238e-05 0 0.015518326921831589 -0.00068513422413242237 0 0.013859286217547584 9.73276159069179e-05 0 0.014765180323020254 -0.00025055637662736361 0 0.015516697868512449 -8.120495045605238e-05 0 0.015518326921831589 -0.00068513422413242237 0 0.016541292936771975 -0.00056695764762517613 0 0.015518326921831589 -0.00068513422413242237 0 0.016371443151287572 -0.00071738282572332438 0 0.016541292936771975 -0.00056695764762517613 0 0.015518326921831589 -0.00068513422413242237 0 0.015462909198986994 -0.0014275331580079467 0 0.016371443151287572 -0.00071738282572332438 0 0.014652119661926201 -0.0010777469673094928 0 0.015518326921831589 -0.00068513422413242237 0 0.015462909198986994 -0.0014275331580079467 0 0.015462909198986994 -0.0014275331580079467 0 0.016371443151287572 -0.00071738282572332438 0 0.016481619734551034 -0.0019351758093314039 0 0.016505351777061583 -0.0007613983907370968 0 0.016310713449805957 -0.00076785157626724503 0 0.015462909198986994 -0.0014275331580079467 0 0.016481619734551034 -0.0019351758093314039 0 0.015442528446579928 -0.0026539153978884355 0 0.014761732671325566 -0.0017198112053484716 0 0.015462909198986994 -0.0014275331580079467 0 0.015442528446579928 -0.0026539153978884355 0 0.017357791892365117 8.8216512675673947e-07 0 0.016655520897228476 2.5885702772758292e-05 0 0.01576050817150389 -6.6129271418347151e-05 0 0.017357791892365117 8.8216512675673947e-07 0 0.016655520897228476 2.5885702772758292e-05 0 0.017256637680845024 7.0504337541833081e-05 0 0.016893681181453783 5.3371291397595989e-05 0 0.016689899516200122 -8.1395120806707183e-05 0 0.017256637680845024 7.0504337541833081e-05 0 0.016655520897228476 2.5885702772758292e-05 0 0.016689899516200122 -8.1395120806707183e-05 0 0.017256637680845024 7.0504337541833081e-05 0 0.016371443151287572 -0.00071738282572332438 0 0.016689899516200122 -8.1395120806707183e-05 0 0.016481173724558904 -0.00027530446376289037 0 0.016481173724558904 -0.00027530446376289037 0 0.01576050817150389 -6.6129271418347151e-05 0 0.016541292936771975 -0.00056695764762517613 0 0.016655520897228476 2.5885702772758292e-05 0 0.016689899516200122 -8.1395120806707183e-05 0 0.016481173724558904 -0.00027530446376289037 0 0.016371443151287572 -0.00071738282572332438 0 0.016893681181453783 5.3371291397595989e-05 0 0.016689899516200122 -8.1395120806707183e-05 0 0.016655520897228476 2.5885702772758292e-05 0 0.016481173724558904 -0.00027530446376289037 0 0.01576050817150389 -6.6129271418347151e-05 0 0.017357791892365117 8.8216512675673947e-07 0 0.015319013868752387 -1.2506483149464156e-06 0 0.01576050817150389 -6.6129271418347151e-05 0 0.015319013868752387 -1.2506483149464156e-06 0 0.01576050817150389 -6.6129271418347151e-05 0 0.012976726771354625 -8.9453066179984709e-05 0 0.015319013868752387 -1.2506483149464156e-06 0 0.012976726771354625 -8.9453066179984709e-05 0 0.0132820705667176 7.0878147076731932e-07 0 0.015581202130500536 -0.00010288531371235754 0 0.014765180323020254 -0.00025055637662736361 0 0.016371443151287572 -0.00071738282572332438 0 0.016481173724558904 -0.00027530446376289037 0 0.016541292936771975 -0.00056695764762517613 0 0.012152916154814125 0.00032547335438606217 0 0.012976726771354625 -8.9453066179984709e-05 0 0.012463502235591227 0.00023929666425964399 0 0.012976726771354625 -8.9453066179984709e-05 0 0.0132820705667176 7.0878147076731932e-07 0 0.012463502235591227 0.00023929666425964399 0 0.0132820705667176 7.0878147076731932e-07 0 0.01124436838868907 1.2107878434447643e-06 0 0.012463502235591227 0.00023929666425964399 0 0.01124436838868907 1.2107878434447643e-06 0 0.011816085883774708 0.00026153598108157814 0 0.012463502235591227 0.00023929666425964399 0 0.012377557355082952 0.00034185698420764803 0 0.012152916154814125 0.00032547335438606217 0 0.012053715360202989 0.00011143869742207872 0 0.012152916154814125 0.00032547335438606217 0 0.011816085883774708 0.00026153598108157814 0 0.012463502235591227 0.00023929666425964399 0 0.012152916154814125 0.00032547335438606217 0 0.011816085883774708 0.00026153598108157814 0 0.012053715360202989 0.00011143869742207872 0 0.013389211007813581 0.00020911973486518361 0 0.013859286217547584 9.73276159069179e-05 0 0.011816085883774708 0.00026153598108157814 0 0.012053715360202989 0.00011143869742207872 0 0.011563084233120061 -0.00011953936121629258 0 0.011539734600182525 -0.00073343775392540516 0 0.012055277079473792 -0.00049752915507479852 0 0.011563084233120061 -0.00011953936121629258 0 0.012055277079473792 -0.00049752915507479852 0 0.012053715360202989 0.00011143869742207872 0 0.011563084233120061 -0.00011953936121629258 0 0.010692597596134158 -0.0009061789361373097 0 0.011563084233120061 -0.00011953936121629258 0 0.010787848279722944 0.00014173366797966654 0 0.010692597596134158 -0.0009061789361373097 0 0.0092111900836210573 -1.8866036296111459e-06 0 0.010787848279722944 0.00014173366797966654 0 0.01124436838868907 1.2107878434447643e-06 0 0.0092111900836210573 -1.8866036296111459e-06 0 0.010787848279722944 0.00014173366797966654 0 0.01124436838868907 1.2107878434447643e-06 0 0.011816085883774708 0.00026153598108157814 0 0.010787848279722944 0.00014173366797966654 0 0.011816085883774708 0.00026153598108157814 0 0.011563084233120061 -0.00011953936121629258 0 0.010787848279722944 0.00014173366797966654 0 0.026211094127844899 -1.6513832972641782e-05 0 0.025004103414476921 -2.1314192981469227e-05 0 0.025410442946639102 -0.00026153492596390023 0 0.026211094127844899 -1.6513832972641782e-05 0 0.025004103414476921 -2.1314192981469227e-05 0 0.025087998370072234 1.8922952579234933e-07 0 0.025004103414476921 -2.1314192981469227e-05 0 0.025087998370072234 1.8922952579234933e-07 0 0.023190440488886157 -3.2842620924207693e-07 0 0.026211094127844899 -1.6513832972641782e-05 0 0.025087998370072234 1.8922952579234933e-07 0 0.027151528150444162 0.00010138679774513332 0 0.025087998370072234 1.8922952579234933e-07 0 0.027151528150444162 0.00010138679774513332 0 0.02698502276983417 2.7520569176296522e-07 0 0.026211094127844899 -1.6513832972641782e-05 0 0.027659300771799903 -1.2650543937796688e-05 0 0.027151528150444162 0.00010138679774513332 0 0.026211094127844899 -1.6513832972641782e-05 0 0.026983658433149642 -0.000204893593426316 0 0.027659300771799903 -1.2650543937796688e-05 0 0.028071625203913226 -0.00024170799129342953 0 0.026983658433149642 -0.000204893593426316 0 0.027659300771799903 -1.2650543937796688e-05 0 0.02764859205700046 -0.000430327071353257 0 0.026983658433149642 -0.000204893593426316 0 0.026798522956301175 -0.0005417023802247663 0 0.028071625203913226 -0.00024170799129342953 0 0.02764859205700046 -0.000430327071353257 0 0.026983658433149642 -0.000204893593426316 0 0.026211094127844899 -1.6513832972641782e-05 0 0.026983658433149642 -0.000204893593426316 0 0.025410442946639102 -0.00026153492596390023 0 0.026798522956301175 -0.0005417023802247663 0 0.025952430848926591 -0.00072311377761103204 0 0.025410442946639102 -0.00026153492596390023 0 0.026983658433149642 -0.000204893593426316 0 0.026798522956301175 -0.0005417023802247663 0 0.025410442946639102 -0.00026153492596390023 0 0.02764859205700046 -0.000430327071353257 0 0.026798522956301175 -0.0005417023802247663 0 0.02799706872119034 -0.00072830008619303229 0 0.026798522956301175 -0.0005417023802247663 0 0.027197574897175 -0.0010298518184530111 0 0.02799706872119034 -0.00072830008619303229 0 0.026798522956301175 -0.0005417023802247663 0 0.027197574897175 -0.0010298518184530111 0 0.025952430848926591 -0.00072311377761103204 0 0.027197574897175 -0.0010298518184530111 0 0.025952430848926591 -0.00072311377761103204 0 0.02647109030704458 -0.0016099594407605433 0 0.027197574897175 -0.0010298518184530111 0 0.02647109030704458 -0.0016099594407605433 0 0.027373309602469472 -0.0015845168705032552 0 0.025952430848926591 -0.00072311377761103204 0 0.024199427833341947 -0.00063857630506520516 0 0.025410442946639102 -0.00026153492596390023 0 0.025952430848926591 -0.00072311377761103204 0 0.024199427833341947 -0.00063857630506520516 0 0.02647109030704458 -0.0016099594407605433 0 0.024199427833341947 -0.00063857630506520516 0 0.025410442946639102 -0.00026153492596390023 0 0.023190440488886157 -3.2842620924207693e-07 0 0.025004103414476921 -2.1314192981469227e-05 0 0.025410442946639102 -0.00026153492596390023 0 0.023190440488886157 -3.2842620924207693e-07 0 0.024199427833341947 -0.00063857630506520516 0 0.023190440488886157 -3.2842620924207693e-07 0 0.021293233946952476 1.8744002132505486e-07 0 0.024199427833341947 -0.00063857630506520516 0 0.021293233946952476 1.8744002132505486e-07 0 0.021562740369625751 -0.00017327283306569345 0 0.024199427833341947 -0.00063857630506520516 0 0.022559052719167031 -0.00031041975792779527 0 0.021562740369625751 -0.00017327283306569345 0 0.024009241233991341 -0.00051119934977119958 0 0.024107023703581601 -0.0013744582469433218 0 0.022559052719167031 -0.00031041975792779527 0 0.021562740369625751 -0.00017327283306569345 0 0.021547560631798298 -0.0011067153674842707 0 0.021293233946952476 1.8744002132505486e-07 0 0.021562740369625751 -0.00017327283306569345 0 0.019398039532270605 -3.1085174834967839e-06 0 0.019391604043509068 -1.6189438669286511e-06 0 0.017738148666416789 -0.00037223824275205489 0 0.017256637680845024 7.0504337541833081e-05 0 0.021562740369625751 -0.00017327283306569345 0 0.019398039532270605 -3.1085174834967839e-06 0 0.021547560631798298 -0.0011067153674842707 0 0.019394854306440272 -4.3735763845788658e-07 0 0.019500911274773304 -0.00061500313956035614 0 0.024107023703581601 -0.0013744582469433218 0 0.020341688746323895 -0.0021711605583143068 0 0.017738148666416789 -0.00037223824275205489 0 0.017256637680845024 7.0504337541833081e-05 0 0.01709557499447727 -0.00024776827004162631 0 0.022559052719167031 -0.00031041975792779527 0 0.021547560631798298 -0.0011067153674842707 0 0.02244353677335097 -0.0013732617619789703 0 0.019500911274773304 -0.00061500313956035614 0 0.020341688746323895 -0.0021711605583143068 0 0.016893681181453783 5.3371291397595989e-05 0 0.017256637680845024 7.0504337541833081e-05 0 0.01709557499447727 -0.00024776827004162631 0 0.017357791892365117 8.8216512675673947e-07 0 0.019391604043509068 -1.6189438669286511e-06 0 0.017256637680845024 7.0504337541833081e-05 0 0.016310713449805957 -0.00076785157626724503 0 0.020341688746323895 -0.0021711605583143068 0 0.016481619734551034 -0.0019351758093314039 0 0.015442528446579928 -0.0026539153978884355 0 0.016626390038791225 -0.0029650377571473875 0 0.024921358924946783 -0.0023844695151860155 0 0.025233515180779199 -0.003472947452548507 0 0.026340794839636066 -0.0027624384146749891 0 0.021200035965766393 -0.003235765000923515 0 0.020341688746323895 -0.0021711605583143068 0 0.026698667967368674 -0.003549299558367182 0 0.025233515180779199 -0.003472947452548507 0 0.026340794839636066 -0.0027624384146749891 0 0.026698667967368674 -0.003549299558367182 0 0.026340794839636066 -0.0027624384146749891 0 0.027544790933211025 -0.0029372545481327061 0 0.026340794839636066 -0.0027624384146749891 0 0.02647109030704458 -0.0016099594407605433 0 0.027296189540556102 -0.0022016416936592241 0 0.024921358924946783 -0.0023844695151860155 0 0.026340794839636066 -0.0027624384146749891 0 0.02647109030704458 -0.0016099594407605433 0 0.024199427833341947 -0.00063857630506520516 0 0.024921358924946783 -0.0023844695151860155 0 0.02647109030704458 -0.0016099594407605433 0 0.02647109030704458 -0.0016099594407605433 0 0.027373309602469472 -0.0015845168705032552 0 0.027296189540556102 -0.0022016416936592241 0 0.027373309602469472 -0.0015845168705032552 0 0.027854351891111604 -0.0018166148100140678 0 0.027923336971331206 -0.0012965158647009732 0 0.027373309602469472 -0.0015845168705032552 0 0.027854351891111604 -0.0018166148100140678 0 0.027296189540556102 -0.0022016416936592241 0 0.028220898201804848 -0.001577780804615077 0 0.027854351891111604 -0.0018166148100140678 0 0.028309172411029131 -0.0019254964292791524 0 0.028220898201804848 -0.001577780804615077 0 0.027854351891111604 -0.0018166148100140678 0 0.027923336971331206 -0.0012965158647009732 0 0.027854351891111604 -0.0018166148100140678 0 0.027920832488770482 -0.0022943006178224598 0 0.028309172411029131 -0.0019254964292791524 0 0.027920832488770482 -0.0022943006178224598 0 0.027544790933211025 -0.0029372545481327061 0 0.028133142474513578 -0.0026408111576415663 0 0.027920832488770482 -0.0022943006178224598 0 0.028266432240290351 -0.0023070859527564375 0 0.028309172411029131 -0.0019254964292791524 0 0.027920832488770482 -0.0022943006178224598 0 0.028133142474513578 -0.0026408111576415663 0 0.028266432240290351 -0.0023070859527564375 0 0.027920832488770482 -0.0022943006178224598 0 0.027296189540556102 -0.0022016416936592241 0 0.027544790933211025 -0.0029372545481327061 0 0.027854351891111604 -0.0018166148100140678 0 0.027920832488770482 -0.0022943006178224598 0 0.027296189540556102 -0.0022016416936592241 0 0.026340794839636066 -0.0027624384146749891 0 0.027296189540556102 -0.0022016416936592241 0 0.027544790933211025 -0.0029372545481327061 0 0.027544790933211025 -0.0029372545481327061 0 0.028133142474513578 -0.0026408111576415663 0 0.028110928252526837 -0.0030017578680795473 0 0.027544790933211025 -0.0029372545481327061 0 0.027829759488170916 -0.0033456177035261006 0 0.028110928252526837 -0.0030017578680795473 0 0.021200035965766393 -0.003235765000923515 0 0.021109631847300497 -0.0027905561868994556 0 0.014761732671325566 -0.0017198112053484716 0 0.015442528446579928 -0.0026539153978884355 0 0.014427725274427382 -0.0022815105673465248 0 0.026698667967368674 -0.003549299558367182 0 0.027544790933211025 -0.0029372545481327061 0 0.027829759488170916 -0.0033456177035261006 0 0.028379900355491174 -0.0029712603980097847 0 0.02837712870079202 -0.0028288690402911787 0 0.028445504305119662 -0.0028362738152821932 0 0.028379900355491174 -0.0029712603980097847 0 0.028445504305119662 -0.0028362738152821932 0 0.028310682827879963 -0.002820026768943538 0 0.0208262817191779 -0.0024544475962980979 0 0.021109631847300497 -0.0027905561868994556 0 0.028379900355491174 -0.0029712603980097847 0 0.02837712870079202 -0.0028288690402911787 0 0.028110928252526837 -0.0030017578680795473 0 0.028379900355491174 -0.0029712603980097847 0 0.027829759488170916 -0.0033456177035261006 0 0.028110928252526837 -0.0030017578680795473 0 0.028133142474513578 -0.0026408111576415663 0 0.02837712870079202 -0.0028288690402911787 0 0.028110928252526837 -0.0030017578680795473 0 0.028133142474513578 -0.0026408111576415663 0 0.02837712870079202 -0.0028288690402911787 0 0.028411098349798741 -0.0025137464308882256 0 0.02837712870079202 -0.0028288690402911787 0 0.028536769349321867 -0.0026610227216814606 0 0.028411098349798741 -0.0025137464308882256 0 0.028536769349321867 -0.0026610227216814606 0 0.028511029231096777 -0.0027293357181584796 0 0.028694339328178883 -0.0024659566709117112 0 0.02837712870079202 -0.0028288690402911787 0 0.028536769349321867 -0.0026610227216814606 0 0.028445504305119662 -0.0028362738152821932 0 0.028445504305119662 -0.0028362738152821932 0 0.028511029231096777 -0.0027293357181584796 0 0.028391548096978317 -0.0028494630757483486 0 0.028536769349321867 -0.0026610227216814606 0 0.028445504305119662 -0.0028362738152821932 0 0.028511029231096777 -0.0027293357181584796 0 0.028536769349321867 -0.0026610227216814606 0 0.028563452674792076 -0.0024106276093770196 0 0.028694339328178883 -0.0024659566709117112 0 0.028563452674792076 -0.0024106276093770196 0 0.028694339328178883 -0.0024659566709117112 0 0.028735063232088034 -0.0021799495170933113 0 0.028694339328178883 -0.0024659566709117112 0 0.028735063232088034 -0.0021799495170933113 0 0.028872595590471652 -0.0022309574123895231 0 0.028563452674792076 -0.0024106276093770196 0 0.028735063232088034 -0.0021799495170933113 0 0.028530697443530519 -0.00213838507117754 0 0.028735063232088034 -0.0021799495170933113 0 0.028530697443530519 -0.00213838507117754 0 0.028875668677267111 -0.001875113127787715 0 0.029058827857028399 -0.0020123815526188627 0 0.028872595590471652 -0.0022309574123895231 0 0.02913096836375742 -0.0020675140650506332 0 0.0289401373796246 -0.002019651477352774 0 0.029058827857028399 -0.0020123815526188627 0 0.028872595590471652 -0.0022309574123895231 0 0.028735063232088034 -0.0021799495170933113 0 0.0289401373796246 -0.002019651477352774 0 0.028872595590471652 -0.0022309574123895231 0 0.028133142474513578 -0.0026408111576415663 0 0.028411098349798741 -0.0025137464308882256 0 0.028266432240290351 -0.0023070859527564375 0 0.028536769349321867 -0.0026610227216814606 0 0.028563452674792076 -0.0024106276093770196 0 0.028411098349798741 -0.0025137464308882256 0 0.028563452674792076 -0.0024106276093770196 0 0.028411098349798741 -0.0025137464308882256 0 0.028530697443530519 -0.00213838507117754 0 0.028411098349798741 -0.0025137464308882256 0 0.028530697443530519 -0.00213838507117754 0 0.028266432240290351 -0.0023070859527564375 0 0.028530697443530519 -0.00213838507117754 0 0.028266432240290351 -0.0023070859527564375 0 0.028309172411029131 -0.0019254964292791524 0 0.028530697443530519 -0.00213838507117754 0 0.028614383974407662 -0.0018359967213658472 0 0.028875668677267111 -0.001875113127787715 0 0.028530697443530519 -0.00213838507117754 0 0.028309172411029131 -0.0019254964292791524 0 0.028614383974407662 -0.0018359967213658472 0 0.028614383974407662 -0.0018359967213658472 0 0.028559885220821021 -0.0016020709423149077 0 0.028802170138580656 -0.0016395071751623158 0 0.028220898201804848 -0.001577780804615077 0 0.028309172411029131 -0.0019254964292791524 0 0.028559885220821021 -0.0016020709423149077 0 0.028309172411029131 -0.0019254964292791524 0 0.028614383974407662 -0.0018359967213658472 0 0.028559885220821021 -0.0016020709423149077 0 0.0289401373796246 -0.002019651477352774 0 0.028875668677267111 -0.001875113127787715 0 0.029120446232608503 -0.001847462373353577 0 0.028875668677267111 -0.001875113127787715 0 0.029108297767863032 -0.001615264706252459 0 0.029120446232608503 -0.001847462373353577 0 0.0289401373796246 -0.002019651477352774 0 0.029058827857028399 -0.0020123815526188627 0 0.029120446232608503 -0.001847462373353577 0 0.028735063232088034 -0.0021799495170933113 0 0.0289401373796246 -0.002019651477352774 0 0.028875668677267111 -0.001875113127787715 0 0.028614383974407662 -0.0018359967213658472 0 0.028875668677267111 -0.001875113127787715 0 0.028802170138580656 -0.0016395071751623158 0 0.028875668677267111 -0.001875113127787715 0 0.028802170138580656 -0.0016395071751623158 0 0.029108297767863032 -0.001615264706252459 0 0.029108297767863032 -0.001615264706252459 0 0.028980328286943021 -0.0014318369011211637 0 0.029172029668493148 -0.0013473926326991179 0 0.028802170138580656 -0.0016395071751623158 0 0.028980328286943021 -0.0014318369011211637 0 0.028785556611884165 -0.0014216063260776501 0 0.028802170138580656 -0.0016395071751623158 0 0.029108297767863032 -0.001615264706252459 0 0.028980328286943021 -0.0014318369011211637 0 0.028980328286943021 -0.0014318369011211637 0 0.029172029668493148 -0.0013473926326991179 0 0.028999539369044723 -0.0011841279450667775 0 0.028980328286943021 -0.0014318369011211637 0 0.028999539369044723 -0.0011841279450667775 0 0.028785556611884165 -0.0014216063260776501 0 0.029172029668493148 -0.0013473926326991179 0 0.029232832372961412 -0.0011024135458037269 0 0.028999539369044723 -0.0011841279450667775 0 0.029232832372961412 -0.0011024135458037269 0 0.028999539369044723 -0.0011841279450667775 0 0.029243763734890047 -0.00083536213770622043 0 0.028999539369044723 -0.0011841279450667775 0 0.028838748482370852 -0.000957073748977842 0 0.029243763734890047 -0.00083536213770622043 0 0.028999539369044723 -0.0011841279450667775 0 0.028838748482370852 -0.000957073748977842 0 0.028562543523426038 -0.001275883075521617 0 0.028999539369044723 -0.0011841279450667775 0 0.028562543523426038 -0.001275883075521617 0 0.028785556611884165 -0.0014216063260776501 0 0.028559885220821021 -0.0016020709423149077 0 0.028802170138580656 -0.0016395071751623158 0 0.028785556611884165 -0.0014216063260776501 0 0.028220898201804848 -0.001577780804615077 0 0.028559885220821021 -0.0016020709423149077 0 0.028562543523426038 -0.001275883075521617 0 0.028559885220821021 -0.0016020709423149077 0 0.028562543523426038 -0.001275883075521617 0 0.028785556611884165 -0.0014216063260776501 0 0.028220898201804848 -0.001577780804615077 0 0.028562543523426038 -0.001275883075521617 0 0.027923336971331206 -0.0012965158647009732 0 0.028562543523426038 -0.001275883075521617 0 0.027923336971331206 -0.0012965158647009732 0 0.028409266734073308 -0.00099430769824088161 0 0.027197574897175 -0.0010298518184530111 0 0.027923336971331206 -0.0012965158647009732 0 0.02799706872119034 -0.00072830008619303229 0 0.027197574897175 -0.0010298518184530111 0 0.027373309602469472 -0.0015845168705032552 0 0.027923336971331206 -0.0012965158647009732 0 0.027923336971331206 -0.0012965158647009732 0 0.02799706872119034 -0.00072830008619303229 0 0.028409266734073308 -0.00099430769824088161 0 0.02799706872119034 -0.00072830008619303229 0 0.028409266734073308 -0.00099430769824088161 0 0.028912078924703426 -0.00070575122856308275 0 0.028838748482370852 -0.000957073748977842 0 0.028409266734073308 -0.00099430769824088161 0 0.028912078924703426 -0.00070575122856308275 0 0.028838748482370852 -0.000957073748977842 0 0.028562543523426038 -0.001275883075521617 0 0.028409266734073308 -0.00099430769824088161 0 0.02799706872119034 -0.00072830008619303229 0 0.028912078924703426 -0.00070575122856308275 0 0.028490355742231663 -0.00048666535675380977 0 0.028071625203913226 -0.00024170799129342953 0 0.02764859205700046 -0.000430327071353257 0 0.028490355742231663 -0.00048666535675380977 0 0.02764859205700046 -0.000430327071353257 0 0.02799706872119034 -0.00072830008619303229 0 0.028490355742231663 -0.00048666535675380977 0 0.028071625203913226 -0.00024170799129342953 0 0.028490355742231663 -0.00048666535675380977 0 0.029120751975821715 -0.00039797870636619476 0 0.028490355742231663 -0.00048666535675380977 0 0.02914515401809217 -0.00055799803400936507 0 0.029120751975821715 -0.00039797870636619476 0 0.028912078924703426 -0.00070575122856308275 0 0.02914515401809217 -0.00055799803400936507 0 0.029524968698612472 -0.00065908808724941055 0 0.02914515401809217 -0.00055799803400936507 0 0.02963656112477606 -0.00060408076640074376 0 0.029120751975821715 -0.00039797870636619476 0 0.028912078924703426 -0.00070575122856308275 0 0.028490355742231663 -0.00048666535675380977 0 0.02914515401809217 -0.00055799803400936507 0 0.02914515401809217 -0.00055799803400936507 0 0.029524968698612472 -0.00065908808724941055 0 0.02963656112477606 -0.00060408076640074376 0 0.029524968698612472 -0.00065908808724941055 0 0.029243763734890047 -0.00083536213770622043 0 0.029413591846240931 -0.00073574404627071803 0 0.029524968698612472 -0.00065908808724941055 0 0.029413591846240931 -0.00073574404627071803 0 0.03019800964153236 -0.00074954100480784927 0 0.029243763734890047 -0.00083536213770622043 0 0.029379144687303283 -0.00096436482893986944 0 0.029413591846240931 -0.00073574404627071803 0 0.029232832372961412 -0.0011024135458037269 0 0.029243763734890047 -0.00083536213770622043 0 0.029379144687303283 -0.00096436482893986944 0 0.028912078924703426 -0.00070575122856308275 0 0.029524968698612472 -0.00065908808724941055 0 0.029243763734890047 -0.00083536213770622043 0 0.028838748482370852 -0.000957073748977842 0 0.028912078924703426 -0.00070575122856308275 0 0.029243763734890047 -0.00083536213770622043 0 0.02955547181757387 -0.00097503113511645026 0 0.029379144687303283 -0.00096436482893986944 0 0.02946289464138414 -0.0011347938930923705 0 0.02955547181757387 -0.00097503113511645026 0 0.029379144687303283 -0.00096436482893986944 0 0.029413591846240931 -0.00073574404627071803 0 0.030456729792454808 -0.0011519025844466421 0 0.030171375388969971 -0.0009190078715157168 0 0.031236166419520685 -0.001306891940696956 0 0.03096039073239415 -0.0011481276694069683 0 0.031114838403115606 -0.00096508772650057226 0 0.031236166419520685 -0.001306891940696956 0 0.031343731178306924 -0.0010408576047894614 0 0.031114838403115606 -0.00096508772650057226 0 0.031343731178306924 -0.0010408576047894614 0 0.031519197076455598 -0.0012015860743821987 0 0.031542202366059674 -0.00089560911339077952 0 0.031236166419520685 -0.001306891940696956 0 0.031343731178306924 -0.0010408576047894614 0 0.031519197076455598 -0.0012015860743821987 0 0.030587729569621504 -0.0014102653852055423 0 0.031391440761856806 -0.001307250114799384 0 0.02974597312670145 -0.0015967488960677929 0 0.029774271871787206 -0.0015947818360193956 0 0.02976171734402706 -0.0015481756403868778 0 0.030587729569621504 -0.0014102653852055423 0 0.030295394330644269 -0.001423154321042457 0 0.02974597312670145 -0.0015967488960677929 0 0.029735233072043475 -0.0016286673864180511 0 0.029749411715408899 -0.0016224103944099768 0 0.031236166419520685 -0.001306891940696956 0 0.031519197076455598 -0.0012015860743821987 0 0.031494644549371523 -0.0014914088098686511 0 0.030456729792454808 -0.0011519025844466421 0 0.030295394330644269 -0.001423154321042457 0 0.02955547181757387 -0.00097503113511645026 0 0.02965664217618336 -0.0013094304544713502 0 0.02978473709622842 -0.0013021888522127493 0 0.02955547181757387 -0.00097503113511645026 0 0.02965664217618336 -0.0013094304544713502 0 0.029560093717269642 -0.0013070138621060125 0 0.02965664217618336 -0.0013094304544713502 0 0.02978473709622842 -0.0013021888522127493 0 0.029726625747906063 -0.0014893959703693247 0 0.02965664217618336 -0.0013094304544713502 0 0.029643030917774482 -0.0014776705006379765 0 0.029560093717269642 -0.0013070138621060125 0 0.030295394330644269 -0.001423154321042457 0 0.029643438253548086 -0.0015779062982666117 0 0.02972901946353915 -0.0014891797510261523 0 0.029726625747906063 -0.0014893959703693247 0 0.02971260787005477 -0.0015653619368827881 0 0.029735233072043475 -0.0016286673864180511 0 0.029733749023445655 -0.0016428051882231018 0 0.029749411715408899 -0.0016224103944099768 0 0.030295394330644269 -0.001423154321042457 0 0.029958947315341586 -0.0014615231154103917 0 0.029726625747906063 -0.0014893959703693247 0 0.029705024492114485 -0.0015735074632477694 0 0.02971260787005477 -0.0015653619368827881 0 0.029726625747906063 -0.0014893959703693247 0 0.02967950568475022 -0.00156922654860994 0 0.029705024492114485 -0.0015735074632477694 0 0.02967950568475022 -0.00156922654860994 0 0.029705024492114485 -0.0015735074632477694 0 0.029680762328069626 -0.0016321296887083295 0 0.029643030917774482 -0.0014776705006379765 0 0.029549021902949342 -0.0014953389696685682 0 0.029560093717269642 -0.0013070138621060125 0 0.02965664217618336 -0.0013094304544713502 0 0.029726625747906063 -0.0014893959703693247 0 0.029643030917774482 -0.0014776705006379765 0 0.029726625747906063 -0.0014893959703693247 0 0.02967950568475022 -0.00156922654860994 0 0.029643030917774482 -0.0014776705006379765 0 0.02967950568475022 -0.00156922654860994 0 0.029643030917774482 -0.0014776705006379765 0 0.029614962730563844 -0.0015998531715566771 0 0.029643030917774482 -0.0014776705006379765 0 0.029549021902949342 -0.0014953389696685682 0 0.029614962730563844 -0.0015998531715566771 0 0.029549021902949342 -0.0014953389696685682 0 0.029541148086297507 -0.0016158447995060015 0 0.029614962730563844 -0.0015998531715566771 0 0.029549021902949342 -0.0014953389696685682 0 0.029541148086297507 -0.0016158447995060015 0 0.029452103214732506 -0.0015900134084406519 0 0.029453369624421053 -0.0013759965653077466 0 0.029319623730751563 -0.0014881999431602493 0 0.029452103214732506 -0.0015900134084406519 0 0.029549021902949342 -0.0014953389696685682 0 0.029453369624421053 -0.0013759965653077466 0 0.029452103214732506 -0.0015900134084406519 0 0.029549021902949342 -0.0014953389696685682 0 0.029453369624421053 -0.0013759965653077466 0 0.029560093717269642 -0.0013070138621060125 0 0.02955547181757387 -0.00097503113511645026 0 0.029560093717269642 -0.0013070138621060125 0 0.02946289464138414 -0.0011347938930923705 0 0.029453369624421053 -0.0013759965653077466 0 0.029560093717269642 -0.0013070138621060125 0 0.02946289464138414 -0.0011347938930923705 0 0.029232832372961412 -0.0011024135458037269 0 0.029379144687303283 -0.00096436482893986944 0 0.029343038619199069 -0.0012625278489896449 0 0.029379144687303283 -0.00096436482893986944 0 0.02946289464138414 -0.0011347938930923705 0 0.029343038619199069 -0.0012625278489896449 0 0.029453369624421053 -0.0013759965653077466 0 0.02946289464138414 -0.0011347938930923705 0 0.029343038619199069 -0.0012625278489896449 0 0.029172029668493148 -0.0013473926326991179 0 0.029232832372961412 -0.0011024135458037269 0 0.029343038619199069 -0.0012625278489896449 0 0.029172029668493148 -0.0013473926326991179 0 0.029343038619199069 -0.0012625278489896449 0 0.029319623730751563 -0.0014881999431602493 0 0.029453369624421053 -0.0013759965653077466 0 0.029343038619199069 -0.0012625278489896449 0 0.029319623730751563 -0.0014881999431602493 0 0.029108297767863032 -0.001615264706252459 0 0.029172029668493148 -0.0013473926326991179 0 0.029319623730751563 -0.0014881999431602493 0 0.029108297767863032 -0.001615264706252459 0 0.029308903670821635 -0.0016875437268395114 0 0.029120446232608503 -0.001847462373353577 0 0.029108297767863032 -0.001615264706252459 0 0.029319623730751563 -0.0014881999431602493 0 0.029308903670821635 -0.0016875437268395114 0 0.029319623730751563 -0.0014881999431602493 0 0.029308903670821635 -0.0016875437268395114 0 0.029452103214732506 -0.0015900134084406519 0 0.029308903670821635 -0.0016875437268395114 0 0.029363143676768063 -0.0017999468978719406 0 0.029268517689558435 -0.0018283916546172074 0 0.029308903670821635 -0.0016875437268395114 0 0.029363143676768063 -0.0017999468978719406 0 0.029410794282765058 -0.0017076422911674576 0 0.029363143676768063 -0.0017999468978719406 0 0.029268517689558435 -0.0018283916546172074 0 0.029310121013468693 -0.0018963594693684744 0 0.029268517689558435 -0.0018283916546172074 0 0.029120446232608503 -0.001847462373353577 0 0.029205081426691117 -0.0019399584609462589 0 0.029308903670821635 -0.0016875437268395114 0 0.029268517689558435 -0.0018283916546172074 0 0.029120446232608503 -0.001847462373353577 0 0.029058827857028399 -0.0020123815526188627 0 0.029120446232608503 -0.001847462373353577 0 0.029205081426691117 -0.0019399584609462589 0 0.029541148086297507 -0.0016158447995060015 0 0.029452103214732506 -0.0015900134084406519 0 0.029500755761382207 -0.0017123889205232069 0 0.029541148086297507 -0.0016158447995060015 0 0.029500755761382207 -0.0017123889205232069 0 0.029564957654786221 -0.0016993761185582288 0 0.029452103214732506 -0.0015900134084406519 0 0.029410794282765058 -0.0017076422911674576 0 0.029500755761382207 -0.0017123889205232069 0 0.029308903670821635 -0.0016875437268395114 0 0.029452103214732506 -0.0015900134084406519 0 0.029410794282765058 -0.0017076422911674576 0 0.029410794282765058 -0.0017076422911674576 0 0.029446448856116955 -0.0017973379473327114 0 0.029500755761382207 -0.0017123889205232069 0 0.029363143676768063 -0.0017999468978719406 0 0.029410794282765058 -0.0017076422911674576 0 0.029446448856116955 -0.0017973379473327114 0 0.029446448856116955 -0.0017973379473327114 0 0.029500755761382207 -0.0017123889205232069 0 0.029523670923103255 -0.0017943257845899343 0 0.029500755761382207 -0.0017123889205232069 0 0.029523670923103255 -0.0017943257845899343 0 0.029564957654786221 -0.0016993761185582288 0 0.029523670923103255 -0.0017943257845899343 0 0.029475402995682003 -0.0018582557630051498 0 0.029525010909965975 -0.0018581933884844282 0 0.029446448856116955 -0.0017973379473327114 0 0.029523670923103255 -0.0017943257845899343 0 0.029475402995682003 -0.0018582557630051498 0 0.029475402995682003 -0.0018582557630051498 0 0.029397548896771156 -0.0018856560945289507 0 0.029441708315369269 -0.0019062540098640657 0 0.029446448856116955 -0.0017973379473327114 0 0.029475402995682003 -0.0018582557630051498 0 0.029397548896771156 -0.0018856560945289507 0 0.029363143676768063 -0.0017999468978719406 0 0.029446448856116955 -0.0017973379473327114 0 0.029397548896771156 -0.0018856560945289507 0 0.029397548896771156 -0.0018856560945289507 0 0.029396355145212518 -0.0019444302452955604 0 0.029353674777036057 -0.0019269667831112391 0 0.029397548896771156 -0.0018856560945289507 0 0.029396355145212518 -0.0019444302452955604 0 0.029441708315369269 -0.0019062540098640657 0 0.029396355145212518 -0.0019444302452955604 0 0.029306365510086401 -0.0019729475523764793 0 0.029480125358551497 -0.0019638032725476638 0 0.029396355145212518 -0.0019444302452955604 0 0.02946417146921175 -0.0019306806358491721 0 0.029480125358551497 -0.0019638032725476638 0 0.029396355145212518 -0.0019444302452955604 0 0.02946417146921175 -0.0019306806358491721 0 0.029441708315369269 -0.0019062540098640657 0 0.02946417146921175 -0.0019306806358491721 0 0.029498235617404674 -0.0019076386221423263 0 0.029485357911773129 -0.0019326941537480833 0 0.02946417146921175 -0.0019306806358491721 0 0.029441708315369269 -0.0019062540098640657 0 0.029478954086347559 -0.0018988627059675725 0 0.029475402995682003 -0.0018582557630051498 0 0.029441708315369269 -0.0019062540098640657 0 0.029478954086347559 -0.0018988627059675725 0 0.029475402995682003 -0.0018582557630051498 0 0.029478954086347559 -0.0018988627059675725 0 0.029525010909965975 -0.0018581933884844282 0 0.029478954086347559 -0.0018988627059675725 0 0.029498235617404674 -0.0019076386221423263 0 0.029525010909965975 -0.0018581933884844282 0 0.02946417146921175 -0.0019306806358491721 0 0.029478954086347559 -0.0018988627059675725 0 0.029498235617404674 -0.0019076386221423263 0 0.029525010909965975 -0.0018581933884844282 0 0.029516601491345978 -0.0018989097527122079 0 0.029539932333625452 -0.0018687741132078094 0 0.029498235617404674 -0.0019076386221423263 0 0.029525010909965975 -0.0018581933884844282 0 0.029516601491345978 -0.0018989097527122079 0 0.028872595590471652 -0.0022309574123895231 0 0.02913096836375742 -0.0020675140650506332 0 0.029480125358551497 -0.0019638032725476638 0 0.028694339328178883 -0.0024659566709117112 0 0.028872595590471652 -0.0022309574123895231 0 0.029350179678933729 -0.0026605113935660881 0 0.028872595590471652 -0.0022309574123895231 0 0.029350179678933729 -0.0026605113935660881 0 0.029352326119389014 -0.0026504846595839355 0 0.028627272300337157 -0.0022015336307779727 0 0.03004646249129176 -0.0021518354438250305 0 0.02913096836375742 -0.0020675140650506332 0 0.029205081426691117 -0.0019399584609462589 0 0.029306365510086401 -0.0019729475523764793 0 0.029058827857028399 -0.0020123815526188627 0 0.02913096836375742 -0.0020675140650506332 0 0.029205081426691117 -0.0019399584609462589 0 0.029268517689558435 -0.0018283916546172074 0 0.029205081426691117 -0.0019399584609462589 0 0.029310121013468693 -0.0018963594693684744 0 0.029205081426691117 -0.0019399584609462589 0 0.029310121013468693 -0.0018963594693684744 0 0.029306365510086401 -0.0019729475523764793 0 0.029363143676768063 -0.0017999468978719406 0 0.029397548896771156 -0.0018856560945289507 0 0.029310121013468693 -0.0018963594693684744 0 0.029396355145212518 -0.0019444302452955604 0 0.029353674777036057 -0.0019269667831112391 0 0.029306365510086401 -0.0019729475523764793 0 0.029310121013468693 -0.0018963594693684744 0 0.029353674777036057 -0.0019269667831112391 0 0.029306365510086401 -0.0019729475523764793 0 0.029397548896771156 -0.0018856560945289507 0 0.029310121013468693 -0.0018963594693684744 0 0.029353674777036057 -0.0019269667831112391 0 0.02913096836375742 -0.0020675140650506332 0 0.029306365510086401 -0.0019729475523764793 0 0.029480125358551497 -0.0019638032725476638 0 0.028442305604061007 -0.0025132234423615486 0 0.029301860230408365 -0.0026879520704798068 0 0.028511029231096777 -0.0027293357181584796 0 0.028694339328178883 -0.0024659566709117112 0 0.028242794392341435 -0.0030217752036385452 0 0.028511029231096777 -0.0027293357181584796 0 0.028362012987639636 -0.0028806573141685792 0 0.028242794392341435 -0.0030217752036385452 0 0.028511029231096777 -0.0027293357181584796 0 0.028391548096978317 -0.0028494630757483486 0 0.028362012987639636 -0.0028806573141685792 0 0.028445504305119662 -0.0028362738152821932 0 0.028391548096978317 -0.0028494630757483486 0 0.028310682827879963 -0.002820026768943538 0 0.028391548096978317 -0.0028494630757483486 0 0.028284608769238891 -0.0028949893156347954 0 0.028310682827879963 -0.002820026768943538 0 0.028284608769238891 -0.0028949893156347954 0 0.028362012987639636 -0.0028806573141685792 0 0.028242794392341435 -0.0030217752036385452 0 0.028391548096978317 -0.0028494630757483486 0 0.028284608769238891 -0.0028949893156347954 0 0.028362012987639636 -0.0028806573141685792 0 0.029301860230408365 -0.0026879520704798068 0 0.025795560108162745 -0.0040397193988891567 0 0.029350179678933729 -0.0026605113935660881 0 0.029352326119389014 -0.0026504846595839355 0 0.028919898309207024 -0.0025816398466876867 0 0.028242794392341435 -0.0030217752036385452 0 0.028101628960161235 -0.0028769248583414447 0 0.02762811292231649 -0.0029458533051602825 0 0.029480125358551497 -0.0019638032725476638 0 0.029485357911773129 -0.0019326941537480833 0 0.029499891616584725 -0.0019219497896299973 0 0.02946417146921175 -0.0019306806358491721 0 0.029480125358551497 -0.0019638032725476638 0 0.029485357911773129 -0.0019326941537480833 0 0.029480125358551497 -0.0019638032725476638 0 0.029499891616584725 -0.0019219497896299973 0 0.029522675562825073 -0.0019006032798249003 0 0.029516601491345978 -0.0018989097527122079 0 0.029499891616584725 -0.0019219497896299973 0 0.029522675562825073 -0.0019006032798249003 0 0.029516601491345978 -0.0018989097527122079 0 0.029522675562825073 -0.0019006032798249003 0 0.029539932333625452 -0.0018687741132078094 0 0.029498235617404674 -0.0019076386221423263 0 0.029516601491345978 -0.0018989097527122079 0 0.029499891616584725 -0.0019219497896299973 0 0.029498235617404674 -0.0019076386221423263 0 0.029485357911773129 -0.0019326941537480833 0 0.029499891616584725 -0.0019219497896299973 0 0.028284608769238891 -0.0028949893156347954 0 0.028242794392341435 -0.0030217752036385452 0 0.028101628960161235 -0.0028769248583414447 0 0.028101628960161235 -0.0028769248583414447 0 0.028002601454310452 -0.0027355576028632142 0 0.02762811292231649 -0.0029458533051602825 0 0.028101628960161235 -0.0028769248583414447 0 0.028002601454310452 -0.0027355576028632142 0 0.028310682827879963 -0.002820026768943538 0 0.028199135177321536 -0.0026135641122874364 0 0.028002601454310452 -0.0027355576028632142 0 0.028310682827879963 -0.002820026768943538 0 0.028199135177321536 -0.0026135641122874364 0 0.028379900355491174 -0.0029712603980097847 0 0.028310682827879963 -0.002820026768943538 0 0.028284608769238891 -0.0028949893156347954 0 0.028101628960161235 -0.0028769248583414447 0 0.028310682827879963 -0.002820026768943538 0 0.029566823138553834 -0.0017707225041849468 0 0.029589055330790905 -0.0017707540947890423 0 0.029581333174018329 -0.0016922543455470543 0 0.012507318022592646 -0.005089666137878225 0 0.012708092581592088 -0.0060568886080959155 0 0.013249601598936121 -0.0063117944565685398 0 0.010961460053428866 -0.005119729508515419 0 0.012507318022592646 -0.005089666137878225 0 0.012708092581592088 -0.0060568886080959155 0 0.029566823138553834 -0.0017707225041849468 0 0.029581551783913036 -0.0017884943495233055 0 0.029577178378996857 -0.0017881988102458623 0 0.021307449975846507 -0.0035466044453206442 0 0.025795560108162745 -0.0040397193988891567 0 0.016406044401930841 -0.0026696223249022383 0 0.025795560108162745 -0.0040397193988891567 0 0.027666527345505124 -0.0023996056263965635 0 0.028002601454310452 -0.0027355576028632142 0 0.02762811292231649 -0.0029458533051602825 0 0.029480125358551497 -0.0019638032725476638 0 0.029522675562825073 -0.0019006032798249003 0 0.029566980728290834 -0.0018519593199519211 0 0.025795560108162745 -0.0040397193988891567 0 0.02770856759261105 -0.0016698840989081778 0 0.029581551783913036 -0.0017884943495233055 0 0.029582005335422584 -0.0018237499073552163 0 0.029577178378996857 -0.0017881988102458623 0 0.03004646249129176 -0.0021518354438250305 0 0.025795560108162745 -0.0040397193988891567 0 0.029566980728290834 -0.0018519593199519211 0 0.029582005335422584 -0.0018237499073552163 0 0.029566979136190871 -0.0018433325148451167 0 0.029522675562825073 -0.0019006032798249003 0 0.029566980728290834 -0.0018519593199519211 0 0.029566979136190871 -0.0018433325148451167 0 0.029522675562825073 -0.0019006032798249003 0 0.029539932333625452 -0.0018687741132078094 0 0.029566979136190871 -0.0018433325148451167 0 0.029582005335422584 -0.0018237499073552163 0 0.029566979136190871 -0.0018433325148451167 0 0.02960201946844478 -0.0017955019808732749 0 0.029566979136190871 -0.0018433325148451167 0 0.02960201946844478 -0.0017955019808732749 0 0.029596188917690006 -0.0017964664246733204 0 0.029582005335422584 -0.0018237499073552163 0 0.02960201946844478 -0.0017955019808732749 0 0.029589055330790905 -0.0017707540947890423 0 0.029582005335422584 -0.0018237499073552163 0 0.029577178378996857 -0.0017881988102458623 0 0.029589055330790905 -0.0017707540947890423 0 0.029566823138553834 -0.0017707225041849468 0 0.029577178378996857 -0.0017881988102458623 0 0.029589055330790905 -0.0017707540947890423 0 0.02960201946844478 -0.0017955019808732749 0 0.029589055330790905 -0.0017707540947890423 0 0.029620810461942364 -0.0017588051148276834 0 0.029589055330790905 -0.0017707540947890423 0 0.029620810461942364 -0.0017588051148276834 0 0.029606115427762803 -0.0017429938928966561 0 0.029620810461942364 -0.0017588051148276834 0 0.029630098012196546 -0.001751853051595649 0 0.029653482633623225 -0.0017181882145465542 0 0.02960201946844478 -0.0017955019808732749 0 0.029630098012196546 -0.001751853051595649 0 0.029596188917690006 -0.0017964664246733204 0 0.02960201946844478 -0.0017955019808732749 0 0.029620810461942364 -0.0017588051148276834 0 0.029630098012196546 -0.001751853051595649 0 0.029630098012196546 -0.001751853051595649 0 0.02960638737256311 -0.0017607968491110174 0 0.029637803533631935 -0.0017090199646247323 0 0.029630098012196546 -0.001751853051595649 0 0.029596188917690006 -0.0017964664246733204 0 0.02960638737256311 -0.0017607968491110174 0 0.029630098012196546 -0.001751853051595649 0 0.029663385671815722 -0.0016875104671728312 0 0.029637803533631935 -0.0017090199646247323 0 0.029630098012196546 -0.001751853051595649 0 0.029663385671815722 -0.0016875104671728312 0 0.029653482633623225 -0.0017181882145465542 0 0.029525010909965975 -0.0018581933884844282 0 0.029539932333625452 -0.0018687741132078094 0 0.029568704465866767 -0.0018247351654671071 0 0.029525010909965975 -0.0018581933884844282 0 0.029568704465866767 -0.0018247351654671071 0 0.029573009127486193 -0.0017720884602904685 0 0.029539932333625452 -0.0018687741132078094 0 0.029566979136190871 -0.0018433325148451167 0 0.029568704465866767 -0.0018247351654671071 0 0.029568704465866767 -0.0018247351654671071 0 0.029596188917690006 -0.0017964664246733204 0 0.02960638737256311 -0.0017607968491110174 0 0.029566979136190871 -0.0018433325148451167 0 0.029568704465866767 -0.0018247351654671071 0 0.029596188917690006 -0.0017964664246733204 0 0.02960638737256311 -0.0017607968491110174 0 0.029573009127486193 -0.0017720884602904685 0 0.029613697854000681 -0.0016864214052658025 0 0.029568704465866767 -0.0018247351654671071 0 0.02960638737256311 -0.0017607968491110174 0 0.029573009127486193 -0.0017720884602904685 0 0.029523670923103255 -0.0017943257845899343 0 0.029525010909965975 -0.0018581933884844282 0 0.029573009127486193 -0.0017720884602904685 0 0.029523670923103255 -0.0017943257845899343 0 0.029573009127486193 -0.0017720884602904685 0 0.029564957654786221 -0.0016993761185582288 0 0.029573009127486193 -0.0017720884602904685 0 0.029564957654786221 -0.0016993761185582288 0 0.029613697854000681 -0.0016864214052658025 0 0.02960638737256311 -0.0017607968491110174 0 0.029613697854000681 -0.0016864214052658025 0 0.029637803533631935 -0.0017090199646247323 0 0.029613697854000681 -0.0016864214052658025 0 0.029637803533631935 -0.0017090199646247323 0 0.029655193468593473 -0.0016513149350187478 0 0.029613697854000681 -0.0016864214052658025 0 0.029614962730563844 -0.0015998531715566771 0 0.029655193468593473 -0.0016513149350187478 0 0.02967950568475022 -0.00156922654860994 0 0.029614962730563844 -0.0015998531715566771 0 0.029655193468593473 -0.0016513149350187478 0 0.029564957654786221 -0.0016993761185582288 0 0.029613697854000681 -0.0016864214052658025 0 0.029614962730563844 -0.0015998531715566771 0 0.029541148086297507 -0.0016158447995060015 0 0.029564957654786221 -0.0016993761185582288 0 0.029614962730563844 -0.0015998531715566771 0 0.029663385671815722 -0.0016875104671728312 0 0.029688871524714611 -0.0016538230488398731 0 0.029653482633623225 -0.0017181882145465542 0 0.029663385671815722 -0.0016875104671728312 0 0.029637803533631935 -0.0017090199646247323 0 0.029655193468593473 -0.0016513149350187478 0 0.029663385671815722 -0.0016875104671728312 0 0.029655193468593473 -0.0016513149350187478 0 0.029680762328069626 -0.0016321296887083295 0 0.02967950568475022 -0.00156922654860994 0 0.029655193468593473 -0.0016513149350187478 0 0.029680762328069626 -0.0016321296887083295 0 0.029663385671815722 -0.0016875104671728312 0 0.029680762328069626 -0.0016321296887083295 0 0.029688871524714611 -0.0016538230488398731 0 0.029705024492114485 -0.0015735074632477694 0 0.029680762328069626 -0.0016321296887083295 0 0.029688871524714611 -0.0016538230488398731 0 0.029688871524714611 -0.0016538230488398731 0 0.029668019810888836 -0.0016993094022177075 0 0.029702254650453445 -0.001666512046688553 0 0.029688871524714611 -0.0016538230488398731 0 0.029668019810888836 -0.0016993094022177075 0 0.029653482633623225 -0.0017181882145465542 0 0.029702254650453445 -0.001666512046688553 0 0.029656978857375487 -0.0017053019950282668 0 0.029711969355089147 -0.0016701790699094438 0 0.029668019810888836 -0.0016993094022177075 0 0.029702254650453445 -0.001666512046688553 0 0.029656978857375487 -0.0017053019950282668 0 0.029668019810888836 -0.0016993094022177075 0 0.029656978857375487 -0.0017053019950282668 0 0.029634193054240671 -0.0017154274983504443 0 0.029656978857375487 -0.0017053019950282668 0 0.029634193054240671 -0.0017154274983504443 0 0.02958883882183622 -0.0017095296070037292 0 0.029668019810888836 -0.0016993094022177075 0 0.029653482633623225 -0.0017181882145465542 0 0.029636568063030239 -0.0017302863403364803 0 0.029668019810888836 -0.0016993094022177075 0 0.029634193054240671 -0.0017154274983504443 0 0.029636568063030239 -0.0017302863403364803 0 0.029620810461942364 -0.0017588051148276834 0 0.029653482633623225 -0.0017181882145465542 0 0.029636568063030239 -0.0017302863403364803 0 0.029620810461942364 -0.0017588051148276834 0 0.029636568063030239 -0.0017302863403364803 0 0.029606115427762803 -0.0017429938928966561 0 0.029636568063030239 -0.0017302863403364803 0 0.029606115427762803 -0.0017429938928966561 0 0.029603617831604825 -0.001716961057525192 0 0.029634193054240671 -0.0017154274983504443 0 0.029636568063030239 -0.0017302863403364803 0 0.029603617831604825 -0.001716961057525192 0 0.029603617831604825 -0.001716961057525192 0 0.029558423832824348 -0.0016728879150910844 0 0.02958883882183622 -0.0017095296070037292 0 0.029634193054240671 -0.0017154274983504443 0 0.029603617831604825 -0.001716961057525192 0 0.02958883882183622 -0.0017095296070037292 0 0.02952387578742199 -0.0015966552403480321 0 0.029581333174018329 -0.0016922543455470543 0 0.029558423832824348 -0.0016728879150910844 0 0.029603617831604825 -0.001716961057525192 0 0.029581333174018329 -0.0016922543455470543 0 0.029558423832824348 -0.0016728879150910844 0 0.014900941454697196 -0.0042047111384572794 0 0.021307449975846507 -0.0035466044453206442 0 0.021307449975846507 -0.0035466044453206442 0 0.025804675666715401 -0.0026167149519936827 0 0.020469077617120628 -0.0033213860688182232 0 0.021079871380107792 -0.0037060619786875785 0 0.020486042184892094 -0.0034010349775661906 0 0.029606115427762803 -0.0017429938928966561 0 0.029603617831604825 -0.001716961057525192 0 0.029581333174018329 -0.0016922543455470543 0 0.029589055330790905 -0.0017707540947890423 0 0.029606115427762803 -0.0017429938928966561 0 0.029581333174018329 -0.0016922543455470543 0 0.029493789955129565 -0.0016591495418014854 0 0.029421463107149784 -0.0016490922959895528 0 0.029481497717089883 -0.0016873248864529081 0 0.029493789955129565 -0.0016591495418014854 0 0.029543747131715734 -0.0016906916598939227 0 0.029481497717089883 -0.0016873248864529081 0 0.029432352984407103 -0.0015896799761396837 0 0.029493789955129565 -0.0016591495418014854 0 0.029421463107149784 -0.0016490922959895528 0 0.029493789955129565 -0.0016591495418014854 0 0.029558423832824348 -0.0016728879150910844 0 0.029543747131715734 -0.0016906916598939227 0 0.02952387578742199 -0.0015966552403480321 0 0.029493789955129565 -0.0016591495418014854 0 0.029558423832824348 -0.0016728879150910844 0 0.02952387578742199 -0.0015966552403480321 0 0.029432352984407103 -0.0015896799761396837 0 0.029493789955129565 -0.0016591495418014854 0 0.029558423832824348 -0.0016728879150910844 0 0.029543747131715734 -0.0016906916598939227 0 0.02958883882183622 -0.0017095296070037292 0 0.029543747131715734 -0.0016906916598939227 0 0.02958883882183622 -0.0017095296070037292 0 0.029539067636955876 -0.0017070797529669583 0 0.02958883882183622 -0.0017095296070037292 0 0.029539067636955876 -0.0017070797529669583 0 0.029598364833059835 -0.0017151137803851277 0 0.029539067636955876 -0.0017070797529669583 0 0.029502269143818736 -0.0017080268406323249 0 0.029540407491040446 -0.0017150946892966674 0 0.029539067636955876 -0.0017070797529669583 0 0.029481497717089883 -0.0016873248864529081 0 0.029502269143818736 -0.0017080268406323249 0 0.029543747131715734 -0.0016906916598939227 0 0.029539067636955876 -0.0017070797529669583 0 0.029481497717089883 -0.0016873248864529081 0 0.029481497717089883 -0.0016873248864529081 0 0.029502269143818736 -0.0017080268406323249 0 0.02944166277298069 -0.001714760585233992 0 0.029421463107149784 -0.0016490922959895528 0 0.029481497717089883 -0.0016873248864529081 0 0.02944166277298069 -0.001714760585233992 0 0.029502269143818736 -0.0017080268406323249 0 0.029540407491040446 -0.0017150946892966674 0 0.02944166277298069 -0.001714760585233992 0 0.029540407491040446 -0.0017150946892966674 0 0.029613022711991625 -0.001723731612062251 0 0.02944166277298069 -0.001714760585233992 0 0.029540407491040446 -0.0017150946892966674 0 0.029598364833059835 -0.0017151137803851277 0 0.029613022711991625 -0.001723731612062251 0 0.029718937769967722 -0.0017009684773277617 0 0.029609228850478796 -0.0016925181302476064 0 0.02982180713491803 -0.0016969936905067394 0 0.029848234542413612 -0.0016805724756819821 0 0.029830756310346304 -0.0016952823984868542 0 0.029539067636955876 -0.0017070797529669583 0 0.029540407491040446 -0.0017150946892966674 0 0.029598364833059835 -0.0017151137803851277 0 0.029598364833059835 -0.0017151137803851277 0 0.029636740525960714 -0.001711085480492727 0 0.029613022711991625 -0.001723731612062251 0 0.029656978857375487 -0.0017053019950282668 0 0.02958883882183622 -0.0017095296070037292 0 0.029598364833059835 -0.0017151137803851277 0 0.029656978857375487 -0.0017053019950282668 0 0.029598364833059835 -0.0017151137803851277 0 0.029636740525960714 -0.001711085480492727 0 0.029675425099275524 -0.0016978700071812363 0 0.029613022711991625 -0.001723731612062251 0 0.02975552039319963 -0.0016604068430956882 0 0.029656978857375487 -0.0017053019950282668 0 0.029675425099275524 -0.0016978700071812363 0 0.029711969355089147 -0.0016701790699094438 0 0.029656978857375487 -0.0017053019950282668 0 0.029636740525960714 -0.001711085480492727 0 0.029675425099275524 -0.0016978700071812363 0 0.029636740525960714 -0.001711085480492727 0 0.029675425099275524 -0.0016978700071812363 0 0.029613022711991625 -0.001723731612062251 0 0.02982180713491803 -0.0016969936905067394 0 0.02980600441661169 -0.0016766859749593106 0 0.029830756310346304 -0.0016952823984868542 0 0.029718937769967722 -0.0017009684773277617 0 0.029743864358985159 -0.0016566027656274088 0 0.02982180713491803 -0.0016969936905067394 0 0.02980600441661169 -0.0016766859749593106 0 0.02975552039319963 -0.0016604068430956882 0 0.02980600441661169 -0.0016766859749593106 0 0.029811594366473054 -0.0016475085232551092 0 0.029830756310346304 -0.0016952823984868542 0 0.02980600441661169 -0.0016766859749593106 0 0.029811594366473054 -0.0016475085232551092 0 0.02975552039319963 -0.0016604068430956882 0 0.031155979690077103 -0.0012608873629787636 0 0.03103547670853693 -0.0012915329887419151 0 0.029811594366473054 -0.0016475085232551092 0 0.029761723069431038 -0.0016292690305119832 0 0.029812858026788867 -0.0015901996085064696 0 0.029811594366473054 -0.0016475085232551092 0 0.029761723069431038 -0.0016292690305119832 0 0.02975552039319963 -0.0016604068430956882 0 0.029761723069431038 -0.0016292690305119832 0 0.02975552039319963 -0.0016604068430956882 0 0.029711969355089147 -0.0016701790699094438 0 0.029675425099275524 -0.0016978700071812363 0 0.02975552039319963 -0.0016604068430956882 0 0.029711969355089147 -0.0016701790699094438 0 0.029702254650453445 -0.001666512046688553 0 0.029711969355089147 -0.0016701790699094438 0 0.029733178981619018 -0.0016431521660656833 0 0.029705024492114485 -0.0015735074632477694 0 0.029688871524714611 -0.0016538230488398731 0 0.02971260787005477 -0.0015653619368827881 0 0.029733043455890555 -0.0016647214213678936 0 0.029643438253548086 -0.0015779062982666117 0 0.029702254650453445 -0.001666512046688553 0 0.029733749023445655 -0.0016428051882231018 0 0.029733178981619018 -0.0016431521660656833 0 0.029688871524714611 -0.0016538230488398731 0 0.029702254650453445 -0.001666512046688553 0 0.02971260787005477 -0.0015653619368827881 0 0.029733749023445655 -0.0016428051882231018 0 0.029733178981619018 -0.0016431521660656833 0 0.029749411715408899 -0.0016224103944099768 0 0.029761723069431038 -0.0016292690305119832 0 0.029711969355089147 -0.0016701790699094438 0 0.029733178981619018 -0.0016431521660656833 0 0.029733178981619018 -0.0016431521660656833 0 0.029764623219388636 -0.0016106206203681695 0 0.029749411715408899 -0.0016224103944099768 0 0.029761723069431038 -0.0016292690305119832 0 0.029733178981619018 -0.0016431521660656833 0 0.029764623219388636 -0.0016106206203681695 0 0.029764623219388636 -0.0016106206203681695 0 0.029749411715408899 -0.0016224103944099768 0 0.029774271871787206 -0.0015947818360193956 0 0.02974597312670145 -0.0015967488960677929 0 0.029749411715408899 -0.0016224103944099768 0 0.029774271871787206 -0.0015947818360193956 0 0.029774271871787206 -0.0015947818360193956 0 0.029796251041167916 -0.0015781767257038359 0 0.029813677470382209 -0.0015589735710809104 0 0.029764623219388636 -0.0016106206203681695 0 0.029774271871787206 -0.0015947818360193956 0 0.029796251041167916 -0.0015781767257038359 0 0.029796251041167916 -0.0015781767257038359 0 0.029812858026788867 -0.0015901996085064696 0 0.029783266217586951 -0.0016013741165517474 0 0.029796251041167916 -0.0015781767257038359 0 0.029812858026788867 -0.0015901996085064696 0 0.029815899490224115 -0.0015720383558207164 0 0.032453438124650971 -0.00080045095312331787 0 0.032416755702023473 -0.00065128832596563597 0 0.032548308471980612 -0.00071913768067871653 0 0.03103547670853693 -0.0012915329887419151 0 0.031882039264019953 -0.00062410842881508745 0 0.029761723069431038 -0.0016292690305119832 0 0.029764623219388636 -0.0016106206203681695 0 0.029783266217586951 -0.0016013741165517474 0 0.029761723069431038 -0.0016292690305119832 0 0.029812858026788867 -0.0015901996085064696 0 0.029783266217586951 -0.0016013741165517474 0 0.029764623219388636 -0.0016106206203681695 0 0.029796251041167916 -0.0015781767257038359 0 0.029783266217586951 -0.0016013741165517474 0 0.032840047274352996 -0.00020738837152481395 0 0.032810078067357806 -0.00011888965975423058 0 0.032908206791809315 -0.00016490495006525255 0 0.032840047274352996 -0.00020738837152481395 0 0.032908206791809315 -0.00016490495006525255 0 0.032938858398035141 -0.00024367334795267397 0 0.032029429431627204 -0.00011160414334977233 0 0.032102751332841309 -0.00049879007561723029 0 0.032461505600391002 -0.0002446971242345005 0 0.032413547862137987 -7.0011838255111081e-05 0 0.031882039264019953 -0.00062410842881508745 0 0.031882039264019953 -0.00062410842881508745 0 0.032669654527118147 -0.00072971539149436311 0 0.029796251041167916 -0.0015781767257038359 0 0.029815899490224115 -0.0015720383558207164 0 0.029804700849175806 -0.0015856880849901948 0 0.031882039264019953 -0.00062410842881508745 0 0.031292684333234531 -0.0008813632787219622 0 0.029796251041167916 -0.0015781767257038359 0 0.029813677470382209 -0.0015589735710809104 0 0.029804700849175806 -0.0015856880849901948 0 0.029813677470382209 -0.0015589735710809104 0 0.029899727799566879 -0.0015950901988968174 0 0.029984131955573617 -0.0015501095566088613 0 0.029205034114679642 -0.0015534248439968467 0 0.031391440761856806 -0.001307250114799384 0 0.029774271871787206 -0.0015947818360193956 0 0.029813677470382209 -0.0015589735710809104 0 0.02976171734402706 -0.0015481756403868778 0 0.029813677470382209 -0.0015589735710809104 0 0.029899727799566879 -0.0015950901988968174 0 0.029868678401144225 -0.0016456386787770988 0 0.029899727799566879 -0.0015950901988968174 0 0.029868678401144225 -0.0016456386787770988 0 0.029935926424459035 -0.0016619917350406809 0 0.031292684333234531 -0.0008813632787219622 0 0.031318379000512833 -0.00090305410500105931 0 0.029813677470382209 -0.0015589735710809104 0 0.029804700849175806 -0.0015856880849901948 0 0.029868678401144225 -0.0016456386787770988 0 0.032908206791809315 -0.00016490495006525255 0 0.032938858398035141 -0.00024367334795267397 0 0.032994864040110088 -0.00021814335240375409 0 0.032938858398035141 -0.00024367334795267397 0 0.032994864040110088 -0.00021814335240375409 0 0.032999273293692358 -0.00026857031473117584 0 0.031318379000512833 -0.00090305410500105931 0 0.03226539774124481 -0.00092454617878188171 0 0.032994864040110088 -0.00021814335240375409 0 0.032999273293692358 -0.00026857031473117584 0 0.033037362822481972 -0.00025491291503559611 0 0.032999273293692358 -0.00026857031473117584 0 0.032998745117774245 -0.00029536148219295847 0 0.032995502546877123 -0.00030107641146748227 0 0.032999273293692358 -0.00026857031473117584 0 0.032998745117774245 -0.00029536148219295847 0 0.033037362822481972 -0.00025491291503559611 0 0.032995502546877123 -0.00030107641146748227 0 0.033089311778649697 -0.0003274437626438159 0 0.033047102091983409 -0.0002891463048269232 0 0.032938858398035141 -0.00024367334795267397 0 0.032995502546877123 -0.00030107641146748227 0 0.032868672205336832 -0.00029508032378407586 0 0.032922940760605222 -0.00033090968528307562 0 0.033170390255122251 -0.00014554501124860515 0 0.032938858398035141 -0.00024367334795267397 0 0.032999273293692358 -0.00026857031473117584 0 0.032995502546877123 -0.00030107641146748227 0 0.032413547862137987 -7.0011838255111081e-05 0 0.033170390255122251 -0.00014554501124860515 0 0.032840047274352996 -0.00020738837152481395 0 0.032938858398035141 -0.00024367334795267397 0 0.032868672205336832 -0.00029508032378407586 0 0.032029429431627204 -0.00011160414334977233 0 0.03197232705043454 0.00027421293659283012 0 0.032434303591544103 0.00018492911913156523 0 0.032029429431627204 -0.00011160414334977233 0 0.032461505600391002 -0.0002446971242345005 0 0.032434303591544103 0.00018492911913156523 0 0.03475010022461112 0.00026649494513431401 0 0.034696496675328786 0.00019048986793458153 0 0.034590906283715465 0.0003179436346070202 0 0.033170390255122251 -0.00014554501124860515 0 0.033542957242643952 0.00029976887296883855 0 0.034696496675328786 0.00019048986793458153 0 0.034718434174968366 0.00013786898898884972 0 0.034703076472855365 0.00011669445054315456 0 0.034696496675328786 0.00019048986793458153 0 0.034718434174968366 0.00013786898898884972 0 0.034764120390534718 0.00014938009681261691 0 0.03475010022461112 0.00026649494513431401 0 0.034696496675328786 0.00019048986793458153 0 0.034764120390534718 0.00014938009681261691 0 0.033089311778649697 -0.0003274437626438159 0 0.033076008558407789 -0.00025445815564720557 0 0.033047102091983409 -0.0002891463048269232 0 0.033170390255122251 -0.00014554501124860515 0 0.033937672210797146 -5.502721232696228e-05 0 0.034764120390534718 0.00014938009681261691 0 0.034727669068016741 0.00010637736186560584 0 0.034769003723578253 8.3054481787764111e-05 0 0.033937672210797146 -5.502721232696228e-05 0 0.034481641184160611 6.0823978853890748e-05 0 0.033076008558407789 -0.00025445815564720557 0 0.033075574893913759 -0.0001942694982590466 0 0.033041270098937051 -0.00022394759605931923 0 0.034718434174968366 0.00013786898898884972 0 0.034764120390534718 0.00014938009681261691 0 0.034727669068016741 0.00010637736186560584 0 0.034798432415193023 7.01632867404368e-05 0 0.034481641184160611 6.0823978853890748e-05 0 0.034798432415193023 7.01632867404368e-05 0 0.034698371655390713 0.0001211599343036252 0 0.034718434174968366 0.00013786898898884972 0 0.034727669068016741 0.00010637736186560584 0 0.034703076472855365 0.00011669445054315456 0 0.034795107880959179 7.806206936776461e-05 0 0.034769395767207827 6.7818240404137102e-05 0 0.034784325075114531 6.4472068092819539e-05 0 0.034795107880959179 7.806206936776461e-05 0 0.034769395767207827 6.7818240404137102e-05 0 0.034703076472855365 0.00011669445054315456 0 0.034969725019981829 5.5409823234651703e-05 0 0.034955234832643921 -4.6633068639291976e-06 0 0.034791926245476931 4.839016092649937e-05 0 0.034769395767207827 6.7818240404137102e-05 0 0.034784325075114531 6.4472068092819539e-05 0 0.034791926245476931 4.839016092649937e-05 0 0.034919326995156347 5.3609095694834775e-05 0 0.034787965438027257 5.3558735549191648e-05 0 0.034969725019981829 5.5409823234651703e-05 0 0.034986776545052146 2.3685708471179371e-05 0 0.034955234832643921 -4.6633068639291976e-06 0 0.034969725019981829 5.5409823234651703e-05 0 0.035007899379113201 3.0287152153644854e-05 0 0.034986776545052146 2.3685708471179371e-05 0 0.034784325075114531 6.4472068092819539e-05 0 0.034809459831343675 6.605954271540514e-05 0 0.034809795304847867 6.3854327722448302e-05 0 0.034795107880959179 7.806206936776461e-05 0 0.034784325075114531 6.4472068092819539e-05 0 0.034809459831343675 6.605954271540514e-05 0 0.034985318117027875 1.3553938879309198e-05 0 0.034987273285728954 1.3444205110934244e-05 0 0.035000007093396734 -1.7191055938209952e-08 0 0.034919326995156347 5.3609095694834775e-05 0 0.034624157525912039 3.5243641391690743e-05 0 0.034481641184160611 6.0823978853890748e-05 0 0.034624157525912039 3.5243641391690743e-05 0 0.034624157525912039 3.5243641391690743e-05 0 0.034264532708293355 3.9571343110019527e-05 0 0.03446967088096118 -5.0398113400609542e-05 0 0.034467659985665353 -3.9909694091696777e-05 0 0.034447380799213487 -3.9321907749081305e-05 0 0.034481641184160611 6.0823978853890748e-05 0 0.034264532708293355 3.9571343110019527e-05 0 0.035007899379113201 3.0287152153644854e-05 0 0.034986776545052146 2.3685708471179371e-05 0 0.034991309706036748 3.8474288633084547e-06 0 0.034624157525912039 3.5243641391690743e-05 0 0.035000199314020444 -7.9767067217232327e-08 0 0.035007899379113201 3.0287152153644854e-05 0 0.034991309706036748 3.8474288633084547e-06 0 0.035000079155056228 1.671747192262194e-08 0 0.034991309706036748 3.8474288633084547e-06 0 0.034999831061768225 -5.6343104678589544e-08 0 0.035000079155056228 1.671747192262194e-08 0 0.034999831061768225 -5.6343104678589544e-08 0 0.034955234832643921 -4.6633068639291976e-06 0 0.034922474686057185 -2.5684763668867221e-05 0 0.034991309706036748 3.8474288633084547e-06 0 0.034999831061768225 -5.6343104678589544e-08 0 0.034955234832643921 -4.6633068639291976e-06 0 0.034986776545052146 2.3685708471179371e-05 0 0.034991309706036748 3.8474288633084547e-06 0 0.034955234832643921 -4.6633068639291976e-06 0 0.034716454199398651 -1.6138926908651843e-05 0 0.035057450622696718 -1.3173751876252326e-05 0 0.034937676982580303 5.5976445309178406e-06 0 0.034972258367860942 1.1101355231748142e-05 0 0.0349637655102829 1.0825344810754192e-05 0 0.034994951459381501 3.3582648828984351e-06 0 0.035004102745327344 -1.2417737438763688e-05 0 0.034972258367860942 1.1101355231748142e-05 0 0.034994951459381501 3.3582648828984351e-06 0 0.034999786187216081 1.2918699169356381e-06 0 0.034999945306349811 5.189569583023086e-08 0 0.034994951459381501 3.3582648828984351e-06 0 0.034999786187216081 1.2918699169356381e-06 0 0.035004102745327344 -1.2417737438763688e-05 0 0.034994951459381501 3.3582648828984351e-06 0 0.034972258367860942 1.1101355231748142e-05 0 0.034999945306349811 5.189569583023086e-08 0 0.034999786187216081 1.2918699169356381e-06 0 0.035000007093396734 -1.7191055938209952e-08 0 0.034999945306349811 5.189569583023086e-08 0 0.034987273285728954 1.3444205110934244e-05 0 0.034999786187216081 1.2918699169356381e-06 0 0.035000007093396734 -1.7191055938209952e-08 0 0.034987273285728954 1.3444205110934244e-05 0 0.034999786187216081 1.2918699169356381e-06 0 0.034997700514155329 9.1018374847629826e-06 0 0.034985630883953761 3.1902944062153851e-05 0 0.034716454199398651 -1.6138926908651843e-05 0 0.034264532708293355 3.9571343110019527e-05 0 0.033788612786853182 -5.8720043433569784e-05 0 0.033067314241806055 -0.00018978463116675016 0 0.033016862687106817 -0.00018843379370782841 0 0.033041270098937051 -0.00022394759605931923 0 0.034275780866844581 3.8380658116323382e-05 0 0.034282873910539066 3.3937451547730092e-05 0 0.034282653685255716 3.7030605948240792e-05 0 0.034264532708293355 3.9571343110019527e-05 0 0.034716454199398651 -1.6138926908651843e-05 0 0.033075574893913759 -0.0001942694982590466 0 0.033067314241806055 -0.00018978463116675016 0 0.033041270098937051 -0.00022394759605931923 0 0.034937676982580303 5.5976445309178406e-06 0 0.034948741847622679 1.0132597070143429e-05 0 0.0349637655102829 1.0825344810754192e-05 0 0.034940440645278466 1.5854476545142971e-05 0 0.03495274745228201 1.008065679079106e-05 0 0.034960751667247679 8.4917828283313116e-06 0 0.033172421027496658 -7.8237014665167887e-05 0 0.033125093033654636 -0.00010863257266084222 0 0.033089126437071854 -7.50427359145385e-05 0 0.033788612786853182 -5.8720043433569784e-05 0 0.034201234875769593 -8.5451637663725417e-05 0 0.034940440645278466 1.5854476545142971e-05 0 0.034948741847622679 1.0132597070143429e-05 0 0.03495274745228201 1.008065679079106e-05 0 0.034937676982580303 5.5976445309178406e-06 0 0.034940440645278466 1.5854476545142971e-05 0 0.034948741847622679 1.0132597070143429e-05 0 0.034716454199398651 -1.6138926908651843e-05 0 0.033788612786853182 -5.8720043433569784e-05 0 0.034948741847622679 1.0132597070143429e-05 0 0.03495274745228201 1.008065679079106e-05 0 0.0349637655102829 1.0825344810754192e-05 0 0.033172421027496658 -7.8237014665167887e-05 0 0.033125093033654636 -0.00010863257266084222 0 0.033140753842430273 -0.00015330587733362479 0 0.033788612786853182 -5.8720043433569784e-05 0 0.033023008333845603 -0.00024001919435799078 0 0.033125093033654636 -0.00010863257266084222 0 0.033140753842430273 -0.00015330587733362479 0 0.033106121057701214 -0.00013114487203200737 0 0.033016862687106817 -0.00018843379370782841 0 0.032996536209480169 -0.00024809496556577125 0 0.033041270098937051 -0.00022394759605931923 0 0.032996536209480169 -0.00024809496556577125 0 0.033041270098937051 -0.00022394759605931923 0 0.033018478012235633 -0.00026864679792344432 0 0.033076008558407789 -0.00025445815564720557 0 0.033041270098937051 -0.00022394759605931923 0 0.033018478012235633 -0.00026864679792344432 0 0.033076008558407789 -0.00025445815564720557 0 0.033018478012235633 -0.00026864679792344432 0 0.033047102091983409 -0.0002891463048269232 0 0.032995502546877123 -0.00030107641146748227 0 0.033018478012235633 -0.00026864679792344432 0 0.033047102091983409 -0.0002891463048269232 0 0.032998745117774245 -0.00029536148219295847 0 0.032996536209480169 -0.00024809496556577125 0 0.033018478012235633 -0.00026864679792344432 0 0.032998745117774245 -0.00029536148219295847 0 0.032995502546877123 -0.00030107641146748227 0 0.033018478012235633 -0.00026864679792344432 0 0.033100322733314515 -0.00021935858119085476 0 0.033140753842430273 -0.00015330587733362479 0 0.033069730510045685 -0.00018773434284479292 0 0.033054368159452216 -0.00024149723962582016 0 0.033023008333845603 -0.00024001919435799078 0 0.034058606297102723 5.6655331417698622e-05 0 0.033773033775127151 -1.7120991860415929e-05 0 0.033947029161742213 -0.00017359613024277138 0 0.034058606297102723 5.6655331417698622e-05 0 0.033947029161742213 -0.00017359613024277138 0 0.0340948625811422 -6.1696327623053619e-05 0 0.034221953356656988 0.00011224294002668566 0 0.034058606297102723 5.6655331417698622e-05 0 0.0340948625811422 -6.1696327623053619e-05 0 0.034221953356656988 0.00011224294002668566 0 0.034058606297102723 5.6655331417698622e-05 0 0.034188608731848501 0.00015642357061197809 0 0.034058606297102723 5.6655331417698622e-05 0 0.034035831881459956 0.00014202936510138788 0 0.033773033775127151 -1.7120991860415929e-05 0 0.034058606297102723 5.6655331417698622e-05 0 0.034188608731848501 0.00015642357061197809 0 0.034035831881459956 0.00014202936510138788 0 0.034188608731848501 0.00015642357061197809 0 0.034466267619953798 9.2005940949407987e-05 0 0.034035831881459956 0.00014202936510138788 0 0.033140753842430273 -0.00015330587733362479 0 0.033069730510045685 -0.00018773434284479292 0 0.033106121057701214 -0.00013114487203200737 0 0.033760664314572704 8.3213221478369178e-05 0 0.034201234875769593 -8.5451637663725417e-05 0 0.034221953356656988 0.00011224294002668566 0 0.034188608731848501 0.00015642357061197809 0 0.034184836222475375 0.00011129983799734218 0 0.033069730510045685 -0.00018773434284479292 0 0.033106121057701214 -0.00013114487203200737 0 0.033089126437071854 -7.50427359145385e-05 0 0.033125093033654636 -0.00010863257266084222 0 0.033106121057701214 -0.00013114487203200737 0 0.033089126437071854 -7.50427359145385e-05 0 0.03495274745228201 1.008065679079106e-05 0 0.034958600277711221 5.8600078861880157e-06 0 0.034960751667247679 8.4917828283313116e-06 0 0.034958600277711221 5.8600078861880157e-06 0 0.034958251624603594 2.9345580497331784e-07 0 0.034960751667247679 8.4917828283313116e-06 0 0.034958600277711221 5.8600078861880157e-06 0 0.034958251624603594 2.9345580497331784e-07 0 0.0349637655102829 1.0825344810754192e-05 0 0.03495274745228201 1.008065679079106e-05 0 0.034958600277711221 5.8600078861880157e-06 0 0.0349637655102829 1.0825344810754192e-05 0 0.034958251624603594 2.9345580497331784e-07 0 0.034820090826149057 3.7009888696834632e-05 0 0.034937730920468327 3.0755373911606158e-05 0 0.034958251624603594 2.9345580497331784e-07 0 0.03497983113201953 -0.00012994663194428036 0 0.034820090826149057 3.7009888696834632e-05 0 0.03444020781032224 -2.9613220011559375e-05 0 0.034201234875769593 -8.5451637663725417e-05 0 0.034201234875769593 -8.5451637663725417e-05 0 0.034637809415910763 7.3198257469909474e-05 0 0.03497983113201953 -0.00012994663194428036 0 0.034466267619953798 9.2005940949407987e-05 0 0.034820090826149057 3.7009888696834632e-05 0 0.034188608731848501 0.00015642357061197809 0 0.034184836222475375 0.00011129983799734218 0 0.034466267619953798 9.2005940949407987e-05 0 0.034466267619953798 9.2005940949407987e-05 0 0.034820090826149057 3.7009888696834632e-05 0 0.034919096882965593 4.6330254305191975e-05 0 0.034466267619953798 9.2005940949407987e-05 0 0.034999554027526206 6.9739567221218647e-08 0 0.034919096882965593 4.6330254305191975e-05 0 0.034999554027526206 6.9739567221218647e-08 0 0.034919096882965593 4.6330254305191975e-05 0 0.034999945306349811 5.189569583023086e-08 0 0.034919096882965593 4.6330254305191975e-05 0 0.034972258367860942 1.1101355231748142e-05 0 0.034999945306349811 5.189569583023086e-08 0 0.034958251624603594 2.9345580497331784e-07 0 0.0349637655102829 1.0825344810754192e-05 0 0.034937730920468327 3.0755373911606158e-05 0 0.034972258367860942 1.1101355231748142e-05 0 0.0349637655102829 1.0825344810754192e-05 0 0.034937730920468327 3.0755373911606158e-05 0 0.034820090826149057 3.7009888696834632e-05 0 0.034919096882965593 4.6330254305191975e-05 0 0.034937730920468327 3.0755373911606158e-05 0 0.034919096882965593 4.6330254305191975e-05 0 0.034972258367860942 1.1101355231748142e-05 0 0.034937730920468327 3.0755373911606158e-05 0 0.03499808156658496 7.2862607747960386e-07 0 0.034667524515793469 0.00011297339547815167 0 0.034295479462454197 0.00023185090857448133 0 0.034466267619953798 9.2005940949407987e-05 0 0.034999554027526206 6.9739567221218647e-08 0 0.034667524515793469 0.00011297339547815167 0 0.034999554027526206 6.9739567221218647e-08 0 0.03499808156658496 7.2862607747960386e-07 0 0.034667524515793469 0.00011297339547815167 0 0.034466267619953798 9.2005940949407987e-05 0 0.034104477522910306 0.00020274637433092375 0 0.033983730424070061 0.00016931200091497748 0 0.034466267619953798 9.2005940949407987e-05 0 0.034667524515793469 0.00011297339547815167 0 0.034104477522910306 0.00020274637433092375 0 0.034667524515793469 0.00011297339547815167 0 0.034104477522910306 0.00020274637433092375 0 0.034295479462454197 0.00023185090857448133 0 0.034104477522910306 0.00020274637433092375 0 0.03347119660421341 0.00013169767463808149 0 0.033615411285128988 0.00020534832354339311 0 0.034104477522910306 0.00020274637433092375 0 0.033983730424070061 0.00016931200091497748 0 0.03347119660421341 0.00013169767463808149 0 0.034466267619953798 9.2005940949407987e-05 0 0.033983730424070061 0.00016931200091497748 0 0.034035831881459956 0.00014202936510138788 0 0.033983730424070061 0.00016931200091497748 0 0.034035831881459956 0.00014202936510138788 0 0.03347119660421341 0.00013169767463808149 0 0.033773033775127151 -1.7120991860415929e-05 0 0.03347119660421341 0.00013169767463808149 0 0.033331306848683073 -0.0001114044324331845 0 0.034035831881459956 0.00014202936510138788 0 0.033773033775127151 -1.7120991860415929e-05 0 0.03347119660421341 0.00013169767463808149 0 0.03347119660421341 0.00013169767463808149 0 0.032885928170884607 -5.1806326438040964e-05 0 0.033331306848683073 -0.0001114044324331845 0 0.032885928170884607 -5.1806326438040964e-05 0 0.032984760910808757 -0.00046289312882698838 0 0.032146793654715143 -0.0002193556398276887 0 0.032885928170884607 -5.1806326438040964e-05 0 0.032984760910808757 -0.00046289312882698838 0 0.033331306848683073 -0.0001114044324331845 0 0.032984760910808757 -0.00046289312882698838 0 0.032119330820798278 -0.00064708027807317545 0 0.032146793654715143 -0.0002193556398276887 0 0.032984760910808757 -0.00046289312882698838 0 0.033630595577113231 -0.00030942934949506088 0 0.033696524940592082 -0.0007896659314116384 0 0.032984760910808757 -0.00046289312882698838 0 0.033696524940592082 -0.0007896659314116384 0 0.033259137608272892 -0.0010103143645302868 0 0.032984760910808757 -0.00046289312882698838 0 0.033630595577113231 -0.00030942934949506088 0 0.033331306848683073 -0.0001114044324331845 0 0.033773033775127151 -1.7120991860415929e-05 0 0.033630595577113231 -0.00030942934949506088 0 0.033331306848683073 -0.0001114044324331845 0 0.033773033775127151 -1.7120991860415929e-05 0 0.033630595577113231 -0.00030942934949506088 0 0.033947029161742213 -0.00017359613024277138 0 0.033947029161742213 -0.00017359613024277138 0 0.0340948625811422 -6.1696327623053619e-05 0 0.034142168738973792 -0.00027207923197486347 0 0.033947029161742213 -0.00017359613024277138 0 0.034142168738973792 -0.00027207923197486347 0 0.033955476453543229 -0.00046250280092620882 0 0.034142168738973792 -0.00027207923197486347 0 0.034125875826517785 -0.00050948425110136002 0 0.033955476453543229 -0.00046250280092620882 0 0.033630595577113231 -0.00030942934949506088 0 0.033947029161742213 -0.00017359613024277138 0 0.033955476453543229 -0.00046250280092620882 0 0.033760664314572704 8.3213221478369178e-05 0 0.03226539774124481 -0.00092454617878188171 0 0.033100322733314515 -0.00021935858119085476 0 0.033062678500358551 -0.00023968207966826438 0 0.033037362822481972 -0.00025491291503559611 0 0.033069730510045685 -0.00018773434284479292 0 0.033062678500358551 -0.00023968207966826438 0 0.033051504000399502 -0.00026118393490735315 0 0.034221953356656988 0.00011224294002668566 0 0.034142168738973792 -0.00027207923197486347 0 0.034322489925547796 -0.00052845963092319325 0 0.034221953356656988 0.00011224294002668566 0 0.0340948625811422 -6.1696327623053619e-05 0 0.034142168738973792 -0.00027207923197486347 0 0.033054368159452216 -0.00024149723962582016 0 0.033040560772978025 -0.00025552478385695344 0 0.033100322733314515 -0.00021935858119085476 0 0.033069730510045685 -0.00018773434284479292 0 0.033062678500358551 -0.00023968207966826438 0 0.029868678401144225 -0.0016456386787770988 0 0.029990017477781197 -0.0017083491055901968 0 0.029935926424459035 -0.0016619917350406809 0 0.032994864040110088 -0.00021814335240375409 0 0.033037362822481972 -0.00025491291503559611 0 0.033051504000399502 -0.00026118393490735315 0 0.033062678500358551 -0.00023968207966826438 0 0.033037362822481972 -0.00025491291503559611 0 0.033051504000399502 -0.00026118393490735315 0 0.034322489925547796 -0.00052845963092319325 0 0.034125875826517785 -0.00050948425110136002 0 0.034052352637413685 -0.000703394071576228 0 0.034142168738973792 -0.00027207923197486347 0 0.034322489925547796 -0.00052845963092319325 0 0.034125875826517785 -0.00050948425110136002 0 0.033630595577113231 -0.00030942934949506088 0 0.033955476453543229 -0.00046250280092620882 0 0.033696524940592082 -0.0007896659314116384 0 0.034125875826517785 -0.00050948425110136002 0 0.033955476453543229 -0.00046250280092620882 0 0.034052352637413685 -0.000703394071576228 0 0.034322489925547796 -0.00052845963092319325 0 0.034052352637413685 -0.000703394071576228 0 0.034066271112397711 -0.0010305658564589422 0 0.034052352637413685 -0.000703394071576228 0 0.033696524940592082 -0.0007896659314116384 0 0.034066271112397711 -0.0010305658564589422 0 0.033955476453543229 -0.00046250280092620882 0 0.034052352637413685 -0.000703394071576228 0 0.033696524940592082 -0.0007896659314116384 0 0.034066271112397711 -0.0010305658564589422 0 0.034292255055480593 -0.0015304501633850759 0 0.033606071687198695 -0.0014307934757594085 0 0.033696524940592082 -0.0007896659314116384 0 0.034066271112397711 -0.0010305658564589422 0 0.033606071687198695 -0.0014307934757594085 0 0.034322489925547796 -0.00052845963092319325 0 0.034066271112397711 -0.0010305658564589422 0 0.034292255055480593 -0.0015304501633850759 0 0.029990017477781197 -0.0017083491055901968 0 0.029935926424459035 -0.0016619917350406809 0 0.029984131955573617 -0.0015501095566088613 0 0.029899727799566879 -0.0015950901988968174 0 0.029935926424459035 -0.0016619917350406809 0 0.029984131955573617 -0.0015501095566088613 0 0.03226539774124481 -0.00092454617878188171 0 0.031391440761856806 -0.001307250114799384 0 0.031391440761856806 -0.001307250114799384 0 0.032742311021140745 -0.0011647901459663757 0 0.031343731178306924 -0.0010408576047894614 0 0.031542202366059674 -0.00089560911339077952 0 0.031293122188622562 -0.00082922935041290357 0 0.031343731178306924 -0.0010408576047894614 0 0.031114838403115606 -0.00096508772650057226 0 0.031293122188622562 -0.00082922935041290357 0 0.031114838403115606 -0.00096508772650057226 0 0.030957514140072733 -0.00073949963138759012 0 0.031293122188622562 -0.00082922935041290357 0 0.03096039073239415 -0.0011481276694069683 0 0.031114838403115606 -0.00096508772650057226 0 0.030852758364994761 -0.00078349583256073026 0 0.031114838403115606 -0.00096508772650057226 0 0.030957514140072733 -0.00073949963138759012 0 0.030852758364994761 -0.00078349583256073026 0 0.032984760910808757 -0.00046289312882698838 0 0.032702710265450192 -0.0013504095821275813 0 0.032119330820798278 -0.00064708027807317545 0 0.032984760910808757 -0.00046289312882698838 0 0.032702710265450192 -0.0013504095821275813 0 0.033259137608272892 -0.0010103143645302868 0 0.032702710265450192 -0.0013504095821275813 0 0.033259137608272892 -0.0010103143645302868 0 0.033606071687198695 -0.0014307934757594085 0 0.033696524940592082 -0.0007896659314116384 0 0.033259137608272892 -0.0010103143645302868 0 0.033606071687198695 -0.0014307934757594085 0 0.031752009493791256 -0.0010076519139134003 0 0.032742311021140745 -0.0011647901459663757 0 0.031002226463636918 -0.00074234032833730295 0 0.029963175284763645 -0.00053843757188879392 0 0.030238721691674599 -0.00032815756423978731 0 0.031002226463636918 -0.00074234032833730295 0 0.030238721691674599 -0.00032815756423978731 0 0.031104284095120734 -0.00033659421981757783 0 0.031002226463636918 -0.00074234032833730295 0 0.03019800964153236 -0.00074954100480784927 0 0.029963175284763645 -0.00053843757188879392 0 0.032702710265450192 -0.0013504095821275813 0 0.031002226463636918 -0.00074234032833730295 0 0.032119330820798278 -0.00064708027807317545 0 0.031752009493791256 -0.0010076519139134003 0 0.031108749792757233 -0.00079904074436802273 0 0.030957514140072733 -0.00073949963138759012 0 0.031002226463636918 -0.00074234032833730295 0 0.030852758364994761 -0.00078349583256073026 0 0.031002226463636918 -0.00074234032833730295 0 0.031104284095120734 -0.00033659421981757783 0 0.032119330820798278 -0.00064708027807317545 0 0.030171375388969971 -0.0009190078715157168 0 0.03016613369754139 -0.00076082945636079201 0 0.031002226463636918 -0.00074234032833730295 0 0.030852758364994761 -0.00078349583256073026 0 0.03019800964153236 -0.00074954100480784927 0 0.03096039073239415 -0.0011481276694069683 0 0.030852758364994761 -0.00078349583256073026 0 0.03019800964153236 -0.00074954100480784927 0 0.029524968698612472 -0.00065908808724941055 0 0.03019800964153236 -0.00074954100480784927 0 0.02963656112477606 -0.00060408076640074376 0 0.03019800964153236 -0.00074954100480784927 0 0.02963656112477606 -0.00060408076640074376 0 0.029963175284763645 -0.00053843757188879392 0 0.02963656112477606 -0.00060408076640074376 0 0.029963175284763645 -0.00053843757188879392 0 0.029120751975821715 -0.00039797870636619476 0 0.029963175284763645 -0.00053843757188879392 0 0.029120751975821715 -0.00039797870636619476 0 0.0294591929074767 -0.00022490648549413882 0 0.028071625203913226 -0.00024170799129342953 0 0.029120751975821715 -0.00039797870636619476 0 0.028679468041784898 -8.6702500709626265e-05 0 0.029120751975821715 -0.00039797870636619476 0 0.0294591929074767 -0.00022490648549413882 0 0.028679468041784898 -8.6702500709626265e-05 0 0.0294591929074767 -0.00022490648549413882 0 0.030238721691674599 -0.00032815756423978731 0 0.029804712737009853 7.5538402704737403e-05 0 0.029963175284763645 -0.00053843757188879392 0 0.0294591929074767 -0.00022490648549413882 0 0.030238721691674599 -0.00032815756423978731 0 0.030238721691674599 -0.00032815756423978731 0 0.030802749106995281 -9.9047723047264777e-05 0 0.029804712737009853 7.5538402704737403e-05 0 0.030238721691674599 -0.00032815756423978731 0 0.030802749106995281 -9.9047723047264777e-05 0 0.031104284095120734 -0.00033659421981757783 0 0.0294591929074767 -0.00022490648549413882 0 0.029804712737009853 7.5538402704737403e-05 0 0.029082509524522047 7.6577911042253907e-05 0 0.029915157424162151 -4.9030732143708888e-06 0 0.030313753490284524 0.00014344511509642601 0 0.029804712737009853 7.5538402704737403e-05 0 0.031230221977808847 7.032979593135599e-05 0 0.031137948537817907 8.0315807186123774e-05 0 0.030802749106995281 -9.9047723047264777e-05 0 0.029804712737009853 7.5538402704737403e-05 0 0.031230221977808847 7.032979593135599e-05 0 0.030802749106995281 -9.9047723047264777e-05 0 0.031230221977808847 7.032979593135599e-05 0 0.031574700270185128 -6.0972275927081915e-05 0 0.031230221977808847 7.032979593135599e-05 0 0.031574700270185128 -6.0972275927081915e-05 0 0.032015207529627498 6.4621277630656681e-05 0 0.031574700270185128 -6.0972275927081915e-05 0 0.03250349954371802 3.267635247503093e-05 0 0.032015207529627498 6.4621277630656681e-05 0 0.030802749106995281 -9.9047723047264777e-05 0 0.031574700270185128 -6.0972275927081915e-05 0 0.031104284095120734 -0.00033659421981757783 0 0.031574700270185128 -6.0972275927081915e-05 0 0.031104284095120734 -0.00033659421981757783 0 0.032146793654715143 -0.0002193556398276887 0 0.031104284095120734 -0.00033659421981757783 0 0.032119330820798278 -0.00064708027807317545 0 0.032146793654715143 -0.0002193556398276887 0 0.032885928170884607 -5.1806326438040964e-05 0 0.032146793654715143 -0.0002193556398276887 0 0.03250349954371802 3.267635247503093e-05 0 0.031574700270185128 -6.0972275927081915e-05 0 0.032146793654715143 -0.0002193556398276887 0 0.03250349954371802 3.267635247503093e-05 0 0.03347119660421341 0.00013169767463808149 0 0.032885928170884607 -5.1806326438040964e-05 0 0.03250349954371802 3.267635247503093e-05 0 0.03347119660421341 0.00013169767463808149 0 0.03250349954371802 3.267635247503093e-05 0 0.032870244753579289 0.00013787048839018052 0 0.03250349954371802 3.267635247503093e-05 0 0.032015207529627498 6.4621277630656681e-05 0 0.032870244753579289 0.00013787048839018052 0 0.032015207529627498 6.4621277630656681e-05 0 0.032870244753579289 0.00013787048839018052 0 0.031953170602231698 0.00011751369021279067 0 0.032870244753579289 0.00013787048839018052 0 0.033404544276039921 0.0002408579218296883 0 0.032684192338346088 0.00021653412755566538 0 0.032870244753579289 0.00013787048839018052 0 0.032684192338346088 0.00021653412755566538 0 0.031953170602231698 0.00011751369021279067 0 0.03347119660421341 0.00013169767463808149 0 0.032870244753579289 0.00013787048839018052 0 0.033615411285128988 0.00020534832354339311 0 0.032870244753579289 0.00013787048839018052 0 0.033615411285128988 0.00020534832354339311 0 0.033404544276039921 0.0002408579218296883 0 0.034104477522910306 0.00020274637433092375 0 0.033615411285128988 0.00020534832354339311 0 0.034295479462454197 0.00023185090857448133 0 0.033404544276039921 0.0002408579218296883 0 0.033815109446698396 0.00030442407806269132 0 0.034295479462454197 0.00023185090857448133 0 0.033615411285128988 0.00020534832354339311 0 0.033404544276039921 0.0002408579218296883 0 0.034295479462454197 0.00023185090857448133 0 0.033404544276039921 0.0002408579218296883 0 0.032684192338346088 0.00021653412755566538 0 0.032995548276684696 0.00036128951191597927 0 0.033404544276039921 0.0002408579218296883 0 0.032995548276684696 0.00036128951191597927 0 0.033815109446698396 0.00030442407806269132 0 0.033815109446698396 0.00030442407806269132 0 0.03491641616256503 0.00010111037229754545 0 0.032769304679933171 0.00095164688794452737 0 0.03499978121689553 2.9580790151829608e-07 0 0.03491641616256503 0.00010111037229754545 0 0.03500901184204034 -1.4650854761809593e-06 0 0.034671823711736278 0.00018601498869568711 0 0.034050285552719356 0.00045747586691538723 0 0.032995548276684696 0.00036128951191597927 0 0.033815109446698396 0.00030442407806269132 0 0.032769304679933171 0.00095164688794452737 0 0.03499808156658496 7.2862607747960386e-07 0 0.03499978121689553 2.9580790151829608e-07 0 0.03491641616256503 0.00010111037229754545 0 0.03499808156658496 7.2862607747960386e-07 0 0.03491641616256503 0.00010111037229754545 0 0.034295479462454197 0.00023185090857448133 0 0.033815109446698396 0.00030442407806269132 0 0.03491641616256503 0.00010111037229754545 0 0.034295479462454197 0.00023185090857448133 0 0.034991773318507183 -5.0719777473611949e-06 0 0.035000093385260451 -1.4726817775364412e-07 0 0.03500901184204034 -1.4650854761809593e-06 0 0.032724391576676851 1.3624027440254864e-05 0 0.03499845093111105 -5.3438991260647404e-08 0 0.03499978121689553 2.9580790151829608e-07 0 0.035000093385260451 -1.4726817775364412e-07 0 0.03500901184204034 -1.4650854761809593e-06 0 0.031801254410082816 0.00080558315850812667 0 0.032769304679933171 0.00095164688794452737 0 0.032276583187490208 0.00038550909086309778 0 0.032995548276684696 0.00036128951191597927 0 0.032769304679933171 0.00095164688794452737 0 0.032276583187490208 0.00038550909086309778 0 0.032724391576676851 1.3624027440254864e-05 0 0.034050285552719356 0.00045747586691538723 0 0.032684192338346088 0.00021653412755566538 0 0.032995548276684696 0.00036128951191597927 0 0.032276583187490208 0.00038550909086309778 0 0.031801254410082816 0.00080558315850812667 0 0.032276583187490208 0.00038550909086309778 0 0.031728540376249212 0.0001988349939551296 0 0.029138186748074092 -0.0012672659237256741 0 0.029353350834662138 -0.00016051372696613536 0 0.029797949597488372 -0.00051046439984615756 0 0.032724391576676851 1.3624027440254864e-05 0 0.030289288645318588 -5.4947232606626154e-05 0 0.030289288645318588 -5.4947232606626154e-05 0 0.030313753490284524 0.00014344511509642601 0 0.031728540376249212 0.0001988349939551296 0 0.031953170602231698 0.00011751369021279067 0 0.031137948537817907 8.0315807186123774e-05 0 0.029353350834662138 -0.00016051372696613536 0 0.029522195904489963 0.00033452504332112871 0 0.029780005602304888 -5.1252357746428547e-05 0 0.032276583187490208 0.00038550909086309778 0 0.031728540376249212 0.0001988349939551296 0 0.031953170602231698 0.00011751369021279067 0 0.032684192338346088 0.00021653412755566538 0 0.032276583187490208 0.00038550909086309778 0 0.031953170602231698 0.00011751369021279067 0 0.031230221977808847 7.032979593135599e-05 0 0.031953170602231698 0.00011751369021279067 0 0.031137948537817907 8.0315807186123774e-05 0 0.031230221977808847 7.032979593135599e-05 0 0.032015207529627498 6.4621277630656681e-05 0 0.031953170602231698 0.00011751369021279067 0 0.035000865757841927 -2.3364579208818835e-07 0 0.034809074399412929 -1.3737919586946681e-05 0 0.034996619681458209 4.6505370471233363e-07 0 0.029522195904489963 0.00033452504332112871 0 0.029697926213845052 0.00021369822499990877 0 0.029780005602304888 -5.1252357746428547e-05 0 0.029697926213845052 0.00021369822499990877 0 0.030145668888068567 -0.00019638685140771451 0 0.030479066992508349 0.00010508372102710343 0 0.029697926213845052 0.00021369822499990877 0 0.030145668888068567 -0.00019638685140771451 0 0.029780005602304888 -5.1252357746428547e-05 0 0.030145668888068567 -0.00019638685140771451 0 0.029780005602304888 -5.1252357746428547e-05 0 0.030309540086844139 -0.00042091292100705752 0 0.029353350834662138 -0.00016051372696613536 0 0.029780005602304888 -5.1252357746428547e-05 0 0.029797949597488372 -0.00051046439984615756 0 0.029138186748074092 -0.0012672659237256741 0 0.029797949597488372 -0.00051046439984615756 0 0.030752716514613844 -0.0013078353134590994 0 0.029780005602304888 -5.1252357746428547e-05 0 0.029797949597488372 -0.00051046439984615756 0 0.030309540086844139 -0.00042091292100705752 0 0.030482547674214877 -0.0003955578357577744 0 0.031922766969472931 -0.0001369675782613068 0 0.030309540086844139 -0.00042091292100705752 0 0.030752716514613844 -0.0013078353134590994 0 0.033423937976143625 0.0003381854692569205 0 0.030145668888068567 -0.00019638685140771451 0 0.030309540086844139 -0.00042091292100705752 0 0.030559440724585645 -0.00059222731953935664 0 0.029797949597488372 -0.00051046439984615756 0 0.030309540086844139 -0.00042091292100705752 0 0.030752716514613844 -0.0013078353134590994 0 0.032724391576676851 1.3624027440254864e-05 0 0.032644204696138462 -0.00071343848628137069 0 0.034986577181658034 -4.3744442590899802e-05 0 0.035000865757841927 -2.3364579208818835e-07 0 0.034809074399412929 -1.3737919586946681e-05 0 0.034809074399412929 -1.3737919586946681e-05 0 0.034996619681458209 4.6505370471233363e-07 0 0.034122213804639381 -0.00012211678274652273 0 0.034996619681458209 4.6505370471233363e-07 0 0.034122213804639381 -0.00012211678274652273 0 0.032682524948645632 -8.908897261719944e-07 0 0.030752716514613844 -0.0013078353134590994 0 0.033423937976143625 0.0003381854692569205 0 0.034122213804639381 -0.00012211678274652273 0 0.032644204696138462 -0.00071343848628137069 0 0.034090155031784961 -0.00016936079175067486 0 0.031922766969472931 -0.0001369675782613068 0 0.032677225195831681 -3.0415661925717703e-08 0 0.033423937976143625 0.0003381854692569205 0 0.034122213804639381 -0.00012211678274652273 0 0.032682524948645632 -8.908897261719944e-07 0 0.030559440724585645 -0.00059222731953935664 0 0.032673741621270111 -2.0295421106615246e-06 0 0.030479066992508349 0.00010508372102710343 0 0.030145668888068567 -0.00019638685140771451 0 0.030559440724585645 -0.00059222731953935664 0 0.030479066992508349 0.00010508372102710343 0 0.029697926213845052 0.00021369822499990877 0 0.030479066992508349 0.00010508372102710343 0 0.029301501823192751 0.00026964088786168443 0 0.032673741621270111 -2.0295421106615246e-06 0 0.030479066992508349 0.00010508372102710343 0 0.030779968245437772 1.0944279866338328e-06 0 0.030479066992508349 0.00010508372102710343 0 0.030779968245437772 1.0944279866338328e-06 0 0.029301501823192751 0.00026964088786168443 0 0.030779968245437772 1.0944279866338328e-06 0 0.028882213927575884 2.4934525220433767e-07 0 0.029301501823192751 0.00026964088786168443 0 0.028882213927575884 2.4934525220433767e-07 0 0.029301501823192751 0.00026964088786168443 0 0.028147094292378997 0.0001442007317408793 0 0.029301501823192751 0.00026964088786168443 0 0.028455494272335513 0.00016960075921374705 0 0.028147094292378997 0.0001442007317408793 0 0.029697926213845052 0.00021369822499990877 0 0.029301501823192751 0.00026964088786168443 0 0.029235779917578645 0.0002845960107826529 0 0.029522195904489963 0.00033452504332112871 0 0.029697926213845052 0.00021369822499990877 0 0.029235779917578645 0.0002845960107826529 0 0.029804712737009853 7.5538402704737403e-05 0 0.029522195904489963 0.00033452504332112871 0 0.029235779917578645 0.0002845960107826529 0 0.029804712737009853 7.5538402704737403e-05 0 0.029235779917578645 0.0002845960107826529 0 0.029082509524522047 7.6577911042253907e-05 0 0.029301501823192751 0.00026964088786168443 0 0.029235779917578645 0.0002845960107826529 0 0.028455494272335513 0.00016960075921374705 0 0.029235779917578645 0.0002845960107826529 0 0.029082509524522047 7.6577911042253907e-05 0 0.028455494272335513 0.00016960075921374705 0 0.029082509524522047 7.6577911042253907e-05 0 0.028455494272335513 0.00016960075921374705 0 0.028679468041784898 -8.6702500709626265e-05 0 0.0294591929074767 -0.00022490648549413882 0 0.029082509524522047 7.6577911042253907e-05 0 0.028679468041784898 -8.6702500709626265e-05 0 0.028071625203913226 -0.00024170799129342953 0 0.028679468041784898 -8.6702500709626265e-05 0 0.027659300771799903 -1.2650543937796688e-05 0 0.028455494272335513 0.00016960075921374705 0 0.027659300771799903 -1.2650543937796688e-05 0 0.027151528150444162 0.00010138679774513332 0 0.028455494272335513 0.00016960075921374705 0 0.028679468041784898 -8.6702500709626265e-05 0 0.027659300771799903 -1.2650543937796688e-05 0 0.027151528150444162 0.00010138679774513332 0 0.02698502276983417 2.7520569176296522e-07 0 0.028147094292378997 0.0001442007317408793 0 0.028882213927575884 2.4934525220433767e-07 0 0.02698502276983417 2.7520569176296522e-07 0 0.028147094292378997 0.0001442007317408793 0 0.028455494272335513 0.00016960075921374705 0 0.027151528150444162 0.00010138679774513332 0 0.028147094292378997 0.0001442007317408793 0 0.032867942429480004 -0.00064862157716026538 0 0.033394448403831621 -0.00097995802987527647 0 0.033982869722599444 -0.00073956889731237644 0 0.0340760205296931 -0.00097267370284146349 0 0.034059191375832694 -0.00096662126663767589 0 0.031816325026715081 -0.00059416944061463253 0 0.032564066621952631 -0.00021667808548167915 0 0.032745682786197376 -0.0010327802755917823 0 0.031816325026715081 -0.00059416944061463253 0 0.032564066621952631 -0.00021667808548167915 0 0.031507393394469493 0.00030914311967302274 0 0.032564066621952631 -0.00021667808548167915 0 0.033358426251215129 -0.00035044594019543801 0 0.033220403674617843 -0.00080113931856841164 0 0.032564066621952631 -0.00021667808548167915 0 0.033358426251215129 -0.00035044594019543801 0 0.03304439170836479 0.00045812456674668611 0 0.032530356033116568 -0.0011969623420326691 0 0.032684983991069297 -0.0012761280014463971 0 0.032699044558915862 -0.0011835749415142508 0 0.032530356033116568 -0.0011969623420326691 0 0.032654970064050728 -0.0010891146895749423 0 0.032699044558915862 -0.0011835749415142508 0 0.032684983991069297 -0.0012761280014463971 0 0.032614052035835117 -0.0014470605432686183 0 0.032724951789234825 -0.0014317268529099073 0 0.033358426251215129 -0.00035044594019543801 0 0.033220403674617843 -0.00080113931856841164 0 0.03365677303040749 -0.0010119782296871787 0 0.03294899315722976 -0.00077189410208321175 0 0.033117680830638908 -0.0012754705215853696 0 0.032530356033116568 -0.0011969623420326691 0 0.032684983991069297 -0.0012761280014463971 0 0.032614052035835117 -0.0014470605432686183 0 0.032564066621952631 -0.00021667808548167915 0 0.033220403674617843 -0.00080113931856841164 0 0.032745682786197376 -0.0010327802755917823 0 0.033723599208423966 -0.0011113646947890651 0 0.034010431281736538 -0.00099993929320342533 0 0.0340760205296931 -0.00097267370284146349 0 0.033220403674617843 -0.00080113931856841164 0 0.033723599208423966 -0.0011113646947890651 0 0.032745682786197376 -0.0010327802755917823 0 0.033661471237436673 -0.0010903963653909369 0 0.033394448403831621 -0.00097995802987527647 0 0.03365677303040749 -0.0010119782296871787 0 0.033723599208423966 -0.0011113646947890651 0 0.033729813789980162 -0.001035572123698355 0 0.033117680830638908 -0.0012754705215853696 0 0.03338045641362844 -0.0010600720448942966 0 0.033220403674617843 -0.00080113931856841164 0 0.03365677303040749 -0.0010119782296871787 0 0.033723599208423966 -0.0011113646947890651 0 0.032614052035835117 -0.0014470605432686183 0 0.032674954302474801 -0.0016252730749978482 0 0.032724951789234825 -0.0014317268529099073 0 0.033723599208423966 -0.0011113646947890651 0 0.033831578922070948 -0.00099748269665451191 0 0.033729813789980162 -0.001035572123698355 0 0.033831578922070948 -0.00099748269665451191 0 0.033729813789980162 -0.001035572123698355 0 0.033882282951450578 -0.00089458876352601236 0 0.03338045641362844 -0.0010600720448942966 0 0.03342766210882471 -0.00085984078464250901 0 0.033730184381945368 -0.00075270456690031433 0 0.033594839774607137 -0.00071419500184758907 0 0.033749495470740375 -0.00062720229759532728 0 0.034010431281736538 -0.00099993929320342533 0 0.033983636406482561 -0.00092268942770929385 0 0.034155238742183937 -0.00096182574504160494 0 0.033723599208423966 -0.0011113646947890651 0 0.033831578922070948 -0.00099748269665451191 0 0.034010431281736538 -0.00099993929320342533 0 0.033831578922070948 -0.00099748269665451191 0 0.034010431281736538 -0.00099993929320342533 0 0.033983636406482561 -0.00092268942770929385 0 0.033831578922070948 -0.00099748269665451191 0 0.033983636406482561 -0.00092268942770929385 0 0.033882282951450578 -0.00089458876352601236 0 0.034010431281736538 -0.00099993929320342533 0 0.034155238742183937 -0.00096182574504160494 0 0.034059191375832694 -0.00096662126663767589 0 0.034010431281736538 -0.00099993929320342533 0 0.0340760205296931 -0.00097267370284146349 0 0.034059191375832694 -0.00096662126663767589 0 0.033982869722599444 -0.00073956889731237644 0 0.034059191375832694 -0.00096662126663767589 0 0.033880758493178537 -0.00093800709966748415 0 0.034155238742183937 -0.00096182574504160494 0 0.034059191375832694 -0.00096662126663767589 0 0.033954801228804544 -0.0010875805290668993 0 0.034059191375832694 -0.00096662126663767589 0 0.033880758493178537 -0.00093800709966748415 0 0.033954801228804544 -0.0010875805290668993 0 0.033826162502756572 -0.0010307507676406797 0 0.033880758493178537 -0.00093800709966748415 0 0.033954801228804544 -0.0010875805290668993 0 0.033826162502756572 -0.0010307507676406797 0 0.033692039942710111 -0.00098054004690756704 0 0.033880758493178537 -0.00093800709966748415 0 0.033826162502756572 -0.0010307507676406797 0 0.033692039942710111 -0.00098054004690756704 0 0.033772347908168868 -0.0011414228890924945 0 0.033692039942710111 -0.00098054004690756704 0 0.033880758493178537 -0.00093800709966748415 0 0.033700269539381017 -0.00075850792453445199 0 0.033467616258280944 -0.0011338721627815523 0 0.033377383597591681 -0.00086838133488169452 0 0.033700269539381017 -0.00075850792453445199 0 0.033460632775830862 -0.0011588050074467428 0 0.033742374106302042 -0.00071387911680742837 0 0.033225087137593465 -0.0012263649938910304 0 0.033182695304781108 -0.0013647621894515504 0 0.032970257924217428 -0.0012127030005765257 0 0.033225087137593465 -0.0012263649938910304 0 0.033201248365337402 -0.0010070947626266847 0 0.032970257924217428 -0.0012127030005765257 0 0.033460632775830862 -0.0011588050074467428 0 0.034128330940482753 -0.00093363495185549777 0 0.033467616258280944 -0.0011338721627815523 0 0.033225087137593465 -0.0012263649938910304 0 0.033201248365337402 -0.0010070947626266847 0 0.033467616258280944 -0.0011338721627815523 0 0.033225087137593465 -0.0012263649938910304 0 0.033306021547266182 -0.0014522036113845456 0 0.033467616258280944 -0.0011338721627815523 0 0.033201248365337402 -0.0010070947626266847 0 0.033377383597591681 -0.00086838133488169452 0 0.033201248365337402 -0.0010070947626266847 0 0.032970257924217428 -0.0012127030005765257 0 0.03299963493976607 -0.00085928532101988548 0 0.033179260648011084 -0.00069967307514483571 0 0.033024329167010515 -0.00045737703569732072 0 0.03299963493976607 -0.00085928532101988548 0 0.033201248365337402 -0.0010070947626266847 0 0.033179260648011084 -0.00069967307514483571 0 0.03299963493976607 -0.00085928532101988548 0 0.033179260648011084 -0.00069967307514483571 0 0.033377383597591681 -0.00086838133488169452 0 0.03343288692829717 -0.00056644616274471426 0 0.033201248365337402 -0.0010070947626266847 0 0.033179260648011084 -0.00069967307514483571 0 0.033377383597591681 -0.00086838133488169452 0 0.033179260648011084 -0.00069967307514483571 0 0.03343288692829717 -0.00056644616274471426 0 0.033204797977214713 -0.00045885908016246715 0 0.033179260648011084 -0.00069967307514483571 0 0.033204797977214713 -0.00045885908016246715 0 0.033024329167010515 -0.00045737703569732072 0 0.030210674373162313 0.00051754403526360073 0 0.029699686060037186 0.00073229883708976116 0 0.030210674373162313 0.00051754403526360073 0 0.032279864220558528 -0.0004838033252731766 0 0.028452643203656983 0.0014960746650887354 0 0.028466914681643099 0.0015472658146922994 0 0.028348368472290192 0.0014290338328591756 0 0.033982869722599444 -0.00073956889731237644 0 0.033880758493178537 -0.00093800709966748415 0 0.033700269539381017 -0.00075850792453445199 0 0.033377383597591681 -0.00086838133488169452 0 0.03343288692829717 -0.00056644616274471426 0 0.033700269539381017 -0.00075850792453445199 0 0.03343288692829717 -0.00056644616274471426 0 0.033700269539381017 -0.00075850792453445199 0 0.033728596689346073 -0.00046980653915804516 0 0.032867942429480004 -0.00064862157716026538 0 0.032480061052590395 -0.00029975772980300752 0 0.033982869722599444 -0.00073956889731237644 0 0.033700269539381017 -0.00075850792453445199 0 0.033728596689346073 -0.00046980653915804516 0 0.031816325026715081 -0.00059416944061463253 0 0.030984617162872777 -7.2548717467814581e-05 0 0.031507393394469493 0.00030914311967302274 0 0.030984617162872777 -7.2548717467814581e-05 0 0.030738842481638363 0.00065950190913382828 0 0.031507393394469493 0.00030914311967302274 0 0.032480061052590395 -0.00029975772980300752 0 0.031124841571289752 8.0190662186915398e-05 0 0.030984617162872777 -7.2548717467814581e-05 0 0.030738842481638363 0.00065950190913382828 0 0.030260388016849257 0.00044352281106364378 0 0.03343288692829717 -0.00056644616274471426 0 0.033728596689346073 -0.00046980653915804516 0 0.033379552699249998 -0.00021166923462913534 0 0.030362374168717055 0.00047693959895813147 0 0.029597560256957003 0.00013639428762228934 0 0.029647460394281667 0.0010045567797219196 0 0.030362374168717055 0.00047693959895813147 0 0.031163769172597892 0.00085633981026247768 0 0.030276758357836997 0.0016286590909125524 0 0.030423150323751695 0.00049116650913080882 0 0.031124841571289752 8.0190662186915398e-05 0 0.030423150323751695 0.00049116650913080882 0 0.031125034559531844 0.00083000047867658351 0 0.030738842481638363 0.00065950190913382828 0 0.031163769172597892 0.00085633981026247768 0 0.031507393394469493 0.00030914311967302274 0 0.02565175696238544 0.00051490295372550365 0 0.027628356156849856 0.00019223936532281169 0 0.024467093065886843 0.00031719861755005372 0 0.024323847069700883 -0.00018427189485190789 0 0.023890949987804135 0.0005604229905259863 0 0.030210674373162313 0.00051754403526360073 0 0.027628356156849856 0.00019223936532281169 0 0.033204797977214713 -0.00045885908016246715 0 0.033041333405001504 -0.00036049727066223502 0 0.033168826402664185 -0.00030378264637395837 0 0.027628356156849856 0.00019223936532281169 0 0.029600606597725107 7.2372099993975019e-05 0 0.033204797977214713 -0.00045885908016246715 0 0.033024329167010515 -0.00045737703569732072 0 0.033041333405001504 -0.00036049727066223502 0 0.027316969074505783 0.00054651368004354686 0 0.027251838527217569 -4.0113534738598006e-05 0 0.027747388901338575 0.00017306149765866763 0 0.02565175696238544 0.00051490295372550365 0 0.029600606597725107 7.2372099993975019e-05 0 0.033204797977214713 -0.00045885908016246715 0 0.033168826402664185 -0.00030378264637395837 0 0.033379552699249998 -0.00021166923462913534 0 0.03343288692829717 -0.00056644616274471426 0 0.033204797977214713 -0.00045885908016246715 0 0.033379552699249998 -0.00021166923462913534 0 0.029600606597725107 7.2372099993975019e-05 0 0.031124841571289752 8.0190662186915398e-05 0 0.028011019206570082 -0.0005783379488193195 0 0.029851803125664496 0.00021799524567822417 0 0.027696548934445443 0.001769953397595858 0 0.029597560256957003 0.00013639428762228934 0 0.029647460394281667 0.0010045567797219196 0 0.028767351022174117 0.0007261874814519742 0 0.031124841571289752 8.0190662186915398e-05 0 0.025597993871896964 0.0013237795797542851 0 0.024517227540917563 0.0011635116339201868 0 0.023647358127429977 0.0011615632849303313 0 0.02281497537119296 0.0023562245603705664 0 0.027042858089733803 0.00026880832105765132 0 0.028011019206570082 -0.0005783379488193195 0 0.027696548934445443 0.001769953397595858 0 0.024112554677885152 0.00022441450590911049 0 0.024517227540917563 0.0011635116339201868 0 0.024174353788998192 0.00057331350221930997 0 0.02565175696238544 0.00051490295372550365 0 0.025597993871896964 0.0013237795797542851 0 0.024111687196003907 0.00022459908856734665 0 0.023647358127429977 0.0011615632849303313 0 0.024174353788998192 0.00057331350221930997 0 0.024517227540917563 0.0011635116339201868 0 0.023647358127429977 0.0011615632849303313 0 0.024174353788998192 0.00057331350221930997 0 0.02565175696238544 0.00051490295372550365 0 0.025403070420208142 0.00040369755026949778 0 0.022460330515810145 0.0023069108644429908 0 0.02205755808318232 0.0031738044348192792 0 0.021479302648110973 0.0030160563255799033 0 0.025597993871896964 0.0013237795797542851 0 0.025904186266571146 0.0026337066883124101 0 0.022460330515810145 0.0023069108644429908 0 0.02205755808318232 0.0031738044348192792 0 0.022738902906749753 0.0034169845454178368 0 0.025597993871896964 0.0013237795797542851 0 0.021763776349545173 0.0028554490364978658 0 0.029647460394281667 0.0010045567797219196 0 0.029103871770613465 0.0018800365028141207 0 0.030276758357836997 0.0016286590909125524 0 0.029647460394281667 0.0010045567797219196 0 0.028767351022174117 0.0007261874814519742 0 0.029103871770613465 0.0018800365028141207 0 0.026348017602495825 0.0039825702426871555 0 0.025904186266571146 0.0026337066883124101 0 0.022326396077688413 0.0041687747684784797 0 0.022989184918178918 0.0044744667566151263 0 0.022738902906749753 0.0034169845454178368 0 0.029410490770181669 0.0030261789583193341 0 0.029103871770613465 0.0018800365028141207 0 0.030098122510587754 0.0024527404251859495 0 0.022326396077688413 0.0041687747684784797 0 0.022738902906749753 0.0034169845454178368 0 0.022016152937575122 0.0036795888333720161 0 0.02205755808318232 0.0031738044348192792 0 0.022738902906749753 0.0034169845454178368 0 0.022016152937575122 0.0036795888333720161 0 0.022326396077688413 0.0041687747684784797 0 0.022016152937575122 0.0036795888333720161 0 0.021733227385812764 0.0042004899168567259 0 0.02205755808318232 0.0031738044348192792 0 0.022016152937575122 0.0036795888333720161 0 0.021667790440269407 0.0034783299113132944 0 0.031163769172597892 0.00085633981026247768 0 0.031075623066840544 0.0015526495012639287 0 0.030276758357836997 0.0016286590909125524 0 0.031163769172597892 0.00085633981026247768 0 0.031075623066840544 0.0015526495012639287 0 0.031689401581991933 0.0014307596857039348 0 0.030362374168717055 0.00047693959895813147 0 0.029647460394281667 0.0010045567797219196 0 0.030276758357836997 0.0016286590909125524 0 0.030276758357836997 0.0016286590909125524 0 0.030098122510587754 0.0024527404251859495 0 0.031142824904202789 0.0023540059273741989 0 0.029103871770613465 0.0018800365028141207 0 0.030276758357836997 0.0016286590909125524 0 0.030098122510587754 0.0024527404251859495 0 0.031075623066840544 0.0015526495012639287 0 0.030276758357836997 0.0016286590909125524 0 0.031142824904202789 0.0023540059273741989 0 0.031075623066840544 0.0015526495012639287 0 0.031142824904202789 0.0023540059273741989 0 0.031689401581991933 0.0014307596857039348 0 0.030986255253228175 0.0022597214070419766 0 0.031653673263462273 0.0014667874700888858 0 0.031639567782721437 0.002077178887650626 0 0.032150714883776202 0.0016028538403508735 0 0.031689401581991933 0.0014307596857039348 0 0.031003594157162997 0.0020023991575650372 0 0.031639567782721437 0.002077178887650626 0 0.031689401581991933 0.0014307596857039348 0 0.032464470316527723 0.0021712032816895124 0 0.032150714883776202 0.0016028538403508735 0 0.032743407243378757 0.0012894040011694587 0 0.031639567782721437 0.002077178887650626 0 0.032464470316527723 0.0021712032816895124 0 0.032150714883776202 0.0016028538403508735 0 0.032150714883776202 0.0016028538403508735 0 0.03225154356016479 0.001046291082223645 0 0.032743407243378757 0.0012894040011694587 0 0.032150714883776202 0.0016028538403508735 0 0.031689401581991933 0.0014307596857039348 0 0.03225154356016479 0.001046291082223645 0 0.031689401581991933 0.0014307596857039348 0 0.031745070471063397 0.00084625200168062182 0 0.03225154356016479 0.001046291082223645 0 0.031745070471063397 0.00084625200168062182 0 0.03220198466820974 0.00052230984875526484 0 0.031507393394469493 0.00030914311967302274 0 0.031163769172597892 0.00085633981026247768 0 0.031745070471063397 0.00084625200168062182 0 0.031507393394469493 0.00030914311967302274 0 0.031163769172597892 0.00085633981026247768 0 0.031689401581991933 0.0014307596857039348 0 0.031745070471063397 0.00084625200168062182 0 0.031745070471063397 0.00084625200168062182 0 0.03225154356016479 0.001046291082223645 0 0.03220198466820974 0.00052230984875526484 0 0.03225154356016479 0.001046291082223645 0 0.03220198466820974 0.00052230984875526484 0 0.03304439170836479 0.00045812456674668611 0 0.032564066621952631 -0.00021667808548167915 0 0.03220198466820974 0.00052230984875526484 0 0.031507393394469493 0.00030914311967302274 0 0.032564066621952631 -0.00021667808548167915 0 0.03220198466820974 0.00052230984875526484 0 0.03304439170836479 0.00045812456674668611 0 0.032591114865454067 -0.00099191424584977022 0 0.032466892939018097 -0.0009865092129761094 0 0.032654970064050728 -0.0010891146895749423 0 0.032530356033116568 -0.0011969623420326691 0 0.032466892939018097 -0.0009865092129761094 0 0.032654970064050728 -0.0010891146895749423 0 0.03294899315722976 -0.00077189410208321175 0 0.032748239971460119 -0.00025860570698242472 0 0.032748239971460119 -0.00025860570698242472 0 0.032652954358615323 0.00015360637318136624 0 0.032466892939018097 -0.0009865092129761094 0 0.032507918222021252 -0.00089319043379872598 0 0.03241655916756761 -0.00086977340375792109 0 0.03225154356016479 0.001046291082223645 0 0.03304439170836479 0.00045812456674668611 0 0.032743407243378757 0.0012894040011694587 0 0.032591114865454067 -0.00099191424584977022 0 0.032466892939018097 -0.0009865092129761094 0 0.032555672779826197 -0.00092746103252502638 0 0.032466892939018097 -0.0009865092129761094 0 0.032555672779826197 -0.00092746103252502638 0 0.032507918222021252 -0.00089319043379872598 0 0.032591114865454067 -0.00099191424584977022 0 0.032555672779826197 -0.00092746103252502638 0 0.032598010533729141 -0.0009733142017766443 0 0.031791256659348281 -0.00083675729869218723 0 0.032012861718247326 -0.00084081397520849722 0 0.032555672779826197 -0.00092746103252502638 0 0.032507918222021252 -0.00089319043379872598 0 0.032572638384562889 -0.00094132044963388529 0 0.032507918222021252 -0.00089319043379872598 0 0.032501489200397693 -0.00078882882392616784 0 0.032572638384562889 -0.00094132044963388529 0 0.03101554718428505 -0.00060129147817925346 0 0.031355895049770398 -0.00051721468928922021 0 0.031510508656465035 -0.00082338197592360428 0 0.032507918222021252 -0.00089319043379872598 0 0.03241655916756761 -0.00086977340375792109 0 0.032501489200397693 -0.00078882882392616784 0 0.031795188014145735 0.00094673728630780322 0 0.031791256659348281 -0.00083675729869218723 0 0.031103531225255616 -0.00032428917693465596 0 0.030603095715959278 -0.00035085031951415823 0 0.03101554718428505 -0.00060129147817925346 0 0.032346848200128203 -0.0006609166625771392 0 0.03241655916756761 -0.00086977340375792109 0 0.032501489200397693 -0.00078882882392616784 0 0.031795188014145735 0.00094673728630780322 0 0.032652954358615323 0.00015360637318136624 0 0.031485247792858218 -0.00027203398697312137 0 0.031103531225255616 -0.00032428917693465596 0 0.031355895049770398 -0.00051721468928922021 0 0.031103531225255616 -0.00032428917693465596 0 0.03101554718428505 -0.00060129147817925346 0 0.031355895049770398 -0.00051721468928922021 0 0.031485247792858218 -0.00027203398697312137 0 0.03169546317543994 -0.00053413289377326979 0 0.031837179082920261 -0.0003704576999303791 0 0.031485247792858218 -0.00027203398697312137 0 0.03169546317543994 -0.00053413289377326979 0 0.031355895049770398 -0.00051721468928922021 0 0.032012861718247326 -0.00084081397520849722 0 0.032189577181426961 -0.0009069159367916693 0 0.031510508656465035 -0.00082338197592360428 0 0.031950770485829796 -0.00073583663615659552 0 0.032229628841397441 -0.0009062249792098153 0 0.03169546317543994 -0.00053413289377326979 0 0.031355895049770398 -0.00051721468928922021 0 0.031510508656465035 -0.00082338197592360428 0 0.03169546317543994 -0.00053413289377326979 0 0.031510508656465035 -0.00082338197592360428 0 0.031950770485829796 -0.00073583663615659552 0 0.031950770485829796 -0.00073583663615659552 0 0.032202614207570153 -0.00075839366582382576 0 0.032229628841397441 -0.0009062249792098153 0 0.03169546317543994 -0.00053413289377326979 0 0.031950770485829796 -0.00073583663615659552 0 0.031947944783499237 -0.00058246124736160043 0 0.031950770485829796 -0.00073583663615659552 0 0.031947944783499237 -0.00058246124736160043 0 0.032202614207570153 -0.00075839366582382576 0 0.031947944783499237 -0.00058246124736160043 0 0.031837179082920261 -0.0003704576999303791 0 0.032071837233225452 -0.00046823531965592549 0 0.03169546317543994 -0.00053413289377326979 0 0.031947944783499237 -0.00058246124736160043 0 0.031837179082920261 -0.0003704576999303791 0 0.032025508296221146 -0.00023873912401865455 0 0.031837179082920261 -0.0003704576999303791 0 0.032071837233225452 -0.00046823531965592549 0 0.032025508296221146 -0.00023873912401865455 0 0.032071837233225452 -0.00046823531965592549 0 0.032235832699932625 -0.00041512210220484119 0 0.032071837233225452 -0.00046823531965592549 0 0.032235832699932625 -0.00041512210220484119 0 0.032249939297211899 -0.00061150320532459967 0 0.032235832699932625 -0.00041512210220484119 0 0.032390915477260043 -0.00058482812959646791 0 0.032408175804352519 -0.00037264292480195378 0 0.032235832699932625 -0.00041512210220484119 0 0.032390915477260043 -0.00058482812959646791 0 0.032249939297211899 -0.00061150320532459967 0 0.032390915477260043 -0.00058482812959646791 0 0.032347063571471359 -0.00072797414127058046 0 0.032249939297211899 -0.00061150320532459967 0 0.032390915477260043 -0.00058482812959646791 0 0.032347063571471359 -0.00072797414127058046 0 0.032451092817241484 -0.00073588395035340849 0 0.032071837233225452 -0.00046823531965592549 0 0.032249939297211899 -0.00061150320532459967 0 0.032202614207570153 -0.00075839366582382576 0 0.031947944783499237 -0.00058246124736160043 0 0.032071837233225452 -0.00046823531965592549 0 0.032202614207570153 -0.00075839366582382576 0 0.032347063571471359 -0.00072797414127058046 0 0.032249939297211899 -0.00061150320532459967 0 0.032202614207570153 -0.00075839366582382576 0 0.032202614207570153 -0.00075839366582382576 0 0.032352943112462437 -0.00080792875581840414 0 0.032360164596183301 -0.00086398511836705179 0 0.032347063571471359 -0.00072797414127058046 0 0.032202614207570153 -0.00075839366582382576 0 0.032352943112462437 -0.00080792875581840414 0 0.032352943112462437 -0.00080792875581840414 0 0.032360164596183301 -0.00086398511836705179 0 0.032433960007247499 -0.00085144186332029219 0 0.032451092817241484 -0.00073588395035340849 0 0.032436625224223734 -0.00080611521754238324 0 0.032521577638013575 -0.00082126012388435274 0 0.032347063571471359 -0.00072797414127058046 0 0.032451092817241484 -0.00073588395035340849 0 0.032436625224223734 -0.00080611521754238324 0 0.032347063571471359 -0.00072797414127058046 0 0.032352943112462437 -0.00080792875581840414 0 0.032436625224223734 -0.00080611521754238324 0 0.032352943112462437 -0.00080792875581840414 0 0.032436625224223734 -0.00080611521754238324 0 0.032433960007247499 -0.00085144186332029219 0 0.032436625224223734 -0.00080611521754238324 0 0.032496535965757821 -0.00084970978233190686 0 0.032433960007247499 -0.00085144186332029219 0 0.032436625224223734 -0.00080611521754238324 0 0.032496535965757821 -0.00084970978233190686 0 0.032521577638013575 -0.00082126012388435274 0 0.032496535965757821 -0.00084970978233190686 0 0.032521577638013575 -0.00082126012388435274 0 0.032563843622856345 -0.00086971602830383495 0 0.032496535965757821 -0.00084970978233190686 0 0.032527006790261624 -0.00086992537081301204 0 0.032433960007247499 -0.00085144186332029219 0 0.032496535965757821 -0.00084970978233190686 0 0.032527006790261624 -0.00086992537081301204 0 0.032563843622856345 -0.00086971602830383495 0 0.032360164596183301 -0.00086398511836705179 0 0.032465651200219867 -0.00086115837050337657 0 0.032397646576829614 -0.00084658638155709449 0 0.032360164596183301 -0.00086398511836705179 0 0.032433960007247499 -0.00085144186332029219 0 0.032465651200219867 -0.00086115837050337657 0 0.032527006790261624 -0.00086992537081301204 0 0.032433960007247499 -0.00085144186332029219 0 0.032465651200219867 -0.00086115837050337657 0 0.032465651200219867 -0.00086115837050337657 0 0.032397646576829614 -0.00084658638155709449 0 0.032491717546401726 -0.00084568612717796261 0 0.032397646576829614 -0.00084658638155709449 0 0.032412129658087298 -0.00084378585376487119 0 0.03244429776628522 -0.0008347056300023085 0 0.032397646576829614 -0.00084658638155709449 0 0.03244429776628522 -0.0008347056300023085 0 0.032491717546401726 -0.00084568612717796261 0 0.032412129658087298 -0.00084378585376487119 0 0.03244429776628522 -0.0008347056300023085 0 0.03245608192686459 -0.00082406402720426283 0 0.03244429776628522 -0.0008347056300023085 0 0.03245608192686459 -0.00082406402720426283 0 0.032491717546401726 -0.00084568612717796261 0 0.032646038821726536 -0.00098170745133269611 0 0.032521768934745787 -0.00090878928304972603 0 0.032811824551414785 -0.0011122454518644419 0 0.032598010533729141 -0.0009733142017766443 0 0.03250209873630909 -0.00089301014487387208 0 0.032412129658087298 -0.00084378585376487119 0 0.03245608192686459 -0.00082406402720426283 0 0.03250209873630909 -0.00089301014487387208 0 0.032591114865454067 -0.00099191424584977022 0 0.032654970064050728 -0.0010891146895749423 0 0.032656414367339279 -0.001033716561966757 0 0.032811824551414785 -0.0011122454518644419 0 0.032654970064050728 -0.0010891146895749423 0 0.032656414367339279 -0.001033716561966757 0 0.032811824551414785 -0.0011122454518644419 0 0.032656414367339279 -0.001033716561966757 0 0.032598010533729141 -0.0009733142017766443 0 0.032591114865454067 -0.00099191424584977022 0 0.032656414367339279 -0.001033716561966757 0 0.032598010533729141 -0.0009733142017766443 0 0.032572638384562889 -0.00094132044963388529 0 0.03250209873630909 -0.00089301014487387208 0 0.032229628841397441 -0.0009062249792098153 0 0.032555672779826197 -0.00092746103252502638 0 0.032598010533729141 -0.0009733142017766443 0 0.03250209873630909 -0.00089301014487387208 0 0.032555672779826197 -0.00092746103252502638 0 0.032572638384562889 -0.00094132044963388529 0 0.03250209873630909 -0.00089301014487387208 0 0.032202614207570153 -0.00075839366582382576 0 0.032360164596183301 -0.00086398511836705179 0 0.032229628841397441 -0.0009062249792098153 0 0.032360164596183301 -0.00086398511836705179 0 0.032397646576829614 -0.00084658638155709449 0 0.032229628841397441 -0.0009062249792098153 0 0.032397646576829614 -0.00084658638155709449 0 0.032412129658087298 -0.00084378585376487119 0 0.032229628841397441 -0.0009062249792098153 0 0.032412129658087298 -0.00084378585376487119 0 0.03250209873630909 -0.00089301014487387208 0 0.032229628841397441 -0.0009062249792098153 0 0.029773819984695405 -0.0015611271796783593 0 0.031246833230557564 -0.0012588172480107332 0 0.029847844084068802 -0.001643393548944546 0 0.029845832490297843 -0.0016804912501916641 0 0.029848234542413612 -0.0016805724756819821 0 0.029773819984695405 -0.0015611271796783593 0 0.029609228850478796 -0.0016925181302476064 0 0.029246520441742373 -0.0015811442478028675 0 0.029421463107149784 -0.0016490922959895528 0 0.02944166277298069 -0.001714760585233992 0 0.029246520441742373 -0.0015811442478028675 0 0.029432352984407103 -0.0015896799761396837 0 0.029421463107149784 -0.0016490922959895528 0 0.031972524946176126 -0.00072716347380727094 0 0.032179616399498824 -0.0007547790286089387 0 0.032171236414729229 -0.00092629686391056966 0 0.032179616399498824 -0.0007547790286089387 0 0.032320049216229309 -0.00095131467711146974 0 0.032171236414729229 -0.00092629686391056966 0 0.033262808254211677 -8.9434483573804614e-05 0 0.032350148456718929 -0.00083104516218752717 0 0.032320049216229309 -0.00095131467711146974 0 0.032171236414729229 -0.00092629686391056966 0 0.032372548620152541 -0.0010099376318353191 0 0.032746725515370459 -0.00061533453431806043 0 0.03257955160704188 -0.0005435537297037331 0 0.032590384514653813 -0.00073954261507270689 0 0.032541038057039534 -0.00033226157762045747 0 0.032722603430111026 -0.00026854763950117457 0 0.03257955160704188 -0.0005435537297037331 0 0.032722603430111026 -0.00026854763950117457 0 0.032746725515370459 -0.00061533453431806043 0 0.03257955160704188 -0.0005435537297037331 0 0.032390915477260043 -0.00058482812959646791 0 0.03257955160704188 -0.0005435537297037331 0 0.032408175804352519 -0.00037264292480195378 0 0.032541038057039534 -0.00033226157762045747 0 0.03257955160704188 -0.0005435537297037331 0 0.032408175804352519 -0.00037264292480195378 0 0.032390915477260043 -0.00058482812959646791 0 0.03257955160704188 -0.0005435537297037331 0 0.032509146012400743 -0.0006543915971336362 0 0.03257955160704188 -0.0005435537297037331 0 0.032509146012400743 -0.0006543915971336362 0 0.032590384514653813 -0.00073954261507270689 0 0.032451092817241484 -0.00073588395035340849 0 0.032509146012400743 -0.0006543915971336362 0 0.032590384514653813 -0.00073954261507270689 0 0.032390915477260043 -0.00058482812959646791 0 0.032451092817241484 -0.00073588395035340849 0 0.032509146012400743 -0.0006543915971336362 0 0.032451092817241484 -0.00073588395035340849 0 0.032521577638013575 -0.00082126012388435274 0 0.032590384514653813 -0.00073954261507270689 0 0.032521577638013575 -0.00082126012388435274 0 0.032597618456557738 -0.00085764466879396342 0 0.032590384514653813 -0.00073954261507270689 0 0.032521577638013575 -0.00082126012388435274 0 0.032563843622856345 -0.00086971602830383495 0 0.032597618456557738 -0.00085764466879396342 0 0.032563843622856345 -0.00086971602830383495 0 0.032597618456557738 -0.00085764466879396342 0 0.032622603209285832 -0.00088835743323013546 0 0.032597618456557738 -0.00085764466879396342 0 0.032703149568632003 -0.00084495682196387219 0 0.032634585485043915 -0.00090586190218565061 0 0.032597618456557738 -0.00085764466879396342 0 0.032634585485043915 -0.00090586190218565061 0 0.032622603209285832 -0.00088835743323013546 0 0.032597618456557738 -0.00085764466879396342 0 0.032590384514653813 -0.00073954261507270689 0 0.032703149568632003 -0.00084495682196387219 0 0.032746725515370459 -0.00061533453431806043 0 0.032590384514653813 -0.00073954261507270689 0 0.032703149568632003 -0.00084495682196387219 0 0.032350148456718929 -0.00083104516218752717 0 0.032545454245051675 -0.00089456907615316158 0 0.032703149568632003 -0.00084495682196387219 0 0.032569405588075646 -0.00093346630012276224 0 0.032634585485043915 -0.00090586190218565061 0 0.032545454245051675 -0.00089456907615316158 0 0.032559343464261245 -0.00092393616437365757 0 0.032372548620152541 -0.0010099376318353191 0 0.032422043398203079 -0.0010099949524099306 0 0.032569405588075646 -0.00093346630012276224 0 0.032320049216229309 -0.00095131467711146974 0 0.032372548620152541 -0.0010099376318353191 0 0.032422043398203079 -0.0010099949524099306 0 0.031246833230557564 -0.0012588172480107332 0 0.031103880695626491 -0.0013700271779443487 0 0.029845832490297843 -0.0016804912501916641 0 0.029848234542413612 -0.0016805724756819821 0 0.029830756310346304 -0.0016952823984868542 0 0.032474527134070744 -0.00091522473299192428 0 0.032569405588075646 -0.00093346630012276224 0 0.032556128428546452 -0.00085517274219801677 0 0.032474527134070744 -0.00091522473299192428 0 0.032422043398203079 -0.0010099949524099306 0 0.032569405588075646 -0.00093346630012276224 0 0.031155979690077103 -0.0012608873629787636 0 0.031103880695626491 -0.0013700271779443487 0 0.032569405588075646 -0.00093346630012276224 0 0.032645691209725054 -0.00088429347204189383 0 0.032634585485043915 -0.00090586190218565061 0 0.032569405588075646 -0.00093346630012276224 0 0.032645691209725054 -0.00088429347204189383 0 0.032556128428546452 -0.00085517274219801677 0 0.032645691209725054 -0.00088429347204189383 0 0.032658242072429865 -0.00088820271067960993 0 0.032718493004226391 -0.00084726466313567064 0 0.032645691209725054 -0.00088429347204189383 0 0.032634585485043915 -0.00090586190218565061 0 0.032658242072429865 -0.00088820271067960993 0 0.032634585485043915 -0.00090586190218565061 0 0.032658242072429865 -0.00088820271067960993 0 0.032622603209285832 -0.00088835743323013546 0 0.032658242072429865 -0.00088820271067960993 0 0.032622603209285832 -0.00088835743323013546 0 0.032658854255282491 -0.00087850288849359399 0 0.032563843622856345 -0.00086971602830383495 0 0.032622603209285832 -0.00088835743323013546 0 0.032609351315055081 -0.00088201336810603314 0 0.032622603209285832 -0.00088835743323013546 0 0.032658854255282491 -0.00087850288849359399 0 0.032609351315055081 -0.00088201336810603314 0 0.032658854255282491 -0.00087850288849359399 0 0.032718493004226391 -0.00084726466313567064 0 0.032696557154860584 -0.00085732275186043425 0 0.032658854255282491 -0.00087850288849359399 0 0.032609351315055081 -0.00088201336810603314 0 0.032696557154860584 -0.00085732275186043425 0 0.032658242072429865 -0.00088820271067960993 0 0.032658854255282491 -0.00087850288849359399 0 0.032718493004226391 -0.00084726466313567064 0 0.032761520261432198 -0.00079885765057761732 0 0.032718493004226391 -0.00084726466313567064 0 0.032696557154860584 -0.00085732275186043425 0 0.032761520261432198 -0.00079885765057761732 0 0.032874320253113369 -0.0007359481037872281 0 0.032718493004226391 -0.00084726466313567064 0 0.032874320253113369 -0.0007359481037872281 0 0.032781026583953911 -0.00075171039299311195 0 0.032782010952351164 -0.00073069183700881577 0 0.032761520261432198 -0.00079885765057761732 0 0.032874320253113369 -0.0007359481037872281 0 0.032781026583953911 -0.00075171039299311195 0 0.032874320253113369 -0.0007359481037872281 0 0.032692416025880543 -0.00082097180763470833 0 0.03279961498263835 -0.00072356831680872829 0 0.032874320253113369 -0.0007359481037872281 0 0.03279961498263835 -0.00072356831680872829 0 0.033073621089091482 -0.00068337919064800077 0 0.032874320253113369 -0.0007359481037872281 0 0.032718493004226391 -0.00084726466313567064 0 0.032692416025880543 -0.00082097180763470833 0 0.032645691209725054 -0.00088429347204189383 0 0.032718493004226391 -0.00084726466313567064 0 0.032692416025880543 -0.00082097180763470833 0 0.032692416025880543 -0.00082097180763470833 0 0.032548308471980612 -0.00071913768067871653 0 0.032556128428546452 -0.00085517274219801677 0 0.032645691209725054 -0.00088429347204189383 0 0.032692416025880543 -0.00082097180763470833 0 0.032556128428546452 -0.00085517274219801677 0 0.032692416025880543 -0.00082097180763470833 0 0.03279961498263835 -0.00072356831680872829 0 0.032548308471980612 -0.00071913768067871653 0 0.032474527134070744 -0.00091522473299192428 0 0.032453438124650971 -0.00080045095312331787 0 0.032556128428546452 -0.00085517274219801677 0 0.032453438124650971 -0.00080045095312331787 0 0.032548308471980612 -0.00071913768067871653 0 0.032556128428546452 -0.00085517274219801677 0 0.032690381104400423 -0.00088314346400866664 0 0.032689030812571802 -0.00089956750207573091 0 0.03258733043473136 -0.00086776973126316472 0 0.032690381104400423 -0.00088314346400866664 0 0.03258733043473136 -0.00086776973126316472 0 0.032629357790759657 -0.0008773996234842594 0 0.032690381104400423 -0.00088314346400866664 0 0.032689030812571802 -0.00089956750207573091 0 0.032792173150818019 -0.0008780415600157074 0 0.032900819483582283 -0.0011397406571486148 0 0.032986894281231777 -0.0013341538346021611 0 0.032684983991069297 -0.0012761280014463971 0 0.032852993441427177 -0.0011594171553220805 0 0.032724951789234825 -0.0014317268529099073 0 0.033144497944867832 -0.0012647820041689379 0 0.032852993441427177 -0.0011594171553220805 0 0.033304959323593397 -0.0012329571122074035 0 0.032646038821726536 -0.00098170745133269611 0 0.032910680531786127 -0.0010617471180613355 0 0.032811824551414785 -0.0011122454518644419 0 0.033144497944867832 -0.0012647820041689379 0 0.032852993441427177 -0.0011594171553220805 0 0.032684983991069297 -0.0012761280014463971 0 0.032699044558915862 -0.0011835749415142508 0 0.032852993441427177 -0.0011594171553220805 0 0.032654970064050728 -0.0010891146895749423 0 0.032699044558915862 -0.0011835749415142508 0 0.032852993441427177 -0.0011594171553220805 0 0.032811824551414785 -0.0011122454518644419 0 0.032654970064050728 -0.0010891146895749423 0 0.032852993441427177 -0.0011594171553220805 0 0.03245608192686459 -0.00082406402720426283 0 0.032689030812571802 -0.00089956750207573091 0 0.03258733043473136 -0.00086776973126316472 0 0.03245608192686459 -0.00082406402720426283 0 0.03258733043473136 -0.00086776973126316472 0 0.032491717546401726 -0.00084568612717796261 0 0.03258733043473136 -0.00086776973126316472 0 0.032491717546401726 -0.00084568612717796261 0 0.032540837414869274 -0.00086391713322603488 0 0.032465651200219867 -0.00086115837050337657 0 0.032491717546401726 -0.00084568612717796261 0 0.032540837414869274 -0.00086391713322603488 0 0.032465651200219867 -0.00086115837050337657 0 0.032540837414869274 -0.00086391713322603488 0 0.032578768645429447 -0.00087499920380484789 0 0.032527006790261624 -0.00086992537081301204 0 0.032465651200219867 -0.00086115837050337657 0 0.032578768645429447 -0.00087499920380484789 0 0.032578768645429447 -0.00087499920380484789 0 0.03264885593576565 -0.00087410564644252908 0 0.032629357790759657 -0.0008773996234842594 0 0.03258733043473136 -0.00086776973126316472 0 0.032540837414869274 -0.00086391713322603488 0 0.032629357790759657 -0.0008773996234842594 0 0.032540837414869274 -0.00086391713322603488 0 0.032578768645429447 -0.00087499920380484789 0 0.032629357790759657 -0.0008773996234842594 0 0.032527006790261624 -0.00086992537081301204 0 0.032563843622856345 -0.00086971602830383495 0 0.032609351315055081 -0.00088201336810603314 0 0.032527006790261624 -0.00086992537081301204 0 0.032578768645429447 -0.00087499920380484789 0 0.032609351315055081 -0.00088201336810603314 0 0.032578768645429447 -0.00087499920380484789 0 0.032609351315055081 -0.00088201336810603314 0 0.03264885593576565 -0.00087410564644252908 0 0.03264885593576565 -0.00087410564644252908 0 0.032696557154860584 -0.00085732275186043425 0 0.032709126565768271 -0.00086870136350578736 0 0.032609351315055081 -0.00088201336810603314 0 0.03264885593576565 -0.00087410564644252908 0 0.032696557154860584 -0.00085732275186043425 0 0.03264885593576565 -0.00087410564644252908 0 0.032629357790759657 -0.0008773996234842594 0 0.032709126565768271 -0.00086870136350578736 0 0.032690381104400423 -0.00088314346400866664 0 0.032629357790759657 -0.0008773996234842594 0 0.032709126565768271 -0.00086870136350578736 0 0.032709126565768271 -0.00086870136350578736 0 0.032771137730057159 -0.00083964861756514672 0 0.032792173150818019 -0.0008780415600157074 0 0.032690381104400423 -0.00088314346400866664 0 0.032709126565768271 -0.00086870136350578736 0 0.032792173150818019 -0.0008780415600157074 0 0.032709126565768271 -0.00086870136350578736 0 0.032771137730057159 -0.00083964861756514672 0 0.032745473797744638 -0.00081978245503627138 0 0.032771137730057159 -0.00083964861756514672 0 0.032745473797744638 -0.00081978245503627138 0 0.032779636330363925 -0.00078012280741087076 0 0.032771137730057159 -0.00083964861756514672 0 0.032864854110425862 -0.00081577603955663373 0 0.032792173150818019 -0.0008780415600157074 0 0.032696557154860584 -0.00085732275186043425 0 0.032709126565768271 -0.00086870136350578736 0 0.032745473797744638 -0.00081978245503627138 0 0.032761520261432198 -0.00079885765057761732 0 0.032696557154860584 -0.00085732275186043425 0 0.032745473797744638 -0.00081978245503627138 0 0.032761520261432198 -0.00079885765057761732 0 0.032745473797744638 -0.00081978245503627138 0 0.032781026583953911 -0.00075171039299311195 0 0.032785897628402227 -0.00071873378830408547 0 0.032781026583953911 -0.00075171039299311195 0 0.032779636330363925 -0.00078012280741087076 0 0.032745473797744638 -0.00081978245503627138 0 0.032781026583953911 -0.00075171039299311195 0 0.032779636330363925 -0.00078012280741087076 0 0.032864854110425862 -0.00081577603955663373 0 0.032779636330363925 -0.00078012280741087076 0 0.032875960704500801 -0.00055287627104138877 0 0.032785897628402227 -0.00071873378830408547 0 0.032779636330363925 -0.00078012280741087076 0 0.032875960704500801 -0.00055287627104138877 0 0.032771137730057159 -0.00083964861756514672 0 0.032864854110425862 -0.00081577603955663373 0 0.032779636330363925 -0.00078012280741087076 0 0.032864854110425862 -0.00081577603955663373 0 0.03307748730215361 -0.00082866600076339763 0 0.032875960704500801 -0.00055287627104138877 0 0.032864854110425862 -0.00081577603955663373 0 0.03307748730215361 -0.00082866600076339763 0 0.032792173150818019 -0.0008780415600157074 0 0.032910680531786127 -0.0010617471180613355 0 0.033045813632410589 -0.00082663670911285367 0 0.032689030812571802 -0.00089956750207573091 0 0.03307748730215361 -0.00082866600076339763 0 0.032792173150818019 -0.0008780415600157074 0 0.03338045641362844 -0.0010600720448942966 0 0.032986894281231777 -0.0013341538346021611 0 0.033144497944867832 -0.0012647820041689379 0 0.033304959323593397 -0.0012329571122074035 0 0.033372631990163153 -0.00096165839373934755 0 0.033730184381945368 -0.00075270456690031433 0 0.033304959323593397 -0.0012329571122074035 0 0.033372631990163153 -0.00096165839373934755 0 0.033144497944867832 -0.0012647820041689379 0 0.03307748730215361 -0.00082866600076339763 0 0.033372631990163153 -0.00096165839373934755 0 0.03307748730215361 -0.00082866600076339763 0 0.033450571432672216 -0.00074730326677799547 0 0.033702041708327517 -0.00047416216231033578 0 0.03307748730215361 -0.00082866600076339763 0 0.033372631990163153 -0.00096165839373934755 0 0.033450571432672216 -0.00074730326677799547 0 0.033372631990163153 -0.00096165839373934755 0 0.033450571432672216 -0.00074730326677799547 0 0.033594839774607137 -0.00071419500184758907 0 0.033450571432672216 -0.00074730326677799547 0 0.033594839774607137 -0.00071419500184758907 0 0.033702041708327517 -0.00047416216231033578 0 0.033730184381945368 -0.00075270456690031433 0 0.033372631990163153 -0.00096165839373934755 0 0.033594839774607137 -0.00071419500184758907 0 0.033594839774607137 -0.00071419500184758907 0 0.033702041708327517 -0.00047416216231033578 0 0.033749495470740375 -0.00062720229759532728 0 0.033702041708327517 -0.00047416216231033578 0 0.033909095817377624 -0.00047540762705659427 0 0.033894784203265013 -0.00048923112898834997 0 0.033909095817377624 -0.00047540762705659427 0 0.033894784203265013 -0.00048923112898834997 0 0.033967541562322928 -0.0004623772392608791 0 0.033940349040737158 -0.00047124787985868054 0 0.033894784203265013 -0.00048923112898834997 0 0.033964088822911465 -0.00046626264125610432 0 0.033894784203265013 -0.00048923112898834997 0 0.033973636274962776 -0.00043648092407482485 0 0.033964088822911465 -0.00046626264125610432 0 0.033940349040737158 -0.00047124787985868054 0 0.033964088822911465 -0.00046626264125610432 0 0.033952421752905228 -0.00044313403419375517 0 0.033940349040737158 -0.00047124787985868054 0 0.033894784203265013 -0.00048923112898834997 0 0.033967541562322928 -0.0004623772392608791 0 0.033702041708327517 -0.00047416216231033578 0 0.033894784203265013 -0.00048923112898834997 0 0.033973636274962776 -0.00043648092407482485 0 0.03307748730215361 -0.00082866600076339763 0 0.033702041708327517 -0.00047416216231033578 0 0.032875960704500801 -0.00055287627104138877 0 0.033688249905368298 -0.00047542873129882197 0 0.033444265721555892 -0.00050822473628056011 0 0.033444265721555892 -0.00050822473628056011 0 0.033379285572449673 -0.00063926707063054135 0 0.032785897628402227 -0.00071873378830408547 0 0.032875960704500801 -0.00055287627104138877 0 0.032782010952351164 -0.00073069183700881577 0 0.033973636274962776 -0.00043648092407482485 0 0.034014894381489989 -0.0005724645308454227 0 0.033986500058651066 -0.00046100025778983834 0 0.032785897628402227 -0.00071873378830408547 0 0.032781026583953911 -0.00075171039299311195 0 0.032782010952351164 -0.00073069183700881577 0 0.034014894381489989 -0.0005724645308454227 0 0.033986500058651066 -0.00046100025778983834 0 0.033887442795812954 -0.00039050588176581968 0 0.034510534201208025 3.5227350187094905e-05 0 0.033887442795812954 -0.00039050588176581968 0 0.033954195831287774 8.312730505696285e-05 0 0.034222236926690595 -0.0001982016192603521 0 0.033925854970937211 -0.00038889120637611345 0 0.033986500058651066 -0.00046100025778983834 0 0.033964151943067962 -0.00044340167553048014 0 0.033887442795812954 -0.00039050588176581968 0 0.033973636274962776 -0.00043648092407482485 0 0.033986500058651066 -0.00046100025778983834 0 0.033964088822911465 -0.00046626264125610432 0 0.033986500058651066 -0.00046100025778983834 0 0.033964088822911465 -0.00046626264125610432 0 0.033964151943067962 -0.00044340167553048014 0 0.033964088822911465 -0.00046626264125610432 0 0.033964151943067962 -0.00044340167553048014 0 0.033952421752905228 -0.00044313403419375517 0 0.034222236926690595 -0.0001982016192603521 0 0.034355179358486858 -8.3009190835110942e-05 0 0.033964151943067962 -0.00044340167553048014 0 0.033940114828757334 -0.0003604530720447932 0 0.033952421752905228 -0.00044313403419375517 0 0.034510534201208025 3.5227350187094905e-05 0 0.034251077224638909 0.00019165691555902688 0 0.033954195831287774 8.312730505696285e-05 0 0.034251077224638909 0.00019165691555902688 0 0.034629538283176435 0.00021053798848184855 0 0.034232520652290745 0.00026080325084137294 0 0.034510534201208025 3.5227350187094905e-05 0 0.034251077224638909 0.00019165691555902688 0 0.034629538283176435 0.00021053798848184855 0 0.034633671026493465 0.00019369929682970527 0 0.034578696771563749 0.00019200292337168189 0 0.034510534201208025 3.5227350187094905e-05 0 0.034629538283176435 0.00021053798848184855 0 0.03475590127098388 0.00018706810299193955 0 0.034629538283176435 0.00021053798848184855 0 0.03475590127098388 0.00018706810299193955 0 0.034757777624253326 0.00016966804233206658 0 0.033940114828757334 -0.0003604530720447932 0 0.034029199622100353 -0.00039822688780059124 0 0.034138483423664524 -0.00015816966896014609 0 0.033940114828757334 -0.0003604530720447932 0 0.034029199622100353 -0.00039822688780059124 0 0.033952421752905228 -0.00044313403419375517 0 0.03417897737829733 -0.00033528640806159115 0 0.034029199622100353 -0.00039822688780059124 0 0.034054092416033445 -0.00044207091308139768 0 0.03417897737829733 -0.00033528640806159115 0 0.034029199622100353 -0.00039822688780059124 0 0.034138483423664524 -0.00015816966896014609 0 0.033909095817377624 -0.00047540762705659427 0 0.034054092416033445 -0.00044207091308139768 0 0.033967541562322928 -0.0004623772392608791 0 0.034029199622100353 -0.00039822688780059124 0 0.034054092416033445 -0.00044207091308139768 0 0.033967541562322928 -0.0004623772392608791 0 0.033940349040737158 -0.00047124787985868054 0 0.033967541562322928 -0.0004623772392608791 0 0.033952421752905228 -0.00044313403419375517 0 0.034029199622100353 -0.00039822688780059124 0 0.033967541562322928 -0.0004623772392608791 0 0.033952421752905228 -0.00044313403419375517 0 0.032102751332841309 -0.00049879007561723029 0 0.032548308471980612 -0.00071913768067871653 0 0.032461505600391002 -0.0002446971242345005 0 0.032548308471980612 -0.00071913768067871653 0 0.032461505600391002 -0.0002446971242345005 0 0.032814174893638179 -0.00046796316329799644 0 0.03279961498263835 -0.00072356831680872829 0 0.032548308471980612 -0.00071913768067871653 0 0.032814174893638179 -0.00046796316329799644 0 0.032461505600391002 -0.0002446971242345005 0 0.032814174893638179 -0.00046796316329799644 0 0.032921394432429543 0.00015581195996371499 0 0.032814174893638179 -0.00046796316329799644 0 0.033302985909209708 -0.00025313450736048231 0 0.033073621089091482 -0.00068337919064800077 0 0.032814174893638179 -0.00046796316329799644 0 0.033302985909209708 -0.00025313450736048231 0 0.032921394432429543 0.00015581195996371499 0 0.03279961498263835 -0.00072356831680872829 0 0.032814174893638179 -0.00046796316329799644 0 0.033073621089091482 -0.00068337919064800077 0 0.032874320253113369 -0.0007359481037872281 0 0.032782010952351164 -0.00073069183700881577 0 0.033073621089091482 -0.00068337919064800077 0 0.033379285572449673 -0.00063926707063054135 0 0.033086812617344301 -0.0006796425708077646 0 0.034014894381489989 -0.0005724645308454227 0 0.033073621089091482 -0.00068337919064800077 0 0.033887442795812954 -0.00039050588176581968 0 0.033302985909209708 -0.00025313450736048231 0 0.033073621089091482 -0.00068337919064800077 0 0.033887442795812954 -0.00039050588176581968 0 0.033302985909209708 -0.00025313450736048231 0 0.033887442795812954 -0.00039050588176581968 0 0.033954195831287774 8.312730505696285e-05 0 0.034251077224638909 0.00019165691555902688 0 0.033954195831287774 8.312730505696285e-05 0 0.034212952836468524 0.00021963832314301861 0 0.034251077224638909 0.00019165691555902688 0 0.034212952836468524 0.00021963832314301861 0 0.034232520652290745 0.00026080325084137294 0 0.034212952836468524 0.00021963832314301861 0 0.034323090991284361 0.00031687484482203414 0 0.034440886651382445 0.00020335704971060988 0 0.033961985364219946 9.8779457904437157e-05 0 0.033640236416245792 0.00021597654988300197 0 0.033954195831287774 8.312730505696285e-05 0 0.034212952836468524 0.00021963832314301861 0 0.034323090991284361 0.00031687484482203414 0 0.033302985909209708 -0.00025313450736048231 0 0.033954195831287774 8.312730505696285e-05 0 0.032921394432429543 0.00015581195996371499 0 0.033640236416245792 0.00021597654988300197 0 0.033542957242643952 0.00029976887296883855 0 0.034323090991284361 0.00031687484482203414 0 0.034590906283715465 0.0003179436346070202 0 0.034440886651382445 0.00020335704971060988 0 0.034590906283715465 0.0003179436346070202 0 0.034605265111192919 0.00018466790381115963 0 0.034440886651382445 0.00020335704971060988 0 0.034696496675328786 0.00019048986793458153 0 0.034590906283715465 0.0003179436346070202 0 0.034605265111192919 0.00018466790381115963 0 0.032461505600391002 -0.0002446971242345005 0 0.032921394432429543 0.00015581195996371499 0 0.032434303591544103 0.00018492911913156523 0 0.034769395767207827 6.7818240404137102e-05 0 0.034703076472855365 0.00011669445054315456 0 0.034791926245476931 4.839016092649937e-05 0 0.034703076472855365 0.00011669445054315456 0 0.034572021369763506 0.00011754385709534092 0 0.034791926245476931 4.839016092649937e-05 0 0.034703076472855365 0.00011669445054315456 0 0.034605265111192919 0.00018466790381115963 0 0.034572021369763506 0.00011754385709534092 0 0.034696496675328786 0.00019048986793458153 0 0.034703076472855365 0.00011669445054315456 0 0.034605265111192919 0.00018466790381115963 0 0.034440886651382445 0.00020335704971060988 0 0.034572021369763506 0.00011754385709534092 0 0.034312818865336103 0.00011455227371020532 0 0.034605265111192919 0.00018466790381115963 0 0.034440886651382445 0.00020335704971060988 0 0.034572021369763506 0.00011754385709534092 0 0.034572021369763506 0.00011754385709534092 0 0.034548569002931288 -2.2210499471867983e-06 0 0.034791926245476931 4.839016092649937e-05 0 0.034572021369763506 0.00011754385709534092 0 0.034312818865336103 0.00011455227371020532 0 0.034548569002931288 -2.2210499471867983e-06 0 0.034649974637618264 9.3013354863620028e-05 0 0.034770940589115638 1.0182566984066058e-05 0 0.034212952836468524 0.00021963832314301861 0 0.034440886651382445 0.00020335704971060988 0 0.034312818865336103 0.00011455227371020532 0 0.034212952836468524 0.00021963832314301861 0 0.034312818865336103 0.00011455227371020532 0 0.034232520652290745 0.00026080325084137294 0 0.034649974637618264 9.3013354863620028e-05 0 0.034578696771563749 0.00019200292337168189 0 0.034987736764709579 6.3338860834072599e-05 0 0.034894759215099234 0.00014146640222657676 0 0.034950758654997929 2.4535756052623886e-05 0 0.034987736764709579 6.3338860834072599e-05 0 0.034989484545393315 1.3507239134608613e-05 0 0.034950758654997929 2.4535756052623886e-05 0 0.035000013490806572 -1.8089421625957122e-08 0 0.034989484545393315 1.3507239134608613e-05 0 0.034950758654997929 2.4535756052623886e-05 0 0.035000013490806572 -1.8089421625957122e-08 0 0.035002427096628534 1.6887786639023401e-07 0 0.034989484545393315 1.3507239134608613e-05 0 0.035000013490806572 -1.8089421625957122e-08 0 0.035002427096628534 1.6887786639023401e-07 0 0.034999934825028348 2.9312766992371579e-08 0 0.034987736764709579 6.3338860834072599e-05 0 0.034989484545393315 1.3507239134608613e-05 0 0.034996621725453751 -2.1716914499673003e-06 0 0.035002427096628534 1.6887786639023401e-07 0 0.034989484545393315 1.3507239134608613e-05 0 0.034996621725453751 -2.1716914499673003e-06 0 0.035002427096628534 1.6887786639023401e-07 0 0.034996621725453751 -2.1716914499673003e-06 0 0.034922474686057185 -2.5684763668867221e-05 0 0.034770940589115638 1.0182566984066058e-05 0 0.034892144171965581 -2.3475716240373293e-05 0 0.035002427096628534 1.6887786639023401e-07 0 0.034999934825028348 2.9312766992371579e-08 0 0.034922474686057185 -2.5684763668867221e-05 0 0.034999831061768225 -5.6343104678589544e-08 0 0.034999934825028348 2.9312766992371579e-08 0 0.034922474686057185 -2.5684763668867221e-05 0 0.034955234832643921 -4.6633068639291976e-06 0 0.034922474686057185 -2.5684763668867221e-05 0 0.034791926245476931 4.839016092649937e-05 0 0.034548569002931288 -2.2210499471867983e-06 0 0.034922474686057185 -2.5684763668867221e-05 0 0.034791926245476931 4.839016092649937e-05 0 0.034775164161027113 0.00014644021774578344 0 0.034847315885665406 8.3971136986667601e-05 0 0.034873555788592039 3.1937455177827527e-05 0 0.034775164161027113 0.00014644021774578344 0 0.034873555788592039 3.1937455177827527e-05 0 0.034661927365001913 2.4552666688218908e-05 0 0.034464036700668256 -1.6506108200025885e-05 0 0.034624959046895047 2.508308227889306e-05 0 0.03417897737829733 -0.00033528640806159115 0 0.034138483423664524 -0.00015816966896014609 0 0.034447102014572961 -0.00018306275242863909 0 0.03475590127098388 0.00018706810299193955 0 0.034775164161027113 0.00014644021774578344 0 0.034757777624253326 0.00016966804233206658 0 0.034355179358486858 -8.3009190835110942e-05 0 0.034464036700668256 -1.6506108200025885e-05 0 0.034775164161027113 0.00014644021774578344 0 0.034757777624253326 0.00016966804233206658 0 0.034847315885665406 8.3971136986667601e-05 0 0.034757777624253326 0.00016966804233206658 0 0.034894759215099234 0.00014146640222657676 0 0.034847315885665406 8.3971136986667601e-05 0 0.034629538283176435 0.00021053798848184855 0 0.034757777624253326 0.00016966804233206658 0 0.034894759215099234 0.00014146640222657676 0 0.034894759215099234 0.00014146640222657676 0 0.034847315885665406 8.3971136986667601e-05 0 0.034950758654997929 2.4535756052623886e-05 0 0.034847315885665406 8.3971136986667601e-05 0 0.034931121725248288 1.8719241065811625e-05 0 0.034873555788592039 3.1937455177827527e-05 0 0.034847315885665406 8.3971136986667601e-05 0 0.034931121725248288 1.8719241065811625e-05 0 0.034950758654997929 2.4535756052623886e-05 0 0.035000013490806572 -1.8089421625957122e-08 0 0.034950758654997929 2.4535756052623886e-05 0 0.034999910333845877 1.7131177462852303e-08 0 0.034931121725248288 1.8719241065811625e-05 0 0.034950758654997929 2.4535756052623886e-05 0 0.034999910333845877 1.7131177462852303e-08 0 0.034931121725248288 1.8719241065811625e-05 0 0.034999910333845877 1.7131177462852303e-08 0 0.034999848958111035 -2.5590834458880738e-08 0 0.034931121725248288 1.8719241065811625e-05 0 0.034999848958111035 -2.5590834458880738e-08 0 0.034873555788592039 3.1937455177827527e-05 0 0.034873555788592039 3.1937455177827527e-05 0 0.034861798600458217 1.3711990037077506e-06 0 0.034661927365001913 2.4552666688218908e-05 0 0.034999848958111035 -2.5590834458880738e-08 0 0.034861798600458217 1.3711990037077506e-06 0 0.034999740069664782 6.2940419110790695e-09 0 0.034999848958111035 -2.5590834458880738e-08 0 0.034873555788592039 3.1937455177827527e-05 0 0.034861798600458217 1.3711990037077506e-06 0 0.034861798600458217 1.3711990037077506e-06 0 0.034999740069664782 6.2940419110790695e-09 0 0.034829766121173431 6.0514286494785214e-06 0 0.034999740069664782 6.2940419110790695e-09 0 0.034829766121173431 6.0514286494785214e-06 0 0.034999809310701353 2.1667655857099135e-08 0 0.034861798600458217 1.3711990037077506e-06 0 0.034829766121173431 6.0514286494785214e-06 0 0.034661927365001913 2.4552666688218908e-05 0 0.034936914308334427 -3.1754712206928426e-06 0 0.034999809310701353 2.1667655857099135e-08 0 0.03499991936186761 -2.9974692393716102e-09 0 0.034829766121173431 6.0514286494785214e-06 0 0.034936914308334427 -3.1754712206928426e-06 0 0.034999809310701353 2.1667655857099135e-08 0 0.034829766121173431 6.0514286494785214e-06 0 0.034936914308334427 -3.1754712206928426e-06 0 0.034867163561894003 -5.1529186672718882e-05 0 0.034936914308334427 -3.1754712206928426e-06 0 0.034867163561894003 -5.1529186672718882e-05 0 0.034958826397298991 -2.3918889449031727e-05 0 0.034829766121173431 6.0514286494785214e-06 0 0.034867163561894003 -5.1529186672718882e-05 0 0.034681681644935042 -7.7235975326768813e-05 0 0.034867163561894003 -5.1529186672718882e-05 0 0.034806599721568798 -0.00017100573950021441 0 0.034681681644935042 -7.7235975326768813e-05 0 0.034806599721568798 -0.00017100573950021441 0 0.034681681644935042 -7.7235975326768813e-05 0 0.034517787265490665 -0.00025597900536155168 0 0.034661927365001913 2.4552666688218908e-05 0 0.034681681644935042 -7.7235975326768813e-05 0 0.034447102014572961 -0.00018306275242863909 0 0.034829766121173431 6.0514286494785214e-06 0 0.034661927365001913 2.4552666688218908e-05 0 0.034681681644935042 -7.7235975326768813e-05 0 0.034681681644935042 -7.7235975326768813e-05 0 0.034447102014572961 -0.00018306275242863909 0 0.034517787265490665 -0.00025597900536155168 0 0.034138483423664524 -0.00015816966896014609 0 0.034661927365001913 2.4552666688218908e-05 0 0.034447102014572961 -0.00018306275242863909 0 0.03417897737829733 -0.00033528640806159115 0 0.034447102014572961 -0.00018306275242863909 0 0.034271183584359412 -0.00036095437696878917 0 0.03417897737829733 -0.00033528640806159115 0 0.034054092416033445 -0.00044207091308139768 0 0.034271183584359412 -0.00036095437696878917 0 0.034054092416033445 -0.00044207091308139768 0 0.034271183584359412 -0.00036095437696878917 0 0.034080747707329412 -0.00048173205683117097 0 0.033909095817377624 -0.00047540762705659427 0 0.034054092416033445 -0.00044207091308139768 0 0.034080747707329412 -0.00048173205683117097 0 0.034080747707329412 -0.00048173205683117097 0 0.034335933629029369 -0.00041696512308916597 0 0.034209886611422088 -0.00062885478460146136 0 0.034271183584359412 -0.00036095437696878917 0 0.034080747707329412 -0.00048173205683117097 0 0.034335933629029369 -0.00041696512308916597 0 0.034271183584359412 -0.00036095437696878917 0 0.034517787265490665 -0.00025597900536155168 0 0.034335933629029369 -0.00041696512308916597 0 0.034447102014572961 -0.00018306275242863909 0 0.034271183584359412 -0.00036095437696878917 0 0.034517787265490665 -0.00025597900536155168 0 0.034517787265490665 -0.00025597900536155168 0 0.034452948874960546 -0.00039061957240802851 0 0.034335933629029369 -0.00041696512308916597 0 0.034509112684872258 -0.00025916294372938106 0 0.034600882637250988 -0.0003580753846786634 0 0.034806599721568798 -0.00017100573950021441 0 0.034517787265490665 -0.00025597900536155168 0 0.03475311802755706 -0.00034066177002114756 0 0.034806599721568798 -0.00017100573950021441 0 0.03475311802755706 -0.00034066177002114756 0 0.034874241213635596 -0.00026734434276441134 0 0.034452948874960546 -0.00039061957240802851 0 0.034438424969123416 -0.00058689910879027691 0 0.034668774150771263 -0.00052216882854925616 0 0.034600882637250988 -0.0003580753846786634 0 0.034759029124181454 -0.00047643432789192962 0 0.034452948874960546 -0.00039061957240802851 0 0.034335933629029369 -0.00041696512308916597 0 0.034438424969123416 -0.00058689910879027691 0 0.034335933629029369 -0.00041696512308916597 0 0.034209886611422088 -0.00062885478460146136 0 0.034438424969123416 -0.00058689910879027691 0 0.034162292450880261 -0.00096816277285811144 0 0.034227952485306724 -0.00096546580404748873 0 0.034438424969123416 -0.00058689910879027691 0 0.034539528375633434 -0.00085038171469464536 0 0.034614316595887602 -0.00066664380226972555 0 0.034155238742183937 -0.00096182574504160494 0 0.034438424969123416 -0.00058689910879027691 0 0.034539528375633434 -0.00085038171469464536 0 0.034155238742183937 -0.00096182574504160494 0 0.034209886611422088 -0.00062885478460146136 0 0.034033203515672752 -0.00074867930192805811 0 0.034155238742183937 -0.00096182574504160494 0 0.034209886611422088 -0.00062885478460146136 0 0.034438424969123416 -0.00058689910879027691 0 0.033983636406482561 -0.00092268942770929385 0 0.034155238742183937 -0.00096182574504160494 0 0.034033203515672752 -0.00074867930192805811 0 0.033983636406482561 -0.00092268942770929385 0 0.034033203515672752 -0.00074867930192805811 0 0.033882282951450578 -0.00089458876352601236 0 0.03338045641362844 -0.0010600720448942966 0 0.03391194046213878 -0.00056181325973765996 0 0.033745941142656083 -0.00068252191008903653 0 0.033749495470740375 -0.00062720229759532728 0 0.033900840845674345 -0.00047808494843639256 0 0.033729813789980162 -0.001035572123698355 0 0.033882282951450578 -0.00089458876352601236 0 0.033844194759606032 -0.00074214110847037437 0 0.033702041708327517 -0.00047416216231033578 0 0.033749495470740375 -0.00062720229759532728 0 0.033900840845674345 -0.00047808494843639256 0 0.033702041708327517 -0.00047416216231033578 0 0.033909095817377624 -0.00047540762705659427 0 0.033900840845674345 -0.00047808494843639256 0 0.034033203515672752 -0.00074867930192805811 0 0.033882282951450578 -0.00089458876352601236 0 0.033844194759606032 -0.00074214110847037437 0 0.03402255830641901 -0.00050324825689940656 0 0.03391194046213878 -0.00056181325973765996 0 0.033909095817377624 -0.00047540762705659427 0 0.034080747707329412 -0.00048173205683117097 0 0.033900840845674345 -0.00047808494843639256 0 0.034080747707329412 -0.00048173205683117097 0 0.034033203515672752 -0.00074867930192805811 0 0.033844194759606032 -0.00074214110847037437 0 0.034080747707329412 -0.00048173205683117097 0 0.034209886611422088 -0.00062885478460146136 0 0.034033203515672752 -0.00074867930192805811 0 0.034979757089913487 -0.00048111702941092653 0 0.035051193303103002 -0.00058708511802746291 0 0.035085959360104238 -0.00034405591346471371 0 0.034979757089913487 -0.00048111702941092653 0 0.035051193303103002 -0.00058708511802746291 0 0.034945633428204226 -0.00062450247224125606 0 0.034757658899881944 -0.00047696231534415112 0 0.034729796693717903 -0.00033377844573688188 0 0.034823035475667584 -0.00037852534626578715 0 0.034128330940482753 -0.00093363495185549777 0 0.035014826328037534 -0.00023811679964024922 0 0.034757658899881944 -0.00047696231534415112 0 0.0346389525571714 -0.00050768354256973825 0 0.034729796693717903 -0.00033377844573688188 0 0.033115185948191593 -0.0014893563596188441 0 0.033182695304781108 -0.0013647621894515504 0 0.032970257924217428 -0.0012127030005765257 0 0.033225087137593465 -0.0012263649938910304 0 0.033182695304781108 -0.0013647621894515504 0 0.033306021547266182 -0.0014522036113845456 0 0.033115185948191593 -0.0014893563596188441 0 0.033182695304781108 -0.0013647621894515504 0 0.033306021547266182 -0.0014522036113845456 0 0.033967363282702584 -0.00096696863687328091 0 0.034128330940482753 -0.00093363495185549777 0 0.035051193303103002 -0.00058708511802746291 0 0.034945633428204226 -0.00062450247224125606 0 0.034798522677312628 -0.00071396763195026396 0 0.034128330940482753 -0.00093363495185549777 0 0.034324627674687615 -0.00091846237881265669 0 0.033692039942710111 -0.00098054004690756704 0 0.033627414808162469 -0.0011721554367280567 0 0.033772347908168868 -0.0011414228890924945 0 0.034539528375633434 -0.00085038171469464536 0 0.034798522677312628 -0.00071396763195026396 0 0.034614316595887602 -0.00066664380226972555 0 0.034227952485306724 -0.00096546580404748873 0 0.034324627674687615 -0.00091846237881265669 0 0.033826162502756572 -0.0010307507676406797 0 0.033954801228804544 -0.0010875805290668993 0 0.033772347908168868 -0.0011414228890924945 0 0.034798522677312628 -0.00071396763195026396 0 0.034668774150771263 -0.00052216882854925616 0 0.034614316595887602 -0.00066664380226972555 0 0.034438424969123416 -0.00058689910879027691 0 0.034668774150771263 -0.00052216882854925616 0 0.034614316595887602 -0.00066664380226972555 0 0.03494348763765584 -0.00061965498556021371 0 0.034759029124181454 -0.00047643432789192962 0 0.034979757089913487 -0.00048111702941092653 0 0.034834162098409241 -0.00041390570584954087 0 0.034970204333242709 -0.00038950154716696348 0 0.034979757089913487 -0.00048111702941092653 0 0.034945633428204226 -0.00062450247224125606 0 0.034834162098409241 -0.00041390570584954087 0 0.034945633428204226 -0.00062450247224125606 0 0.034798522677312628 -0.00071396763195026396 0 0.034668774150771263 -0.00052216882854925616 0 0.034834162098409241 -0.00041390570584954087 0 0.034913724944354449 -0.00032553026718575928 0 0.034970204333242709 -0.00038950154716696348 0 0.034913724944354449 -0.00032553026718575928 0 0.034980633080811653 -0.00023567858850247723 0 0.034970204333242709 -0.00038950154716696348 0 0.034834162098409241 -0.00041390570584954087 0 0.034913724944354449 -0.00032553026718575928 0 0.034874241213635596 -0.00026734434276441134 0 0.03475311802755706 -0.00034066177002114756 0 0.034834162098409241 -0.00041390570584954087 0 0.034874241213635596 -0.00026734434276441134 0 0.034913724944354449 -0.00032553026718575928 0 0.034874241213635596 -0.00026734434276441134 0 0.034980633080811653 -0.00023567858850247723 0 0.034874241213635596 -0.00026734434276441134 0 0.034980633080811653 -0.00023567858850247723 0 0.034939728851970983 -0.00011046318835972353 0 0.034980633080811653 -0.00023567858850247723 0 0.034970204333242709 -0.00038950154716696348 0 0.035085959360104238 -0.00034405591346471371 0 0.034979757089913487 -0.00048111702941092653 0 0.034970204333242709 -0.00038950154716696348 0 0.035085959360104238 -0.00034405591346471371 0 0.034729796693717903 -0.00033377844573688188 0 0.034886208294356916 -0.00023164783518518287 0 0.034843383582077253 -0.00017242960437193841 0 0.034980633080811653 -0.00023567858850247723 0 0.035085959360104238 -0.00034405591346471371 0 0.03507124549342798 -0.00017463816114044633 0 0.035014826328037534 -0.00023811679964024922 0 0.034936264077768127 -0.00020873595792390614 0 0.035008524291098304 -0.00011758691922054566 0 0.034997537563816225 -6.9963553498123481e-05 0 0.03507124549342798 -0.00017463816114044633 0 0.034980633080811653 -0.00023567858850247723 0 0.035008524291098304 -0.00011758691922054566 0 0.03507124549342798 -0.00017463816114044633 0 0.034980633080811653 -0.00023567858850247723 0 0.035008524291098304 -0.00011758691922054566 0 0.034939728851970983 -0.00011046318835972353 0 0.035008524291098304 -0.00011758691922054566 0 0.034939728851970983 -0.00011046318835972353 0 0.034999115206732455 -4.8601404073953867e-05 0 0.035008524291098304 -0.00011758691922054566 0 0.034999115206732455 -4.8601404073953867e-05 0 0.034997537563816225 -6.9963553498123481e-05 0 0.034939728851970983 -0.00011046318835972353 0 0.034958826397298991 -2.3918889449031727e-05 0 0.034999115206732455 -4.8601404073953867e-05 0 0.034806599721568798 -0.00017100573950021441 0 0.034874241213635596 -0.00026734434276441134 0 0.034939728851970983 -0.00011046318835972353 0 0.034867163561894003 -5.1529186672718882e-05 0 0.034806599721568798 -0.00017100573950021441 0 0.034939728851970983 -0.00011046318835972353 0 0.034867163561894003 -5.1529186672718882e-05 0 0.034939728851970983 -0.00011046318835972353 0 0.034958826397298991 -2.3918889449031727e-05 0 0.034958826397298991 -2.3918889449031727e-05 0 0.034999972114641023 -3.6657134014121239e-09 0 0.034999115206732455 -4.8601404073953867e-05 0 0.034936914308334427 -3.1754712206928426e-06 0 0.034958826397298991 -2.3918889449031727e-05 0 0.03499991936186761 -2.9974692393716102e-09 0 0.034958826397298991 -2.3918889449031727e-05 0 0.034999972114641023 -3.6657134014121239e-09 0 0.03499991936186761 -2.9974692393716102e-09 0 0.034999972114641023 -3.6657134014121239e-09 0 0.034999115206732455 -4.8601404073953867e-05 0 0.035000005604346615 -2.9904198988641621e-08 0 0.034999115206732455 -4.8601404073953867e-05 0 0.035000005604346615 -2.9904198988641621e-08 0 0.035000323498145622 -2.8147822461852509e-05 0 0.035000005604346615 -2.9904198988641621e-08 0 0.035000323498145622 -2.8147822461852509e-05 0 0.035000009000913546 -1.3681954056956998e-08 0 0.034999115206732455 -4.8601404073953867e-05 0 0.035000323498145622 -2.8147822461852509e-05 0 0.034997537563816225 -6.9963553498123481e-05 0 0.035000323498145622 -2.8147822461852509e-05 0 0.035011979900087427 -2.1762574219912968e-05 0 0.034997537563816225 -6.9963553498123481e-05 0 0.035011979900087427 -2.1762574219912968e-05 0 0.035033452222405538 -5.0845182738674519e-05 0 0.034997537563816225 -6.9963553498123481e-05 0 0.035000323498145622 -2.8147822461852509e-05 0 0.035011979900087427 -2.1762574219912968e-05 0 0.035000009000913546 -1.3681954056956998e-08 0 0.035011979900087427 -2.1762574219912968e-05 0 0.035005984165076637 -3.9157161367440182e-06 0 0.035008066190480441 -4.1571970317502117e-06 0 0.035000009000913546 -1.3681954056956998e-08 0 0.035005984165076637 -3.9157161367440182e-06 0 0.035000044864294581 -1.0066719151590196e-08 0 0.035011979900087427 -2.1762574219912968e-05 0 0.035000009000913546 -1.3681954056956998e-08 0 0.035005984165076637 -3.9157161367440182e-06 0 0.033764988146959551 0.00035972883135346163 0 0.03379488275521797 0.00028661711124053563 0 0.034003370387985773 0.0004402579412827869 0 0.035000003792841169 -1.8617686725172508e-09 0 0.034998990314494903 2.4582327401753404e-07 0 0.034999071134209782 1.7176199418590738e-06 0 0.034999341081400251 1.4640786560905572e-07 0 0.034593658093570984 4.4193441470245772e-05 0 0.035005984165076637 -3.9157161367440182e-06 0 0.035000044864294581 -1.0066719151590196e-08 0 0.035004375290663053 -2.9888547915819162e-06 0 0.03466879627302371 3.3169996953461429e-05 0 0.034593658093570984 4.4193441470245772e-05 0 0.033764988146959551 0.00035972883135346163 0 0.03379488275521797 0.00028661711124053563 0 0.033862486995634843 0.00034251936811744842 0 0.034593658093570984 4.4193441470245772e-05 0 0.034378641584164128 0.00014352910275539923 0 0.035011979900087427 -2.1762574219912968e-05 0 0.035008066190480441 -4.1571970317502117e-06 0 0.035033452222405538 -5.0845182738674519e-05 0 0.034378641584164128 0.00014352910275539923 0 0.034774269467004515 0.00038269921428131049 0 0.03379488275521797 0.00028661711124053563 0 0.033862486995634843 0.00034251936811744842 0 0.03367501018102937 0.00053880504428256671 0 0.033862486995634843 0.00034251936811744842 0 0.03367501018102937 0.00053880504428256671 0 0.033963648812462478 0.00065949993079812653 0 0.03367501018102937 0.00053880504428256671 0 0.033963648812462478 0.00065949993079812653 0 0.03377333187661468 0.00083091220154087085 0 0.035028601527893111 -0.00013384522656678181 0 0.034948803982659538 -0.00015808442206001111 0 0.034997537563816225 -6.9963553498123481e-05 0 0.034998105859705954 -7.3640258273723866e-05 0 0.034936264077768127 -0.00020873595792390614 0 0.034948803982659538 -0.00015808442206001111 0 0.034997537563816225 -6.9963553498123481e-05 0 0.034843383582077253 -0.00017242960437193841 0 0.035033452222405538 -5.0845182738674519e-05 0 0.035028601527893111 -0.00013384522656678181 0 0.034997537563816225 -6.9963553498123481e-05 0 0.034663188647845594 0.00013309875843949486 0 0.034499634385259187 0.00036889906065335566 0 0.034795125976903638 -1.0427412385497949e-05 0 0.034565098485849939 0.00018893767338924258 0 0.034352297357032456 0.00023683000190964832 0 0.034731842309087713 5.659997075651376e-05 0 0.034756128306331985 0.00016840972251741247 0 0.034780477965212414 2.6082620099966904e-05 0 0.034663188647845594 0.00013309875843949486 0 0.034731842309087713 5.659997075651376e-05 0 0.034712329475654231 7.1081975204122309e-05 0 0.034663188647845594 0.00013309875843949486 0 0.034565098485849939 0.00018893767338924258 0 0.034731842309087713 5.659997075651376e-05 0 0.034663188647845594 0.00013309875843949486 0 0.034565098485849939 0.00018893767338924258 0 0.034499634385259187 0.00036889906065335566 0 0.034927821596228904 -2.7320394604257438e-05 0 0.034973201526845972 -1.748379243953951e-05 0 0.03501529705433868 1.0537632647122092e-05 0 0.034927821596228904 -2.7320394604257438e-05 0 0.03501529705433868 1.0537632647122092e-05 0 0.034795125976903638 -1.0427412385497949e-05 0 0.034973201526845972 -1.748379243953951e-05 0 0.035000070324277877 -1.1974501634238929e-08 0 0.034999608957873476 -5.8997932001686868e-08 0 0.034927821596228904 -2.7320394604257438e-05 0 0.034973201526845972 -1.748379243953951e-05 0 0.034999608957873476 -5.8997932001686868e-08 0 0.034973201526845972 -1.748379243953951e-05 0 0.03501529705433868 1.0537632647122092e-05 0 0.035000070324277877 -1.1974501634238929e-08 0 0.03501529705433868 1.0537632647122092e-05 0 0.035000070324277877 -1.1974501634238929e-08 0 0.034999071134209782 1.7176199418590738e-06 0 0.034499634385259187 0.00036889906065335566 0 0.034352297357032456 0.00023683000190964832 0 0.03420373074054233 0.00028614108381860956 0 0.034565098485849939 0.00018893767338924258 0 0.034499634385259187 0.00036889906065335566 0 0.034352297357032456 0.00023683000190964832 0 0.034061045882908307 0.00025912002738224756 0 0.03420373074054233 0.00028614108381860956 0 0.034139538921053668 0.00015440257592201783 0 0.034352297357032456 0.00023683000190964832 0 0.03420373074054233 0.00028614108381860956 0 0.034139538921053668 0.00015440257592201783 0 0.034061045882908307 0.00025912002738224756 0 0.03420373074054233 0.00028614108381860956 0 0.034003370387985773 0.0004402579412827869 0 0.034756128306331985 0.00016840972251741247 0 0.034459238979950645 0.00024148731905643587 0 0.035000070324277877 -1.1974501634238929e-08 0 0.034999071134209782 1.7176199418590738e-06 0 0.034999977639687589 7.105268502549451e-09 0 0.034499634385259187 0.00036889906065335566 0 0.03420373074054233 0.00028614108381860956 0 0.034003370387985773 0.0004402579412827869 0 0.035000003792841169 -1.8617686725172508e-09 0 0.034999071134209782 1.7176199418590738e-06 0 0.034999977639687589 7.105268502549451e-09 0 0.034593658093570984 4.4193441470245772e-05 0 0.034459238979950645 0.00024148731905643587 0 0.03379488275521797 0.00028661711124053563 0 0.034061045882908307 0.00025912002738224756 0 0.034003370387985773 0.0004402579412827869 0 0.03379488275521797 0.00028661711124053563 0 0.034061045882908307 0.00025912002738224756 0 0.034166148701292462 0.00021966470656165009 0 0.03379488275521797 0.00028661711124053563 0 0.03367501018102937 0.00053880504428256671 0 0.033420189585766334 0.00041825662164690647 0 0.033785707656744143 0.00030023288514813555 0 0.033775197488968518 0.0003425013981621095 0 0.03367501018102937 0.00053880504428256671 0 0.033357067879135685 0.00065242109683577001 0 0.033493757632370412 0.00084874106669508757 0 0.03367501018102937 0.00053880504428256671 0 0.033357067879135685 0.00065242109683577001 0 0.033420189585766334 0.00041825662164690647 0 0.033775197488968518 0.0003425013981621095 0 0.033527494690319265 0.00066645470686008828 0 0.033357067879135685 0.00065242109683577001 0 0.033420189585766334 0.00041825662164690647 0 0.033077002666546222 0.00062583571229301162 0 0.034061045882908307 0.00025912002738224756 0 0.034166148701292462 0.00021966470656165009 0 0.034139538921053668 0.00015440257592201783 0 0.034166148701292462 0.00021966470656165009 0 0.034139538921053668 0.00015440257592201783 0 0.034005307931943979 0.00068754320732211801 0 0.034144074852070223 0.00015274995018598589 0 0.034116707813938767 0.00020752844484387231 0 0.034139538921053668 0.00015440257592201783 0 0.034005307931943979 0.00068754320732211801 0 0.033522685151104042 0.00031814993096798054 0 0.034352297357032456 0.00023683000190964832 0 0.034139538921053668 0.00015440257592201783 0 0.034731842309087713 5.659997075651376e-05 0 0.033561128028373424 0.00076467988894546031 0 0.033522685151104042 0.00031814993096798054 0 0.033202176200366619 0.00070121653001343283 0 0.034005307931943979 0.00068754320732211801 0 0.033561128028373424 0.00076467988894546031 0 0.033522685151104042 0.00031814993096798054 0 0.033178375264391741 0.0010114804735110534 0 0.032885192091081192 0.0016129462526798502 0 0.032686302969770091 0.0011795524520943248 0 0.032749740716643744 0.0008865708615097348 0 0.032445383622857031 0.0011696283403987359 0 0.032686302969770091 0.0011795524520943248 0 0.032749740716643744 0.0008865708615097348 0 0.032842183780350441 0.0010559701067739907 0 0.032686302969770091 0.0011795524520943248 0 0.032842183780350441 0.0010559701067739907 0 0.032819494081225337 0.001181737385834019 0 0.033561128028373424 0.00076467988894546031 0 0.033612507100840898 0.0011921233302841618 0 0.033180353494947419 0.0010746470072879716 0 0.033527494690319265 0.00066645470686008828 0 0.033178375264391741 0.0010114804735110534 0 0.034005307931943979 0.00068754320732211801 0 0.033561128028373424 0.00076467988894546031 0 0.033612507100840898 0.0011921233302841618 0 0.033077002666546222 0.00062583571229301162 0 0.032749740716643744 0.0008865708615097348 0 0.033108985970174053 0.00091551232581773266 0 0.032749740716643744 0.0008865708615097348 0 0.032842183780350441 0.0010559701067739907 0 0.033108985970174053 0.00091551232581773266 0 0.032842183780350441 0.0010559701067739907 0 0.032978825960328223 0.0011428821631358664 0 0.033108985970174053 0.00091551232581773266 0 0.032842183780350441 0.0010559701067739907 0 0.032819494081225337 0.001181737385834019 0 0.032978825960328223 0.0011428821631358664 0 0.032978825960328223 0.0011428821631358664 0 0.033108985970174053 0.00091551232581773266 0 0.033248663045817028 0.0012359063781098912 0 0.033108985970174053 0.00091551232581773266 0 0.033493757632370412 0.00084874106669508757 0 0.033248663045817028 0.0012359063781098912 0 0.033357067879135685 0.00065242109683577001 0 0.033108985970174053 0.00091551232581773266 0 0.033493757632370412 0.00084874106669508757 0 0.033357067879135685 0.00065242109683577001 0 0.033077002666546222 0.00062583571229301162 0 0.033108985970174053 0.00091551232581773266 0 0.033493757632370412 0.00084874106669508757 0 0.033248663045817028 0.0012359063781098912 0 0.033673896836795204 0.0011132114602841012 0 0.030421792025321737 0.00067138977952343971 0 0.030284606245940059 0.00070000645804822151 0 0.02738759635837475 0.00049985723287733789 0 0.02713636165286883 0.00017976772828629434 0 0.027658979764150628 7.805039853878921e-05 0 0.02738759635837475 0.00049985723287733789 0 0.027060450232085816 0.00054218279996933849 0 0.02713636165286883 0.00017976772828629434 0 0.027060450232085816 0.00054218279996933849 0 0.02713636165286883 0.00017976772828629434 0 0.026797433077915059 0.00037695473664246256 0 0.02713636165286883 0.00017976772828629434 0 0.026797433077915059 0.00037695473664246256 0 0.026632856913434446 0.00028613258063445456 0 0.032978825960328223 0.0011428821631358664 0 0.033248663045817028 0.0012359063781098912 0 0.032771647045716362 0.0013496321860906168 0 0.030421792025321737 0.00067138977952343971 0 0.029022532705119182 0.0008588317744021778 0 0.032819494081225337 0.001181737385834019 0 0.032978825960328223 0.0011428821631358664 0 0.032771647045716362 0.0013496321860906168 0 0.026473353204206941 -9.3201158463192849e-06 0 0.029022532705119182 0.0008588317744021778 0 0.026797433077915059 0.00037695473664246256 0 0.026522335076058522 0.00057933801034628913 0 0.026602317326527077 0.0002657993727906028 0 0.027060450232085816 0.00054218279996933849 0 0.026797433077915059 0.00037695473664246256 0 0.02676380078800376 0.00063454361849278628 0 0.026797433077915059 0.00037695473664246256 0 0.02676380078800376 0.00063454361849278628 0 0.026522335076058522 0.00057933801034628913 0 0.026522335076058522 0.00057933801034628913 0 0.026602317326527077 0.0002657993727906028 0 0.026268087986398715 0.00032827722822628778 0 0.026522335076058522 0.00057933801034628913 0 0.026260946723593036 0.00074564851239458511 0 0.026268087986398715 0.00032827722822628778 0 0.032030813955524332 0.0016099611939322965 0 0.030446540269146755 0.0017242974152406559 0 0.029022532705119182 0.0008588317744021778 0 0.030446540269146755 0.0017242974152406559 0 0.029999067412633008 0.0013206386662198717 0 0.030499844043044289 0.0015953743114555097 0 0.030861814140792899 0.0011619928205840551 0 0.032686302969770091 0.0011795524520943248 0 0.032771647045716362 0.0013496321860906168 0 0.032611555788244657 0.0012620504123801791 0 0.029022532705119182 0.0008588317744021778 0 0.032030813955524332 0.0016099611939322965 0 0.032686302969770091 0.0011795524520943248 0 0.032819494081225337 0.001181737385834019 0 0.032771647045716362 0.0013496321860906168 0 0.032450811521578866 0.001222452934957734 0 0.032030813955524332 0.0016099611939322965 0 0.032686302969770091 0.0011795524520943248 0 0.032617353068161464 0.0012635505629889196 0 0.032445383622857031 0.0011696283403987359 0 0.03492700924683699 -0.00026924067653071395 0 0.034984185056046266 -0.00032270787264370441 0 0.034963553011304084 -0.00021271799258464931 0 0.032614184341314197 -2.0831520368500196e-05 0 0.035497804213592297 -0.00045505881163774333 0 0.03492700924683699 -0.00026924067653071395 0 0.034984185056046266 -0.00032270787264370441 0 0.034877011579972146 -0.00031413860274904235 0 0.028197448423577173 -2.4322756437636597e-05 0 0.027944336889568995 0.00017738118874916167 0 0.028116470892202091 0.00016289098620155093 0 0.034845714883800318 -0.00034007189610919515 0 0.034869746543141046 -0.00033458487878408513 0 0.03483929526303086 -0.0003214295310653624 0 0.034845714883800318 -0.00034007189610919515 0 0.034869746543141046 -0.00033458487878408513 0 0.034877011579972146 -0.00031413860274904235 0 0.034869746543141046 -0.00033458487878408513 0 0.034877011579972146 -0.00031413860274904235 0 0.034823035475667584 -0.00037852534626578715 0 0.034729796693717903 -0.00033377844573688188 0 0.034877011579972146 -0.00031413860274904235 0 0.034823035475667584 -0.00037852534626578715 0 0.034729796693717903 -0.00033377844573688188 0 0.034877011579972146 -0.00031413860274904235 0 0.034886208294356916 -0.00023164783518518287 0 0.03492700924683699 -0.00026924067653071395 0 0.034877011579972146 -0.00031413860274904235 0 0.034886208294356916 -0.00023164783518518287 0 0.03492700924683699 -0.00026924067653071395 0 0.034886208294356916 -0.00023164783518518287 0 0.034963553011304084 -0.00021271799258464931 0 0.034948803982659538 -0.00015808442206001111 0 0.034886208294356916 -0.00023164783518518287 0 0.034843383582077253 -0.00017242960437193841 0 0.034948803982659538 -0.00015808442206001111 0 0.034886208294356916 -0.00023164783518518287 0 0.034963553011304084 -0.00021271799258464931 0 0.035028601527893111 -0.00013384522656678181 0 0.034948803982659538 -0.00015808442206001111 0 0.034963553011304084 -0.00021271799258464931 0 0.035028601527893111 -0.00013384522656678181 0 0.034984185056046266 -0.00032270787264370441 0 0.034963553011304084 -0.00021271799258464931 0 0.034774269467004515 0.00038269921428131049 0 0.032614184341314197 -2.0831520368500196e-05 0 0.033963648812462478 0.00065949993079812653 0 0.034049143117167564 0.0010090373035849004 0 0.03377333187661468 0.00083091220154087085 0 0.03367501018102937 0.00053880504428256671 0 0.033493757632370412 0.00084874106669508757 0 0.03377333187661468 0.00083091220154087085 0 0.033493757632370412 0.00084874106669508757 0 0.03377333187661468 0.00083091220154087085 0 0.033673896836795204 0.0011132114602841012 0 0.034049143117167564 0.0010090373035849004 0 0.03377333187661468 0.00083091220154087085 0 0.033673896836795204 0.0011132114602841012 0 0.028197448423577173 -2.4322756437636597e-05 0 0.027658979764150628 7.805039853878921e-05 0 0.027944336889568995 0.00017738118874916167 0 0.032614184341314197 -2.0831520368500196e-05 0 0.030284606245940059 0.00070000645804822151 0 0.027944336889568995 0.00017738118874916167 0 0.028092472971215726 0.00025104623996137862 0 0.028116470892202091 0.00016289098620155093 0 0.027944336889568995 0.00017738118874916167 0 0.027757059568224107 0.00044459153450547556 0 0.028074215715666768 0.00040892780687836584 0 0.027658979764150628 7.805039853878921e-05 0 0.027944336889568995 0.00017738118874916167 0 0.027757059568224107 0.00044459153450547556 0 0.027944336889568995 0.00017738118874916167 0 0.028074215715666768 0.00040892780687836584 0 0.028092472971215726 0.00025104623996137862 0 0.02738759635837475 0.00049985723287733789 0 0.027658979764150628 7.805039853878921e-05 0 0.027757059568224107 0.00044459153450547556 0 0.02738759635837475 0.00049985723287733789 0 0.027757059568224107 0.00044459153450547556 0 0.027614673455619854 0.00074193917457114481 0 0.027757059568224107 0.00044459153450547556 0 0.027928310960841512 0.0007362434386081481 0 0.027614673455619854 0.00074193917457114481 0 0.027757059568224107 0.00044459153450547556 0 0.028074215715666768 0.00040892780687836584 0 0.027928310960841512 0.0007362434386081481 0 0.028074215715666768 0.00040892780687836584 0 0.028339150185408214 0.00075211594108029359 0 0.027928310960841512 0.0007362434386081481 0 0.028074215715666768 0.00040892780687836584 0 0.028249739688588543 0.00025856291659935896 0 0.028339150185408214 0.00075211594108029359 0 0.031230338913112658 -3.5874252704678715e-06 0 0.029462599111944914 0.00028502265633451675 0 0.028074215715666768 0.00040892780687836584 0 0.028092472971215726 0.00025104623996137862 0 0.028249739688588543 0.00025856291659935896 0 0.032614184341314197 -2.0831520368500196e-05 0 0.031230338913112658 -3.5874252704678715e-06 0 0.028197448423577173 -2.4322756437636597e-05 0 0.028249739688588543 0.00025856291659935896 0 0.028116470892202091 0.00016289098620155093 0 0.028092472971215726 0.00025104623996137862 0 0.028249739688588543 0.00025856291659935896 0 0.028116470892202091 0.00016289098620155093 0 0.033967363282702584 -0.00096696863687328091 0 0.033444165230333736 -0.00070729784878649331 0 0.034757658899881944 -0.00047696231534415112 0 0.034823035475667584 -0.00037852534626578715 0 0.03486203229171763 -0.00044331733922635771 0 0.034869746543141046 -0.00033458487878408513 0 0.03483929526303086 -0.0003214295310653624 0 0.034845538967725916 -0.00032256023545723851 0 0.034782616647853544 -0.00015847186625890796 0 0.033444165230333736 -0.00070729784878649331 0 0.034869746543141046 -0.00033458487878408513 0 0.034823035475667584 -0.00037852534626578715 0 0.03486203229171763 -0.00044331733922635771 0 0.031230338913112658 -3.5874252704678715e-06 0 0.033444165230333736 -0.00070729784878649331 0 0.031068361057410648 -0.00019054946163724406 0 0.031037643815447373 -9.4770000310922799e-05 0 0.031063381053284093 -8.8902405242594131e-05 0 0.033444165230333736 -0.00070729784878649331 0 0.03179220033982319 -0.00068963647164274416 0 0.033115185948191593 -0.0014893563596188441 0 0.032931027190718012 -0.0015247721261296679 0 0.032970257924217428 -0.0012127030005765257 0 0.031036996199887059 -0.00019660763790945666 0 0.031068361057410648 -0.00019054946163724406 0 0.031037643815447373 -9.4770000310922799e-05 0 0.031037643815447373 -9.4770000310922799e-05 0 0.031063381053284093 -8.8902405242594131e-05 0 0.031032372757838125 6.350220833839103e-05 0 0.028339150185408214 0.00075211594108029359 0 0.028131655138471146 0.0010559733133829971 0 0.027928310960841512 0.0007362434386081481 0 0.028339150185408214 0.00075211594108029359 0 0.028131655138471146 0.0010559733133829971 0 0.028423430682681029 0.0012376089262325111 0 0.029462599111944914 0.00028502265633451675 0 0.029699686060037186 0.00073229883708976116 0 0.03179220033982319 -0.00068963647164274416 0 0.032279864220558528 -0.0004838033252731766 0 0.031063381053284093 -8.8902405242594131e-05 0 0.031032372757838125 6.350220833839103e-05 0 0.031049610391840208 6.8087748081592888e-05 0 0.028131655138471146 0.0010559733133829971 0 0.028423430682681029 0.0012376089262325111 0 0.02821341320953984 0.0012606591572738946 0 0.031013490144327992 0.00028058003106469276 0 0.031032372757838125 6.350220833839103e-05 0 0.031049610391840208 6.8087748081592888e-05 0 0.028423430682681029 0.0012376089262325111 0 0.028317507975237025 0.0013130111730583912 0 0.028348368472290192 0.0014290338328591756 0 0.028423430682681029 0.0012376089262325111 0 0.028317507975237025 0.0013130111730583912 0 0.02821341320953984 0.0012606591572738946 0 0.028131655138471146 0.0010559733133829971 0 0.02821341320953984 0.0012606591572738946 0 0.027991575053141489 0.0012896320451052977 0 0.028317507975237025 0.0013130111730583912 0 0.028154408291772768 0.0014412694909185515 0 0.028129031422657734 0.001667773872087991 0 0.02821341320953984 0.0012606591572738946 0 0.027991575053141489 0.0012896320451052977 0 0.028154408291772768 0.0014412694909185515 0 0.027991575053141489 0.0012896320451052977 0 0.027986971192318934 0.0014828964676291668 0 0.028154408291772768 0.0014412694909185515 0 0.028317507975237025 0.0013130111730583912 0 0.02821341320953984 0.0012606591572738946 0 0.028154408291772768 0.0014412694909185515 0 0.028154408291772768 0.0014412694909185515 0 0.028084104499651676 0.0015498942130625639 0 0.028129031422657734 0.001667773872087991 0 0.028524603403253523 0.0012256978833224588 0 0.026176917266126403 0.00099844189496063759 0 0.027986971192318934 0.0014828964676291668 0 0.028154408291772768 0.0014412694909185515 0 0.028084104499651676 0.0015498942130625639 0 0.027986971192318934 0.0014828964676291668 0 0.028066747046443352 0.0016417890284996983 0 0.027886765029688745 0.0016006984522958494 0 0.027986971192318934 0.0014828964676291668 0 0.028084104499651676 0.0015498942130625639 0 0.028066747046443352 0.0016417890284996983 0 0.028084104499651676 0.0015498942130625639 0 0.028066747046443352 0.0016417890284996983 0 0.028129031422657734 0.001667773872087991 0 0.028066747046443352 0.0016417890284996983 0 0.028139052194321619 0.0016719685674164138 0 0.027812236451390429 0.0017507076540483055 0 0.026821191653142677 0.001259991981598747 0 0.026176917266126403 0.00099844189496063759 0 0.028317507975237025 0.0013130111730583912 0 0.028214916856372618 0.0014484568067102525 0 0.028348368472290192 0.0014290338328591756 0 0.028466914681643099 0.0015472658146922994 0 0.028214916856372618 0.0014484568067102525 0 0.028348368472290192 0.0014290338328591756 0 0.028452643203656983 0.0014960746650887354 0 0.028423430682681029 0.0012376089262325111 0 0.028348368472290192 0.0014290338328591756 0 0.027628356156849856 0.00019223936532281169 0 0.026176917266126403 0.00099844189496063759 0 0.027532617298632951 0.0017917468668944001 0 0.027483682367551172 0.0012944920586759768 0 0.027179069804713612 0.0014406496558469492 0 0.02772222252015806 0.0016234097099385428 0 0.027596541133153591 0.0015961938549002312 0 0.027532617298632951 0.0017917468668944001 0 0.027713826016609516 0.0014683380758871028 0 0.027483682367551172 0.0012944920586759768 0 0.027321562099641653 0.0018370300145495791 0 0.027812236451390429 0.0017507076540483055 0 0.027713826016609516 0.0014683380758871028 0 0.028066747046443352 0.0016417890284996983 0 0.027812236451390429 0.0017507076540483055 0 0.027886765029688745 0.0016006984522958494 0 0.027986971192318934 0.0014828964676291668 0 0.027886765029688745 0.0016006984522958494 0 0.027713826016609516 0.0014683380758871028 0 0.027812236451390429 0.0017507076540483055 0 0.027886765029688745 0.0016006984522958494 0 0.027713826016609516 0.0014683380758871028 0 0.027991575053141489 0.0012896320451052977 0 0.027713826016609516 0.0014683380758871028 0 0.027722572969129781 0.0010700884169661598 0 0.027991575053141489 0.0012896320451052977 0 0.027986971192318934 0.0014828964676291668 0 0.027713826016609516 0.0014683380758871028 0 0.027713826016609516 0.0014683380758871028 0 0.027483682367551172 0.0012944920586759768 0 0.027722572969129781 0.0010700884169661598 0 0.027483682367551172 0.0012944920586759768 0 0.027722572969129781 0.0010700884169661598 0 0.027279301390446511 0.00096151218777981023 0 0.028131655138471146 0.0010559733133829971 0 0.027722572969129781 0.0010700884169661598 0 0.027928310960841512 0.0007362434386081481 0 0.028131655138471146 0.0010559733133829971 0 0.027991575053141489 0.0012896320451052977 0 0.027722572969129781 0.0010700884169661598 0 0.027722572969129781 0.0010700884169661598 0 0.027928310960841512 0.0007362434386081481 0 0.027614673455619854 0.00074193917457114481 0 0.027722572969129781 0.0010700884169661598 0 0.027614673455619854 0.00074193917457114481 0 0.027279301390446511 0.00096151218777981023 0 0.02738759635837475 0.00049985723287733789 0 0.027060450232085816 0.00054218279996933849 0 0.027307857854908638 0.00098833898028330945 0 0.02738759635837475 0.00049985723287733789 0 0.027614673455619854 0.00074193917457114481 0 0.027279301390446511 0.00096151218777981023 0 0.027378417809239809 0.00052808692858705023 0 0.027294733816323111 0.00096898505704700005 0 0.027060450232085816 0.00054218279996933849 0 0.026898422339907514 0.00084470645805920881 0 0.027307857854908638 0.00098833898028330945 0 0.027060450232085816 0.00054218279996933849 0 0.02676380078800376 0.00063454361849278628 0 0.026898422339907514 0.00084470645805920881 0 0.027307857854908638 0.00098833898028330945 0 0.026831912397553132 0.0012395939604602274 0 0.027210862126790459 0.0014871033238450569 0 0.026898422339907514 0.00084470645805920881 0 0.027307857854908638 0.00098833898028330945 0 0.026831912397553132 0.0012395939604602274 0 0.027294733816323111 0.00096898505704700005 0 0.027194366357893445 0.0014708468644489207 0 0.026522335076058522 0.00057933801034628913 0 0.026536476593042639 0.00091836860475250418 0 0.026260946723593036 0.00074564851239458511 0 0.026536476593042639 0.00091836860475250418 0 0.026192679328831708 0.0010399086288404094 0 0.026260946723593036 0.00074564851239458511 0 0.02676380078800376 0.00063454361849278628 0 0.026522335076058522 0.00057933801034628913 0 0.026536476593042639 0.00091836860475250418 0 0.02676380078800376 0.00063454361849278628 0 0.026898422339907514 0.00084470645805920881 0 0.026536476593042639 0.00091836860475250418 0 0.026536476593042639 0.00091836860475250418 0 0.026831912397553132 0.0012395939604602274 0 0.026350977264912086 0.0013333681290893381 0 0.026898422339907514 0.00084470645805920881 0 0.026536476593042639 0.00091836860475250418 0 0.026831912397553132 0.0012395939604602274 0 0.026536476593042639 0.00091836860475250418 0 0.026350977264912086 0.0013333681290893381 0 0.026192679328831708 0.0010399086288404094 0 0.026350977264912086 0.0013333681290893381 0 0.026360336004228976 0.001620111532755689 0 0.026065180413478908 0.0016560241841064929 0 0.026350977264912086 0.0013333681290893381 0 0.026605227070548403 0.001542372298871624 0 0.026360336004228976 0.001620111532755689 0 0.026831912397553132 0.0012395939604602274 0 0.026350977264912086 0.0013333681290893381 0 0.026605227070548403 0.001542372298871624 0 0.026831912397553132 0.0012395939604602274 0 0.026605227070548403 0.001542372298871624 0 0.026913952119843272 0.0015803616494639212 0 0.026605227070548403 0.001542372298871624 0 0.026708273841564628 0.0017560145549691249 0 0.026913952119843272 0.0015803616494639212 0 0.026708273841564628 0.0017560145549691249 0 0.026473004559103393 0.0017827633463133191 0 0.026550533416355691 0.0019216944507471564 0 0.026605227070548403 0.001542372298871624 0 0.026708273841564628 0.0017560145549691249 0 0.026473004559103393 0.0017827633463133191 0 0.026605227070548403 0.001542372298871624 0 0.026473004559103393 0.0017827633463133191 0 0.026360336004228976 0.001620111532755689 0 0.026473004559103393 0.0017827633463133191 0 0.026265047769914965 0.0018382166578203765 0 0.026354302910787376 0.0019368128920014998 0 0.026473004559103393 0.0017827633463133191 0 0.026265047769914965 0.0018382166578203765 0 0.026360336004228976 0.001620111532755689 0 0.027483682367551172 0.0012944920586759768 0 0.027279301390446511 0.00096151218777981023 0 0.027179069804713612 0.0014406496558469492 0 0.026831912397553132 0.0012395939604602274 0 0.027210862126790459 0.0014871033238450569 0 0.026913952119843272 0.0015803616494639212 0 0.026913952119843272 0.0015803616494639212 0 0.027104877357672159 0.0019613888134673114 0 0.026879511834259726 0.0018486421031633316 0 0.027210862126790459 0.0014871033238450569 0 0.026913952119843272 0.0015803616494639212 0 0.027104877357672159 0.0019613888134673114 0 0.026708273841564628 0.0017560145549691249 0 0.026913952119843272 0.0015803616494639212 0 0.026879511834259726 0.0018486421031633316 0 0.027532617298632951 0.0017917468668944001 0 0.027179069804713612 0.0014406496558469492 0 0.027104877357672159 0.0019613888134673114 0 0.027194366357893445 0.0014708468644489207 0 0.027112946735233193 0.0019310994225208839 0 0.027532617298632951 0.0017917468668944001 0 0.027104877357672159 0.0019613888134673114 0 0.027305093005022856 0.0021198691815270763 0 0.027104877357672159 0.0019613888134673114 0 0.026836219637648897 0.0021300171460208023 0 0.027305093005022856 0.0021198691815270763 0 0.026172976522140935 0.0021863334310208231 0 0.02406594311933016 0.0020092346782734478 0 0.026879511834259726 0.0018486421031633316 0 0.026890608504426046 0.0019780135775765858 0 0.026732275356350737 0.0019712776821611466 0 0.027104877357672159 0.0019613888134673114 0 0.026879511834259726 0.0018486421031633316 0 0.026890608504426046 0.0019780135775765858 0 0.026890608504426046 0.0019780135775765858 0 0.026836219637648897 0.0021300171460208023 0 0.026732275356350737 0.0019712776821611466 0 0.027104877357672159 0.0019613888134673114 0 0.026890608504426046 0.0019780135775765858 0 0.026836219637648897 0.0021300171460208023 0 0.020860301681181487 0.0025742565206487052 0 0.020936110600534453 0.0024902336015314602 0 0.020728523465270873 0.0024435808640177158 0 0.024961385890933708 0.0022143716399418093 0 0.024987011891919927 0.0020353687292590738 0 0.023363910755311995 0.0019597567448357638 0 0.020860301681181487 0.0025742565206487052 0 0.020652127026094202 0.0025621082523853739 0 0.020728523465270873 0.0024435808640177158 0 0.023089337006606942 0.002311964825209188 0 0.021331122637428965 0.0021891498498690892 0 0.024961385890933708 0.0022143716399418093 0 0.023229773910001361 0.0021501230099776158 0 0.023363910755311995 0.0019597567448357638 0 0.01876617494876081 0.0020169381870438451 0 0.018483702036571122 0.0015775270242807486 0 0.017946956483538661 0.0023644408310848609 0 0.021331122637428965 0.0021891498498690892 0 0.018486068905670231 0.0025886359135402844 0 0.018661079143812532 0.0014223248963890955 0 0.018558399160296057 0.0015745086271792101 0 0.019280359653783479 0.001587699170959328 0 0.02406594311933016 0.0020092346782734478 0 0.021331122637428965 0.0021891498498690892 0 0.024961385890933708 0.0022143716399418093 0 0.026273364645230113 0.002142016762287419 0 0.026244210878849341 0.0020603103180501618 0 0.026273364645230113 0.002142016762287419 0 0.026244210878849341 0.0020603103180501618 0 0.026143685316570374 0.002088523018978859 0 0.026273364645230113 0.002142016762287419 0 0.026218146417296966 0.0019981383740495158 0 0.026354302910787376 0.0019368128920014998 0 0.026273364645230113 0.002142016762287419 0 0.026218146417296966 0.0019981383740495158 0 0.026143685316570374 0.002088523018978859 0 0.026265047769914965 0.0018382166578203765 0 0.026218146417296966 0.0019981383740495158 0 0.026354302910787376 0.0019368128920014998 0 0.026273364645230113 0.002142016762287419 0 0.026354302910787376 0.0019368128920014998 0 0.026550533416355691 0.0019216944507471564 0 0.026473004559103393 0.0017827633463133191 0 0.026354302910787376 0.0019368128920014998 0 0.026550533416355691 0.0019216944507471564 0 0.026273364645230113 0.002142016762287419 0 0.026550533416355691 0.0019216944507471564 0 0.026732275356350737 0.0019712776821611466 0 0.026836219637648897 0.0021300171460208023 0 0.026273364645230113 0.002142016762287419 0 0.026732275356350737 0.0019712776821611466 0 0.026172976522140935 0.0021863334310208231 0 0.026127545789993233 0.0021433099145934656 0 0.026708273841564628 0.0017560145549691249 0 0.026550533416355691 0.0019216944507471564 0 0.026732275356350737 0.0019712776821611466 0 0.026708273841564628 0.0017560145549691249 0 0.026879511834259726 0.0018486421031633316 0 0.026732275356350737 0.0019712776821611466 0 0.023089337006606942 0.002311964825209188 0 0.023507700287089449 0.0023349613586228957 0 0.020860301681181487 0.0025742565206487052 0 0.020936110600534453 0.0024902336015314602 0 0.021058278829871706 0.0025866643141164805 0 0.024961385890933708 0.0022143716399418093 0 0.024987011891919927 0.0020353687292590738 0 0.026244210878849341 0.0020603103180501618 0 0.020936110600534453 0.0024902336015314602 0 0.021058278829871706 0.0025866643141164805 0 0.021122904641436405 0.002545143757208226 0 0.018902271837648376 0.0029381348338932043 0 0.018880003097956163 0.0030527105311618789 0 0.016538341608566213 0.0034843763381246801 0 0.016534259815060202 0.0035280449665127758 0 0.01652875835122801 0.0035409853160012317 0 0.016691084734172242 0.0033030663921107999 0 0.016538341608566213 0.0034843763381246801 0 0.01652875835122801 0.0035409853160012317 0 0.016691084734172242 0.0033030663921107999 0 0.016538341608566213 0.0034843763381246801 0 0.016959892508217656 0.0033087153225853502 0 0.016538341608566213 0.0034843763381246801 0 0.016519101006910314 0.0036724665159354915 0 0.016513746028403015 0.0035642960919808212 0 0.016538341608566213 0.0034843763381246801 0 0.016519101006910314 0.0036724665159354915 0 0.016959892508217656 0.0033087153225853502 0 0.016538341608566213 0.0034843763381246801 0 0.016534259815060202 0.0035280449665127758 0 0.016513746028403015 0.0035642960919808212 0 0.017946956483538661 0.0023644408310848609 0 0.019026151424532213 0.0026065400413630285 0 0.018799737371502173 0.0022899749514333325 0 0.018486068905670231 0.0025886359135402844 0 0.018643548660711266 0.0025190385386387763 0 0.018067437642376276 0.0031204168264333271 0 0.017537296178410614 0.0023510303141287222 0 0.019026151424532213 0.0026065400413630285 0 0.01876617494876081 0.0020169381870438451 0 0.017946956483538661 0.0023644408310848609 0 0.018799737371502173 0.0022899749514333325 0 0.018067437642376276 0.0031204168264333271 0 0.017537296178410614 0.0023510303141287222 0 0.016959892508217656 0.0033087153225853502 0 0.016691084734172242 0.0033030663921107999 0 0.017030421531683163 0.0032169443791738037 0 0.016959892508217656 0.0033087153225853502 0 0.018902271837648376 0.0029381348338932043 0 0.018486068905670231 0.0025886359135402844 0 0.018486068905670231 0.0025886359135402844 0 0.016900507518045619 0.0034708944350415345 0 0.016519101006910314 0.0036724665159354915 0 0.017538293984209353 0.003694560351082894 0 0.017732225698140851 0.0044062525060951088 0 0.016519101006910314 0.0036724665159354915 0 0.016959892508217656 0.0033087153225853502 0 0.017538293984209353 0.003694560351082894 0 0.018067437642376276 0.0031204168264333271 0 0.016959892508217656 0.0033087153225853502 0 0.017538293984209353 0.003694560351082894 0 0.017538293984209353 0.003694560351082894 0 0.018431285271327928 0.0039073827753397994 0 0.017732225698140851 0.0044062525060951088 0 0.018067437642376276 0.0031204168264333271 0 0.018431285271327928 0.0039073827753397994 0 0.019026151424532213 0.0026065400413630285 0 0.018067437642376276 0.0031204168264333271 0 0.017538293984209353 0.003694560351082894 0 0.018431285271327928 0.0039073827753397994 0 0.018431285271327928 0.0039073827753397994 0 0.019247730015127366 0.0039355766666634116 0 0.018881766801601512 0.0042910039674449122 0 0.018431285271327928 0.0039073827753397994 0 0.019431130371772909 0.0032086765250968156 0 0.019412170590873787 0.0021923438265903897 0 0.018431285271327928 0.0039073827753397994 0 0.019247730015127366 0.0039355766666634116 0 0.019431130371772909 0.0032086765250968156 0 0.018603478102258226 0.0037326896700418835 0 0.019056718203071442 0.0025406396416697693 0 0.019247730015127366 0.0039355766666634116 0 0.019431130371772909 0.0032086765250968156 0 0.019868399548073956 0.0037798556599698526 0 0.019431130371772909 0.0032086765250968156 0 0.019866811071552855 0.0031323283178697229 0 0.019868399548073956 0.0037798556599698526 0 0.019431130371772909 0.0032086765250968156 0 0.019835377698373499 0.0027215270143142712 0 0.019866811071552855 0.0031323283178697229 0 0.018431285271327928 0.0039073827753397994 0 0.019401100390855203 0.0026201793950874738 0 0.019026151424532213 0.0026065400413630285 0 0.019431130371772909 0.0032086765250968156 0 0.019412170590873787 0.0021923438265903897 0 0.019835377698373499 0.0027215270143142712 0 0.019401100390855203 0.0026201793950874738 0 0.019026151424532213 0.0026065400413630285 0 0.019275289601559043 0.0020962483824464558 0 0.019026151424532213 0.0026065400413630285 0 0.018799737371502173 0.0022899749514333325 0 0.019275289601559043 0.0020962483824464558 0 0.020571824712554972 0.0015707747345670979 0 0.020825931842277729 0.0022043665585464215 0 0.020185877870248496 0.0023063057826777193 0 0.020571824712554972 0.0015707747345670979 0 0.020825931842277729 0.0022043665585464215 0 0.021510183622701746 0.001414741183276615 0 0.019412170590873787 0.0021923438265903897 0 0.020571824712554972 0.0015707747345670979 0 0.020185877870248496 0.0023063057826777193 0 0.019412170590873787 0.0021923438265903897 0 0.020185877870248496 0.0023063057826777193 0 0.019835377698373499 0.0027215270143142712 0 0.020825931842277729 0.0022043665585464215 0 0.020185877870248496 0.0023063057826777193 0 0.02034343270818878 0.0028079785550450078 0 0.020185877870248496 0.0023063057826777193 0 0.019835377698373499 0.0027215270143142712 0 0.02034343270818878 0.0028079785550450078 0 0.020825931842277729 0.0022043665585464215 0 0.02034343270818878 0.0028079785550450078 0 0.021505997902196133 0.0026671062528208322 0 0.019868399548073956 0.0037798556599698526 0 0.021196117408116243 0.0034696208175636631 0 0.02119783872816014 0.0026752386050683708 0 0.019868399548073956 0.0037798556599698526 0 0.021196117408116243 0.0034696208175636631 0 0.019635884677025459 0.0044472273025243682 0 0.020940457634710679 0.0035522265272641975 0 0.019696288032364159 0.0044111685180624428 0 0.02034343270818878 0.0028079785550450078 0 0.019868399548073956 0.0037798556599698526 0 0.021505997902196133 0.0026671062528208322 0 0.019986138708638877 0.0037150168442213211 0 0.021367203570472299 0.0026516753828228863 0 0.02034343270818878 0.0028079785550450078 0 0.019866811071552855 0.0031323283178697229 0 0.019868399548073956 0.0037798556599698526 0 0.019835377698373499 0.0027215270143142712 0 0.02034343270818878 0.0028079785550450078 0 0.019866811071552855 0.0031323283178697229 0 0.020661901242999329 0.0041214097189194703 0 0.020547590071995712 0.0037204817239165403 0 0.020286631136083023 0.0043692470362608898 0 0.020940457634710679 0.0035522265272641975 0 0.021763776349545173 0.0028554490364978658 0 0.020547590071995712 0.0037204817239165403 0 0.02122235983617746 0.0036906134237764824 0 0.021479302648110973 0.0030160563255799033 0 0.020661901242999329 0.0041214097189194703 0 0.020904181779108709 0.0040032408995353671 0 0.020547590071995712 0.0037204817239165403 0 0.020904181779108709 0.0040032408995353671 0 0.020547590071995712 0.0037204817239165403 0 0.02122235983617746 0.0036906134237764824 0 0.0215672793767391 0.0038243821837885728 0 0.021270864749930927 0.0041100302086990986 0 0.021733227385812764 0.0042004899168567259 0 0.022016152937575122 0.0036795888333720161 0 0.0215672793767391 0.0038243821837885728 0 0.021733227385812764 0.0042004899168567259 0 0.0215672793767391 0.0038243821837885728 0 0.021270864749930927 0.0041100302086990986 0 0.02122235983617746 0.0036906134237764824 0 0.020904181779108709 0.0040032408995353671 0 0.021270864749930927 0.0041100302086990986 0 0.02122235983617746 0.0036906134237764824 0 0.02122235983617746 0.0036906134237764824 0 0.021667790440269407 0.0034783299113132944 0 0.021479302648110973 0.0030160563255799033 0 0.0215672793767391 0.0038243821837885728 0 0.02122235983617746 0.0036906134237764824 0 0.021667790440269407 0.0034783299113132944 0 0.022016152937575122 0.0036795888333720161 0 0.0215672793767391 0.0038243821837885728 0 0.021667790440269407 0.0034783299113132944 0 0.02281497537119296 0.0023562245603705664 0 0.02119783872816014 0.0026752386050683708 0 0.022619242335881477 0.001475200140248944 0 0.02205755808318232 0.0031738044348192792 0 0.021667790440269407 0.0034783299113132944 0 0.021479302648110973 0.0030160563255799033 0 0.023647358127429977 0.0011615632849303313 0 0.02281497537119296 0.0023562245603705664 0 0.022619242335881477 0.001475200140248944 0 0.021367203570472299 0.0026516753828228863 0 0.022695170028372912 0.0014617752245620469 0 0.021196117408116243 0.0034696208175636631 0 0.02281497537119296 0.0023562245603705664 0 0.02119783872816014 0.0026752386050683708 0 0.021505997902196133 0.0026671062528208322 0 0.021510183622701746 0.001414741183276615 0 0.023157014092923481 0.0013404140327099719 0 0.020825931842277729 0.0022043665585464215 0 0.021505997902196133 0.0026671062528208322 0 0.021510183622701746 0.001414741183276615 0 0.022338892608387811 0.00033587420645679627 0 0.021510183622701746 0.001414741183276615 0 0.020645480235661498 0.00025131651770009478 0 0.022338892608387811 0.00033587420645679627 0 0.021510183622701746 0.001414741183276615 0 0.023157014092923481 0.0013404140327099719 0 0.02241635361643509 0.00042593766900879561 0 0.022767420956485113 0.00087117448436520328 0 0.024467093065886843 0.00031719861755005372 0 0.023157014092923481 0.0013404140327099719 0 0.023890949987804135 0.0005604229905259863 0 0.024111687196003907 0.00022459908856734665 0 0.023647358127429977 0.0011615632849303313 0 0.022619242335881477 0.001475200140248944 0 0.022338892608387811 0.00033587420645679627 0 0.023157014092923481 0.0013404140327099719 0 0.023890949987804135 0.0005604229905259863 0 0.02565175696238544 0.00051490295372550365 0 0.022695170028372912 0.0014617752245620469 0 0.02241635361643509 0.00042593766900879561 0 0.023837884930887215 0.00053205764406642937 0 0.024323847069700883 -0.00018427189485190789 0 0.022992096787060771 0.00052468954397092197 0 0.023890949987804135 0.0005604229905259863 0 0.024323847069700883 -0.00018427189485190789 0 0.022887734310095765 -0.00075251876468689202 0 0.022992096787060771 0.00052468954397092197 0 0.022887734310095765 -0.00075251876468689202 0 0.022992096787060771 0.00052468954397092197 0 0.022087106778922384 0.00049293510242024872 0 0.026176917266126403 0.00099844189496063759 0 0.022767420956485113 0.00087117448436520328 0 0.028139052194321619 0.0016719685674164138 0 0.027812236451390429 0.0017507076540483055 0 0.027738665456482646 0.002284014054244745 0 0.027321562099641653 0.0018370300145495791 0 0.027812236451390429 0.0017507076540483055 0 0.027738665456482646 0.002284014054244745 0 0.02772222252015806 0.0016234097099385428 0 0.02406594311933016 0.0020092346782734478 0 0.027321562099641653 0.0018370300145495791 0 0.026969361347853327 0.0022693381059986787 0 0.027738665456482646 0.002284014054244745 0 0.018661079143812532 0.0014223248963890955 0 0.019280359653783479 0.001587699170959328 0 0.020161222760380723 0.0014493674444241169 0 0.019401100390855203 0.0026201793950874738 0 0.019275289601559043 0.0020962483824464558 0 0.020161222760380723 0.0014493674444241169 0 0.019280359653783479 0.001587699170959328 0 0.019275289601559043 0.0020962483824464558 0 0.020161222760380723 0.0014493674444241169 0 0.02406594311933016 0.0020092346782734478 0 0.022767420956485113 0.00087117448436520328 0 0.021331122637428965 0.0021891498498690892 0 0.018409485110395189 0.0016370285677817576 0 0.01876617494876081 0.0020169381870438451 0 0.018483702036571122 0.0015775270242807486 0 0.019280359653783479 0.001587699170959328 0 0.01876617494876081 0.0020169381870438451 0 0.019280359653783479 0.001587699170959328 0 0.019275289601559043 0.0020962483824464558 0 0.01876617494876081 0.0020169381870438451 0 0.018799737371502173 0.0022899749514333325 0 0.019275289601559043 0.0020962483824464558 0 0.019056718203071442 0.0025406396416697693 0 0.022767420956485113 0.00087117448436520328 0 0.019412170590873787 0.0021923438265903897 0 0.020571824712554972 0.0015707747345670979 0 0.020645480235661498 0.00025131651770009478 0 0.020571824712554972 0.0015707747345670979 0 0.021510183622701746 0.001414741183276615 0 0.020645480235661498 0.00025131651770009478 0 0.022968296459397707 0.0038043019015088653 0 0.016968488101915664 0.0046997309388660952 0 0.017880312836968067 0.0045878933256451428 0 0.018757286326537916 0.0038587323976696079 0 0.017768851825803785 0.0035687417016153854 0 0.017268404233520246 0.0038737381061542718 0 0.017880312836968067 0.0045878933256451428 0 0.016913854661597384 0.0041756451647521941 0 0.017268404233520246 0.0038737381061542718 0 0.017880312836968067 0.0045878933256451428 0 0.017768851825803785 0.0035687417016153854 0 0.024550908737933582 0.0021408141324021999 0 0.025118785903069086 0.0022260405309032041 0 0.025025673016163368 0.0016209725756105417 0 0.022968296459397707 0.0038043019015088653 0 0.020552653382112259 0.0030303263522302734 0 0.017853430847607595 0.0051113224780821734 0 0.019077291627313812 0.0053862961618130513 0 0.018757286326537916 0.0038587323976696079 0 0.022968296459397707 0.0038043019015088653 0 0.024767689732566083 0.005249418897323407 0 0.030634988479444396 0.0049843090752653436 0 0.029928798058459532 0.0048665126529905791 0 0.030434330251716029 0.0043700280123063692 0 0.020363245898133837 0.0056606034904028643 0 0.019878010710921146 0.0045390750602605006 0 0.0208164672381193 0.0048364915712565725 0 0.019077291627313812 0.0053862961618130513 0 0.020363245898133837 0.0056606034904028643 0 0.019878010710921146 0.0045390750602605006 0 0.024767689732566083 0.005249418897323407 0 0.024818021649773946 0.005257243781026026 0 0.019878010710921146 0.0045390750602605006 0 0.020004506741777745 0.0034770413600843575 0 0.020796642561491371 0.0038655614608887855 0 0.019878010710921146 0.0045390750602605006 0 0.018757286326537916 0.0038587323976696079 0 0.020004506741777745 0.0034770413600843575 0 0.019077291627313812 0.0053862961618130513 0 0.019878010710921146 0.0045390750602605006 0 0.018757286326537916 0.0038587323976696079 0 0.018757286326537916 0.0038587323976696079 0 0.019268433606005834 0.0030691710764942123 0 0.020004506741777745 0.0034770413600843575 0 0.018757286326537916 0.0038587323976696079 0 0.019268433606005834 0.0030691710764942123 0 0.018347039124142563 0.0029303947705411467 0 0.019268433606005834 0.0030691710764942123 0 0.020004506741777745 0.0034770413600843575 0 0.019950934824079607 0.0027234941619822448 0 0.020004506741777745 0.0034770413600843575 0 0.019950934824079607 0.0027234941619822448 0 0.020736850992697151 0.0029910335536647878 0 0.019950934824079607 0.0027234941619822448 0 0.020736850992697151 0.0029910335536647878 0 0.020566032553623156 0.0023932410698269241 0 0.019950934824079607 0.0027234941619822448 0 0.019173269304889724 0.0023200890271313978 0 0.020043721106618655 0.0021505902619275538 0 0.020566032553623156 0.0023932410698269241 0 0.020516535550276466 0.0018902124755519583 0 0.020043721106618655 0.0021505902619275538 0 0.019950934824079607 0.0027234941619822448 0 0.020566032553623156 0.0023932410698269241 0 0.020043721106618655 0.0021505902619275538 0 0.019268433606005834 0.0030691710764942123 0 0.019173269304889724 0.0023200890271313978 0 0.018347039124142563 0.0029303947705411467 0 0.019268433606005834 0.0030691710764942123 0 0.019950934824079607 0.0027234941619822448 0 0.019173269304889724 0.0023200890271313978 0 0.019173269304889724 0.0023200890271313978 0 0.018347039124142563 0.0029303947705411467 0 0.017762803007618986 0.0020442778500124751 0 0.018347039124142563 0.0029303947705411467 0 0.017528867245356163 0.002755044255905368 0 0.017762803007618986 0.0020442778500124751 0 0.018347039124142563 0.0029303947705411467 0 0.017768851825803785 0.0035687417016153854 0 0.017528867245356163 0.002755044255905368 0 0.018757286326537916 0.0038587323976696079 0 0.018347039124142563 0.0029303947705411467 0 0.017768851825803785 0.0035687417016153854 0 0.017768851825803785 0.0035687417016153854 0 0.017528867245356163 0.002755044255905368 0 0.017043886584547061 0.0031785325196124503 0 0.017268404233520246 0.0038737381061542718 0 0.017768851825803785 0.0035687417016153854 0 0.017043886584547061 0.0031785325196124503 0 0.017528867245356163 0.002755044255905368 0 0.017043886584547061 0.0031785325196124503 0 0.01675218167756545 0.0020717844457591094 0 0.016152807528689118 0.0028068604643154832 0 0.017043886584547061 0.0031785325196124503 0 0.01675218167756545 0.0020717844457591094 0 0.016356097547208535 0.003081542390053899 0 0.016795173635170944 0.003772417930101551 0 0.016696516863907881 0.0035289295371211233 0 0.016667380467944106 0.0036663313888962105 0 0.016804497032373921 0.0037726616368016111 0 0.016696516863907881 0.0035289295371211233 0 0.016667380467944106 0.0036663313888962105 0 0.016576616955167715 0.0035880751334296458 0 0.016152807528689118 0.0028068604643154832 0 0.017043886584547061 0.0031785325196124503 0 0.016804497032373921 0.0037726616368016111 0 0.017268404233520246 0.0038737381061542718 0 0.017043886584547061 0.0031785325196124503 0 0.016804497032373921 0.0037726616368016111 0 0.016696516863907881 0.0035289295371211233 0 0.016602171009919561 0.0035057888374444421 0 0.016576616955167715 0.0035880751334296458 0 0.016696516863907881 0.0035289295371211233 0 0.016602171009919561 0.0035057888374444421 0 0.016634927592702634 0.0034260668434527436 0 0.016534259815060202 0.0035280449665127758 0 0.016602171009919561 0.0035057888374444421 0 0.016576616955167715 0.0035880751334296458 0 0.016667380467944106 0.0036663313888962105 0 0.016576616955167715 0.0035880751334296458 0 0.016603969572149123 0.0037787222593626984 0 0.016534259815060202 0.0035280449665127758 0 0.016576616955167715 0.0035880751334296458 0 0.01652875835122801 0.0035409853160012317 0 0.023507700287089449 0.0023349613586228957 0 0.023952235982124471 0.0023517880123752641 0 0.021058278829871706 0.0025866643141164805 0 0.021122904641436405 0.002545143757208226 0 0.021221790495222836 0.0026084958540344293 0 0.021221790495222836 0.0026084958540344293 0 0.021279077036223001 0.0026035921085723174 0 0.021367865385506012 0.0026411825134632855 0 0.021122904641436405 0.002545143757208226 0 0.021221790495222836 0.0026084958540344293 0 0.021279077036223001 0.0026035921085723174 0 0.018880003097956163 0.0030527105311618789 0 0.018680587378159422 0.0031087402626702744 0 0.016576616955167715 0.0035880751334296458 0 0.01652875835122801 0.0035409853160012317 0 0.016603969572149123 0.0037787222593626984 0 0.023952235982124471 0.0023517880123752641 0 0.021523942080978683 0.0028850297196018155 0 0.025895458698533966 0.0022088348107370428 0 0.026075503099872655 0.001963921185942697 0 0.025844053529442589 0.00186531375832843 0 0.025895458698533966 0.0022088348107370428 0 0.025615372414272773 0.0020238182892485935 0 0.025844053529442589 0.00186531375832843 0 0.025615372414272773 0.0020238182892485935 0 0.025605047041887794 0.0018045599758400263 0 0.025844053529442589 0.00186531375832843 0 0.026244210878849341 0.0020603103180501618 0 0.025895458698533966 0.0022088348107370428 0 0.026143685316570374 0.002088523018978859 0 0.025895458698533966 0.0022088348107370428 0 0.026075503099872655 0.001963921185942697 0 0.026143685316570374 0.002088523018978859 0 0.026265047769914965 0.0018382166578203765 0 0.026218146417296966 0.0019981383740495158 0 0.026075503099872655 0.001963921185942697 0 0.026218146417296966 0.0019981383740495158 0 0.026075503099872655 0.001963921185942697 0 0.026143685316570374 0.002088523018978859 0 0.016804497032373921 0.0037726616368016111 0 0.016738158404721482 0.0039611572602356654 0 0.016913854661597384 0.0041756451647521941 0 0.017268404233520246 0.0038737381061542718 0 0.016804497032373921 0.0037726616368016111 0 0.016913854661597384 0.0041756451647521941 0 0.016667380467944106 0.0036663313888962105 0 0.016603969572149123 0.0037787222593626984 0 0.016804497032373921 0.0037726616368016111 0 0.016603969572149123 0.0037787222593626984 0 0.016804497032373921 0.0037726616368016111 0 0.016738158404721482 0.0039611572602356654 0 0.018680587378159422 0.0031087402626702744 0 0.021523942080978683 0.0028850297196018155 0 0.025335303636705307 0.0022545003881874557 0 0.025615372414272773 0.0020238182892485935 0 0.025362365942194362 0.0019201509666420544 0 0.025895458698533966 0.0022088348107370428 0 0.025335303636705307 0.0022545003881874557 0 0.025615372414272773 0.0020238182892485935 0 0.025615372414272773 0.0020238182892485935 0 0.025362365942194362 0.0019201509666420544 0 0.025605047041887794 0.0018045599758400263 0 0.025362365942194362 0.0019201509666420544 0 0.025118785903069086 0.0022260405309032041 0 0.025025673016163368 0.0016209725756105417 0 0.025335303636705307 0.0022545003881874557 0 0.025362365942194362 0.0019201509666420544 0 0.025118785903069086 0.0022260405309032041 0 0.021523942080978683 0.0028850297196018155 0 0.020552653382112259 0.0030303263522302734 0 0.025362365942194362 0.0019201509666420544 0 0.025025673016163368 0.0016209725756105417 0 0.025450214576683734 0.0015863891044585155 0 0.025362365942194362 0.0019201509666420544 0 0.025450214576683734 0.0015863891044585155 0 0.025605047041887794 0.0018045599758400263 0 0.025450214576683734 0.0015863891044585155 0 0.025605047041887794 0.0018045599758400263 0 0.025773353738102377 0.0015403397379425646 0 0.025450214576683734 0.0015863891044585155 0 0.025773353738102377 0.0015403397379425646 0 0.025469617223338435 0.0011727178855240319 0 0.025025673016163368 0.0016209725756105417 0 0.025450214576683734 0.0015863891044585155 0 0.025469617223338435 0.0011727178855240319 0 0.028990011269338395 0.0026699776126755353 0 0.028536962340465349 0.0024052619178643727 0 0.031301905391784894 0.0042099401302462154 0 0.031882023978799953 0.0034608587058677573 0 0.030958915331902374 0.0035769983566122853 0 0.026075503099872655 0.001963921185942697 0 0.026065180413478908 0.0016560241841064929 0 0.025844053529442589 0.00186531375832843 0 0.026265047769914965 0.0018382166578203765 0 0.026360336004228976 0.001620111532755689 0 0.026065180413478908 0.0016560241841064929 0 0.026265047769914965 0.0018382166578203765 0 0.026075503099872655 0.001963921185942697 0 0.026065180413478908 0.0016560241841064929 0 0.026065180413478908 0.0016560241841064929 0 0.025844053529442589 0.00186531375832843 0 0.025773353738102377 0.0015403397379425646 0 0.025605047041887794 0.0018045599758400263 0 0.025844053529442589 0.00186531375832843 0 0.025773353738102377 0.0015403397379425646 0 0.026065180413478908 0.0016560241841064929 0 0.025773353738102377 0.0015403397379425646 0 0.025916103002912191 0.0012427713085187582 0 0.025773353738102377 0.0015403397379425646 0 0.025916103002912191 0.0012427713085187582 0 0.025469617223338435 0.0011727178855240319 0 0.026350977264912086 0.0013333681290893381 0 0.026065180413478908 0.0016560241841064929 0 0.025916103002912191 0.0012427713085187582 0 0.026350977264912086 0.0013333681290893381 0 0.026192679328831708 0.0010399086288404094 0 0.025916103002912191 0.0012427713085187582 0 0.026192679328831708 0.0010399086288404094 0 0.025916103002912191 0.0012427713085187582 0 0.025875029153803537 0.00074894049412321069 0 0.025916103002912191 0.0012427713085187582 0 0.025875029153803537 0.00074894049412321069 0 0.025469617223338435 0.0011727178855240319 0 0.026192679328831708 0.0010399086288404094 0 0.025875029153803537 0.00074894049412321069 0 0.026260946723593036 0.00074564851239458511 0 0.031882023978799953 0.0034608587058677573 0 0.031504035031191133 0.0029035896392593697 0 0.030958915331902374 0.0035769983566122853 0 0.031882023978799953 0.0034608587058677573 0 0.031963504257582584 0.0028079657604514114 0 0.031504035031191133 0.0029035896392593697 0 0.03233049544700662 0.0027948040447863696 0 0.031882023978799953 0.0034608587058677573 0 0.031963504257582584 0.0028079657604514114 0 0.028975586857318943 0.0017162217334961685 0 0.028536962340465349 0.0024052619178643727 0 0.031963504257582584 0.0028079657604514114 0 0.031504035031191133 0.0029035896392593697 0 0.03187087232311956 0.0024190939471511919 0 0.031504035031191133 0.0029035896392593697 0 0.030927537049201554 0.0028653527961910756 0 0.030958915331902374 0.0035769983566122853 0 0.031504035031191133 0.0029035896392593697 0 0.030927537049201554 0.0028653527961910756 0 0.03128292549882096 0.002411256665755731 0 0.030927537049201554 0.0028653527961910756 0 0.030355512506885278 0.0031548292076666513 0 0.030522218290444852 0.002643264299998982 0 0.030355512506885278 0.0031548292076666513 0 0.030958915331902374 0.0035769983566122853 0 0.030246131857192951 0.0038014472784472409 0 0.030927537049201554 0.0028653527961910756 0 0.030355512506885278 0.0031548292076666513 0 0.030958915331902374 0.0035769983566122853 0 0.031301905391784894 0.0042099401302462154 0 0.030958915331902374 0.0035769983566122853 0 0.030434330251716029 0.0043700280123063692 0 0.030958915331902374 0.0035769983566122853 0 0.030246131857192951 0.0038014472784472409 0 0.030434330251716029 0.0043700280123063692 0 0.030634988479444396 0.0049843090752653436 0 0.031301905391784894 0.0042099401302462154 0 0.030434330251716029 0.0043700280123063692 0 0.022968296459397707 0.0038043019015088653 0 0.028990011269338395 0.0026699776126755353 0 0.029185652026028984 0.0047616350379015501 0 0.029680922147636256 0.0041620392683894749 0 0.028990197737399411 0.0041463941527261176 0 0.029928798058459532 0.0048665126529905791 0 0.029185652026028984 0.0047616350379015501 0 0.029680922147636256 0.0041620392683894749 0 0.029928798058459532 0.0048665126529905791 0 0.030434330251716029 0.0043700280123063692 0 0.029680922147636256 0.0041620392683894749 0 0.030246131857192951 0.0038014472784472409 0 0.029680922147636256 0.0041620392683894749 0 0.029839699913024313 0.0035294563801913531 0 0.030246131857192951 0.0038014472784472409 0 0.030434330251716029 0.0043700280123063692 0 0.029680922147636256 0.0041620392683894749 0 0.029680922147636256 0.0041620392683894749 0 0.029215188367931418 0.0035815248219818988 0 0.028990197737399411 0.0041463941527261176 0 0.029680922147636256 0.0041620392683894749 0 0.029215188367931418 0.0035815248219818988 0 0.029839699913024313 0.0035294563801913531 0 0.029215188367931418 0.0035815248219818988 0 0.029809125882431883 0.0029684733266462388 0 0.028740848174548569 0.0028553104471563139 0 0.029215188367931418 0.0035815248219818988 0 0.029839699913024313 0.0035294563801913531 0 0.029809125882431883 0.0029684733266462388 0 0.030355512506885278 0.0031548292076666513 0 0.030246131857192951 0.0038014472784472409 0 0.029839699913024313 0.0035294563801913531 0 0.030355512506885278 0.0031548292076666513 0 0.029839699913024313 0.0035294563801913531 0 0.029809125882431883 0.0029684733266462388 0 0.030355512506885278 0.0031548292076666513 0 0.030134522991992218 0.0027545454727943967 0 0.029809125882431883 0.0029684733266462388 0 0.030355512506885278 0.0031548292076666513 0 0.030134522991992218 0.0027545454727943967 0 0.030522218290444852 0.002643264299998982 0 0.030134522991992218 0.0027545454727943967 0 0.029809125882431883 0.0029684733266462388 0 0.029849787481359909 0.0025979524772232758 0 0.029809125882431883 0.0029684733266462388 0 0.029480953767275962 0.0028291033530831386 0 0.029221297245719577 0.0030053999165224081 0 0.029740735824630243 0.0029564038114242579 0 0.028992891656114312 0.0029351658502975784 0 0.029809125882431883 0.0029684733266462388 0 0.029480953767275962 0.0028291033530831386 0 0.029849787481359909 0.0025979524772232758 0 0.029849787481359909 0.0025979524772232758 0 0.029851523162403016 0.0021938285957611168 0 0.029391937692655162 0.0023507126577010855 0 0.029851523162403016 0.0021938285957611168 0 0.029391937692655162 0.0023507126577010855 0 0.029523706853363328 0.0019428792374302035 0 0.029851523162403016 0.0021938285957611168 0 0.029984820562200146 0.0018050168957249961 0 0.029523706853363328 0.0019428792374302035 0 0.030267456895306018 0.0020469198220518245 0 0.030477446104717931 0.0017261982229645739 0 0.029984820562200146 0.0018050168957249961 0 0.029851523162403016 0.0021938285957611168 0 0.030267456895306018 0.0020469198220518245 0 0.029984820562200146 0.0018050168957249961 0 0.029851523162403016 0.0021938285957611168 0 0.030267456895306018 0.0020469198220518245 0 0.030199946081487634 0.0024059939622176913 0 0.030267456895306018 0.0020469198220518245 0 0.030199946081487634 0.0024059939622176913 0 0.030599841213277128 0.0021996915752547567 0 0.029849787481359909 0.0025979524772232758 0 0.029851523162403016 0.0021938285957611168 0 0.030199946081487634 0.0024059939622176913 0 0.030134522991992218 0.0027545454727943967 0 0.029849787481359909 0.0025979524772232758 0 0.030199946081487634 0.0024059939622176913 0 0.030134522991992218 0.0027545454727943967 0 0.030199946081487634 0.0024059939622176913 0 0.030522218290444852 0.002643264299998982 0 0.030199946081487634 0.0024059939622176913 0 0.030522218290444852 0.002643264299998982 0 0.030599841213277128 0.0021996915752547567 0 0.030927537049201554 0.0028653527961910756 0 0.030522218290444852 0.002643264299998982 0 0.030865675930727497 0.0024075219963667479 0 0.030522218290444852 0.002643264299998982 0 0.030865675930727497 0.0024075219963667479 0 0.030599841213277128 0.0021996915752547567 0 0.030927537049201554 0.0028653527961910756 0 0.030865675930727497 0.0024075219963667479 0 0.03128292549882096 0.002411256665755731 0 0.030865675930727497 0.0024075219963667479 0 0.03128292549882096 0.002411256665755731 0 0.030998403910215765 0.0019298746095487954 0 0.03128292549882096 0.002411256665755731 0 0.030998403910215765 0.0019298746095487954 0 0.031395728034729321 0.0020213625722130565 0 0.030998403910215765 0.0019298746095487954 0 0.031314628596035628 0.0016865375068501158 0 0.031395728034729321 0.0020213625722130565 0 0.030998403910215765 0.0019298746095487954 0 0.030599841213277128 0.0021996915752547567 0 0.030477446104717931 0.0017261982229645739 0 0.030865675930727497 0.0024075219963667479 0 0.030998403910215765 0.0019298746095487954 0 0.030599841213277128 0.0021996915752547567 0 0.030267456895306018 0.0020469198220518245 0 0.030599841213277128 0.0021996915752547567 0 0.030477446104717931 0.0017261982229645739 0 0.030998403910215765 0.0019298746095487954 0 0.030477446104717931 0.0017261982229645739 0 0.031018619749844011 0.0014233645864871933 0 0.030477446104717931 0.0017261982229645739 0 0.031018619749844011 0.0014233645864871933 0 0.030423480847034688 0.0012270167270491017 0 0.030998403910215765 0.0019298746095487954 0 0.031314628596035628 0.0016865375068501158 0 0.031018619749844011 0.0014233645864871933 0 0.031314628596035628 0.0016865375068501158 0 0.031018619749844011 0.0014233645864871933 0 0.031632020586983854 0.0014309773568515201 0 0.031018619749844011 0.0014233645864871933 0 0.031396750111736385 0.0011038448766509034 0 0.031632020586983854 0.0014309773568515201 0 0.031018619749844011 0.0014233645864871933 0 0.031396750111736385 0.0011038448766509034 0 0.030967171432146522 0.00097263436946204949 0 0.030967171432146522 0.00097263436946204949 0 0.030423480847034688 0.0012270167270491017 0 0.030427756431084342 0.00079795345019542825 0 0.031018619749844011 0.0014233645864871933 0 0.030967171432146522 0.00097263436946204949 0 0.030423480847034688 0.0012270167270491017 0 0.031772268367085993 0.00063046354894990251 0 0.032346977821795186 0.00039714868478014616 0 0.030423480847034688 0.0012270167270491017 0 0.029707426434471652 0.001139668281957543 0 0.030427756431084342 0.00079795345019542825 0 0.030423480847034688 0.0012270167270491017 0 0.029707426434471652 0.001139668281957543 0 0.03005211366461737 0.0014199366570018465 0 0.03485056914230384 -0.00020123787932619652 0 0.034860730767319013 4.8676093093486871e-05 0 0.034915750976818719 -0.00012632554842845336 0 0.03179858158506161 0.00043237794941698422 0 0.031913804503211393 0.00037682088922610859 0 0.031911718599049427 0.00051841129749713162 0 0.031772268367085993 0.00063046354894990251 0 0.032687123920251429 0.0002969359840369966 0 0.029694739055861997 0.001143588583146107 0 0.029757419802216852 0.0014842198880500924 0 0.029577272941242187 0.0012028001169018139 0 0.031772268367085993 0.00063046354894990251 0 0.030806213239966827 0.0010602314261954167 0 0.031772268367085993 0.00063046354894990251 0 0.02975576434470242 0.001050482548397205 0 0.029694739055861997 0.001143588583146107 0 0.029757419802216852 0.0014842198880500924 0 0.03005211366461737 0.0014199366570018465 0 0.029757419802216852 0.0014842198880500924 0 0.029984820562200146 0.0018050168957249961 0 0.03005211366461737 0.0014199366570018465 0 0.029757419802216852 0.0014842198880500924 0 0.029984820562200146 0.0018050168957249961 0 0.029523706853363328 0.0019428792374302035 0 0.029757419802216852 0.0014842198880500924 0 0.029523706853363328 0.0019428792374302035 0 0.029577272941242187 0.0012028001169018139 0 0.030477446104717931 0.0017261982229645739 0 0.029984820562200146 0.0018050168957249961 0 0.03005211366461737 0.0014199366570018465 0 0.030477446104717931 0.0017261982229645739 0 0.030423480847034688 0.0012270167270491017 0 0.03005211366461737 0.0014199366570018465 0 0.030446540269146755 0.0017242974152406559 0 0.032780594153679649 0.0022823491671629692 0 0.032614064481311766 0.0020137276789804035 0 0.032842387450738468 0.0021642077840031615 0 0.032417237064414829 0.0022828374839026951 0 0.032030813955524332 0.0016099611939322965 0 0.032885192091081192 0.0016129462526798502 0 0.032985744623487086 0.001975732296997539 0 0.032805701685636686 0.0020029599132194761 0 0.032842387450738468 0.0021642077840031615 0 0.032985744623487086 0.001975732296997539 0 0.032805701685636686 0.0020029599132194761 0 0.032777168002588446 0.0018600296265805761 0 0.032805701685636686 0.0020029599132194761 0 0.032614064481311766 0.0020137276789804035 0 0.032777168002588446 0.0018600296265805761 0 0.032609185414563799 0.0019734484963063537 0 0.032885192091081192 0.0016129462526798502 0 0.032805701685636686 0.0020029599132194761 0 0.032614064481311766 0.0020137276789804035 0 0.032842387450738468 0.0021642077840031615 0 0.025875029153803537 0.00074894049412321069 0 0.026260946723593036 0.00074564851239458511 0 0.026268087986398715 0.00032827722822628778 0 0.028975586857318943 0.0017162217334961685 0 0.030446540269146755 0.0017242974152406559 0 0.03233049544700662 0.0027948040447863696 0 0.031963504257582584 0.0028079657604514114 0 0.032303111860536089 0.0023645594698929284 0 0.03233049544700662 0.0027948040447863696 0 0.032687730470572621 0.0022760940513969763 0 0.032303111860536089 0.0023645594698929284 0 0.032614064481311766 0.0020137276789804035 0 0.032417237064414829 0.0022828374839026951 0 0.032186156356500059 0.0019874641268764416 0 0.032417237064414829 0.0022828374839026951 0 0.032186156356500059 0.0019874641268764416 0 0.03187087232311956 0.0024190939471511919 0 0.032186156356500059 0.0019874641268764416 0 0.03187087232311956 0.0024190939471511919 0 0.03177889044201495 0.0017984949100219169 0 0.031963504257582584 0.0028079657604514114 0 0.032303111860536089 0.0023645594698929284 0 0.03187087232311956 0.0024190939471511919 0 0.032780594153679649 0.0022823491671629692 0 0.031753630242778295 0.0024379621033987428 0 0.03128292549882096 0.002411256665755731 0 0.03187087232311956 0.0024190939471511919 0 0.031395728034729321 0.0020213625722130565 0 0.031504035031191133 0.0029035896392593697 0 0.03128292549882096 0.002411256665755731 0 0.03187087232311956 0.0024190939471511919 0 0.03187087232311956 0.0024190939471511919 0 0.031395728034729321 0.0020213625722130565 0 0.03177889044201495 0.0017984949100219169 0 0.031314628596035628 0.0016865375068501158 0 0.03177889044201495 0.0017984949100219169 0 0.031632020586983854 0.0014309773568515201 0 0.031314628596035628 0.0016865375068501158 0 0.031395728034729321 0.0020213625722130565 0 0.03177889044201495 0.0017984949100219169 0 0.031632020586983854 0.0014309773568515201 0 0.031789895447096782 0.0010845055571999272 0 0.032216681068398804 0.0014699113379200591 0 0.031396750111736385 0.0011038448766509034 0 0.031632020586983854 0.0014309773568515201 0 0.031789895447096782 0.0010845055571999272 0 0.031794369405689381 0.0010841938447175791 0 0.03241511879099955 0.0014285346533868795 0 0.031789895447096782 0.0010845055571999272 0 0.032581694298020429 0.0013550568825914384 0 0.032528494453078365 0.00088622469794564509 0 0.03177889044201495 0.0017984949100219169 0 0.031632020586983854 0.0014309773568515201 0 0.032216681068398804 0.0014699113379200591 0 0.032186156356500059 0.0019874641268764416 0 0.03177889044201495 0.0017984949100219169 0 0.032216681068398804 0.0014699113379200591 0 0.032614064481311766 0.0020137276789804035 0 0.032186156356500059 0.0019874641268764416 0 0.032216681068398804 0.0014699113379200591 0 0.03241511879099955 0.0014285346533868795 0 0.032885192091081192 0.0016129462526798502 0 0.032614064481311766 0.0020137276789804035 0 0.032216681068398804 0.0014699113379200591 0 0.032812887241476615 0.0018225928165159742 0 0.032581694298020429 0.0013550568825914384 0 0.033180353494947419 0.0010746470072879716 0 0.032863018929635265 0.00085641760888049501 0 0.032581694298020429 0.0013550568825914384 0 0.032863018929635265 0.00085641760888049501 0 0.032528494453078365 0.00088622469794564509 0 0.033612507100840898 0.0011921233302841618 0 0.033180353494947419 0.0010746470072879716 0 0.033182205410239661 0.0016366313231036809 0 0.032581694298020429 0.0013550568825914384 0 0.033180353494947419 0.0010746470072879716 0 0.033182205410239661 0.0016366313231036809 0 0.034731842309087713 5.659997075651376e-05 0 0.034617929839465197 0.00015385304594655791 0 0.034712329475654231 7.1081975204122309e-05 0 0.034116707813938767 0.00020752844484387231 0 0.033589790780683158 0.00050036531341270715 0 0.034731842309087713 5.659997075651376e-05 0 0.034617929839465197 0.00015385304594655791 0 0.034449157956176403 0.0005175564131492923 0 0.033522685151104042 0.00031814993096798054 0 0.033202176200366619 0.00070121653001343283 0 0.032815492342283356 0.00052019984067957722 0 0.033561128028373424 0.00076467988894546031 0 0.033180353494947419 0.0010746470072879716 0 0.033202176200366619 0.00070121653001343283 0 0.033180353494947419 0.0010746470072879716 0 0.033202176200366619 0.00070121653001343283 0 0.032863018929635265 0.00085641760888049501 0 0.033202176200366619 0.00070121653001343283 0 0.032863018929635265 0.00085641760888049501 0 0.032815492342283356 0.00052019984067957722 0 0.032863018929635265 0.00085641760888049501 0 0.032815492342283356 0.00052019984067957722 0 0.032528494453078365 0.00088622469794564509 0 0.034617929839465197 0.00015385304594655791 0 0.034449157956176403 0.0005175564131492923 0 0.034249875551147273 4.0424438839083702e-05 0 0.034449157956176403 0.0005175564131492923 0 0.034249875551147273 4.0424438839083702e-05 0 0.033717561060222397 7.0541175313228738e-05 0 0.033717561060222397 7.0541175313228738e-05 0 0.032151611777312718 0.00076390937060909171 0 0.032183142520699475 7.8434947052173528e-05 0 0.034249875551147273 4.0424438839083702e-05 0 0.033323340967793519 -0.00014289485863303589 0 0.033717561060222397 7.0541175313228738e-05 0 0.033323340967793519 -0.00014289485863303589 0 0.033717561060222397 7.0541175313228738e-05 0 0.033068858667450081 0.00017048719545473493 0 0.034449157956176403 0.0005175564131492923 0 0.033717561060222397 7.0541175313228738e-05 0 0.032151611777312718 0.00076390937060909171 0 0.033611142095122087 4.1195036374754101e-05 0 0.032529849873110327 0.00017084224491622612 0 0.032815492342283356 0.00052019984067957722 0 0.032528494453078365 0.00088622469794564509 0 0.032151611777312718 0.00076390937060909171 0 0.033589790780683158 0.00050036531341270715 0 0.032253256415703813 0.00076228063538532427 0 0.032151611777312718 0.00076390937060909171 0 0.031755905355489319 0.00050675269829447158 0 0.032183142520699475 7.8434947052173528e-05 0 0.031789895447096782 0.0010845055571999272 0 0.032528494453078365 0.00088622469794564509 0 0.032151611777312718 0.00076390937060909171 0 0.031396750111736385 0.0011038448766509034 0 0.031789895447096782 0.0010845055571999272 0 0.031745769527831619 0.00081668054966187653 0 0.031789895447096782 0.0010845055571999272 0 0.032151611777312718 0.00076390937060909171 0 0.031745769527831619 0.00081668054966187653 0 0.031745769527831619 0.00081668054966187653 0 0.031755905355489319 0.00050675269829447158 0 0.03146266056154616 0.00054214825494000151 0 0.032151611777312718 0.00076390937060909171 0 0.031745769527831619 0.00081668054966187653 0 0.031755905355489319 0.00050675269829447158 0 0.033323340967793519 -0.00014289485863303589 0 0.033068858667450081 0.00017048719545473493 0 0.032422182980569023 0.00029716396067391105 0 0.032529849873110327 0.00017084224491622612 0 0.032576355962256345 0.00023935141444993591 0 0.033719845412865046 -3.6498438588305466e-05 0 0.032576355962256345 0.00023935141444993591 0 0.033937456314161833 1.5527549522741305e-05 0 0.033705579938202258 -4.6028695885379784e-06 0 0.033380220460419135 0.00027021436537536734 0 0.031755905355489319 0.00050675269829447158 0 0.032183142520699475 7.8434947052173528e-05 0 0.031281398222041699 0.00029884915181905842 0 0.034993170643171589 -3.1010018189839761e-05 0 0.034996616577266104 -2.202553012829881e-05 0 0.034997879573024797 -1.9998176119562057e-05 0 0.034993170643171589 -3.1010018189839761e-05 0 0.034996616577266104 -2.202553012829881e-05 0 0.034999007879498271 -2.1913576081480193e-05 0 0.034997879573024797 -1.9998176119562057e-05 0 0.034999992587967155 3.418844461174947e-09 0 0.034999998644494837 -2.411896389533524e-08 0 0.034996616577266104 -2.202553012829881e-05 0 0.034997879573024797 -1.9998176119562057e-05 0 0.034999998644494837 -2.411896389533524e-08 0 0.034997879573024797 -1.9998176119562057e-05 0 0.034999992587967155 3.418844461174947e-09 0 0.034985687278345036 -2.5787529580773066e-05 0 0.034999992587967155 3.418844461174947e-09 0 0.034985687278345036 -2.5787529580773066e-05 0 0.034940497711862216 -2.2867763194216334e-05 0 0.033719845412865046 -3.6498438588305466e-05 0 0.03446921246764819 -0.00013817057659741344 0 0.034993170643171589 -3.1010018189839761e-05 0 0.034997879573024797 -1.9998176119562057e-05 0 0.034983386789283401 -6.4050090019932885e-05 0 0.033937456314161833 1.5527549522741305e-05 0 0.033705579938202258 -4.6028695885379784e-06 0 0.034185203318616242 -0.00013535227858098872 0 0.034997879573024797 -1.9998176119562057e-05 0 0.034985687278345036 -2.5787529580773066e-05 0 0.034983386789283401 -6.4050090019932885e-05 0 0.034306668017735541 -1.8198367735795737e-05 0 0.034583996895697355 -8.7166272289982688e-05 0 0.034985687278345036 -2.5787529580773066e-05 0 0.034983386789283401 -6.4050090019932885e-05 0 0.034940497711862216 -2.2867763194216334e-05 0 0.033937456314161833 1.5527549522741305e-05 0 0.034185203318616242 -0.00013535227858098872 0 0.034591485300802791 -0.00011032886092348217 0 0.034583996895697355 -8.7166272289982688e-05 0 0.034743739977370659 -9.6419434013628286e-05 0 0.034983386789283401 -6.4050090019932885e-05 0 0.034940497711862216 -2.2867763194216334e-05 0 0.03479062530325383 -9.1244528188211453e-05 0 0.034249875551147273 4.0424438839083702e-05 0 0.033323340967793519 -0.00014289485863303589 0 0.034591485300802791 -0.00011032886092348217 0 0.034185203318616242 -0.00013535227858098872 0 0.034591485300802791 -0.00011032886092348217 0 0.03479062530325383 -9.1244528188211453e-05 0 0.034617929839465197 0.00015385304594655791 0 0.034249875551147273 4.0424438839083702e-05 0 0.034645032700725151 7.3904533233638176e-06 0 0.034249875551147273 4.0424438839083702e-05 0 0.034591485300802791 -0.00011032886092348217 0 0.034645032700725151 7.3904533233638176e-06 0 0.034591485300802791 -0.00011032886092348217 0 0.034703857569463405 -5.7348222634292811e-05 0 0.034645032700725151 7.3904533233638176e-06 0 0.034591485300802791 -0.00011032886092348217 0 0.03479062530325383 -9.1244528188211453e-05 0 0.034703857569463405 -5.7348222634292811e-05 0 0.034999992587967155 3.418844461174947e-09 0 0.034940497711862216 -2.2867763194216334e-05 0 0.034999608957873476 -5.8997932001686868e-08 0 0.034940497711862216 -2.2867763194216334e-05 0 0.034999608957873476 -5.8997932001686868e-08 0 0.03479062530325383 -9.1244528188211453e-05 0 0.034886990378398174 -4.0747704438554318e-05 0 0.034795125976903638 -1.0427412385497949e-05 0 0.03479062530325383 -9.1244528188211453e-05 0 0.034999608957873476 -5.8997932001686868e-08 0 0.034886990378398174 -4.0747704438554318e-05 0 0.03479062530325383 -9.1244528188211453e-05 0 0.034927821596228904 -2.7320394604257438e-05 0 0.034999608957873476 -5.8997932001686868e-08 0 0.034886990378398174 -4.0747704438554318e-05 0 0.034927821596228904 -2.7320394604257438e-05 0 0.034886990378398174 -4.0747704438554318e-05 0 0.034795125976903638 -1.0427412385497949e-05 0 0.034663188647845594 0.00013309875843949486 0 0.034795125976903638 -1.0427412385497949e-05 0 0.034712329475654231 7.1081975204122309e-05 0 0.034795125976903638 -1.0427412385497949e-05 0 0.03479062530325383 -9.1244528188211453e-05 0 0.034703857569463405 -5.7348222634292811e-05 0 0.034795125976903638 -1.0427412385497949e-05 0 0.034703857569463405 -5.7348222634292811e-05 0 0.034645032700725151 7.3904533233638176e-06 0 0.034795125976903638 -1.0427412385497949e-05 0 0.034645032700725151 7.3904533233638176e-06 0 0.034712329475654231 7.1081975204122309e-05 0 0.034617929839465197 0.00015385304594655791 0 0.034645032700725151 7.3904533233638176e-06 0 0.034712329475654231 7.1081975204122309e-05 0 0.034947151362659995 7.8667682120877154e-05 0 0.034917729183107232 7.8663254559983541e-05 0 0.034961633117522567 9.5817194314552642e-05 0 0.034961033783900988 7.7289310671410254e-05 0 0.034947151362659995 7.8667682120877154e-05 0 0.034961633117522567 9.5817194314552642e-05 0 0.034961033783900988 7.7289310671410254e-05 0 0.034947151362659995 7.8667682120877154e-05 0 0.034961812382362782 5.3543509724042419e-05 0 0.034961033783900988 7.7289310671410254e-05 0 0.034976829534908466 6.3302691546739874e-05 0 0.034961812382362782 5.3543509724042419e-05 0 0.034947151362659995 7.8667682120877154e-05 0 0.034917729183107232 7.8663254559983541e-05 0 0.034961812382362782 5.3543509724042419e-05 0 0.034930394503298628 6.8671043530969486e-05 0 0.034917729183107232 7.8663254559983541e-05 0 0.034961812382362782 5.3543509724042419e-05 0 0.034930394503298628 6.8671043530969486e-05 0 0.034902869319560423 0.00011729873473988996 0 0.034931443712887929 3.5332474160594042e-05 0 0.035084291060102128 -5.0364518816610435e-05 0 0.034935139414674514 3.3612206083264734e-05 0 0.034930394503298628 6.8671043530969486e-05 0 0.034900145934553005 8.8998022114847975e-05 0 0.034902869319560423 0.00011729873473988996 0 0.034930394503298628 6.8671043530969486e-05 0 0.034900145934553005 8.8998022114847975e-05 0 0.034917729183107232 7.8663254559983541e-05 0 0.035084291060102128 -5.0364518816610435e-05 0 0.032687123920251429 0.0002969359840369966 0 0.03485056914230384 -0.00020123787932619652 0 0.034860730767319013 4.8676093093486871e-05 0 0.034301029950357706 -1.3772859979173615e-05 0 0.034902869319560423 0.00011729873473988996 0 0.034860730767319013 4.8676093093486871e-05 0 0.034915750976818719 -0.00012632554842845336 0 0.034900145934553005 8.8998022114847975e-05 0 0.034917729183107232 7.8663254559983541e-05 0 0.034860730767319013 4.8676093093486871e-05 0 0.034900145934553005 8.8998022114847975e-05 0 0.034902869319560423 0.00011729873473988996 0 0.034860730767319013 4.8676093093486871e-05 0 0.034860730767319013 4.8676093093486871e-05 0 0.034301029950357706 -1.3772859979173615e-05 0 0.0342905253206797 0.00019924216746105436 0 0.034738089914929396 8.0137553795422574e-05 0 0.034900347463743646 0.00011052125572232337 0 0.034917729183107232 7.8663254559983541e-05 0 0.034860730767319013 4.8676093093486871e-05 0 0.034961633117522567 9.5817194314552642e-05 0 0.030967171432146522 0.00097263436946204949 0 0.030427756431084342 0.00079795345019542825 0 0.031216920790005057 0.0004066127045245904 0 0.034900347463743646 0.00011052125572232337 0 0.033013670145853422 0.00020249486390758084 0 0.034301029950357706 -1.3772859979173615e-05 0 0.0342905253206797 0.00019924216746105436 0 0.033587178375586592 0.00031876523377497474 0 0.032346977821795186 0.00039714868478014616 0 0.033013670145853422 0.00020249486390758084 0 0.030967171432146522 0.00097263436946204949 0 0.031370030607370862 0.00078115123394367032 0 0.031216920790005057 0.0004066127045245904 0 0.031396750111736385 0.0011038448766509034 0 0.031745769527831619 0.00081668054966187653 0 0.031370030607370862 0.00078115123394367032 0 0.031396750111736385 0.0011038448766509034 0 0.030967171432146522 0.00097263436946204949 0 0.031370030607370862 0.00078115123394367032 0 0.031719903786061501 0.00041655867227476085 0 0.033013670145853422 0.00020249486390758084 0 0.031755905355489319 0.00050675269829447158 0 0.03146266056154616 0.00054214825494000151 0 0.031281398222041699 0.00029884915181905842 0 0.031370030607370862 0.00078115123394367032 0 0.03146266056154616 0.00054214825494000151 0 0.031144493872480271 0.00033094906497746311 0 0.031745769527831619 0.00081668054966187653 0 0.031370030607370862 0.00078115123394367032 0 0.03146266056154616 0.00054214825494000151 0 0.034993170643171589 -3.1010018189839761e-05 0 0.03499773681099641 -2.5834700872973685e-05 0 0.034999007879498271 -2.1913576081480193e-05 0 0.034306668017735541 -1.8198367735795737e-05 0 0.03440344384912123 0.00024253983818641486 0 0.033705579938202258 -4.6028695885379784e-06 0 0.033380220460419135 0.00027021436537536734 0 0.033262982898269296 0.00017108199313519305 0 0.03146266056154616 0.00054214825494000151 0 0.031281398222041699 0.00029884915181905842 0 0.031144493872480271 0.00033094906497746311 0 0.033013670145853422 0.00020249486390758084 0 0.03440344384912123 0.00024253983818641486 0 0.032576355962256345 0.00023935141444993591 0 0.033013670145853422 0.00020249486390758084 0 0.033380220460419135 0.00027021436537536734 0 0.033308228483095836 0.00028423370004302626 0 0.033262982898269296 0.00017108199313519305 0 0.035001459926989942 7.7341848663133573e-05 0 0.034976829534908466 6.3302691546739874e-05 0 0.034995538939823052 3.2102340334151796e-05 0 0.034961633117522567 9.5817194314552642e-05 0 0.034951078731016813 8.537860695500734e-05 0 0.034962044496042878 9.0401365785568112e-05 0 0.034961033783900988 7.7289310671410254e-05 0 0.034961633117522567 9.5817194314552642e-05 0 0.034962044496042878 9.0401365785568112e-05 0 0.034961033783900988 7.7289310671410254e-05 0 0.034962044496042878 9.0401365785568112e-05 0 0.034976829534908466 6.3302691546739874e-05 0 0.03440344384912123 0.00024253983818641486 0 0.035106339247692984 2.1688053730380652e-05 0 0.034951078731016813 8.537860695500734e-05 0 0.034951685491681685 8.944199332738729e-05 0 0.034962044496042878 9.0401365785568112e-05 0 0.035001459926989942 7.7341848663133573e-05 0 0.034962044496042878 9.0401365785568112e-05 0 0.034976829534908466 6.3302691546739874e-05 0 0.03440344384912123 0.00024253983818641486 0 0.035040583888413107 -3.419531440552095e-06 0 0.034976829534908466 6.3302691546739874e-05 0 0.034995538939823052 3.2102340334151796e-05 0 0.034961812382362782 5.3543509724042419e-05 0 0.03499773681099641 -2.5834700872973685e-05 0 0.035004192260649145 -1.4593781892476421e-05 0 0.034999007879498271 -2.1913576081480193e-05 0 0.034996616577266104 -2.202553012829881e-05 0 0.034999007879498271 -2.1913576081480193e-05 0 0.034999998644494837 -2.411896389533524e-08 0 0.035004192260649145 -1.4593781892476421e-05 0 0.034999007879498271 -2.1913576081480193e-05 0 0.034999998644494837 -2.411896389533524e-08 0 0.035004192260649145 -1.4593781892476421e-05 0 0.034999998644494837 -2.411896389533524e-08 0 0.035000017865425191 1.391089836630166e-09 0 0.035040583888413107 -3.419531440552095e-06 0 0.034999984755581748 -4.3429447789729259e-09 0 0.034995538939823052 3.2102340334151796e-05 0 0.035000000450352869 9.285442569221409e-09 0 0.034983658319824119 1.9817481752063385e-05 0 0.035000000450352869 9.285442569221409e-09 0 0.034999975376588638 8.9660333191959418e-09 0 0.034983658319824119 1.9817481752063385e-05 0 0.034999975376588638 8.9660333191959418e-09 0 0.034983658319824119 1.9817481752063385e-05 0 0.03497242224676847 1.6424757164636691e-05 0 0.034983658319824119 1.9817481752063385e-05 0 0.034961812382362782 5.3543509724042419e-05 0 0.03497242224676847 1.6424757164636691e-05 0 0.034995538939823052 3.2102340334151796e-05 0 0.034983658319824119 1.9817481752063385e-05 0 0.034961812382362782 5.3543509724042419e-05 0 0.034930394503298628 6.8671043530969486e-05 0 0.034961812382362782 5.3543509724042419e-05 0 0.03497242224676847 1.6424757164636691e-05 0 0.034930394503298628 6.8671043530969486e-05 0 0.034931443712887929 3.5332474160594042e-05 0 0.03497242224676847 1.6424757164636691e-05 0 0.034931443712887929 3.5332474160594042e-05 0 0.03499992931527459 -5.5387467047851353e-10 0 0.03497242224676847 1.6424757164636691e-05 0 0.034999975376588638 8.9660333191959418e-09 0 0.03499992931527459 -5.5387467047851353e-10 0 0.03497242224676847 1.6424757164636691e-05 0 0.034935139414674514 3.3612206083264734e-05 0 0.034999978823891539 -1.730254266033232e-08 0 0.034999944502692414 -5.3559038082643128e-09 0 0.034978137768056076 -4.8229726535783965e-06 0 0.034999996793661753 5.3374601734978275e-09 0 0.03495948535000927 -9.9835445651220312e-06 0 0.034999944502692414 -5.3559038082643128e-09 0 0.034978137768056076 -4.8229726535783965e-06 0 0.034999996793661753 5.3374601734978275e-09 0 0.034972523029428597 -5.9040746296435978e-06 0 0.034999875584890663 -3.5427777460220843e-08 0 0.034978137768056076 -4.8229726535783965e-06 0 0.034999996793661753 5.3374601734978275e-09 0 0.034972523029428597 -5.9040746296435978e-06 0 0.035719238079070029 -0.00018870242296903876 0 0.031300728798219428 -0.00034522807862110387 0 0.034972523029428597 -5.9040746296435978e-06 0 0.034950973472353507 -1.7983608268960395e-05 0 0.034937901626869529 -2.5833384112020001e-05 0 0.034978137768056076 -4.8229726535783965e-06 0 0.034972523029428597 -5.9040746296435978e-06 0 0.034950973472353507 -1.7983608268960395e-05 0 0.03495948535000927 -9.9835445651220312e-06 0 0.034978137768056076 -4.8229726535783965e-06 0 0.034950973472353507 -1.7983608268960395e-05 0 0.034925295759211425 -2.6671973815379801e-05 0 0.03495948535000927 -9.9835445651220312e-06 0 0.034950973472353507 -1.7983608268960395e-05 0 0.034925295759211425 -2.6671973815379801e-05 0 0.034950973472353507 -1.7983608268960395e-05 0 0.034929308146379061 -3.524578111871745e-05 0 0.034950973472353507 -1.7983608268960395e-05 0 0.034929308146379061 -3.524578111871745e-05 0 0.034937901626869529 -2.5833384112020001e-05 0 0.032545964432324895 -4.0600828790632577e-05 0 0.031300728798219428 -0.00034522807862110387 0 0.034925295759211425 -2.6671973815379801e-05 0 0.034929308146379061 -3.524578111871745e-05 0 0.034897741287344741 -4.862045922512374e-05 0 0.032545964432324895 -4.0600828790632577e-05 0 0.032687123920251429 0.0002969359840369966 0 0.026586541351309841 0.00035939455142500149 0 0.02612185118770545 0.00015872655592327081 0 0.0259759400135454 0.00054050539951471996 0 0.026586541351309841 0.00035939455142500149 0 0.026466775688801923 -0.00023342435796126169 0 0.02612185118770545 0.00015872655592327081 0 0.026586541351309841 0.00035939455142500149 0 0.026965430442647868 -0.00027292679394584981 0 0.026466775688801923 -0.00023342435796126169 0 0.027188497484924933 0.00043705043676697629 0 0.031300728798219428 -0.00034522807862110387 0 0.029915998294894004 -0.0001216394210508608 0 0.028576614978329612 0.00031056537640519315 0 0.02908324597656332 -0.00076262702276394447 0 0.031300728798219428 -0.00034522807862110387 0 0.03234389301798115 -0.00012218343379144189 0 0.026965430442647868 -0.00027292679394584981 0 0.026466775688801923 -0.00023342435796126169 0 0.026388033037910989 -0.00073526896103123015 0 0.026466775688801923 -0.00023342435796126169 0 0.025996090958406558 -0.0002628301735202685 0 0.02612185118770545 0.00015872655592327081 0 0.03234389301798115 -0.00012218343379144189 0 0.02943362679404804 0.00012481389588483969 0 0.026466775688801923 -0.00023342435796126169 0 0.026388033037910989 -0.00073526896103123015 0 0.025996090958406558 -0.0002628301735202685 0 0.03234389301798115 -0.00012218343379144189 0 0.035354914284657646 0.00081618750536669479 0 0.034972523029428597 -5.9040746296435978e-06 0 0.034927402077475744 1.3352687808161519e-05 0 0.034919578278364546 -8.7229634806928495e-07 0 0.034972523029428597 -5.9040746296435978e-06 0 0.034919578278364546 -8.7229634806928495e-07 0 0.034999875584890663 -3.5427777460220843e-08 0 0.035000378238608569 2.1908555369208172e-07 0 0.034999693287977807 -1.9096829258968239e-07 0 0.035065611535415583 0.00024043836709389618 0 0.03234389301798115 -0.00012218343379144189 0 0.035002540015343551 -1.0423847298919758e-06 0 0.035055435380141872 0.00021913380815861164 0 0.035000378238608569 2.1908555369208172e-07 0 0.035065611535415583 0.00024043836709389618 0 0.034999693287977807 -1.9096829258968239e-07 0 0.035065611535415583 0.00024043836709389618 0 0.035064707184731411 0.00046033801359684102 0 0.034999693287977807 -1.9096829258968239e-07 0 0.035064707184731411 0.00046033801359684102 0 0.035001743808566958 1.7961308607101314e-06 0 0.035064707184731411 0.00046033801359684102 0 0.03503183477239772 0.00078459963119996336 0 0.0350737112054125 0.00056024621998196659 0 0.035206886937968689 0.00040165381499967557 0 0.035082815368551443 0.00042354696148132437 0 0.0350737112054125 0.00056024621998196659 0 0.035065611535415583 0.00024043836709389618 0 0.035064707184731411 0.00046033801359684102 0 0.035082815368551443 0.00042354696148132437 0 0.035064707184731411 0.00046033801359684102 0 0.035082815368551443 0.00042354696148132437 0 0.0350737112054125 0.00056024621998196659 0 0.035206886937968689 0.00040165381499967557 0 0.035065611535415583 0.00024043836709389618 0 0.035082815368551443 0.00042354696148132437 0 0.034993813477381792 -3.9187088166611152e-06 0 0.03493994349136121 0.00060015760556483768 0 0.034202953597856023 0.0019248051874959807 0 0.035064707184731411 0.00046033801359684102 0 0.03493994349136121 0.00060015760556483768 0 0.035001743808566958 1.7961308607101314e-06 0 0.034993813477381792 -3.9187088166611152e-06 0 0.03493994349136121 0.00060015760556483768 0 0.035001743808566958 1.7961308607101314e-06 0 0.035064707184731411 0.00046033801359684102 0 0.03493994349136121 0.00060015760556483768 0 0.03503183477239772 0.00078459963119996336 0 0.03493994349136121 0.00060015760556483768 0 0.034202953597856023 0.0019248051874959807 0 0.03503183477239772 0.00078459963119996336 0 0.029812286792688162 0.0013123480983231127 0 0.030405059174053305 0.00080398635968014767 0 0.025754237552389939 0.00095290127136343403 0 0.025623456154886044 0.00045981714469706515 0 0.0254468876267313 0.0005640009744315586 0 0.025623456154886044 0.00045981714469706515 0 0.0254468876267313 0.0005640009744315586 0 0.025415637621394073 0.00036879999086721679 0 0.025623456154886044 0.00045981714469706515 0 0.025415637621394073 0.00036879999086721679 0 0.025022035075239722 0.00037368206361115206 0 0.025623456154886044 0.00045981714469706515 0 0.025022035075239722 0.00037368206361115206 0 0.025405764539087973 0.00033560781867053547 0 0.030405059174053305 0.00080398635968014767 0 0.02943362679404804 0.00012481389588483969 0 0.0254468876267313 0.0005640009744315586 0 0.025460094398739676 0.00042473812649567876 0 0.025478346842626214 0.00041631616239330932 0 0.0254468876267313 0.0005640009744315586 0 0.025415637621394073 0.00036879999086721679 0 0.025478346842626214 0.00041631616239330932 0 0.025415637621394073 0.00036879999086721679 0 0.025557294780661398 0.0003463542492193357 0 0.025390899815113513 0.00050051040403162469 0 0.025415637621394073 0.00036879999086721679 0 0.025478346842626214 0.00041631616239330932 0 0.025557294780661398 0.0003463542492193357 0 0.025460094398739676 0.00042473812649567876 0 0.025478346842626214 0.00041631616239330932 0 0.025557294780661398 0.0003463542492193357 0 0.025557294780661398 0.0003463542492193357 0 0.02612185118770545 0.00015872655592327081 0 0.0259759400135454 0.00054050539951471996 0 0.02943362679404804 0.00012481389588483969 0 0.024616071730245395 0.00071360083185980944 0 0.025996090958406558 -0.0002628301735202685 0 0.025557294780661398 0.0003463542492193357 0 0.02612185118770545 0.00015872655592327081 0 0.025557294780661398 0.0003463542492193357 0 0.0259759400135454 0.00054050539951471996 0 0.02570503077687554 0.00076445899285931243 0 0.025557294780661398 0.0003463542492193357 0 0.02570503077687554 0.00076445899285931243 0 0.025390899815113513 0.00050051040403162469 0 0.02570503077687554 0.00076445899285931243 0 0.025390899815113513 0.00050051040403162469 0 0.025261029637007951 0.00089845313390206274 0 0.02570503077687554 0.00076445899285931243 0 0.026000619067282238 0.0012519195831056488 0 0.026231695439807776 0.00084081937760493736 0 0.0259759400135454 0.00054050539951471996 0 0.02570503077687554 0.00076445899285931243 0 0.026231695439807776 0.00084081937760493736 0 0.025415637621394073 0.00036879999086721679 0 0.025022035075239722 0.00037368206361115206 0 0.025390899815113513 0.00050051040403162469 0 0.024917597063613496 0.00035953701257018458 0 0.024703426521996748 0.00041345055894103548 0 0.025022035075239722 0.00037368206361115206 0 0.025390899815113513 0.00050051040403162469 0 0.025261029637007951 0.00089845313390206274 0 0.025022035075239722 0.00037368206361115206 0 0.02461160189193639 -6.8657089164720776e-05 0 0.024961511513886335 -2.7298388081523279e-05 0 0.025022035075239722 0.00037368206361115206 0 0.024006369035304551 -0.00012422028035552932 0 0.02461160189193639 -6.8657089164720776e-05 0 0.023978220611660599 -0.00055850538367684653 0 0.024086630679393251 -0.00077000027042189014 0 0.024484248212500861 -0.00043068111676084685 0 0.02461160189193639 -6.8657089164720776e-05 0 0.023978220611660599 -0.00055850538367684653 0 0.024484248212500861 -0.00043068111676084685 0 0.024006369035304551 -0.00012422028035552932 0 0.023978220611660599 -0.00055850538367684653 0 0.023570100791426438 -0.00064381015882930385 0 0.024703426521996748 0.00041345055894103548 0 0.024333710774308653 0.00010476582354104901 0 0.024006369035304551 -0.00012422028035552932 0 0.02461160189193639 -6.8657089164720776e-05 0 0.023978220611660599 -0.00055850538367684653 0 0.023978220611660599 -0.00055850538367684653 0 0.023742848475347952 -0.00086145307931508649 0 0.024086630679393251 -0.00077000027042189014 0 0.023978220611660599 -0.00055850538367684653 0 0.023742848475347952 -0.00086145307931508649 0 0.023570100791426438 -0.00064381015882930385 0 0.023742848475347952 -0.00086145307931508649 0 0.024086630679393251 -0.00077000027042189014 0 0.023867160872436687 -0.00095187800963011677 0 0.02570503077687554 0.00076445899285931243 0 0.025261029637007951 0.00089845313390206274 0 0.025523846999187881 0.0013001508131340882 0 0.02570503077687554 0.00076445899285931243 0 0.026000619067282238 0.0012519195831056488 0 0.025523846999187881 0.0013001508131340882 0 0.023742848475347952 -0.00086145307931508649 0 0.023570100791426438 -0.00064381015882930385 0 0.023575391149327881 -0.00093870168171238534 0 0.024333710774308653 0.00010476582354104901 0 0.025892323533341359 0.0012537347756180494 0 0.023570100791426438 -0.00064381015882930385 0 0.023397790138070546 -0.00095438280753781931 0 0.023575391149327881 -0.00093870168171238534 0 0.027687524360319508 0.0021943361597114167 0 0.027763129765725071 0.0025230210149107262 0 0.027384096110020233 0.0027978416384773133 0 0.026881981516421721 0.0018968022977125265 0 0.025892323533341359 0.0012537347756180494 0 0.026000619067282238 0.0012519195831056488 0 0.025523846999187881 0.0013001508131340882 0 0.025795119539950031 0.0016814194027776259 0 0.027763129765725071 0.0025230210149107262 0 0.02795432354719005 0.0025934680875452647 0 0.028033344216366215 0.0022934809436272532 0 0.027763129765725071 0.0025230210149107262 0 0.02795432354719005 0.0025934680875452647 0 0.027777674931610295 0.0027249509154387802 0 0.02795432354719005 0.0025934680875452647 0 0.028258783363990032 0.0025286803897807738 0 0.028295351433845518 0.0028972553320727626 0 0.02795432354719005 0.0025934680875452647 0 0.028033344216366215 0.0022934809436272532 0 0.028258783363990032 0.0025286803897807738 0 0.028033344216366215 0.0022934809436272532 0 0.02839515995098741 0.0023117480780249682 0 0.028258783363990032 0.0025286803897807738 0 0.027687524360319508 0.0021943361597114167 0 0.027763129765725071 0.0025230210149107262 0 0.028033344216366215 0.0022934809436272532 0 0.027687524360319508 0.0021943361597114167 0 0.0279262245400211 0.0019544500693006676 0 0.028092127856871624 0.0013666625160348549 0 0.0279262245400211 0.0019544500693006676 0 0.028278217783025184 0.0020582553790563941 0 0.028459599358812725 0.0017222253839197987 0 0.027983784976423346 0.0019454949819691662 0 0.028654638374242987 0.0016720171784214734 0 0.026881981516421721 0.0018968022977125265 0 0.027221946294130266 0.0010301993012215159 0 0.027687524360319508 0.0021943361597114167 0 0.028033344216366215 0.0022934809436272532 0 0.0279262245400211 0.0019544500693006676 0 0.028033344216366215 0.0022934809436272532 0 0.028278217783025184 0.0020582553790563941 0 0.02839515995098741 0.0023117480780249682 0 0.028033344216366215 0.0022934809436272532 0 0.0279262245400211 0.0019544500693006676 0 0.028278217783025184 0.0020582553790563941 0 0.028642209956608284 0.0020031347737450309 0 0.028278217783025184 0.0020582553790563941 0 0.028459599358812725 0.0017222253839197987 0 0.028642209956608284 0.0020031347737450309 0 0.028278217783025184 0.0020582553790563941 0 0.02839515995098741 0.0023117480780249682 0 0.028642209956608284 0.0020031347737450309 0 0.02839515995098741 0.0023117480780249682 0 0.028716640124211219 0.0023036634681147259 0 0.02839515995098741 0.0023117480780249682 0 0.028611026012411226 0.0025575679542856234 0 0.028716640124211219 0.0023036634681147259 0 0.028258783363990032 0.0025286803897807738 0 0.028611026012411226 0.0025575679542856234 0 0.028295351433845518 0.0028972553320727626 0 0.02839515995098741 0.0023117480780249682 0 0.028258783363990032 0.0025286803897807738 0 0.028611026012411226 0.0025575679542856234 0 0.028611026012411226 0.0025575679542856234 0 0.028962941669176942 0.0024464752691895505 0 0.0291233572083964 0.0027331477384556014 0 0.028611026012411226 0.0025575679542856234 0 0.028962941669176942 0.0024464752691895505 0 0.028716640124211219 0.0023036634681147259 0 0.028962941669176942 0.0024464752691895505 0 0.028716640124211219 0.0023036634681147259 0 0.029034081371257476 0.0021160937017784898 0 0.029811908784923239 0.0026025658295393936 0 0.029075997021013333 0.0027236843603206076 0 0.029849787481359909 0.0025979524772232758 0 0.029391937692655162 0.0023507126577010855 0 0.0291233572083964 0.0027331477384556014 0 0.028962941669176942 0.0024464752691895505 0 0.029391937692655162 0.0023507126577010855 0 0.029034081371257476 0.0021160937017784898 0 0.028962941669176942 0.0024464752691895505 0 0.029391937692655162 0.0023507126577010855 0 0.0291233572083964 0.0027331477384556014 0 0.029391937692655162 0.0023507126577010855 0 0.029523706853363328 0.0019428792374302035 0 0.029034081371257476 0.0021160937017784898 0 0.029523706853363328 0.0019428792374302035 0 0.029034081371257476 0.0021160937017784898 0 0.029004539008311833 0.0014637565597095011 0 0.028642209956608284 0.0020031347737450309 0 0.029034081371257476 0.0021160937017784898 0 0.029004539008311833 0.0014637565597095011 0 0.028642209956608284 0.0020031347737450309 0 0.028716640124211219 0.0023036634681147259 0 0.029034081371257476 0.0021160937017784898 0 0.029288961033530386 0.0013678190909898827 0 0.028654638374242987 0.0016720171784214734 0 0.029790216926650331 0.0012253576992200105 0 0.029207216249411978 0.00084598319401834492 0 0.028821669151633506 0.0016454769084103373 0 0.028642209956608284 0.0020031347737450309 0 0.029004539008311833 0.0014637565597095011 0 0.028459599358812725 0.0017222253839197987 0 0.029523706853363328 0.0019428792374302035 0 0.029004539008311833 0.0014637565597095011 0 0.02956492242317469 0.0011929012179119878 0 0.029238704852818275 0.0019712926032226089 0 0.030806213239966827 0.0010602314261954167 0 0.029915998294894004 -0.0001216394210508608 0 0.030093480721872588 0.00062669489230117957 0 0.030764881189924664 0.00052523631106806085 0 0.029288961033530386 0.0013678190909898827 0 0.030806213239966827 0.0010602314261954167 0 0.029790216926650331 0.0012253576992200105 0 0.030755445210806191 0.00077397562386240107 0 0.030093480721872588 0.00062669489230117957 0 0.030755445210806191 0.00077397562386240107 0 0.030093480721872588 0.00062669489230117957 0 0.030764881189924664 0.00052523631106806085 0 0.030806213239966827 0.0010602314261954167 0 0.032687123920251429 0.0002969359840369966 0 0.029790216926650331 0.0012253576992200105 0 0.030093480721872588 0.00062669489230117957 0 0.029207216249411978 0.00084598319401834492 0 0.029915998294894004 -0.0001216394210508608 0 0.030093480721872588 0.00062669489230117957 0 0.029207216249411978 0.00084598319401834492 0 0.028576614978329612 0.00031056537640519315 0 0.029207216249411978 0.00084598319401834492 0 0.028092127856871624 0.0013666625160348549 0 0.029915998294894004 -0.0001216394210508608 0 0.028576614978329612 0.00031056537640519315 0 0.029207216249411978 0.00084598319401834492 0 0.026586541351309841 0.00035939455142500149 0 0.0259759400135454 0.00054050539951471996 0 0.026231695439807776 0.00084081937760493736 0 0.027188497484924933 0.00043705043676697629 0 0.027221946294130266 0.0010301993012215159 0 0.0279262245400211 0.0019544500693006676 0 0.028092127856871624 0.0013666625160348549 0 0.028821669151633506 0.0016454769084103373 0 0.029207216249411978 0.00084598319401834492 0 0.028092127856871624 0.0013666625160348549 0 0.028821669151633506 0.0016454769084103373 0 0.030646410087525514 1.6670629872047024e-06 0 0.033124564522474136 -1.0975820019551369e-06 0 0.033975216884639135 -0.00011255277604778586 0 0.030641835475882419 4.1225134144278223e-07 0 0.030722545639533173 0.00072039044109241238 0 0.030646410087525514 1.6670629872047024e-06 0 0.032605703277430717 0.0004075968169215014 0 0.033124564522474136 -1.0975820019551369e-06 0 0.027772531873342474 0.0010215232737963971 0 0.028646614568843466 0.0013309144856963673 0 0.027554596164409039 0.0018413497945955837 0 0.027772531873342474 0.0010215232737963971 0 0.028646614568843466 0.0013309144856963673 0 0.027934411267027975 0.00042087719692260924 0 0.032605703277430717 0.0004075968169215014 0 0.033282774607107116 0.00011760792888423567 0 0.033775583527618891 0.00031408703375987126 0 0.030722545639533173 0.00072039044109241238 0 0.030088090060109519 0.00083701617997813276 0 0.033282774607107116 0.00011760792888423567 0 0.033124564522474136 -1.0975820019551369e-06 0 0.03370096228106343 -2.495432817156679e-05 0 0.032605703277430717 0.0004075968169215014 0 0.033282774607107116 0.00011760792888423567 0 0.033124564522474136 -1.0975820019551369e-06 0 0.033124564522474136 -1.0975820019551369e-06 0 0.03370096228106343 -2.495432817156679e-05 0 0.033970028719692097 -0.00013610165850989284 0 0.032070881186296148 0.0006380547160877132 0 0.030088090060109519 0.00083701617997813276 0 0.033282774607107116 0.00011760792888423567 0 0.03370096228106343 -2.495432817156679e-05 0 0.033775583527618891 0.00031408703375987126 0 0.030646410087525514 1.6670629872047024e-06 0 0.033975216884639135 -0.00011255277604778586 0 0.034998495808201635 -9.3504711338706744e-07 0 0.033975216884639135 -0.00011255277604778586 0 0.034998495808201635 -9.3504711338706744e-07 0 0.034998146829514472 2.3535726685990485e-07 0 0.034998146829514472 2.3535726685990485e-07 0 0.033970028719692097 -0.00013610165850989284 0 0.034041282078150457 -0.00014863707968533921 0 0.033975216884639135 -0.00011255277604778586 0 0.034998146829514472 2.3535726685990485e-07 0 0.033970028719692097 -0.00013610165850989284 0 0.03370096228106343 -2.495432817156679e-05 0 0.033970028719692097 -0.00013610165850989284 0 0.034041282078150457 -0.00014863707968533921 0 0.033124564522474136 -1.0975820019551369e-06 0 0.033975216884639135 -0.00011255277604778586 0 0.033970028719692097 -0.00013610165850989284 0 0.034844534591030325 2.6829648560486281e-06 0 0.030347113355523783 0.00048490082077377682 0 0.034960266459844673 1.390652483061604e-05 0 0.0349616149410472 1.6067087207078697e-05 0 0.034918944227768409 3.4521135554707105e-05 0 0.034999967356908558 1.1853895535502547e-09 0 0.034960266459844673 1.390652483061604e-05 0 0.034999931583375186 1.4597911263034775e-08 0 0.034808345241631483 -9.3579959365640931e-05 0 0.034844534591030325 2.6829648560486281e-06 0 0.034999931583375186 1.4597911263034775e-08 0 0.0349616149410472 1.6067087207078697e-05 0 0.034976293996008226 1.1685504440917979e-05 0 0.034960266459844673 1.390652483061604e-05 0 0.034999931583375186 1.4597911263034775e-08 0 0.0349616149410472 1.6067087207078697e-05 0 0.0349616149410472 1.6067087207078697e-05 0 0.034918944227768409 3.4521135554707105e-05 0 0.034948743263395497 2.7686259489326398e-05 0 0.030347113355523783 0.00048490082077377682 0 0.030589819463431353 0.00036584136877532169 0 0.026297632447123336 0.00070022724823020721 0 0.026055181599008159 0.00062027683428194421 0 0.02612546551481424 0.00075945392318257498 0 0.03370096228106343 -2.495432817156679e-05 0 0.034041282078150457 -0.00014863707968533921 0 0.033918115668873615 2.4281031719915675e-05 0 0.03370096228106343 -2.495432817156679e-05 0 0.033918115668873615 2.4281031719915675e-05 0 0.033729050922858717 0.0001082015779720505 0 0.030347113355523783 0.00048490082077377682 0 0.030088090060109519 0.00083701617997813276 0 0.026038602382787587 0.00090283512678401032 0 0.026376443694134957 0.0011153950715368074 0 0.026063987613651408 0.00045040191934795905 0 0.027772531873342474 0.0010215232737963971 0 0.027554596164409039 0.0018413497945955837 0 0.027027936238309486 0.00055280145703923199 0 0.026038602382787587 0.00090283512678401032 0 0.025738996621484721 0.00067121344570696508 0 0.026063987613651408 0.00045040191934795905 0 0.026008291154708943 0.0012933168469153747 0 0.026038602382787587 0.00090283512678401032 0 0.026376443694134957 0.0011153950715368074 0 0.030088090060109519 0.00083701617997813276 0 0.026200050678884201 0.00053210216537434639 0 0.026008291154708943 0.0012933168469153747 0 0.026038602382787587 0.00090283512678401032 0 0.025738996621484721 0.00067121344570696508 0 0.026297632447123336 0.00070022724823020721 0 0.02618899326836633 0.00048011646525076413 0 0.026055181599008159 0.00062027683428194421 0 0.02618899326836633 0.00048011646525076413 0 0.026055181599008159 0.00062027683428194421 0 0.025930846139659281 0.00038000584708662111 0 0.030347113355523783 0.00048490082077377682 0 0.025582065858667243 0.00050687104462191239 0 0.026055181599008159 0.00062027683428194421 0 0.0258261409458878 0.00043132010587403779 0 0.025930846139659281 0.00038000584708662111 0 0.026055181599008159 0.00062027683428194421 0 0.026065078515195118 0.00071499823250881092 0 0.0258261409458878 0.00043132010587403779 0 0.026065078515195118 0.00071499823250881092 0 0.025667854923518543 0.00040830231903347719 0 0.0258261409458878 0.00043132010587403779 0 0.026065078515195118 0.00071499823250881092 0 0.026238115419539718 0.00079570080843163543 0 0.02612546551481424 0.00075945392318257498 0 0.026065078515195118 0.00071499823250881092 0 0.026238115419539718 0.00079570080843163543 0 0.026555465524051587 0.00079126580524949044 0 0.026055181599008159 0.00062027683428194421 0 0.026065078515195118 0.00071499823250881092 0 0.02612546551481424 0.00075945392318257498 0 0.034999931583375186 1.4597911263034775e-08 0 0.034976293996008226 1.1685504440917979e-05 0 0.034999946103260848 1.3464405027646475e-08 0 0.034948743263395497 2.7686259489326398e-05 0 0.034976293996008226 1.1685504440917979e-05 0 0.034968512972746287 1.7999877462285406e-05 0 0.0349616149410472 1.6067087207078697e-05 0 0.034948743263395497 2.7686259489326398e-05 0 0.034976293996008226 1.1685504440917979e-05 0 0.030589819463431353 0.00036584136877532169 0 0.030573308198134527 0.000410052415488184 0 0.034976293996008226 1.1685504440917979e-05 0 0.034968512972746287 1.7999877462285406e-05 0 0.034999946103260848 1.3464405027646475e-08 0 0.026238115419539718 0.00079570080843163543 0 0.02612546551481424 0.00075945392318257498 0 0.026125264247515902 0.00075118820216354347 0 0.026238115419539718 0.00079570080843163543 0 0.026125264247515902 0.00075118820216354347 0 0.026790348418919974 0.00089837340631605236 0 0.026125264247515902 0.00075118820216354347 0 0.026790348418919974 0.00089837340631605236 0 0.027957501988958161 0.00088481285097699862 0 0.026238115419539718 0.00079570080843163543 0 0.026790348418919974 0.00089837340631605236 0 0.026555465524051587 0.00079126580524949044 0 0.026790348418919974 0.00089837340631605236 0 0.027061823088382998 0.00084945531888749989 0 0.026555465524051587 0.00079126580524949044 0 0.027061823088382998 0.00084945531888749989 0 0.026638235006223816 0.00074550911208095345 0 0.026555465524051587 0.00079126580524949044 0 0.027061823088382998 0.00084945531888749989 0 0.027957501988958161 0.00088481285097699862 0 0.026638235006223816 0.00074550911208095345 0 0.026790348418919974 0.00089837340631605236 0 0.027061823088382998 0.00084945531888749989 0 0.027957501988958161 0.00088481285097699862 0 0.030573308198134527 0.000410052415488184 0 0.031824605191223501 0.00029041985479683643 0 0.034968512972746287 1.7999877462285406e-05 0 0.034999946103260848 1.3464405027646475e-08 0 0.034989591422482445 6.7192027432299791e-06 0 0.026125264247515902 0.00075118820216354347 0 0.028711550958373164 0.0003641405327568568 0 0.027957501988958161 0.00088481285097699862 0 0.035000001638558938 -2.3207039301247355e-09 0 0.034999946103260848 1.3464405027646475e-08 0 0.034989591422482445 6.7192027432299791e-06 0 0.034993813477381792 -3.9187088166611152e-06 0 0.034202953597856023 0.0019248051874959807 0 0.028711550958373164 0.0003641405327568568 0 0.034998743376761426 2.0801082103091115e-09 0 0.031824605191223501 0.00029041985479683643 0 0.025754237552389939 0.00095290127136343403 0 0.027957501988958161 0.00088481285097699862 0 0.026638235006223816 0.00074550911208095345 0 0.034202953597856023 0.0019248051874959807 0 0.028711550958373164 0.0003641405327568568 0 0.027957501988958161 0.00088481285097699862 0 0.029812286792688162 0.0013123480983231127 0 0.028030596088607886 0.00091144936663025669 0 0.025623456154886044 0.00045981714469706515 0 0.026638235006223816 0.00074550911208095345 0 0.026025288278300075 0.00057938165994773927 0 0.025754237552389939 0.00095290127136343403 0 0.025623456154886044 0.00045981714469706515 0 0.026638235006223816 0.00074550911208095345 0 0.026065078515195118 0.00071499823250881092 0 0.026555465524051587 0.00079126580524949044 0 0.026025288278300075 0.00057938165994773927 0 0.026638235006223816 0.00074550911208095345 0 0.026555465524051587 0.00079126580524949044 0 0.026025288278300075 0.00057938165994773927 0 0.026065078515195118 0.00071499823250881092 0 0.026025288278300075 0.00057938165994773927 0 0.025667854923518543 0.00040830231903347719 0 0.026025288278300075 0.00057938165994773927 0 0.025405764539087973 0.00033560781867053547 0 0.025667854923518543 0.00040830231903347719 0 0.025623456154886044 0.00045981714469706515 0 0.026025288278300075 0.00057938165994773927 0 0.025405764539087973 0.00033560781867053547 0 0.025022035075239722 0.00037368206361115206 0 0.025405764539087973 0.00033560781867053547 0 0.024961511513886335 -2.7298388081523279e-05 0 0.025405764539087973 0.00033560781867053547 0 0.025667854923518543 0.00040830231903347719 0 0.025314088055913314 7.8205251048753211e-05 0 0.025405764539087973 0.00033560781867053547 0 0.025314088055913314 7.8205251048753211e-05 0 0.024961511513886335 -2.7298388081523279e-05 0 0.025314088055913314 7.8205251048753211e-05 0 0.024961511513886335 -2.7298388081523279e-05 0 0.025011262454248531 -0.00022914142910044363 0 0.02461160189193639 -6.8657089164720776e-05 0 0.024961511513886335 -2.7298388081523279e-05 0 0.024484248212500861 -0.00043068111676084685 0 0.024961511513886335 -2.7298388081523279e-05 0 0.024484248212500861 -0.00043068111676084685 0 0.024660841967822617 -0.0004657918559121979 0 0.024086630679393251 -0.00077000027042189014 0 0.024484248212500861 -0.00043068111676084685 0 0.024337432363350588 -0.00080287784373870208 0 0.024484248212500861 -0.00043068111676084685 0 0.024337432363350588 -0.00080287784373870208 0 0.024660841967822617 -0.0004657918559121979 0 0.024086630679393251 -0.00077000027042189014 0 0.024337432363350588 -0.00080287784373870208 0 0.024013006575213647 -0.0010503585202548853 0 0.024337432363350588 -0.00080287784373870208 0 0.024660841967822617 -0.0004657918559121979 0 0.024555743425725814 -0.00078559672803461356 0 0.024337432363350588 -0.00080287784373870208 0 0.024555743425725814 -0.00078559672803461356 0 0.024221305593839206 -0.0010304946779276559 0 0.024660841967822617 -0.0004657918559121979 0 0.024924350186598696 -0.00046170988490513732 0 0.024555743425725814 -0.00078559672803461356 0 0.024961511513886335 -2.7298388081523279e-05 0 0.024660841967822617 -0.0004657918559121979 0 0.025011262454248531 -0.00022914142910044363 0 0.024660841967822617 -0.0004657918559121979 0 0.025011262454248531 -0.00022914142910044363 0 0.024924350186598696 -0.00046170988490513732 0 0.025011262454248531 -0.00022914142910044363 0 0.024924350186598696 -0.00046170988490513732 0 0.025412787732167048 -5.6673342570469636e-05 0 0.024924350186598696 -0.00046170988490513732 0 0.024555743425725814 -0.00078559672803461356 0 0.02470500471947672 -0.00082463096734925888 0 0.024924350186598696 -0.00046170988490513732 0 0.025054987371814313 -0.0006216063035564749 0 0.025317124140573528 -0.00036050353546779101 0 0.024924350186598696 -0.00046170988490513732 0 0.02470500471947672 -0.00082463096734925888 0 0.025054987371814313 -0.0006216063035564749 0 0.025054987371814313 -0.0006216063035564749 0 0.025317124140573528 -0.00036050353546779101 0 0.025435865639897887 -0.00054028162783845471 0 0.025378267685163991 -0.00032886742697798747 0 0.025727021798475112 0.00013011046591693718 0 0.024924350186598696 -0.00046170988490513732 0 0.025317124140573528 -0.00036050353546779101 0 0.025412787732167048 -5.6673342570469636e-05 0 0.025412787732167048 -5.6673342570469636e-05 0 0.025704797289054289 0.00021441243091303191 0 0.025915910195968415 8.2009208583639707e-05 0 0.025317124140573528 -0.00036050353546779101 0 0.025412787732167048 -5.6673342570469636e-05 0 0.025915910195968415 8.2009208583639707e-05 0 0.025314088055913314 7.8205251048753211e-05 0 0.025011262454248531 -0.00022914142910044363 0 0.025412787732167048 -5.6673342570469636e-05 0 0.025314088055913314 7.8205251048753211e-05 0 0.025412787732167048 -5.6673342570469636e-05 0 0.025582506300316419 0.00023453105510232045 0 0.025412787732167048 -5.6673342570469636e-05 0 0.025582506300316419 0.00023453105510232045 0 0.025704797289054289 0.00021441243091303191 0 0.025667854923518543 0.00040830231903347719 0 0.025314088055913314 7.8205251048753211e-05 0 0.025582506300316419 0.00023453105510232045 0 0.025667854923518543 0.00040830231903347719 0 0.025582506300316419 0.00023453105510232045 0 0.0258261409458878 0.00043132010587403779 0 0.025930846139659281 0.00038000584708662111 0 0.025704797289054289 0.00021441243091303191 0 0.025915910195968415 8.2009208583639707e-05 0 0.0258261409458878 0.00043132010587403779 0 0.025930846139659281 0.00038000584708662111 0 0.025704797289054289 0.00021441243091303191 0 0.025582506300316419 0.00023453105510232045 0 0.0258261409458878 0.00043132010587403779 0 0.025704797289054289 0.00021441243091303191 0 0.025582065858667243 0.00050687104462191239 0 0.025727021798475112 0.00013011046591693718 0 0.025738996621484721 0.00067121344570696508 0 0.026063987613651408 0.00045040191934795905 0 0.025490862643521045 9.548393858883024e-05 0 0.02618899326836633 0.00048011646525076413 0 0.025930846139659281 0.00038000584708662111 0 0.025915910195968415 8.2009208583639707e-05 0 0.027027936238309486 0.00055280145703923199 0 0.027127810107359054 0.000134082134378344 0 0.027934411267027975 0.00042087719692260924 0 0.026200050678884201 0.00053210216537434639 0 0.026065440672063022 -7.9579188726699299e-05 0 0.027027936238309486 0.00055280145703923199 0 0.027127810107359054 0.000134082134378344 0 0.02637878398720683 5.6202317630652132e-06 0 0.027127810107359054 0.000134082134378344 0 0.02637878398720683 5.6202317630652132e-06 0 0.026873587508488173 -0.00014674365913875133 0 0.026063987613651408 0.00045040191934795905 0 0.02574437403880693 -0.00013280656095289339 0 0.025490862643521045 9.548393858883024e-05 0 0.02637878398720683 5.6202317630652132e-06 0 0.025435865639897887 -0.00054028162783845471 0 0.02620522353113898 -0.00032852832256840132 0 0.025317124140573528 -0.00036050353546779101 0 0.02574437403880693 -0.00013280656095289339 0 0.025490862643521045 9.548393858883024e-05 0 0.025317124140573528 -0.00036050353546779101 0 0.02574437403880693 -0.00013280656095289339 0 0.025435865639897887 -0.00054028162783845471 0 0.026065440672063022 -7.9579188726699299e-05 0 0.025517455903936045 -0.00056409136811387084 0 0.025435865639897887 -0.00054028162783845471 0 0.025669564154869495 -0.00072352639808297104 0 0.02620522353113898 -0.00032852832256840132 0 0.025054987371814313 -0.0006216063035564749 0 0.025435865639897887 -0.00054028162783845471 0 0.024816980026008555 -0.0010341927962471452 0 0.025669564154869495 -0.00072352639808297104 0 0.026531011315165332 -0.0004131084800052308 0 0.02620522353113898 -0.00032852832256840132 0 0.025669564154869495 -0.00072352639808297104 0 0.026531011315165332 -0.0004131084800052308 0 0.026147391989396994 -0.00070196123804314137 0 0.026531011315165332 -0.0004131084800052308 0 0.02620522353113898 -0.00032852832256840132 0 0.026873587508488173 -0.00014674365913875133 0 0.02637878398720683 5.6202317630652132e-06 0 0.02620522353113898 -0.00032852832256840132 0 0.026873587508488173 -0.00014674365913875133 0 0.027307590439810007 -0.00021441031399668201 0 0.028012438056034653 -0.0001207531858354722 0 0.027560996710742379 -4.9136895391366464e-05 0 0.026531011315165332 -0.0004131084800052308 0 0.026873587508488173 -0.00014674365913875133 0 0.027307590439810007 -0.00021441031399668201 0 0.026873587508488173 -0.00014674365913875133 0 0.027307590439810007 -0.00021441031399668201 0 0.027560996710742379 -4.9136895391366464e-05 0 0.026531011315165332 -0.0004131084800052308 0 0.027307590439810007 -0.00021441031399668201 0 0.026846134251573006 -0.00036854328854137741 0 0.026531011315165332 -0.0004131084800052308 0 0.026846134251573006 -0.00036854328854137741 0 0.026147391989396994 -0.00070196123804314137 0 0.027307590439810007 -0.00021441031399668201 0 0.026846134251573006 -0.00036854328854137741 0 0.027501537629017327 -5.6383959328638899e-07 0 0.026846134251573006 -0.00036854328854137741 0 0.027501537629017327 -5.6383959328638899e-07 0 0.025935123522515792 -5.8280608726596077e-08 0 0.027307590439810007 -0.00021441031399668201 0 0.027501537629017327 -5.6383959328638899e-07 0 0.028012438056034653 -0.0001207531858354722 0 0.027501537629017327 -5.6383959328638899e-07 0 0.028012438056034653 -0.0001207531858354722 0 0.029072073379625973 -1.0232092876959129e-06 0 0.028012438056034653 -0.0001207531858354722 0 0.027560996710742379 -4.9136895391366464e-05 0 0.028945859621963294 2.0585754061590899e-05 0 0.028012438056034653 -0.0001207531858354722 0 0.029072073379625973 -1.0232092876959129e-06 0 0.028945859621963294 2.0585754061590899e-05 0 0.027127810107359054 0.000134082134378344 0 0.027560996710742379 -4.9136895391366464e-05 0 0.027934411267027975 0.00042087719692260924 0 0.027560996710742379 -4.9136895391366464e-05 0 0.027934411267027975 0.00042087719692260924 0 0.028945859621963294 2.0585754061590899e-05 0 0.027127810107359054 0.000134082134378344 0 0.026873587508488173 -0.00014674365913875133 0 0.027560996710742379 -4.9136895391366464e-05 0 0.028646614568843466 0.0013309144856963673 0 0.027934411267027975 0.00042087719692260924 0 0.028945859621963294 2.0585754061590899e-05 0 0.027772531873342474 0.0010215232737963971 0 0.027027936238309486 0.00055280145703923199 0 0.027934411267027975 0.00042087719692260924 0 0.030638440728270711 3.3433226953486969e-06 0 0.028646614568843466 0.0013309144856963673 0 0.028945859621963294 2.0585754061590899e-05 0 0.030638440728270711 3.3433226953486969e-06 0 0.029072073379625973 -1.0232092876959129e-06 0 0.028945859621963294 2.0585754061590899e-05 0 0.022757989654362456 -6.8678211053395201e-05 0 0.021916989632284032 -1.4699896456057036e-07 0 0.023924886723464048 -3.1969133921894358e-07 0 0.020098935752760817 -0.0035781710341240146 0 0.02117920482682641 -0.0040525379325951497 0 0.020888441632042946 -0.002528299893238222 0 0.024301388651246248 -0.0013607224233311509 0 0.022941358179161122 -0.0034174487282010442 0 0.020098935752760817 -0.0035781710341240146 0 0.020226934558155871 -0.0050664109138030987 0 0.02117920482682641 -0.0040525379325951497 0 0.021142556419251571 -0.0021542306826216281 0 0.024301388651246248 -0.0013607224233311509 0 0.022757989654362456 -6.8678211053395201e-05 0 0.023924886723464048 -3.1969133921894358e-07 0 0.024131103250985601 5.9952604191237031e-05 0 0.023924886723464048 -3.1969133921894358e-07 0 0.024131103250985601 5.9952604191237031e-05 0 0.025930717350855694 6.7214070878939506e-07 0 0.024301388651246248 -0.0013607224233311509 0 0.025933976789830771 2.1175712943382327e-06 0 0.027183337746202508 9.0107536353841071e-05 0 0.024301388651246248 -0.0013607224233311509 0 0.026846134251573006 -0.00036854328854137741 0 0.026784126672314133 0.00092323765849990731 0 0.025935123522515792 -5.8280608726596077e-08 0 0.026846134251573006 -0.00036854328854137741 0 0.026599134624000632 -0.0014034963966725053 0 0.02613185147094392 -0.0010281044574803363 0 0.026846134251573006 -0.00036854328854137741 0 0.02613185147094392 -0.0010281044574803363 0 0.026147391989396994 -0.00070196123804314137 0 0.026599134624000632 -0.0014034963966725053 0 0.025571506248998059 -0.001441472806608457 0 0.02521306044211695 -0.0021510308938315764 0 0.026599134624000632 -0.0014034963966725053 0 0.02613185147094392 -0.0010281044574803363 0 0.025571506248998059 -0.001441472806608457 0 0.025571506248998059 -0.001441472806608457 0 0.024639354713964102 -0.0015049568724315419 0 0.02521306044211695 -0.0021510308938315764 0 0.025571506248998059 -0.001441472806608457 0 0.025383996042709155 -0.001128055622893685 0 0.024639354713964102 -0.0015049568724315419 0 0.02613185147094392 -0.0010281044574803363 0 0.025571506248998059 -0.001441472806608457 0 0.025383996042709155 -0.001128055622893685 0 0.02613185147094392 -0.0010281044574803363 0 0.025383996042709155 -0.001128055622893685 0 0.026147391989396994 -0.00070196123804314137 0 0.025669564154869495 -0.00072352639808297104 0 0.025383996042709155 -0.001128055622893685 0 0.026147391989396994 -0.00070196123804314137 0 0.025435865639897887 -0.00054028162783845471 0 0.025669564154869495 -0.00072352639808297104 0 0.024816980026008555 -0.0010341927962471452 0 0.025669564154869495 -0.00072352639808297104 0 0.025383996042709155 -0.001128055622893685 0 0.024816980026008555 -0.0010341927962471452 0 0.024816980026008555 -0.0010341927962471452 0 0.024639354713964102 -0.0015049568724315419 0 0.024096431502905316 -0.0015845173314166464 0 0.025383996042709155 -0.001128055622893685 0 0.024816980026008555 -0.0010341927962471452 0 0.024639354713964102 -0.0015049568724315419 0 0.024639354713964102 -0.0015049568724315419 0 0.023820583951896637 -0.0020121313674141832 0 0.024096431502905316 -0.0015845173314166464 0 0.024639354713964102 -0.0015049568724315419 0 0.023820583951896637 -0.0020121313674141832 0 0.02521306044211695 -0.0021510308938315764 0 0.023820583951896637 -0.0020121313674141832 0 0.02521306044211695 -0.0021510308938315764 0 0.022723713887840828 -0.0025822108564689944 0 0.022941358179161122 -0.0034174487282010442 0 0.022998981319746044 -0.0024437770733648678 0 0.02117920482682641 -0.0040525379325951497 0 0.022723713887840828 -0.0025822108564689944 0 0.020888441632042946 -0.002528299893238222 0 0.023820583951896637 -0.0020121313674141832 0 0.022723713887840828 -0.0025822108564689944 0 0.023329700947318979 -0.0020481333413551314 0 0.022723713887840828 -0.0025822108564689944 0 0.023329700947318979 -0.0020481333413551314 0 0.022888254937782803 -0.001977332452542546 0 0.023329700947318979 -0.0020481333413551314 0 0.023674261845895227 -0.0017258637636997645 0 0.023210674691389894 -0.0018225402080620338 0 0.023329700947318979 -0.0020481333413551314 0 0.023210674691389894 -0.0018225402080620338 0 0.022888254937782803 -0.001977332452542546 0 0.023674261845895227 -0.0017258637636997645 0 0.023648197212560337 -0.0015954415573854542 0 0.023210674691389894 -0.0018225402080620338 0 0.023329700947318979 -0.0020481333413551314 0 0.023674261845895227 -0.0017258637636997645 0 0.024096431502905316 -0.0015845173314166464 0 0.023820583951896637 -0.0020121313674141832 0 0.023329700947318979 -0.0020481333413551314 0 0.024096431502905316 -0.0015845173314166464 0 0.023674261845895227 -0.0017258637636997645 0 0.024096431502905316 -0.0015845173314166464 0 0.02416032147325969 -0.0012656467604454449 0 0.024816980026008555 -0.0010341927962471452 0 0.024096431502905316 -0.0015845173314166464 0 0.02416032147325969 -0.0012656467604454449 0 0.02470500471947672 -0.00082463096734925888 0 0.024816980026008555 -0.0010341927962471452 0 0.02416032147325969 -0.0012656467604454449 0 0.02470500471947672 -0.00082463096734925888 0 0.025054987371814313 -0.0006216063035564749 0 0.024816980026008555 -0.0010341927962471452 0 0.024555743425725814 -0.00078559672803461356 0 0.02470500471947672 -0.00082463096734925888 0 0.02416032147325969 -0.0012656467604454449 0 0.024555743425725814 -0.00078559672803461356 0 0.02416032147325969 -0.0012656467604454449 0 0.024221305593839206 -0.0010304946779276559 0 0.023674261845895227 -0.0017258637636997645 0 0.02416032147325969 -0.0012656467604454449 0 0.023648197212560337 -0.0015954415573854542 0 0.02416032147325969 -0.0012656467604454449 0 0.023793701943695986 -0.0013492334479125645 0 0.023648197212560337 -0.0015954415573854542 0 0.02416032147325969 -0.0012656467604454449 0 0.023793701943695986 -0.0013492334479125645 0 0.024221305593839206 -0.0010304946779276559 0 0.024337432363350588 -0.00080287784373870208 0 0.024221305593839206 -0.0010304946779276559 0 0.024013006575213647 -0.0010503585202548853 0 0.023793701943695986 -0.0013492334479125645 0 0.024221305593839206 -0.0010304946779276559 0 0.024013006575213647 -0.0010503585202548853 0 0.024013006575213647 -0.0010503585202548853 0 0.023752175055012079 -0.0012405257826820712 0 0.023859157413585869 -0.0010595103630671686 0 0.023793701943695986 -0.0013492334479125645 0 0.023752175055012079 -0.0012405257826820712 0 0.02350226285043883 -0.001414972320118483 0 0.023793701943695986 -0.0013492334479125645 0 0.024013006575213647 -0.0010503585202548853 0 0.023752175055012079 -0.0012405257826820712 0 0.023793701943695986 -0.0013492334479125645 0 0.02342885073740605 -0.0016070530114523265 0 0.02350226285043883 -0.001414972320118483 0 0.02342885073740605 -0.0016070530114523265 0 0.02350226285043883 -0.001414972320118483 0 0.023296905386893451 -0.0015604338563998952 0 0.02342885073740605 -0.0016070530114523265 0 0.023648197212560337 -0.0015954415573854542 0 0.023210674691389894 -0.0018225402080620338 0 0.023793701943695986 -0.0013492334479125645 0 0.02342885073740605 -0.0016070530114523265 0 0.023648197212560337 -0.0015954415573854542 0 0.02342885073740605 -0.0016070530114523265 0 0.023210674691389894 -0.0018225402080620338 0 0.023113483835765732 -0.0016360406108626088 0 0.02342885073740605 -0.0016070530114523265 0 0.023113483835765732 -0.0016360406108626088 0 0.023296905386893451 -0.0015604338563998952 0 0.023113483835765732 -0.0016360406108626088 0 0.022934304269662156 -0.0017123405127023271 0 0.022808549913458993 -0.0014330913085800717 0 0.023210674691389894 -0.0018225402080620338 0 0.023113483835765732 -0.0016360406108626088 0 0.022934304269662156 -0.0017123405127023271 0 0.022934304269662156 -0.0017123405127023271 0 0.022808549913458993 -0.0014330913085800717 0 0.022562712224572727 -0.0016673121891190841 0 0.023113483835765732 -0.0016360406108626088 0 0.022808549913458993 -0.0014330913085800717 0 0.023044301508442323 -0.0014337697191134844 0 0.022808549913458993 -0.0014330913085800717 0 0.022612735106887306 -0.00097513122353855232 0 0.022907928740227592 -0.0011405386697167185 0 0.022612735106887306 -0.00097513122353855232 0 0.022246761492200881 -0.0012412020391072529 0 0.022073000879763854 -0.00075864177474895499 0 0.022808549913458993 -0.0014330913085800717 0 0.022612735106887306 -0.00097513122353855232 0 0.022246761492200881 -0.0012412020391072529 0 0.022808549913458993 -0.0014330913085800717 0 0.022246761492200881 -0.0012412020391072529 0 0.022562712224572727 -0.0016673121891190841 0 0.022246761492200881 -0.0012412020391072529 0 0.021784425092282591 -0.0014453632132291341 0 0.022562712224572727 -0.0016673121891190841 0 0.022246761492200881 -0.0012412020391072529 0 0.021162109289139381 -0.00088827323402137213 0 0.022073000879763854 -0.00075864177474895499 0 0.022246761492200881 -0.0012412020391072529 0 0.021784425092282591 -0.0014453632132291341 0 0.021162109289139381 -0.00088827323402137213 0 0.021784425092282591 -0.0014453632132291341 0 0.020880300174386583 -0.0012718984690939109 0 0.021162109289139381 -0.00088827323402137213 0 0.021784425092282591 -0.0014453632132291341 0 0.022310051537490147 -0.0019143814583891909 0 0.022562712224572727 -0.0016673121891190841 0 0.022310051537490147 -0.0019143814583891909 0 0.022562712224572727 -0.0016673121891190841 0 0.022888254937782803 -0.001977332452542546 0 0.023210674691389894 -0.0018225402080620338 0 0.022934304269662156 -0.0017123405127023271 0 0.022888254937782803 -0.001977332452542546 0 0.022934304269662156 -0.0017123405127023271 0 0.022562712224572727 -0.0016673121891190841 0 0.022888254937782803 -0.001977332452542546 0 0.022723713887840828 -0.0025822108564689944 0 0.022310051537490147 -0.0019143814583891909 0 0.022888254937782803 -0.001977332452542546 0 0.022723713887840828 -0.0025822108564689944 0 0.022310051537490147 -0.0019143814583891909 0 0.021159337119635361 -0.001708194311626133 0 0.022723713887840828 -0.0025822108564689944 0 0.021159337119635361 -0.001708194311626133 0 0.020888441632042946 -0.002528299893238222 0 0.021159337119635361 -0.001708194311626133 0 0.020308888734877708 -0.0014202520421546217 0 0.020239627536466978 -0.0017972424419711401 0 0.021159337119635361 -0.001708194311626133 0 0.020239627536466978 -0.0017972424419711401 0 0.020888441632042946 -0.002528299893238222 0 0.021784425092282591 -0.0014453632132291341 0 0.022310051537490147 -0.0019143814583891909 0 0.021159337119635361 -0.001708194311626133 0 0.021784425092282591 -0.0014453632132291341 0 0.021159337119635361 -0.001708194311626133 0 0.020880300174386583 -0.0012718984690939109 0 0.020880300174386583 -0.0012718984690939109 0 0.020299808145341634 -0.00088478326872260178 0 0.021162109289139381 -0.00088827323402137213 0 0.020299808145341634 -0.00088478326872260178 0 0.019914687636188654 -0.00096301245846623033 0 0.019208541999896907 -0.00045743945364573396 0 0.020880300174386583 -0.0012718984690939109 0 0.020299808145341634 -0.00088478326872260178 0 0.019914687636188654 -0.00096301245846623033 0 0.020880300174386583 -0.0012718984690939109 0 0.019914687636188654 -0.00096301245846623033 0 0.020308888734877708 -0.0014202520421546217 0 0.021159337119635361 -0.001708194311626133 0 0.020880300174386583 -0.0012718984690939109 0 0.020308888734877708 -0.0014202520421546217 0 0.019914687636188654 -0.00096301245846623033 0 0.020308888734877708 -0.0014202520421546217 0 0.019328942320550452 -0.0014279119042726865 0 0.020308888734877708 -0.0014202520421546217 0 0.019328942320550452 -0.0014279119042726865 0 0.020239627536466978 -0.0017972424419711401 0 0.019328942320550452 -0.0014279119042726865 0 0.01792967324980483 -0.00026406938710000171 0 0.019208541999896907 -0.00045743945364573396 0 0.019914687636188654 -0.00096301245846623033 0 0.019328942320550452 -0.0014279119042726865 0 0.019208541999896907 -0.00045743945364573396 0 0.017901591515777977 -1.4611810988524458e-06 0 0.019034131345762938 -4.6418729196100815e-05 0 0.01792967324980483 -0.00026406938710000171 0 0.019153669162836166 -0.00076047448252260469 0 0.018141365763294646 -0.00025607060696015527 0 0.017901591515777977 -1.4611810988524458e-06 0 0.019034131345762938 -4.6418729196100815e-05 0 0.01990934095019033 2.9171106111342517e-07 0 0.019034131345762938 -4.6418729196100815e-05 0 0.01990934095019033 2.9171106111342517e-07 0 0.020911457669905667 -9.45354108511464e-06 0 0.019153669162836166 -0.00076047448252260469 0 0.020456790980382666 -0.0011034264725641382 0 0.019328942320550452 -0.0014279119042726865 0 0.020239627536466978 -0.0017972424419711401 0 0.01996489727132043 -0.0021334124836696121 0 0.020239627536466978 -0.0017972424419711401 0 0.020888441632042946 -0.002528299893238222 0 0.01996489727132043 -0.0021334124836696121 0 0.020098935752760817 -0.0035781710341240146 0 0.020888441632042946 -0.002528299893238222 0 0.01996489727132043 -0.0021334124836696121 0 0.021916989632284032 -1.4699896456057036e-07 0 0.01990934095019033 2.9171106111342517e-07 0 0.020911457669905667 -9.45354108511464e-06 0 0.021142556419251571 -0.0021542306826216281 0 0.020456790980382666 -0.0011034264725641382 0 0.022757989654362456 -6.8678211053395201e-05 0 0.021916989632284032 -1.4699896456057036e-07 0 0.020911457669905667 -9.45354108511464e-06 0 0.024451560843803136 0.0029963826592404766 0 0.024540437914047062 0.0030695371631784645 0 0.024378064000918805 0.003081982211474103 0 0.024451560843803136 0.0029963826592404766 0 0.024540437914047062 0.0030695371631784645 0 0.024585170380748013 0.0029834972023779116 0 0.024540437914047062 0.0030695371631784645 0 0.024585170380748013 0.0029834972023779116 0 0.02472039778429817 0.0030535807988985851 0 0.024536300733000956 0.0029077987262566278 0 0.024664776868643695 0.0029210501422149739 0 0.02460940899755925 0.002777435028031244 0 0.024585170380748013 0.0029834972023779116 0 0.024536300733000956 0.0029077987262566278 0 0.024664776868643695 0.0029210501422149739 0 0.024536300733000956 0.0029077987262566278 0 0.024452818126520205 0.002899653368488497 0 0.024506120839606155 0.0028512799444291403 0 0.024451560843803136 0.0029963826592404766 0 0.024585170380748013 0.0029834972023779116 0 0.024536300733000956 0.0029077987262566278 0 0.024451560843803136 0.0029963826592404766 0 0.024536300733000956 0.0029077987262566278 0 0.024452818126520205 0.002899653368488497 0 0.024357837466072091 0.0029178924260481035 0 0.024344100045722815 0.0029163009128044836 0 0.024378064000918805 0.003081982211474103 0 0.024475916910474391 0.0044340582211317564 0 0.024580498569503163 0.004560991384654222 0 0.024451560843803136 0.0029963826592404766 0 0.024452818126520205 0.002899653368488497 0 0.024357837466072091 0.0029178924260481035 0 0.024818021649773946 0.005257243781026026 0 0.024580498569503163 0.004560991384654222 0 0.029185652026028984 0.0047616350379015501 0 0.028392034105935576 0.0046295163611857013 0 0.028990197737399411 0.0041463941527261176 0 0.029215188367931418 0.0035815248219818988 0 0.028990197737399411 0.0041463941527261176 0 0.028445440361219994 0.0035852692988542572 0 0.028392034105935576 0.0046295163611857013 0 0.028990197737399411 0.0041463941527261176 0 0.028445440361219994 0.0035852692988542572 0 0.024580498569503163 0.004560991384654222 0 0.027216379621939638 0.003077390019830198 0 0.024451560843803136 0.0029963826592404766 0 0.024357837466072091 0.0029178924260481035 0 0.024378064000918805 0.003081982211474103 0 0.02830806081063383 0.0032378965382196512 0 0.028740848174548569 0.0028553104471563139 0 0.027573977817156765 0.0028133653415696736 0 0.028293405179467438 0.0036646663772600492 0 0.02830806081063383 0.0032378965382196512 0 0.027573977817156765 0.0028133653415696736 0 0.027216379621939638 0.003077390019830198 0 0.027760038658583126 0.0033598147381209511 0 0.029215188367931418 0.0035815248219818988 0 0.02830806081063383 0.0032378965382196512 0 0.028740848174548569 0.0028553104471563139 0 0.029564880170038128 0.0036194262079269758 0 0.027216379621939638 0.003077390019830198 0 0.029215188367931418 0.0035815248219818988 0 0.028295581094303243 0.0036280128944979192 0 0.02830806081063383 0.0032378965382196512 0 0.029480953767275962 0.0028291033530831386 0 0.029849787481359909 0.0025979524772232758 0 0.029012312591191424 0.0027122537824925035 0 0.029480953767275962 0.0028291033530831386 0 0.029221297245719577 0.0030053999165224081 0 0.029012312591191424 0.0027122537824925035 0 0.028992891656114312 0.0029351658502975784 0 0.028003265345156098 0.0029145303873532847 0 0.029221297245719577 0.0030053999165224081 0 0.029012312591191424 0.0027122537824925035 0 0.028532256825132975 0.0030328181027605046 0 0.029075997021013333 0.0027236843603206076 0 0.028229631312004292 0.0028793142035064977 0 0.029012312591191424 0.0027122537824925035 0 0.028532256825132975 0.0030328181027605046 0 0.028184057098516756 0.0028625459441407762 0 0.028003265345156098 0.0029145303873532847 0 0.027333196554204429 0.0030512554048321965 0 0.028532256825132975 0.0030328181027605046 0 0.028184057098516756 0.0028625459441407762 0 0.027878673362624361 0.0030548195948824955 0 0.028611026012411226 0.0025575679542856234 0 0.0291233572083964 0.0027331477384556014 0 0.028295351433845518 0.0028972553320727626 0 0.026787074912447653 0.0036972999074301482 0 0.027573977817156765 0.0028133653415696736 0 0.026362563496815056 0.0028142049314172114 0 0.025544720242669836 0.0035265621111822939 0 0.027216379621939638 0.003077390019830198 0 0.026787074912447653 0.0036972999074301482 0 0.028293405179467438 0.0036646663772600492 0 0.027573977817156765 0.0028133653415696736 0 0.026787074912447653 0.0036972999074301482 0 0.026362563496815056 0.0028142049314172114 0 0.02576822859743547 0.0031432692742310898 0 0.02795432354719005 0.0025934680875452647 0 0.028295351433845518 0.0028972553320727626 0 0.027777674931610295 0.0027249509154387802 0 0.028295351433845518 0.0028972553320727626 0 0.027777674931610295 0.0027249509154387802 0 0.027475318875728166 0.0029418757536076407 0 0.028229631312004292 0.0028793142035064977 0 0.027445977272701785 0.0030091743012916629 0 0.028184057098516756 0.0028625459441407762 0 0.027878673362624361 0.0030548195948824955 0 0.027404276910350276 0.0030145819841003534 0 0.027333196554204429 0.0030512554048321965 0 0.025175287589065409 0.0016980853534818495 0 0.027777674931610295 0.0027249509154387802 0 0.027475318875728166 0.0029418757536076407 0 0.027384096110020233 0.0027978416384773133 0 0.028295351433845518 0.0028972553320727626 0 0.027404276910350276 0.0030145819841003534 0 0.027475318875728166 0.0029418757536076407 0 0.027878673362624361 0.0030548195948824955 0 0.027404276910350276 0.0030145819841003534 0 0.027243653940092337 0.0030880326919327837 0 0.027763129765725071 0.0025230210149107262 0 0.027777674931610295 0.0027249509154387802 0 0.027384096110020233 0.0027978416384773133 0 0.027404276910350276 0.0030145819841003534 0 0.027362341741079727 0.0027909126309473321 0 0.027243653940092337 0.0030880326919327837 0 0.025892323533341359 0.0012537347756180494 0 0.025175287589065409 0.0016980853534818495 0 0.027404276910350276 0.0030145819841003534 0 0.027475318875728166 0.0029418757536076407 0 0.027362341741079727 0.0027909126309473321 0 0.026944473677422705 0.0025818488199544892 0 0.025892323533341359 0.0012537347756180494 0 0.025175287589065409 0.0016980853534818495 0 0.023473329409310701 -0.00067509714317185788 0 0.023397790138070546 -0.00095438280753781931 0 0.023575391149327881 -0.00093870168171238534 0 0.023469592494138481 -0.0010933274907922953 0 0.023626130456180814 -0.0010333531434707649 0 0.023469592494138481 -0.0010933274907922953 0 0.023694171965609988 -0.0011089992842193462 0 0.023575391149327881 -0.00093870168171238534 0 0.023626130456180814 -0.0010333531434707649 0 0.023684416922952801 -0.00097637765730205497 0 0.023575391149327881 -0.00093870168171238534 0 0.023626130456180814 -0.0010333531434707649 0 0.023469592494138481 -0.0010933274907922953 0 0.024317026333431621 0.00039438863015095086 0 0.02388224678206724 0.00039879280833516874 0 0.024114835913706171 0.00083289371187476413 0 0.02388224678206724 0.00039879280833516874 0 0.024022754619802036 0.00083523375445196878 0 0.024114835913706171 0.00083289371187476413 0 0.025175287589065409 0.0016980853534818495 0 0.024113316420218536 0.0013401559796891148 0 0.025159528258391382 0.0028299492058833564 0 0.025160233802219097 0.0034340798361667635 0 0.024760158634214949 0.0037178307450336789 0 0.025159528258391382 0.0028299492058833564 0 0.025160233802219097 0.0034340798361667635 0 0.025368651718544719 0.0031884270596031767 0 0.025160233802219097 0.0034340798361667635 0 0.02526891057386374 0.003695517575221676 0 0.024760158634214949 0.0037178307450336789 0 0.024983744533106905 0.0033397327096960109 0 0.024652488970844197 0.0026875730338535467 0 0.02576822859743547 0.0031432692742310898 0 0.025368651718544719 0.0031884270596031767 0 0.025275207623443052 0.0037195274204590788 0 0.025160233802219097 0.0034340798361667635 0 0.025368651718544719 0.0031884270596031767 0 0.025275207623443052 0.0037195274204590788 0 0.026787074912447653 0.0036972999074301482 0 0.02576822859743547 0.0031432692742310898 0 0.025275207623443052 0.0037195274204590788 0 0.026362563496815056 0.0028142049314172114 0 0.025159528258391382 0.0028299492058833564 0 0.02576822859743547 0.0031432692742310898 0 0.025159528258391382 0.0028299492058833564 0 0.02576822859743547 0.0031432692742310898 0 0.025368651718544719 0.0031884270596031767 0 0.024086630679393251 -0.00077000027042189014 0 0.024013006575213647 -0.0010503585202548853 0 0.023859157413585869 -0.0010595103630671686 0 0.024086630679393251 -0.00077000027042189014 0 0.023859157413585869 -0.0010595103630671686 0 0.023867160872436687 -0.00095187800963011677 0 0.023752175055012079 -0.0012405257826820712 0 0.023859157413585869 -0.0010595103630671686 0 0.023699657387531589 -0.0011706160607415749 0 0.023859157413585869 -0.0010595103630671686 0 0.023867160872436687 -0.00095187800963011677 0 0.02374080317673993 -0.0010755114318428841 0 0.023859157413585869 -0.0010595103630671686 0 0.02374080317673993 -0.0010755114318428841 0 0.023699657387531589 -0.0011706160607415749 0 0.02374080317673993 -0.0010755114318428841 0 0.023697436725025466 -0.0010866436340090354 0 0.023699657387531589 -0.0011706160607415749 0 0.02374080317673993 -0.0010755114318428841 0 0.023708778306711569 -0.0010545468722005943 0 0.023697436725025466 -0.0010866436340090354 0 0.02374080317673993 -0.0010755114318428841 0 0.023744828188549619 -0.00099143136544022764 0 0.023708778306711569 -0.0010545468722005943 0 0.023742848475347952 -0.00086145307931508649 0 0.023867160872436687 -0.00095187800963011677 0 0.023744828188549619 -0.00099143136544022764 0 0.023867160872436687 -0.00095187800963011677 0 0.02374080317673993 -0.0010755114318428841 0 0.023744828188549619 -0.00099143136544022764 0 0.023742848475347952 -0.00086145307931508649 0 0.023575391149327881 -0.00093870168171238534 0 0.023684416922952801 -0.00097637765730205497 0 0.023742848475347952 -0.00086145307931508649 0 0.023744828188549619 -0.00099143136544022764 0 0.023684416922952801 -0.00097637765730205497 0 0.023744828188549619 -0.00099143136544022764 0 0.023684416922952801 -0.00097637765730205497 0 0.023708778306711569 -0.0010545468722005943 0 0.023626130456180814 -0.0010333531434707649 0 0.023684416922952801 -0.00097637765730205497 0 0.023708778306711569 -0.0010545468722005943 0 0.023492824564845236 -0.00089770962047694121 0 0.023473329409310701 -0.00067509714317185788 0 0.023626130456180814 -0.0010333531434707649 0 0.023708778306711569 -0.0010545468722005943 0 0.023694171965609988 -0.0011089992842193462 0 0.023573745197581687 -0.001285732666969114 0 0.02350226285043883 -0.001414972320118483 0 0.023564250595832285 -0.0012725389865908738 0 0.023533297208095317 -0.0012159343779858368 0 0.023573745197581687 -0.001285732666969114 0 0.023564250595832285 -0.0012725389865908738 0 0.023473329409310701 -0.00067509714317185788 0 0.023687949051755166 -4.7706189792393826e-06 0 0.023473329409310701 -0.00067509714317185788 0 0.02374030342427462 -0.0010744351432826998 0 0.023533297208095317 -0.0012159343779858368 0 0.023573745197581687 -0.001285732666969114 0 0.023699657387531589 -0.0011706160607415749 0 0.023573745197581687 -0.001285732666969114 0 0.023699657387531589 -0.0011706160607415749 0 0.02350226285043883 -0.001414972320118483 0 0.023752175055012079 -0.0012405257826820712 0 0.023699657387531589 -0.0011706160607415749 0 0.02350226285043883 -0.001414972320118483 0 0.02350226285043883 -0.001414972320118483 0 0.023265145872554113 -0.0014936392865229251 0 0.023296905386893451 -0.0015604338563998952 0 0.02350226285043883 -0.001414972320118483 0 0.023265145872554113 -0.0014936392865229251 0 0.023131102184120594 -0.0014038536498990194 0 0.023365579967505629 -0.0017713711940372391 0 0.023687949051755166 -4.7706189792393826e-06 0 0.023265145872554113 -0.0014936392865229251 0 0.023205724102940511 -0.0014992875974838467 0 0.023216035961412019 -0.0015258083308065512 0 0.023265145872554113 -0.0014936392865229251 0 0.023177652091759537 -0.0014689618029754055 0 0.023131102184120594 -0.0014038536498990194 0 0.023265145872554113 -0.0014936392865229251 0 0.023177652091759537 -0.0014689618029754055 0 0.023205724102940511 -0.0014992875974838467 0 0.023177652091759537 -0.0014689618029754055 0 0.023205724102940511 -0.0014992875974838467 0 0.023180609810843879 -0.0014856306279075106 0 0.023205724102940511 -0.0014992875974838467 0 0.023180609810843879 -0.0014856306279075106 0 0.023195832601487335 -0.0015018162986166329 0 0.023195832601487335 -0.0015018162986166329 0 0.023198181110460032 -0.0015078139777096303 0 0.023216035961412019 -0.0015258083308065512 0 0.023205724102940511 -0.0014992875974838467 0 0.023195832601487335 -0.0015018162986166329 0 0.023216035961412019 -0.0015258083308065512 0 0.023195832601487335 -0.0015018162986166329 0 0.023198181110460032 -0.0015078139777096303 0 0.023196403335486719 -0.0014995046243130117 0 0.023198181110460032 -0.0015078139777096303 0 0.023187758004483458 -0.0015108788622754193 0 0.023216035961412019 -0.0015258083308065512 0 0.023198181110460032 -0.0015078139777096303 0 0.023187758004483458 -0.0015108788622754193 0 0.023207435892079846 -0.0014936373367268967 0 0.023187758004483458 -0.0015108788622754193 0 0.023216035961412019 -0.0015258083308065512 0 0.023177848322821725 -0.0015398906313540412 0 0.023265145872554113 -0.0014936392865229251 0 0.023216035961412019 -0.0015258083308065512 0 0.023296905386893451 -0.0015604338563998952 0 0.023113483835765732 -0.0016360406108626088 0 0.023177848322821725 -0.0015398906313540412 0 0.023296905386893451 -0.0015604338563998952 0 0.023216035961412019 -0.0015258083308065512 0 0.023177848322821725 -0.0015398906313540412 0 0.023296905386893451 -0.0015604338563998952 0 0.025544720242669836 0.0035265621111822939 0 0.024652488970844197 0.0026875730338535467 0 0.024585170380748013 0.0029834972023779116 0 0.02472039778429817 0.0030535807988985851 0 0.024664776868643695 0.0029210501422149739 0 0.023701190628429136 0.0012412738212955494 0 0.023722873092494094 0.00094475119779267186 0 0.023551038122433789 0.00084652391161405493 0 0.024652488970844197 0.0026875730338535467 0 0.024067557181593556 0.0018002753298433035 0 0.023701190628429136 0.0012412738212955494 0 0.023894054503849006 0.0012310568221390466 0 0.02384838745168933 0.0011643993979389335 0 0.024652488970844197 0.0026875730338535467 0 0.024113316420218536 0.0013401559796891148 0 0.023701190628429136 0.0012412738212955494 0 0.023802818515303369 0.001109862870200432 0 0.023722873092494094 0.00094475119779267186 0 0.023701190628429136 0.0012412738212955494 0 0.02384838745168933 0.0011643993979389335 0 0.023802818515303369 0.001109862870200432 0 0.024176678828226782 0.00068658729021361541 0 0.023991829916569365 0.00069544170484379714 0 0.024100699922114714 0.00044995696692098599 0 0.023687949051755166 -4.7706189792393826e-06 0 0.024113316420218536 0.0013401559796891148 0 0.023894054503849006 0.0012310568221390466 0 0.02384838745168933 0.0011643993979389335 0 0.023934718080356219 0.0011372435902155069 0 0.024113316420218536 0.0013401559796891148 0 0.023789603078039678 0.00015132732213174929 0 0.02384838745168933 0.0011643993979389335 0 0.023934718080356219 0.0011372435902155069 0 0.023852066874363569 0.0011000318663345757 0 0.023177652091759537 -0.0014689618029754055 0 0.023131102184120594 -0.0014038536498990194 0 0.023144340302770971 -0.0014670710645073237 0 0.023687949051755166 -4.7706189792393826e-06 0 0.023789603078039678 0.00015132732213174929 0 0.023180609810843879 -0.0014856306279075106 0 0.023144340302770971 -0.0014670710645073237 0 0.023182457978272328 -0.0014847463453714444 0 0.023934718080356219 0.0011372435902155069 0 0.023852066874363569 0.0011000318663345757 0 0.023822362633888122 0.00098880400346883137 0 0.023177652091759537 -0.0014689618029754055 0 0.023180609810843879 -0.0014856306279075106 0 0.023144340302770971 -0.0014670710645073237 0 0.023802818515303369 0.001109862870200432 0 0.023822362633888122 0.00098880400346883137 0 0.023722873092494094 0.00094475119779267186 0 0.023852066874363569 0.0011000318663345757 0 0.023802818515303369 0.001109862870200432 0 0.023822362633888122 0.00098880400346883137 0 0.02384838745168933 0.0011643993979389335 0 0.023852066874363569 0.0011000318663345757 0 0.023802818515303369 0.001109862870200432 0 0.023182457978272328 -0.0014847463453714444 0 0.02320962693592965 -0.0014987539299949825 0 0.023265148929293083 -0.0015002536695561347 0 0.023822362633888122 0.00098880400346883137 0 0.023722873092494094 0.00094475119779267186 0 0.023766548102798185 0.00064445512821123324 0 0.023934718080356219 0.0011372435902155069 0 0.023822362633888122 0.00098880400346883137 0 0.023766548102798185 0.00064445512821123324 0 0.023144340302770971 -0.0014670710645073237 0 0.023182457978272328 -0.0014847463453714444 0 0.023265148929293083 -0.0015002536695561347 0 0.023722873092494094 0.00094475119779267186 0 0.023667040338525788 0.00075360543401770293 0 0.023766548102798185 0.00064445512821123324 0 0.023789603078039678 0.00015132732213174929 0 0.023471000720682297 -0.00049474281427855436 0 0.023182457978272328 -0.0014847463453714444 0 0.023196403335486719 -0.0014995046243130117 0 0.02320962693592965 -0.0014987539299949825 0 0.023180609810843879 -0.0014856306279075106 0 0.023195832601487335 -0.0015018162986166329 0 0.023182457978272328 -0.0014847463453714444 0 0.023195832601487335 -0.0015018162986166329 0 0.023182457978272328 -0.0014847463453714444 0 0.023196403335486719 -0.0014995046243130117 0 0.023198181110460032 -0.0015078139777096303 0 0.023196403335486719 -0.0014995046243130117 0 0.02320962693592965 -0.0014987539299949825 0 0.02320962693592965 -0.0014987539299949825 0 0.023207435892079846 -0.0014936373367268967 0 0.023265148929293083 -0.0015002536695561347 0 0.023198181110460032 -0.0015078139777096303 0 0.02320962693592965 -0.0014987539299949825 0 0.023207435892079846 -0.0014936373367268967 0 0.023722873092494094 0.00094475119779267186 0 0.023667040338525788 0.00075360543401770293 0 0.023551038122433789 0.00084652391161405493 0 0.023667040338525788 0.00075360543401770293 0 0.023551038122433789 0.00084652391161405493 0 0.023447818688376032 0.00057398773650184256 0 0.023667040338525788 0.00075360543401770293 0 0.023766548102798185 0.00064445512821123324 0 0.0232987332759515 0.00041778312057395774 0 0.023766548102798185 0.00064445512821123324 0 0.023553393352075805 7.7658568395149504e-05 0 0.0232987332759515 0.00041778312057395774 0 0.024067557181593556 0.0018002753298433035 0 0.023823480691778219 0.0015519532158536251 0 0.023392866858742471 0.00039536214956603888 0 0.023823480691778219 0.0015519532158536251 0 0.023207435892079846 -0.0014936373367268967 0 0.023208018698268867 -0.0014442173922228853 0 0.023156042072656778 -0.0014473072153399691 0 0.023207435892079846 -0.0014936373367268967 0 0.023265148929293083 -0.0015002536695561347 0 0.023208018698268867 -0.0014442173922228853 0 0.023265148929293083 -0.0015002536695561347 0 0.023208018698268867 -0.0014442173922228853 0 0.023220666847442298 -0.0013172844060707319 0 0.023208018698268867 -0.0014442173922228853 0 0.023220666847442298 -0.0013172844060707319 0 0.023156042072656778 -0.0014473072153399691 0 0.023265148929293083 -0.0015002536695561347 0 0.023220666847442298 -0.0013172844060707319 0 0.02339133589713142 -0.0011176719094142006 0 0.023220666847442298 -0.0013172844060707319 0 0.023092824430731587 -0.0012559598969402001 0 0.023175695963209817 -0.0010792780285172417 0 0.023220666847442298 -0.0013172844060707319 0 0.02339133589713142 -0.0011176719094142006 0 0.023175695963209817 -0.0010792780285172417 0 0.023471000720682297 -0.00049474281427855436 0 0.023464769635661128 -0.00049538922079054746 0 0.023113483835765732 -0.0016360406108626088 0 0.023177848322821725 -0.0015398906313540412 0 0.023044301508442323 -0.0014337697191134844 0 0.023177848322821725 -0.0015398906313540412 0 0.023156042072656778 -0.0014473072153399691 0 0.023044301508442323 -0.0014337697191134844 0 0.023187758004483458 -0.0015108788622754193 0 0.023177848322821725 -0.0015398906313540412 0 0.023156042072656778 -0.0014473072153399691 0 0.023187758004483458 -0.0015108788622754193 0 0.023207435892079846 -0.0014936373367268967 0 0.023156042072656778 -0.0014473072153399691 0 0.023156042072656778 -0.0014473072153399691 0 0.023092824430731587 -0.0012559598969402001 0 0.023044301508442323 -0.0014337697191134844 0 0.023220666847442298 -0.0013172844060707319 0 0.023156042072656778 -0.0014473072153399691 0 0.023092824430731587 -0.0012559598969402001 0 0.023092824430731587 -0.0012559598969402001 0 0.023044301508442323 -0.0014337697191134844 0 0.022907928740227592 -0.0011405386697167185 0 0.022808549913458993 -0.0014330913085800717 0 0.023044301508442323 -0.0014337697191134844 0 0.022907928740227592 -0.0011405386697167185 0 0.022907928740227592 -0.0011405386697167185 0 0.023039390029717464 -0.00090905700111870377 0 0.022826787315652759 -0.00071719834312557196 0 0.023092824430731587 -0.0012559598969402001 0 0.022907928740227592 -0.0011405386697167185 0 0.023039390029717464 -0.00090905700111870377 0 0.023092824430731587 -0.0012559598969402001 0 0.023039390029717464 -0.00090905700111870377 0 0.023175695963209817 -0.0010792780285172417 0 0.023039390029717464 -0.00090905700111870377 0 0.022826787315652759 -0.00071719834312557196 0 0.02305005178944463 -0.00051337951236480619 0 0.022612735106887306 -0.00097513122353855232 0 0.022907928740227592 -0.0011405386697167185 0 0.022826787315652759 -0.00071719834312557196 0 0.022612735106887306 -0.00097513122353855232 0 0.022826787315652759 -0.00071719834312557196 0 0.022564759368927156 -0.0004043288711099946 0 0.023464769635661128 -0.00049538922079054746 0 0.023351579832388916 -0.00041178560068231293 0 0.023553393352075805 7.7658568395149504e-05 0 0.023328709811794104 -0.000376051520404198 0 0.023212909913963561 -0.00018808275653193536 0 0.02339133589713142 -0.0011176719094142006 0 0.023198194584530818 -0.00073312347516118071 0 0.023328709811794104 -0.000376051520404198 0 0.023039390029717464 -0.00090905700111870377 0 0.023198194584530818 -0.00073312347516118071 0 0.023175695963209817 -0.0010792780285172417 0 0.02339133589713142 -0.0011176719094142006 0 0.023198194584530818 -0.00073312347516118071 0 0.023175695963209817 -0.0010792780285172417 0 0.023039390029717464 -0.00090905700111870377 0 0.023198194584530818 -0.00073312347516118071 0 0.02305005178944463 -0.00051337951236480619 0 0.023198194584530818 -0.00073312347516118071 0 0.02305005178944463 -0.00051337951236480619 0 0.023328709811794104 -0.000376051520404198 0 0.023114900810753895 -0.00019263701086921469 0 0.023212909913963561 -0.00018808275653193536 0 0.02319110264580887 -0.00024257372614139454 0 0.023328709811794104 -0.000376051520404198 0 0.023212909913963561 -0.00018808275653193536 0 0.02319110264580887 -0.00024257372614139454 0 0.023209693980251075 0.00078507488911628372 0 0.022681254940901348 0.00040403277302657756 0 0.022341122021307502 0.00086389329751070825 0 0.023209693980251075 0.00078507488911628372 0 0.022681254940901348 0.00040403277302657756 0 0.022939568724537205 -8.7468228028746625e-05 0 0.023152967754544184 0.0003015076645249017 0 0.022957285626921026 -8.487767092690852e-05 0 0.023209693980251075 0.00078507488911628372 0 0.023094233737228863 0.0015487486029567411 0 0.022341122021307502 0.00086389329751070825 0 0.023209693980251075 0.00078507488911628372 0 0.023498751149433009 0.0014942692536140496 0 0.023094233737228863 0.0015487486029567411 0 0.023114900810753895 -0.00019263701086921469 0 0.023212909913963561 -0.00018808275653193536 0 0.0231541910829542 9.6329361750423239e-06 0 0.023152967754544184 0.0003015076645249017 0 0.023295756208132949 0.00069811592609806458 0 0.023553393352075805 7.7658568395149504e-05 0 0.023212909913963561 -0.00018808275653193536 0 0.0231541910829542 9.6329361750423239e-06 0 0.023295756208132949 0.00069811592609806458 0 0.023823480691778219 0.0015519532158536251 0 0.023970888842623932 0.0022198367766751896 0 0.023823480691778219 0.0015519532158536251 0 0.023498751149433009 0.0014942692536140496 0 0.023094233737228863 0.0015487486029567411 0 0.023787006970478228 0.00216246118492291 0 0.023553393352075805 7.7658568395149504e-05 0 0.0231541910829542 9.6329361750423239e-06 0 0.0232987332759515 0.00041778312057395774 0 0.02446709332264925 0.0026404694834055264 0 0.024427703653107733 0.0028179978995167198 0 0.02460940899755925 0.002777435028031244 0 0.024427703653107733 0.0028179978995167198 0 0.024506120839606155 0.0028512799444291403 0 0.02460940899755925 0.002777435028031244 0 0.024452818126520205 0.002899653368488497 0 0.024427703653107733 0.0028179978995167198 0 0.024506120839606155 0.0028512799444291403 0 0.024536300733000956 0.0029077987262566278 0 0.024506120839606155 0.0028512799444291403 0 0.02460940899755925 0.002777435028031244 0 0.020363245898133837 0.0056606034904028643 0 0.021639627085406218 0.0059004619469702237 0 0.0208164672381193 0.0048364915712565725 0 0.021639627085406218 0.0059004619469702237 0 0.0208164672381193 0.0048364915712565725 0 0.021648207361398931 0.004389742841355895 0 0.024580498569503163 0.004560991384654222 0 0.022829698777315586 0.0036440668952197881 0 0.024336993853246273 0.0029157962260385971 0 0.024427703653107733 0.0028179978995167198 0 0.024298734327721359 0.00271274585408863 0 0.024452818126520205 0.002899653368488497 0 0.024357837466072091 0.0029178924260481035 0 0.024427703653107733 0.0028179978995167198 0 0.024357837466072091 0.0029178924260481035 0 0.024336993853246273 0.0029157962260385971 0 0.024427703653107733 0.0028179978995167198 0 0.02446709332264925 0.0026404694834055264 0 0.024427703653107733 0.0028179978995167198 0 0.024298734327721359 0.00271274585408863 0 0.019878010710921146 0.0045390750602605006 0 0.0208164672381193 0.0048364915712565725 0 0.020796642561491371 0.0038655614608887855 0 0.0208164672381193 0.0048364915712565725 0 0.021648207361398931 0.004389742841355895 0 0.020796642561491371 0.0038655614608887855 0 0.020796642561491371 0.0038655614608887855 0 0.021763200518170395 0.0028884370437775486 0 0.020736850992697151 0.0029910335536647878 0 0.021648207361398931 0.004389742841355895 0 0.020796642561491371 0.0038655614608887855 0 0.021763200518170395 0.0028884370437775486 0 0.020004506741777745 0.0034770413600843575 0 0.020796642561491371 0.0038655614608887855 0 0.020736850992697151 0.0029910335536647878 0 0.022829698777315586 0.0036440668952197881 0 0.022696695561607468 0.0020869147108794734 0 0.02446709332264925 0.0026404694834055264 0 0.024298734327721359 0.00271274585408863 0 0.024278872929673064 0.0024748735135244407 0 0.023970888842623932 0.0022198367766751896 0 0.022696695561607468 0.0020869147108794734 0 0.021967956363115829 0.0030753075983623586 0 0.021538383226141999 0.0026705229950671943 0 0.022199388470915793 -0.00012481182864375982 0 0.022696695561607468 0.0020869147108794734 0 0.02233566726026745 0.0021745240416996886 0 0.020736850992697151 0.0029910335536647878 0 0.021100178864725112 0.0026196402362897173 0 0.020566032553623156 0.0023932410698269241 0 0.021763200518170395 0.0028884370437775486 0 0.021538383226141999 0.0026705229950671943 0 0.021100178864725112 0.0026196402362897173 0 0.021763200518170395 0.0028884370437775486 0 0.020736850992697151 0.0029910335536647878 0 0.021100178864725112 0.0026196402362897173 0 0.021538383226141999 0.0026705229950671943 0 0.021100178864725112 0.0026196402362897173 0 0.021021070622359625 0.0020551059907052242 0 0.021021070622359625 0.0020551059907052242 0 0.020566032553623156 0.0023932410698269241 0 0.020516535550276466 0.0018902124755519583 0 0.021100178864725112 0.0026196402362897173 0 0.021021070622359625 0.0020551059907052242 0 0.020566032553623156 0.0023932410698269241 0 0.021021070622359625 0.0020551059907052242 0 0.020845669487068386 0.000342259816482436 0 0.022199388470915793 -0.00012481182864375982 0 0.021021070622359625 0.0020551059907052242 0 0.020516535550276466 0.0018902124755519583 0 0.020716608890390644 0.0014977350243664577 0 0.021003549078297146 0.0019476032745663987 0 0.020809600978629685 0.00089216369327330299 0 0.020516535550276466 0.0018902124755519583 0 0.020716608890390644 0.0014977350243664577 0 0.019922985127277602 0.001546227459224082 0 0.022696695561607468 0.0020869147108794734 0 0.022047639580730638 -0.00010684945332828831 0 0.022681254940901348 0.00040403277302657756 0 0.022199388470915793 -0.00012481182864375982 0 0.022939568724537205 -8.7468228028746625e-05 0 0.021538383226141999 0.0026705229950671943 0 0.021021070622359625 0.0020551059907052242 0 0.022199388470915793 -0.00012481182864375982 0 0.022681254940901348 0.00040403277302657756 0 0.022341122021307502 0.00086389329751070825 0 0.022199388470915793 -0.00012481182864375982 0 0.022199388470915793 -0.00012481182864375982 0 0.022864498136449304 -0.00057100778234425904 0 0.022939568724537205 -8.7468228028746625e-05 0 0.022199388470915793 -0.00012481182864375982 0 0.020782536185890953 -0.00098288154826364684 0 0.022864498136449304 -0.00057100778234425904 0 0.022041352535736931 0.00027630387387790405 0 0.022079772854828518 0.00026772799453221265 0 0.022085182319202822 0.00030183124368284524 0 0.021189537332386349 0.00027944265542380857 0 0.022496422396521418 -0.00022272609698436942 0 0.020845669487068386 0.000342259816482436 0 0.022199388470915793 -0.00012481182864375982 0 0.020782536185890953 -0.00098288154826364684 0 0.020716608890390644 0.0014977350243664577 0 0.020540987197916249 0.00073372468957572611 0 0.019922985127277602 0.001546227459224082 0 0.020809600978629685 0.00089216369327330299 0 0.021189537332386349 0.00027944265542380857 0 0.022041352535736931 0.00027630387387790405 0 0.02206007933058176 0.00025881718955700768 0 0.022053948251021589 0.00025999513650426493 0 0.021189537332386349 0.00027944265542380857 0 0.021544208483681482 -0.00045415569715990926 0 0.022041352535736931 0.00027630387387790405 0 0.022064510692196337 0.00026259261378219865 0 0.02206007933058176 0.00025881718955700768 0 0.022041352535736931 0.00027630387387790405 0 0.022079772854828518 0.00026772799453221265 0 0.022064510692196337 0.00026259261378219865 0 0.022079772854828518 0.00026772799453221265 0 0.022072967743688065 0.0002468519776469819 0 0.022106910792415654 0.00023649218824333082 0 0.022079772854828518 0.00026772799453221265 0 0.022064510692196337 0.00026259261378219865 0 0.022072967743688065 0.0002468519776469819 0 0.022064510692196337 0.00026259261378219865 0 0.022072967743688065 0.0002468519776469819 0 0.02206007933058176 0.00025881718955700768 0 0.022072967743688065 0.0002468519776469819 0 0.02206007933058176 0.00025881718955700768 0 0.022061236216791038 0.0002720735969466706 0 0.02206007933058176 0.00025881718955700768 0 0.022061236216791038 0.0002720735969466706 0 0.022053948251021589 0.00025999513650426493 0 0.022061236216791038 0.0002720735969466706 0 0.022052787057452259 0.00028773014054912088 0 0.022053948251021589 0.00025999513650426493 0 0.022237166589558974 0.0001997207974767047 0 0.022106910792415654 0.00023649218824333082 0 0.022096748352233703 0.00017088788607483451 0 0.022106910792415654 0.00023649218824333082 0 0.022087922981118287 0.00022704918378282953 0 0.022096748352233703 0.00017088788607483451 0 0.022072967743688065 0.0002468519776469819 0 0.022106910792415654 0.00023649218824333082 0 0.022087922981118287 0.00022704918378282953 0 0.022079772854828518 0.00026772799453221265 0 0.022106910792415654 0.00023649218824333082 0 0.022085182319202822 0.00030183124368284524 0 0.022106910792415654 0.00023649218824333082 0 0.022198380121346072 0.0002480491542841708 0 0.022085182319202822 0.00030183124368284524 0 0.022237166589558974 0.0001997207974767047 0 0.022106910792415654 0.00023649218824333082 0 0.022198380121346072 0.0002480491542841708 0 0.022772279835822834 1.552167274970294e-05 0 0.022496422396521418 -0.00022272609698436942 0 0.022198380121346072 0.0002480491542841708 0 0.02229868819009034 0.00032701811634744496 0 0.022085182319202822 0.00030183124368284524 0 0.023312070853706467 -0.00028807352222526864 0 0.022864498136449304 -0.00057100778234425904 0 0.022939568724537205 -8.7468228028746625e-05 0 0.023114900810753895 -0.00019263701086921469 0 0.022939568724537205 -8.7468228028746625e-05 0 0.02319110264580887 -0.00024257372614139454 0 0.023312070853706467 -0.00028807352222526864 0 0.022939568724537205 -8.7468228028746625e-05 0 0.02319110264580887 -0.00024257372614139454 0 0.023312070853706467 -0.00028807352222526864 0 0.02319110264580887 -0.00024257372614139454 0 0.023228122462739628 -0.00032373280788652918 0 0.02305005178944463 -0.00051337951236480619 0 0.023328709811794104 -0.000376051520404198 0 0.023228122462739628 -0.00032373280788652918 0 0.023328709811794104 -0.000376051520404198 0 0.02319110264580887 -0.00024257372614139454 0 0.023228122462739628 -0.00032373280788652918 0 0.02305005178944463 -0.00051337951236480619 0 0.023228122462739628 -0.00032373280788652918 0 0.02280329147402917 -2.2093370215888192e-05 0 0.023312070853706467 -0.00028807352222526864 0 0.023228122462739628 -0.00032373280788652918 0 0.02280329147402917 -2.2093370215888192e-05 0 0.02229868819009034 0.00032701811634744496 0 0.02280329147402917 -2.2093370215888192e-05 0 0.022463325741403625 0.00017370809796865162 0 0.022772279835822834 1.552167274970294e-05 0 0.02277554529505561 -1.7219664603684958e-05 0 0.022826787315652759 -0.00071719834312557196 0 0.022772231641120667 -0.00033429919235398369 0 0.022564759368927156 -0.0004043288711099946 0 0.02305005178944463 -0.00051337951236480619 0 0.02280329147402917 -2.2093370215888192e-05 0 0.022772231641120667 -0.00033429919235398369 0 0.022826787315652759 -0.00071719834312557196 0 0.02305005178944463 -0.00051337951236480619 0 0.022772231641120667 -0.00033429919235398369 0 0.02280329147402917 -2.2093370215888192e-05 0 0.022772231641120667 -0.00033429919235398369 0 0.022627569372096951 -3.471934819234049e-05 0 0.02280329147402917 -2.2093370215888192e-05 0 0.022627569372096951 -3.471934819234049e-05 0 0.022624162078781061 0.00013101185696705491 0 0.022772231641120667 -0.00033429919235398369 0 0.022627569372096951 -3.471934819234049e-05 0 0.022564759368927156 -0.0004043288711099946 0 0.022607481071070617 -3.6867683580206842e-05 0 0.022226857437158049 3.72341671528478e-05 0 0.022627569372096951 -3.471934819234049e-05 0 0.022564759368927156 -0.0004043288711099946 0 0.02245871311175612 5.84652993058131e-06 0 0.022627569372096951 -3.471934819234049e-05 0 0.022380594068043186 0.00038292763558109343 0 0.022129115684789914 0.00036875656052652524 0 0.022627569372096951 -3.471934819234049e-05 0 0.02200429413621631 4.1844385883916585e-05 0 0.022129115684789914 0.00036875656052652524 0 0.022627569372096951 -3.471934819234049e-05 0 0.022545265540118008 0.00022903833922571285 0 0.022624162078781061 0.00013101185696705491 0 0.022627569372096951 -3.471934819234049e-05 0 0.022545265540118008 0.00022903833922571285 0 0.022380594068043186 0.00038292763558109343 0 0.022545265540118008 0.00022903833922571285 0 0.022481126967821105 0.00035231470708215926 0 0.022479663388671349 0.00023859277795622647 0 0.022481126967821105 0.00035231470708215926 0 0.022380594068043186 0.00038292763558109343 0 0.022377232545786319 0.00049401945786059021 0 0.022481126967821105 0.00035231470708215926 0 0.022377232545786319 0.00049401945786059021 0 0.022460296816975235 0.00038895956245829682 0 0.022545265540118008 0.00022903833922571285 0 0.022481126967821105 0.00035231470708215926 0 0.022380594068043186 0.00038292763558109343 0 0.022380594068043186 0.00038292763558109343 0 0.022200613211209932 0.00058070316476874792 0 0.022377232545786319 0.00049401945786059021 0 0.022380594068043186 0.00038292763558109343 0 0.022200613211209932 0.00058070316476874792 0 0.022129115684789914 0.00036875656052652524 0 0.022237166589558974 0.0001997207974767047 0 0.022198380121346072 0.0002480491542841708 0 0.022463325741403625 0.00017370809796865162 0 0.022198380121346072 0.0002480491542841708 0 0.02229868819009034 0.00032701811634744496 0 0.022463325741403625 0.00017370809796865162 0 0.02280329147402917 -2.2093370215888192e-05 0 0.022463325741403625 0.00017370809796865162 0 0.022624162078781061 0.00013101185696705491 0 0.022463325741403625 0.00017370809796865162 0 0.022624162078781061 0.00013101185696705491 0 0.022479663388671349 0.00023859277795622647 0 0.022545265540118008 0.00022903833922571285 0 0.022624162078781061 0.00013101185696705491 0 0.022479663388671349 0.00023859277795622647 0 0.022481126967821105 0.00035231470708215926 0 0.022479663388671349 0.00023859277795622647 0 0.022305366372777521 0.00026968455084195128 0 0.022479663388671349 0.00023859277795622647 0 0.022262559540637033 0.00022015763727141 0 0.022305366372777521 0.00026968455084195128 0 0.022463325741403625 0.00017370809796865162 0 0.022479663388671349 0.00023859277795622647 0 0.022262559540637033 0.00022015763727141 0 0.022237166589558974 0.0001997207974767047 0 0.022463325741403625 0.00017370809796865162 0 0.022262559540637033 0.00022015763727141 0 0.022237166589558974 0.0001997207974767047 0 0.022262559540637033 0.00022015763727141 0 0.022096748352233703 0.00017088788607483451 0 0.022262559540637033 0.00022015763727141 0 0.021966559287399812 8.4780195381055029e-05 0 0.022305366372777521 0.00026968455084195128 0 0.022262559540637033 0.00022015763727141 0 0.021966559287399812 8.4780195381055029e-05 0 0.022096748352233703 0.00017088788607483451 0 0.021966559287399812 8.4780195381055029e-05 0 0.022305366372777521 0.00026968455084195128 0 0.022503968530080659 0.00036137040798696584 0 0.021966559287399812 8.4780195381055029e-05 0 0.021082239106458619 0.00017991487813136812 0 0.020478445574374029 -0.00043957723138372465 0 0.021920948291103987 5.8560203081764447e-05 0 0.021455599094853711 -7.4655659447654114e-06 0 0.021082239106458619 0.00017991487813136812 0 0.021571943093423439 0.00053315224601276599 0 0.020564609714251489 0.00070230663847122975 0 0.021966559287399812 8.4780195381055029e-05 0 0.021082239106458619 0.00017991487813136812 0 0.021571943093423439 0.00053315224601276599 0 0.021966559287399812 8.4780195381055029e-05 0 0.021571943093423439 0.00053315224601276599 0 0.022075624769945262 0.0002968673139695347 0 0.022200613211209932 0.00058070316476874792 0 0.022377232545786319 0.00049401945786059021 0 0.022085652831191988 0.00091570653508617 0 0.020478445574374029 -0.00043957723138372465 0 0.020302895513734213 -5.1918610068756329e-05 0 0.01870151820499396 -0.0004957204331478757 0 0.021455599094853711 -7.4655659447654114e-06 0 0.020369089312639369 0.00020256202556693389 0 0.022377232545786319 0.00049401945786059021 0 0.022503968530080659 0.00036137040798696584 0 0.022085652831191988 0.00091570653508617 0 0.022377232545786319 0.00049401945786059021 0 0.022460296816975235 0.00038895956245829682 0 0.022503968530080659 0.00036137040798696584 0 0.022460296816975235 0.00038895956245829682 0 0.022441053619234676 0.00034785523262874227 0 0.022503968530080659 0.00036137040798696584 0 0.022481126967821105 0.00035231470708215926 0 0.022305366372777521 0.00026968455084195128 0 0.022441053619234676 0.00034785523262874227 0 0.022305366372777521 0.00026968455084195128 0 0.022441053619234676 0.00034785523262874227 0 0.022503968530080659 0.00036137040798696584 0 0.022481126967821105 0.00035231470708215926 0 0.022460296816975235 0.00038895956245829682 0 0.022441053619234676 0.00034785523262874227 0 0.021082239106458619 0.00017991487813136812 0 0.020302895513734213 -5.1918610068756329e-05 0 0.020564609714251489 0.00070230663847122975 0 0.020302895513734213 -5.1918610068756329e-05 0 0.019564949894553863 0.00062037301393688704 0 0.020564609714251489 0.00070230663847122975 0 0.021082239106458619 0.00017991487813136812 0 0.020478445574374029 -0.00043957723138372465 0 0.020302895513734213 -5.1918610068756329e-05 0 0.020302895513734213 -5.1918610068756329e-05 0 0.019564949894553863 0.00062037301393688704 0 0.018680160044726706 -6.4175715437924383e-06 0 0.020302895513734213 -5.1918610068756329e-05 0 0.01870151820499396 -0.0004957204331478757 0 0.018776455568834505 0.00023545674734965226 0 0.020194481422051762 -4.6257538464139096e-05 0 0.018744101767541464 0.00012101328124622566 0 0.019564949894553863 0.00062037301393688704 0 0.020564609714251489 0.00070230663847122975 0 0.019281175235467667 0.0016270641305885984 0 0.019564949894553863 0.00062037301393688704 0 0.019281175235467667 0.0016270641305885984 0 0.01859278123184422 0.00093331870809701151 0 0.020564609714251489 0.00070230663847122975 0 0.019281175235467667 0.0016270641305885984 0 0.020865743149154476 0.0013513566625861756 0 0.0085937641631984446 -0.00029993007464434199 0 0.0079236837971205839 0.00021421287692317364 0 0.0085162650368205122 0.00038200708051145982 0 0.0134582130104344 0.00073323181720961572 0 0.014703227970546368 0.00051591377406530134 0 0.0076079944407271873 -0.00016743277998136608 0 0.0085937641631984446 -0.00029993007464434199 0 0.0079236837971205839 0.00021421287692317364 0 0.0076079944407271873 -0.00016743277998136608 0 0.0073511518280342716 3.5045002950342648e-05 0 0.0079236837971205839 0.00021421287692317364 0 0.021571943093423439 0.00053315224601276599 0 0.021776672647344689 0.00085682905826470321 0 0.022075624769945262 0.0002968673139695347 0 0.021571943093423439 0.00053315224601276599 0 0.020564609714251489 0.00070230663847122975 0 0.020865743149154476 0.0013513566625861756 0 0.021571943093423439 0.00053315224601276599 0 0.020865743149154476 0.0013513566625861756 0 0.021776672647344689 0.00085682905826470321 0 0.014703227970546368 0.00051591377406530134 0 0.015778373384174829 0.00025035544566565825 0 0.0085937641631984446 -0.00029993007464434199 0 0.0088784949459025982 0.0002086462489205598 0 0.0093806488441247129 9.9957848107946494e-05 0 0.0085937641631984446 -0.00029993007464434199 0 0.0088784949459025982 0.0002086462489205598 0 0.0085162650368205122 0.00038200708051145982 0 0.0097836440852317845 -0.00038714847371186111 0 0.0093806488441247129 9.9957848107946494e-05 0 0.0099442900866557014 0.00038713312540309606 0 0.0085937641631984446 -0.00029993007464434199 0 0.0097836440852317845 -0.00038714847371186111 0 0.0093806488441247129 9.9957848107946494e-05 0 0.0097836440852317845 -0.00038714847371186111 0 0.011066891038778306 -0.00034059508924041396 0 0.0099442900866557014 0.00038713312540309606 0 0.015778373384174829 0.00025035544566565825 0 0.016434373739768811 0.00010037883578362484 0 0.021776672647344689 0.00085682905826470321 0 0.022024976560083113 0.00055012672595140246 0 0.022075624769945262 0.0002968673139695347 0 0.022024976560083113 0.00055012672595140246 0 0.022069781823017966 0.00034563233082073047 0 0.022075624769945262 0.0002968673139695347 0 0.016434373739768811 0.00010037883578362484 0 0.017517143446557713 0.00013754624021737965 0 0.011066891038778306 -0.00034059508924041396 0 0.012193985579998744 -0.0002473413076299721 0 0.011709581477056691 0.00036528825221555185 0 0.022019093073342738 0.00037396878585459263 0 0.022037022200208464 0.00033790851039638769 0 0.021996173980217956 0.00033586943945217526 0 0.022019093073342738 0.00037396878585459263 0 0.022069781823017966 0.00034563233082073047 0 0.022037022200208464 0.00033790851039638769 0 0.022024976560083113 0.00055012672595140246 0 0.022019093073342738 0.00037396878585459263 0 0.022069781823017966 0.00034563233082073047 0 0.022069781823017966 0.00034563233082073047 0 0.022059373229996349 0.0003065266719283109 0 0.022074287739241149 0.00027372092172344944 0 0.022069781823017966 0.00034563233082073047 0 0.022037022200208464 0.00033790851039638769 0 0.022059373229996349 0.0003065266719283109 0 0.022037022200208464 0.00033790851039638769 0 0.022059373229996349 0.0003065266719283109 0 0.022043367976981573 0.00030915126710429124 0 0.022059373229996349 0.0003065266719283109 0 0.022052787057452259 0.00028773014054912088 0 0.022043367976981573 0.00030915126710429124 0 0.022059373229996349 0.0003065266719283109 0 0.022061236216791038 0.0002720735969466706 0 0.022052787057452259 0.00028773014054912088 0 0.022072967743688065 0.0002468519776469819 0 0.022074287739241149 0.00027372092172344944 0 0.022087922981118287 0.00022704918378282953 0 0.022072967743688065 0.0002468519776469819 0 0.022061236216791038 0.0002720735969466706 0 0.022074287739241149 0.00027372092172344944 0 0.022059373229996349 0.0003065266719283109 0 0.022061236216791038 0.0002720735969466706 0 0.022074287739241149 0.00027372092172344944 0 0.022074287739241149 0.00027372092172344944 0 0.022087922981118287 0.00022704918378282953 0 0.022075624769945262 0.0002968673139695347 0 0.022087922981118287 0.00022704918378282953 0 0.022096748352233703 0.00017088788607483451 0 0.022075624769945262 0.0002968673139695347 0 0.021966559287399812 8.4780195381055029e-05 0 0.022096748352233703 0.00017088788607483451 0 0.022075624769945262 0.0002968673139695347 0 0.022069781823017966 0.00034563233082073047 0 0.022074287739241149 0.00027372092172344944 0 0.022075624769945262 0.0002968673139695347 0 0.015265381970757923 0.00034116452889979617 0 0.017063859859961582 0.0021338104065461052 0 0.012877216520869476 4.064722051793657e-06 0 0.015265381970757923 0.00034116452889979617 0 0.014384961927784814 -5.9099393065711613e-07 0 0.012877216520869476 4.064722051793657e-06 0 0.015265381970757923 0.00034116452889979617 0 0.017053878105407819 0.00059992285823474815 0 0.017063859859961582 0.0021338104065461052 0 0.015265381970757923 0.00034116452889979617 0 0.017053878105407819 0.00059992285823474815 0 0.016013355975220061 -0.00012466156762478759 0 0.017053878105407819 0.00059992285823474815 0 0.016013355975220061 -0.00012466156762478759 0 0.018215303604904819 0.00017625299865422874 0 0.016013355975220061 -0.00012466156762478759 0 0.016757462868921592 -0.00094221075226934487 0 0.018215303604904819 0.00017625299865422874 0 0.015265381970757923 0.00034116452889979617 0 0.016013355975220061 -0.00012466156762478759 0 0.014384961927784814 -5.9099393065711613e-07 0 0.016013355975220061 -0.00012466156762478759 0 0.014384961927784814 -5.9099393065711613e-07 0 0.015891243710896251 -1.6670067322776921e-06 0 0.016013355975220061 -0.00012466156762478759 0 0.015891243710896251 -1.6670067322776921e-06 0 0.016757462868921592 -0.00094221075226934487 0 0.015896924179073704 2.0917844147281015e-06 0 0.01792967324980483 -0.00026406938710000171 0 0.018861808473359585 0.00032260859502756698 0 0.015894357930011687 -1.1259896339657609e-07 0 0.017858198748076176 -0.00032696701907936683 0 0.017901591515777977 -1.4611810988524458e-06 0 0.015896924179073704 2.0917844147281015e-06 0 0.01792967324980483 -0.00026406938710000171 0 0.01792967324980483 -0.00026406938710000171 0 0.019208541999896907 -0.00045743945364573396 0 0.018861808473359585 0.00032260859502756698 0 0.017858198748076176 -0.00032696701907936683 0 0.019440811177522773 -0.00063058951394229625 0 0.016757462868921592 -0.00094221075226934487 0 0.019687855689709377 -0.0006892653168861227 0 0.018215303604904819 0.00017625299865422874 0 0.019208541999896907 -0.00045743945364573396 0 0.018861808473359585 0.00032260859502756698 0 0.019687855689709377 -0.0006892653168861227 0 0.020299808145341634 -0.00088478326872260178 0 0.019208541999896907 -0.00045743945364573396 0 0.019687855689709377 -0.0006892653168861227 0 0.020299808145341634 -0.00088478326872260178 0 0.019687855689709377 -0.0006892653168861227 0 0.021162109289139381 -0.00088827323402137213 0 0.019687855689709377 -0.0006892653168861227 0 0.020062103678532003 0.00049752807129485935 0 0.021142593925526559 -0.00032427471945069438 0 0.019687855689709377 -0.0006892653168861227 0 0.018215303604904819 0.00017625299865422874 0 0.020062103678532003 0.00049752807129485935 0 0.018215303604904819 0.00017625299865422874 0 0.018588296825459625 0.0010311536677715552 0 0.020062103678532003 0.00049752807129485935 0 0.017053878105407819 0.00059992285823474815 0 0.018588296825459625 0.0010311536677715552 0 0.017063859859961582 0.0021338104065461052 0 0.017053878105407819 0.00059992285823474815 0 0.018215303604904819 0.00017625299865422874 0 0.018588296825459625 0.0010311536677715552 0 0.018588296825459625 0.0010311536677715552 0 0.020062103678532003 0.00049752807129485935 0 0.019757749276282707 0.0019158085914736439 0 0.020573479924975897 0.0011004855506444621 0 0.020062103678532003 0.00049752807129485935 0 0.019757749276282707 0.0019158085914736439 0 0.020573479924975897 0.0011004855506444621 0 0.021162708805451236 0.0008195356338342643 0 0.021192323036200063 0.00020230127603986759 0 0.020573479924975897 0.0011004855506444621 0 0.021162708805451236 0.0008195356338342643 0 0.021196078940102215 0.0013868961284882848 0 0.020573479924975897 0.0011004855506444621 0 0.021192323036200063 0.00020230127603986759 0 0.020062103678532003 0.00049752807129485935 0 0.021692901921065898 0.00034970964342637969 0 0.020062103678532003 0.00049752807129485935 0 0.021142593925526559 -0.00032427471945069438 0 0.021409351295778308 0.00026744863173171549 0 0.020158006718924013 0.00049001264419434214 0 0.019687855689709377 -0.0006892653168861227 0 0.021142593925526559 -0.00032427471945069438 0 0.021162109289139381 -0.00088827323402137213 0 0.021142593925526559 -0.00032427471945069438 0 0.021162109289139381 -0.00088827323402137213 0 0.022073000879763854 -0.00075864177474895499 0 0.021142593925526559 -0.00032427471945069438 0 0.022087272648311233 -0.00024328476743613252 0 0.022073000879763854 -0.00075864177474895499 0 0.021692901921065898 0.00034970964342637969 0 0.021142593925526559 -0.00032427471945069438 0 0.022087272648311233 -0.00024328476743613252 0 0.022087272648311233 -0.00024328476743613252 0 0.022073000879763854 -0.00075864177474895499 0 0.022564759368927156 -0.0004043288711099946 0 0.022612735106887306 -0.00097513122353855232 0 0.022073000879763854 -0.00075864177474895499 0 0.022564759368927156 -0.0004043288711099946 0 0.022087272648311233 -0.00024328476743613252 0 0.022564759368927156 -0.0004043288711099946 0 0.02245871311175612 5.84652993058131e-06 0 0.02200429413621631 4.1844385883916585e-05 0 0.021643229366889154 0.00056844724377879134 0 0.022129115684789914 0.00036875656052652524 0 0.021692901921065898 0.00034970964342637969 0 0.022087272648311233 -0.00024328476743613252 0 0.02245871311175612 5.84652993058131e-06 0 0.021409351295778308 0.00026744863173171549 0 0.022226857437158049 3.72341671528478e-05 0 0.021192323036200063 0.00020230127603986759 0 0.02200429413621631 4.1844385883916585e-05 0 0.021643229366889154 0.00056844724377879134 0 0.021162708805451236 0.0008195356338342643 0 0.021192323036200063 0.00020230127603986759 0 0.021643229366889154 0.00056844724377879134 0 0.021162708805451236 0.0008195356338342643 0 0.021643229366889154 0.00056844724377879134 0 0.021196078940102215 0.0013868961284882848 0 0.021643229366889154 0.00056844724377879134 0 0.021885397479894743 0.00073805270485909319 0 0.021196078940102215 0.0013868961284882848 0 0.021643229366889154 0.00056844724377879134 0 0.021885397479894743 0.00073805270485909319 0 0.022129115684789914 0.00036875656052652524 0 0.022200613211209932 0.00058070316476874792 0 0.021885397479894743 0.00073805270485909319 0 0.022129115684789914 0.00036875656052652524 0 0.022200613211209932 0.00058070316476874792 0 0.021885397479894743 0.00073805270485909319 0 0.022085652831191988 0.00091570653508617 0 0.020369089312639369 0.00020256202556693389 0 0.01897250104260724 0.00044012005980122518 0 0.021885397479894743 0.00073805270485909319 0 0.022085652831191988 0.00091570653508617 0 0.021196078940102215 0.0013868961284882848 0 0.01870151820499396 -0.0004957204331478757 0 0.017910416006773941 -1.3350025837780928e-05 0 0.016782659802479689 -0.0005169401210607605 0 0.017005822570379598 0.00026841092544501089 0 0.018680160044726706 -6.4175715437924383e-06 0 0.017909606859047019 0.00073568134843483976 0 0.017910416006773941 -1.3350025837780928e-05 0 0.017137361366380825 0.00048173179015153573 0 0.018776455568834505 0.00023545674734965226 0 0.017910416006773941 -1.3350025837780928e-05 0 0.017137361366380825 0.00048173179015153573 0 0.016782659802479689 -0.0005169401210607605 0 0.017059991185337728 0.00037760544559110334 0 0.018744101767541464 0.00012101328124622566 0 0.018680160044726706 -6.4175715437924383e-06 0 0.01859278123184422 0.00093331870809701151 0 0.017909606859047019 0.00073568134843483976 0 0.01870151820499396 -0.0004957204331478757 0 0.017910416006773941 -1.3350025837780928e-05 0 0.018776455568834505 0.00023545674734965226 0 0.019564949894553863 0.00062037301393688704 0 0.018680160044726706 -6.4175715437924383e-06 0 0.01859278123184422 0.00093331870809701151 0 0.01859278123184422 0.00093331870809701151 0 0.017492990879817975 0.0016854999879572798 0 0.017909606859047019 0.00073568134843483976 0 0.019281175235467667 0.0016270641305885984 0 0.01859278123184422 0.00093331870809701151 0 0.017492990879817975 0.0016854999879572798 0 0.0076079944407271873 -0.00016743277998136608 0 0.0073511518280342716 3.5045002950342648e-05 0 0.0075858270120938657 0.00019771569807955868 0 0.0134582130104344 0.00073323181720961572 0 0.012563273847933161 0.00092563295358417984 0 0.0073511518280342716 3.5045002950342648e-05 0 0.0075858270120938657 0.00019771569807955868 0 0.0078999346347693265 -0.00019503642012522372 0 0.017005822570379598 0.00026841092544501089 0 0.017492990879817975 0.0016854999879572798 0 0.016369386861226309 0.00093591640926583939 0 0.017005822570379598 0.00026841092544501089 0 0.017492990879817975 0.0016854999879572798 0 0.017909606859047019 0.00073568134843483976 0 0.017492990879817975 0.0016854999879572798 0 0.016369386861226309 0.00093591640926583939 0 0.015882715484265522 0.0016179683599531164 0 0.012563273847933161 0.00092563295358417984 0 0.012128237172377095 0.00096020356121080067 0 0.0075858270120938657 0.00019771569807955868 0 0.0083838323633829582 0.00031423027341397606 0 0.0078999346347693265 -0.00019503642012522372 0 0.0084152493120003211 -3.5307443348865079e-05 0 0.0083838323633829582 0.00031423027341397606 0 0.0078999346347693265 -0.00019503642012522372 0 0.0087227324582041764 4.2331914679351857e-05 0 0.0083838323633829582 0.00031423027341397606 0 0.0091124422093760322 0.00027761771136393718 0 0.0087227324582041764 4.2331914679351857e-05 0 0.0084152493120003211 -3.5307443348865079e-05 0 0.0083838323633829582 0.00031423027341397606 0 0.016369386861226309 0.00093591640926583939 0 0.015882715484265522 0.0016179683599531164 0 0.015566567149778585 0.00062480048566157477 0 0.015882715484265522 0.0016179683599531164 0 0.015566567149778585 0.00062480048566157477 0 0.014496925378639568 0.0015425557442586696 0 0.017137361366380825 0.00048173179015153573 0 0.015566567149778585 0.00062480048566157477 0 0.016782659802479689 -0.0005169401210607605 0 0.017059991185337728 0.00037760544559110334 0 0.015666594886024284 0.00060108385178470546 0 0.017005822570379598 0.00026841092544501089 0 0.016369386861226309 0.00093591640926583939 0 0.015566567149778585 0.00062480048566157477 0 0.015566567149778585 0.00062480048566157477 0 0.016782659802479689 -0.0005169401210607605 0 0.015064042303397789 -0.00045457918657782322 0 0.01897250104260724 0.00044012005980122518 0 0.017372626945732213 0.00073320748409791176 0 0.020573479924975897 0.0011004855506444621 0 0.021196078940102215 0.0013868961284882848 0 0.019757749276282707 0.0019158085914736439 0 0.015064042303397789 -0.00045457918657782322 0 0.014445059679429498 0.0003986696005642151 0 0.013574699810853477 -0.00029523369509662847 0 0.017372626945732213 0.00073320748409791176 0 0.015387265268316699 0.00084351938377367119 0 0.018588296825459625 0.0010311536677715552 0 0.019757749276282707 0.0019158085914736439 0 0.017063859859961582 0.0021338104065461052 0 0.014445059679429498 0.0003986696005642151 0 0.013638718813188504 0.00061340837360354986 0 0.013574699810853477 -0.00029523369509662847 0 0.015566567149778585 0.00062480048566157477 0 0.015064042303397789 -0.00045457918657782322 0 0.014445059679429498 0.0003986696005642151 0 0.015566567149778585 0.00062480048566157477 0 0.014445059679429498 0.0003986696005642151 0 0.014496925378639568 0.0015425557442586696 0 0.012128237172377095 0.00096020356121080067 0 0.011833654209966772 0.00091747952971594289 0 0.0091124422093760322 0.00027761771136393718 0 0.0089806263321034266 -6.4009404700181681e-05 0 0.0092213482819735095 -5.3647147446020023e-05 0 0.0087227324582041764 4.2331914679351857e-05 0 0.0091124422093760322 0.00027761771136393718 0 0.0089806263321034266 -6.4009404700181681e-05 0 0.0091124422093760322 0.00027761771136393718 0 0.0093810780252733105 7.3842833315512915e-08 0 0.0094710236130459251 6.5926259186724063e-05 0 0.0091124422093760322 0.00027761771136393718 0 0.0095860659419696667 0.00016885647517910201 0 0.0094710236130459251 6.5926259186724063e-05 0 0.0093810780252733105 7.3842833315512915e-08 0 0.0092213482819735095 -5.3647147446020023e-05 0 0.009343970175608559 -8.3389324606646112e-05 0 0.0093810780252733105 7.3842833315512915e-08 0 0.0094619469230362852 -5.3706616861590857e-05 0 0.0094077827186614411 -7.8806872555009248e-05 0 0.0091124422093760322 0.00027761771136393718 0 0.0093810780252733105 7.3842833315512915e-08 0 0.0092213482819735095 -5.3647147446020023e-05 0 0.014445059679429498 0.0003986696005642151 0 0.014496925378639568 0.0015425557442586696 0 0.013638718813188504 0.00061340837360354986 0 0.011833654209966772 0.00091747952971594289 0 0.011294669523329552 0.00072638679575584379 0 0.014496925378639568 0.0015425557442586696 0 0.013288809124824547 0.0014499218717045537 0 0.013638718813188504 0.00061340837360354986 0 0.013288809124824547 0.0014499218717045537 0 0.012890346837751835 0.00067533935550099394 0 0.013638718813188504 0.00061340837360354986 0 0.011294669523329552 0.00072638679575584379 0 0.011865924954106566 0.00028258093027215444 0 0.0095860659419696667 0.00016885647517910201 0 0.0094710236130459251 6.5926259186724063e-05 0 0.009599824162426834 5.9896863464666457e-05 0 0.0095860659419696667 0.00016885647517910201 0 0.009599824162426834 5.9896863464666457e-05 0 0.0097053385356167324 -2.7793955693108933e-05 0 0.0094710236130459251 6.5926259186724063e-05 0 0.009599824162426834 5.9896863464666457e-05 0 0.0096093120619265681 -1.7651388562745162e-05 0 0.009599824162426834 5.9896863464666457e-05 0 0.0096093120619265681 -1.7651388562745162e-05 0 0.0097053385356167324 -2.7793955693108933e-05 0 0.0093810780252733105 7.3842833315512915e-08 0 0.0095172335945191786 -1.6612028657401054e-05 0 0.0094619469230362852 -5.3706616861590857e-05 0 0.0093810780252733105 7.3842833315512915e-08 0 0.0094710236130459251 6.5926259186724063e-05 0 0.0095172335945191786 -1.6612028657401054e-05 0 0.0094710236130459251 6.5926259186724063e-05 0 0.0096093120619265681 -1.7651388562745162e-05 0 0.0095172335945191786 -1.6612028657401054e-05 0 0.0096093120619265681 -1.7651388562745162e-05 0 0.0095172335945191786 -1.6612028657401054e-05 0 0.0095371861486358289 -6.3577650289081933e-05 0 0.0095860659419696667 0.00016885647517910201 0 0.0097053385356167324 -2.7793955693108933e-05 0 0.0099832761517880224 -8.9678626738843638e-07 0 0.0092751726832250719 -2.3698928878994064e-07 0 0.0089664443556780968 -4.2304660806703112e-05 0 0.0092778831294865662 4.1746060181989231e-07 0 0.0097053385356167324 -2.7793955693108933e-05 0 0.0096736856219921483 -1.2349848368702081e-05 0 0.0096093120619265681 -1.7651388562745162e-05 0 0.0097053385356167324 -2.7793955693108933e-05 0 0.0096736856219921483 -1.2349848368702081e-05 0 0.0092778831294865662 4.1746060181989231e-07 0 0.0097053385356167324 -2.7793955693108933e-05 0 0.0099832761517880224 -8.9678626738843638e-07 0 0.0092778831294865662 4.1746060181989231e-07 0 0.0099832761517880224 -8.9678626738843638e-07 0 0.010846297353117979 -5.200216645527247e-07 0 0.010502882607298248 3.2414632888188734e-05 0 0.010397638791897215 -4.2311924743860305e-05 0 0.010639038414765196 -2.011316429219208e-05 0 0.011294669523329552 0.00072638679575584379 0 0.0095559390844644401 2.6261419250259392e-05 0 0.010502882607298248 3.2414632888188734e-05 0 0.0099832761517880224 -8.9678626738843638e-07 0 0.010397638791897215 -4.2311924743860305e-05 0 0.0099832761517880224 -8.9678626738843638e-07 0 0.010397638791897215 -4.2311924743860305e-05 0 0.010846297353117979 -5.200216645527247e-07 0 0.010397638791897215 -4.2311924743860305e-05 0 0.010846297353117979 -5.200216645527247e-07 0 0.010639038414765196 -2.011316429219208e-05 0 0.012890346837751835 0.00067533935550099394 0 0.013131158962981849 4.5840634947048676e-05 0 0.012422395063298064 1.323044346249329e-06 0 0.011865924954106566 0.00028258093027215444 0 0.012417769553741105 -1.6424904200520007e-07 0 0.010846297353117979 -5.200216645527247e-07 0 0.010639038414765196 -2.011316429219208e-05 0 0.012417330102030603 6.3826685245505948e-07 0 0.012890346837751835 0.00067533935550099394 0 0.013638718813188504 0.00061340837360354986 0 0.013131158962981849 4.5840634947048676e-05 0 0.013638718813188504 0.00061340837360354986 0 0.013131158962981849 4.5840634947048676e-05 0 0.013574699810853477 -0.00029523369509662847 0 0.015387265268316699 0.00084351938377367119 0 0.01287506706683285 3.6330730887373012e-07 0 0.013131158962981849 4.5840634947048676e-05 0 0.013574699810853477 -0.00029523369509662847 0 0.012870166747434516 -1.4651091258859765e-06 0 0.013131158962981849 4.5840634947048676e-05 0 0.012870166747434516 -1.4651091258859765e-06 0 0.012422395063298064 1.323044346249329e-06 0 0.0045316956373391906 -0.00016731589671299378 0 0.0048065666987388714 1.0944443090066484e-05 0 0.0059305173192747583 2.5792928595021038e-07 0 0.0045316956373391906 -0.00016731589671299378 0 0.0059305173192747583 2.5792928595021038e-07 0 0.0039014793547643548 7.0857450450137053e-08 0 0.0045316956373391906 -0.00016731589671299378 0 0.0045279572688481078 -0.00022247332432456934 0 0.0048065666987388714 1.0944443090066484e-05 0 0.0045316956373391906 -0.00016731589671299378 0 0.0045279572688481078 -0.00022247332432456934 0 0.0044079089332062461 -6.549283810554631e-05 0 0.0045279572688481078 -0.00022247332432456934 0 0.0048065666987388714 1.0944443090066484e-05 0 0.0045674722578285766 0.00032086431118356928 0 0.0045279572688481078 -0.00022247332432456934 0 0.0045674722578285766 0.00032086431118356928 0 0.0041961003643457007 0.00051754505051431008 0 0.0048065666987388714 1.0944443090066484e-05 0 0.0045674722578285766 0.00032086431118356928 0 0.0049817551279094782 0.00059953755122353245 0 0.0048065666987388714 1.0944443090066484e-05 0 0.0059305173192747583 2.5792928595021038e-07 0 0.0049817551279094782 0.00059953755122353245 0 0.0059360005016397032 -5.1286115768048996e-09 0 0.0070664084692652384 1.1941313630263797e-08 0 0.0066935960803175187 -6.8035681656618624e-05 0 0.0059332228899798504 1.2724903695640709e-08 0 0.0057649211624291648 0.00028087584363230858 0 0.0070697179575086502 -5.9704431142556973e-08 0 0.0071849054884928045 0.00040169124009326084 0 0.0070664084692652384 1.1941313630263797e-08 0 0.0066935960803175187 -6.8035681656618624e-05 0 0.0063844447668117039 0.00024835744397079935 0 0.007071748063007091 4.5595504378489634e-07 0 0.0079911004841522765 -0.0001263266989301241 0 0.0082631175099910376 0.00018080282508732264 0 0.0092745378719728891 4.6894382235480242e-07 0 0.008171804181924024 -4.6025827581517504e-07 0 0.0079911004841522765 -0.0001263266989301241 0 0.007071748063007091 4.5595504378489634e-07 0 0.008171804181924024 -4.6025827581517504e-07 0 0.0079911004841522765 -0.0001263266989301241 0 0.0094490894121564382 -0.00010553298746170747 0 0.0095371861486358289 -6.3577650289081933e-05 0 0.0094724516761705325 -0.00015835854349903505 0 0.0094490894121564382 -0.00010553298746170747 0 0.0094724516761705325 -0.00015835854349903505 0 0.0093782343558051727 -0.0001405101281941544 0 0.0094490894121564382 -0.00010553298746170747 0 0.0094619469230362852 -5.3706616861590857e-05 0 0.0095371861486358289 -6.3577650289081933e-05 0 0.0094490894121564382 -0.00010553298746170747 0 0.0094619469230362852 -5.3706616861590857e-05 0 0.0094077827186614411 -7.8806872555009248e-05 0 0.0095172335945191786 -1.6612028657401054e-05 0 0.0094619469230362852 -5.3706616861590857e-05 0 0.0095371861486358289 -6.3577650289081933e-05 0 0.0096093120619265681 -1.7651388562745162e-05 0 0.0096736856219921483 -1.2349848368702081e-05 0 0.0095371861486358289 -6.3577650289081933e-05 0 0.0096736856219921483 -1.2349848368702081e-05 0 0.0095371861486358289 -6.3577650289081933e-05 0 0.0094724516761705325 -0.00015835854349903505 0 0.0089664443556780968 -4.2304660806703112e-05 0 0.0071849054884928045 0.00040169124009326084 0 0.0096736856219921483 -1.2349848368702081e-05 0 0.0094724516761705325 -0.00015835854349903505 0 0.0094915724839902266 -0.00032501828560125477 0 0.0094724516761705325 -0.00015835854349903505 0 0.0094915724839902266 -0.00032501828560125477 0 0.0093866885625377098 -0.00024921981838660437 0 0.0059969208064642393 0.00021813071308134907 0 0.0060558215183731104 0.00027789652128893576 0 0.0061949196642263425 0.00017467278699159584 0 0.0094915724839902266 -0.00032501828560125477 0 0.0093962479002001054 -0.00031440650848864121 0 0.0093866885625377098 -0.00024921981838660437 0 0.0045674722578285766 0.00032086431118356928 0 0.0049817551279094782 0.00059953755122353245 0 0.0045042898776941247 0.00087195295693698923 0 0.0071849054884928045 0.00040169124009326084 0 0.0059689361620662799 0.00034166520643740417 0 0.0045674722578285766 0.00032086431118356928 0 0.0045042898776941247 0.00087195295693698923 0 0.0041961003643457007 0.00051754505051431008 0 0.0058560564124114324 0.00031683111107321779 0 0.0059689361620662799 0.00034166520643740417 0 0.0071849054884928045 0.00040169124009326084 0 0.0058560564124114324 0.00031683111107321779 0 0.0066935960803175187 -6.8035681656618624e-05 0 0.0063844447668117039 0.00024835744397079935 0 0.006341329570396746 0.00020559428453954747 0 0.0057649211624291648 0.00028087584363230858 0 0.0058560564124114324 0.00031683111107321779 0 0.0058560564124114324 0.00031683111107321779 0 0.0040381540116409065 0.00056656391771831526 0 0.0041461257467355888 0.00065093853878848181 0 0.0040296950237041773 0.00067212642532532064 0 0.0042350146957805439 0.00049888923391425979 0 0.0041443287933596853 0.0007104649363477404 0 0.0041490966387398697 0.00070644306455182164 0 0.00412273429880557 0.00070661362307950361 0 0.0040381540116409065 0.00056656391771831526 0 0.0040620067361982429 0.00068393531967684672 0 0.0041443287933596853 0.0007104649363477404 0 0.0041041763875505535 0.0006841876810041121 0 0.0041490966387398697 0.00070644306455182164 0 0.0041041763875505535 0.0006841876810041121 0 0.0041461257467355888 0.00065093853878848181 0 0.0041490966387398697 0.00070644306455182164 0 0.0041041763875505535 0.0006841876810041121 0 0.0041461257467355888 0.00065093853878848181 0 0.0040296950237041773 0.00067212642532532064 0 0.0040084257657010472 0.00068993713873930624 0 0.0040815146988783151 0.00075289022822970107 0 0.0040296950237041773 0.00067212642532532064 0 0.0040815146988783151 0.00075289022822970107 0 0.0041041763875505535 0.0006841876810041121 0 0.0040296950237041773 0.00067212642532532064 0 0.0050068998825685135 0.0003089624620756621 0 0.005132450964990337 0.000214474275235471 0 0.0054710765735029639 0.00020811047328075032 0 0.0059689361620662799 0.00034166520643740417 0 0.0078481150502254151 -0.00012065125186338539 0 0.0093962479002001054 -0.00031440650848864121 0 0.0093866885625377098 -0.00024921981838660437 0 0.0092574064003853249 -0.000233101421552422 0 0.0059689361620662799 0.00034166520643740417 0 0.0045648211710306681 0.0004022400212658671 0 0.0089387588276516501 -0.00027494540565199449 0 0.0078481150502254151 -0.00012065125186338539 0 0.0093866885625377098 -0.00024921981838660437 0 0.0093575227619678708 -0.00020663470515758486 0 0.0093015953219803046 -0.00025712782225288249 0 0.0094724516761705325 -0.00015835854349903505 0 0.0093575227619678708 -0.00020663470515758486 0 0.0093782343558051727 -0.0001405101281941544 0 0.0094724516761705325 -0.00015835854349903505 0 0.0093866885625377098 -0.00024921981838660437 0 0.0093575227619678708 -0.00020663470515758486 0 0.0093575227619678708 -0.00020663470515758486 0 0.0093015953219803046 -0.00025712782225288249 0 0.0093043313973997042 -0.00016586131463321041 0 0.0093015953219803046 -0.00025712782225288249 0 0.0091983450675517352 -0.00023133898233263569 0 0.0093043313973997042 -0.00016586131463321041 0 0.0078481150502254151 -0.00012065125186338539 0 0.0087972444598736887 -0.00049829268121951114 0 0.0092213482819735095 -5.3647147446020023e-05 0 0.0091983450675517352 -0.00023133898233263569 0 0.0093043313973997042 -0.00016586131463321041 0 0.0089806263321034266 -6.4009404700181681e-05 0 0.0092213482819735095 -5.3647147446020023e-05 0 0.0091983450675517352 -0.00023133898233263569 0 0.0092213482819735095 -5.3647147446020023e-05 0 0.009343970175608559 -8.3389324606646112e-05 0 0.0093043313973997042 -0.00016586131463321041 0 0.009343970175608559 -8.3389324606646112e-05 0 0.0094077827186614411 -7.8806872555009248e-05 0 0.0093782343558051727 -0.0001405101281941544 0 0.0093810780252733105 7.3842833315512915e-08 0 0.009343970175608559 -8.3389324606646112e-05 0 0.0094077827186614411 -7.8806872555009248e-05 0 0.0094490894121564382 -0.00010553298746170747 0 0.0094077827186614411 -7.8806872555009248e-05 0 0.0093782343558051727 -0.0001405101281941544 0 0.0093575227619678708 -0.00020663470515758486 0 0.0093782343558051727 -0.0001405101281941544 0 0.0093043313973997042 -0.00016586131463321041 0 0.009343970175608559 -8.3389324606646112e-05 0 0.0093782343558051727 -0.0001405101281941544 0 0.0093043313973997042 -0.00016586131463321041 0 0.0078481150502254151 -0.00012065125186338539 0 0.0070350920999402902 -6.2952877271243255e-05 0 0.005132450964990337 0.000214474275235471 0 0.0054710765735029639 0.00020811047328075032 0 0.00567030022671539 0.00011564287373449735 0 0.0093267572862800636 -0.00030400160708020537 0 0.0091983450675517352 -0.00023133898233263569 0 0.0086913918869836806 -0.00029107939935821747 0 0.0089806263321034266 -6.4009404700181681e-05 0 0.0091983450675517352 -0.00023133898233263569 0 0.0086913918869836806 -0.00029107939935821747 0 0.0087227324582041764 4.2331914679351857e-05 0 0.0089806263321034266 -6.4009404700181681e-05 0 0.0086913918869836806 -0.00029107939935821747 0 0.0041547479620599953 0.00066992765849859697 0 0.0047553174805194344 0.0013694412869362819 0 0.0042340044304136617 0.00071304328932763402 0 0.00412273429880557 0.00070661362307950361 0 0.0040457500363796682 0.00069572400504836016 0 0.0042350146957805439 0.00049888923391425979 0 0.0042340044304136617 0.00071304328932763402 0 0.0049247465912231987 0.00063335012327900145 0 0.0041461257467355888 0.00065093853878848181 0 0.0042340044304136617 0.00071304328932763402 0 0.0041490966387398697 0.00070644306455182164 0 0.0041461257467355888 0.00065093853878848181 0 0.0042350146957805439 0.00049888923391425979 0 0.0042340044304136617 0.00071304328932763402 0 0.0042340044304136617 0.00071304328932763402 0 0.0041490966387398697 0.00070644306455182164 0 0.00412273429880557 0.00070661362307950361 0 0.0040381540116409065 0.00056656391771831526 0 0.0040348456195197762 0.00069978434444728911 0 0.0041443287933596853 0.0007104649363477404 0 0.00412273429880557 0.00070661362307950361 0 0.0040346581248635527 0.00068527677579323766 0 0.00412273429880557 0.00070661362307950361 0 0.0040346581248635527 0.00068527677579323766 0 0.0040457500363796682 0.00069572400504836016 0 0.0044881644372659277 0.00022485225671123373 0 0.0040381540116409065 0.00056656391771831526 0 0.0038879233909185846 0.00052829043447171116 0 0.0039255124789942236 0.00065736500105709683 0 0.0040346581248635527 0.00068527677579323766 0 0.0038470626042465929 0.00069159164329280268 0 0.0038879233909185846 0.00052829043447171116 0 0.0039255124789942236 0.00065736500105709683 0 0.0038470626042465929 0.00069159164329280268 0 0.0039255124789942236 0.00065736500105709683 0 0.0039430674459212207 0.00071792198827518668 0 0.0039430674459212207 0.00071792198827518668 0 0.0040346581248635527 0.00068527677579323766 0 0.0040109154689012523 0.00072457906764139177 0 0.0039255124789942236 0.00065736500105709683 0 0.0039430674459212207 0.00071792198827518668 0 0.0040346581248635527 0.00068527677579323766 0 0.0040457500363796682 0.00069572400504836016 0 0.0040359945972760656 0.00073047599352469032 0 0.0040109154689012523 0.00072457906764139177 0 0.0040346581248635527 0.00068527677579323766 0 0.0040457500363796682 0.00069572400504836016 0 0.0040109154689012523 0.00072457906764139177 0 0.0047553174805194344 0.0013694412869362819 0 0.0031454111334173157 0.0015634780968461527 0 0.0062777348552692149 0.0015897893741936868 0 0.0063658321207384801 0.0021779848951708545 0 0.0059894573521856427 0.0024788861368090615 0 0.0070331005629325951 0.0018916005101105905 0 0.0031454111334173157 0.0015634780968461527 0 0.0055990052924240596 0.0015047193740429204 0 0.0062777348552692149 0.0015897893741936868 0 0.0055867874519937126 0.0028284606999415445 0 0.0055990052924240596 0.0015047193740429204 0 0.004957930030578343 0.0018135122832303701 0 0.0055867874519937126 0.0028284606999415445 0 0.0055990052924240596 0.0015047193740429204 0 0.004957930030578343 0.0018135122832303701 0 0.0050822607971046903 0.0010276237543210202 0 0.0042340044304136617 0.00071304328932763402 0 0.004957930030578343 0.0018135122832303701 0 0.0050822607971046903 0.0010276237543210202 0 0.0042340044304136617 0.00071304328932763402 0 0.0050822607971046903 0.0010276237543210202 0 0.0049247465912231987 0.00063335012327900145 0 0.0050822607971046903 0.0010276237543210202 0 0.0049247465912231987 0.00063335012327900145 0 0.0055509517027683385 0.00078692062910656522 0 0.0054710765735029639 0.00020811047328075032 0 0.00567030022671539 0.00011564287373449735 0 0.006037711979974777 0.00012915958924676266 0 0.0070350920999402902 -6.2952877271243255e-05 0 0.0071798392311260865 -6.6015172986763678e-05 0 0.0045648211710306681 0.0004022400212658671 0 0.0058407538107547001 0.0001584365664212031 0 0.0042350146957805439 0.00049888923391425979 0 0.0049247465912231987 0.00063335012327900145 0 0.0054695384565123023 0.00018523504521355296 0 0.0084152493120003211 -3.5307443348865079e-05 0 0.0086913918869836806 -0.00029107939935821747 0 0.0078999346347693265 -0.00019503642012522372 0 0.0049247465912231987 0.00063335012327900145 0 0.0054695384565123023 0.00018523504521355296 0 0.0055509517027683385 0.00078692062910656522 0 0.0087227324582041764 4.2331914679351857e-05 0 0.0084152493120003211 -3.5307443348865079e-05 0 0.0086913918869836806 -0.00029107939935821747 0 0.006377887016035891 4.6267893990067551e-05 0 0.006037711979974777 0.00012915958924676266 0 0.0067899346636945985 8.361979527741078e-05 0 0.0054695384565123023 0.00018523504521355296 0 0.0062390352807222644 0.00077835703295927325 0 0.0067899346636945985 8.361979527741078e-05 0 0.00567030022671539 0.00011564287373449735 0 0.006377887016035891 4.6267893990067551e-05 0 0.006037711979974777 0.00012915958924676266 0 0.0058407538107547001 0.0001584365664212031 0 0.0066857985916698214 7.2918080876876169e-05 0 0.0054695384565123023 0.00018523504521355296 0 0.0055509517027683385 0.00078692062910656522 0 0.0062390352807222644 0.00077835703295927325 0 0.0055990052924240596 0.0015047193740429204 0 0.0062390352807222644 0.00077835703295927325 0 0.0062777348552692149 0.0015897893741936868 0 0.0055990052924240596 0.0015047193740429204 0 0.0055509517027683385 0.00078692062910656522 0 0.0062390352807222644 0.00077835703295927325 0 0.0055990052924240596 0.0015047193740429204 0 0.0050822607971046903 0.0010276237543210202 0 0.0055509517027683385 0.00078692062910656522 0 0.0062390352807222644 0.00077835703295927325 0 0.007037010233878576 0.00052323483916466378 0 0.0070479927581115183 0.0011531064556390205 0 0.0062390352807222644 0.00077835703295927325 0 0.0070479927581115183 0.0011531064556390205 0 0.0062777348552692149 0.0015897893741936868 0 0.0073187545031383697 1.2020341803792913e-05 0 0.0071798392311260865 -6.6015172986763678e-05 0 0.0062390352807222644 0.00077835703295927325 0 0.0067899346636945985 8.361979527741078e-05 0 0.007037010233878576 0.00052323483916466378 0 0.0073511518280342716 3.5045002950342648e-05 0 0.006377887016035891 4.6267893990067551e-05 0 0.0067899346636945985 8.361979527741078e-05 0 0.0073511518280342716 3.5045002950342648e-05 0 0.007037010233878576 0.00052323483916466378 0 0.0076442162038216537 0.00072887045066825657 0 0.0073511518280342716 3.5045002950342648e-05 0 0.0067899346636945985 8.361979527741078e-05 0 0.007037010233878576 0.00052323483916466378 0 0.007037010233878576 0.00052323483916466378 0 0.0070479927581115183 0.0011531064556390205 0 0.0076442162038216537 0.00072887045066825657 0 0.0070479927581115183 0.0011531064556390205 0 0.0069564914069258276 0.0018545194252105944 0 0.0077464791865127667 0.0015591732314252005 0 0.0070479927581115183 0.0011531064556390205 0 0.0069564914069258276 0.0018545194252105944 0 0.0062777348552692149 0.0015897893741936868 0 0.0069564914069258276 0.0018545194252105944 0 0.0062777348552692149 0.0015897893741936868 0 0.0063658321207384801 0.0021779848951708545 0 0.0069564914069258276 0.0018545194252105944 0 0.0063658321207384801 0.0021779848951708545 0 0.0067529124555089038 0.00236918152938839 0 0.0063658321207384801 0.0021779848951708545 0 0.0061770357265544824 0.0025322928242314693 0 0.0059894573521856427 0.0024788861368090615 0 0.0063658321207384801 0.0021779848951708545 0 0.0067529124555089038 0.00236918152938839 0 0.0061770357265544824 0.0025322928242314693 0 0.0069564914069258276 0.0018545194252105944 0 0.0067529124555089038 0.00236918152938839 0 0.0073382770971082154 0.0023566458301883257 0 0.0069564914069258276 0.0018545194252105944 0 0.0073382770971082154 0.0023566458301883257 0 0.0077464791865127667 0.0015591732314252005 0 0.0073382770971082154 0.0023566458301883257 0 0.0068962967272630949 0.0029179113229853516 0 0.0075070045064045418 0.0031997228982998784 0 0.006240881640148307 0.0026883008447035899 0 0.0064429970865899208 0.0020322420094640191 0 0.0067529124555089038 0.00236918152938839 0 0.0073382770971082154 0.0023566458301883257 0 0.0068962967272630949 0.0029179113229853516 0 0.0067529124555089038 0.00236918152938839 0 0.0068962967272630949 0.0029179113229853516 0 0.0061770357265544824 0.0025322928242314693 0 0.006240881640148307 0.0026883008447035899 0 0.0061471966499502618 0.0025730228010973607 0 0.0055527220013484452 0.0025112096151477118 0 0.0061770357265544824 0.0025322928242314693 0 0.0056384443427206403 0.0021998690018774892 0 0.0061770357265544824 0.0025322928242314693 0 0.006129473490145994 0.0022106567006323569 0 0.0056384443427206403 0.0021998690018774892 0 0.0056384443427206403 0.0021998690018774892 0 0.0052000606424215364 0.0018839920488940471 0 0.0049847964311503538 0.0023291189486306435 0 0.0055527220013484452 0.0025112096151477118 0 0.0056384443427206403 0.0021998690018774892 0 0.0049847964311503538 0.0023291189486306435 0 0.0049538668818011585 0.0023462139835359473 0 0.0064429970865899208 0.0020322420094640191 0 0.0052000606424215364 0.0018839920488940471 0 0.0048503795409735343 0.00096649725204158094 0 0.0055757118537219062 0.0011171163573007281 0 0.0056384443427206403 0.0021998690018774892 0 0.0052000606424215364 0.0018839920488940471 0 0.0055757118537219062 0.0011171163573007281 0 0.0052000606424215364 0.0018839920488940471 0 0.0048503795409735343 0.00096649725204158094 0 0.0044666757313133517 0.0014493038985374188 0 -0.0018985847985616643 0.00038802517558404975 0 -0.0020984110302774538 0.00033338735362077073 0 -0.0020336569632435704 0.00023123897220130268 0 -7.30862804319162e-06 0.00047923072868453093 0 0.001999440383503122 0.00068147414769576269 0 0.004732418166111918 -0.00026870365274692207 0 0.0048503795409735343 0.00096649725204158094 0 0.0055757118537219062 0.0011171163573007281 0 -0.0020984110302774538 0.00033338735362077073 0 -0.0021800232369723152 0.00035504163144393875 0 -0.0021294840006375404 0.00025186069497998905 0 -0.0020984110302774538 0.00033338735362077073 0 -0.0020336569632435704 0.00023123897220130268 0 -0.0021294840006375404 0.00025186069497998905 0 0.006129473490145994 0.0022106567006323569 0 0.0056384443427206403 0.0021998690018774892 0 0.0055757118537219062 0.0011171163573007281 0 -0.0020828607914978045 0.00019609230793346815 0 -0.0020336569632435704 0.00023123897220130268 0 -0.0021259970445607996 0.00020331107097922753 0 -0.0020336569632435704 0.00023123897220130268 0 -0.0021259970445607996 0.00020331107097922753 0 -0.0021294840006375404 0.00025186069497998905 0 0.0017893409488612419 0.0010860995477865335 0 0.001999440383503122 0.00068147414769576269 0 -0.0021259970445607996 0.00020331107097922753 0 -0.0021294840006375404 0.00025186069497998905 0 -0.0021927158531607201 0.00019951613419540452 0 -0.0021259970445607996 0.00020331107097922753 0 -0.0021927158531607201 0.00019951613419540452 0 -0.0021471197156149343 0.00020215536123533738 0 -0.0021294840006375404 0.00025186069497998905 0 -0.0022099248442895075 0.000293991264197739 0 -0.0021927158531607201 0.00019951613419540452 0 -0.0021800232369723152 0.00035504163144393875 0 -0.0021294840006375404 0.00025186069497998905 0 -0.0022099248442895075 0.000293991264197739 0 -0.0022099248442895075 0.000293991264197739 0 -0.0023094643673262642 0.0002887029468863528 0 -0.0021927158531607201 0.00019951613419540452 0 -0.0023094643673262642 0.0002887029468863528 0 -0.0023194004491778495 0.00021369479759540436 0 -0.0021927158531607201 0.00019951613419540452 0 -0.0023094643673262642 0.0002887029468863528 0 -0.0023194004491778495 0.00021369479759540436 0 -0.0024308731726945757 0.00023968437586997072 0 -0.0025763663030252027 -0.00013398901704824489 0 -0.00022661576437165568 0.0001308597597852902 0 -0.0023194004491778495 0.00021369479759540436 0 -0.0021927158531607201 0.00019951613419540452 0 -0.0023488832138181849 0.00010192154144703638 0 -0.0021927158531607201 0.00019951613419540452 0 -0.0021471197156149343 0.00020215536123533738 0 -0.0021363237592355233 0.00020057118191160826 0 -0.0021259970445607996 0.00020331107097922753 0 -0.0021471197156149343 0.00020215536123533738 0 -0.0021090596686941 0.00019884950707552246 0 0.00087948950171865285 0.00043170659330017761 0 -0.00022661576437165568 0.0001308597597852902 0 -0.0021471197156149343 0.00020215536123533738 0 -0.0021090596686941 0.00019884950707552246 0 -0.0021363237592355233 0.00020057118191160826 0 0.0039942089760433824 0.00078554439899983187 0 0.0039351343594472591 0.00080188774979497951 0 0.0039243562520141998 0.00084728558653828162 0 -0.0020828607914978045 0.00019609230793346815 0 -0.0021259970445607996 0.00020331107097922753 0 -0.0021090596686941 0.00019884950707552246 0 -0.0020828607914978045 0.00019609230793346815 0 -0.0021090596686941 0.00019884950707552246 0 -0.002051317710558559 0.0002048523351005238 0 0.0017893409488612419 0.0010860995477865335 0 0.0031454111334173157 0.0015634780968461527 0 0.0061770357265544824 0.0025322928242314693 0 0.006129473490145994 0.0022106567006323569 0 0.0059894573521856427 0.0024788861368090615 0 0.0039942089760433824 0.00078554439899983187 0 0.0040359945972760656 0.00073047599352469032 0 0.0040109154689012523 0.00072457906764139177 0 0.00087948950171865285 0.00043170659330017761 0 0.0031454111334173157 0.0015634780968461527 0 0.0039942089760433824 0.00078554439899983187 0 0.0040109154689012523 0.00072457906764139177 0 0.0039422051108922839 0.00075665821521255503 0 0.0039430674459212207 0.00071792198827518668 0 0.0040109154689012523 0.00072457906764139177 0 0.0039422051108922839 0.00075665821521255503 0 0.0038470626042465929 0.00069159164329280268 0 0.0039430674459212207 0.00071792198827518668 0 0.0038750614439164621 0.00075807219297459511 0 0.0039430674459212207 0.00071792198827518668 0 0.0039422051108922839 0.00075665821521255503 0 0.0038750614439164621 0.00075807219297459511 0 -0.0025139659918648853 9.213930938016723e-05 0 -0.0026163975220370246 0.00015616802400543608 0 -0.0026425065138127703 1.9915561803178233e-05 0 0.0039422051108922839 0.00075665821521255503 0 0.0038750614439164621 0.00075807219297459511 0 0.0038719285122734864 0.00082015871898630905 0 0.0038750614439164621 0.00075807219297459511 0 0.0038719285122734864 0.00082015871898630905 0 0.0037987979289782173 0.00079069336324755831 0 0.00065719180615960099 0.00048027721577202946 0 0.0018095624291342696 0.00041387968713108589 0 0.0039942089760433824 0.00078554439899983187 0 0.0039422051108922839 0.00075665821521255503 0 0.0039351343594472591 0.00080188774979497951 0 0.0038719285122734864 0.00082015871898630905 0 0.0039351343594472591 0.00080188774979497951 0 0.0039243562520141998 0.00084728558653828162 0 0.0039422051108922839 0.00075665821521255503 0 0.0038719285122734864 0.00082015871898630905 0 0.0039351343594472591 0.00080188774979497951 0 -0.0023660622062820422 0.00015598698512264757 0 -0.0024308731726945757 0.00023968437586997072 0 -0.0025159068240523095 0.00020372869202768093 0 0.00065719180615960099 0.00048027721577202946 0 -0.00022661576437165568 0.0001308597597852902 0 -0.0025139659918648853 9.213930938016723e-05 0 -0.0023660622062820422 0.00015598698512264757 0 -0.0025159068240523095 0.00020372869202768093 0 -0.00022661576437165568 0.0001308597597852902 0 -0.0022895768638744938 0.0005873368033036257 0 -0.0023194004491778495 0.00021369479759540436 0 -0.0023488832138181849 0.00010192154144703638 0 -0.0024308731726945757 0.00023968437586997072 0 -0.0024644075739553646 0.00037625832965854794 0 -0.0024308731726945757 0.00023968437586997072 0 -0.002560876312164481 0.00030310153456248776 0 -0.0024644075739553646 0.00037625832965854794 0 -0.0023094643673262642 0.0002887029468863528 0 -0.0024308731726945757 0.00023968437586997072 0 -0.0024308731726945757 0.00023968437586997072 0 -0.002560876312164481 0.00030310153456248776 0 -0.0025159068240523095 0.00020372869202768093 0 -0.0026880742952645345 0.00035835453978553069 0 -0.002560876312164481 0.00030310153456248776 0 -0.0026164921320694073 0.00027414192336946118 0 -0.002560876312164481 0.00030310153456248776 0 -0.0026164921320694073 0.00027414192336946118 0 -0.0025159068240523095 0.00020372869202768093 0 -0.0026164921320694073 0.00027414192336946118 0 -0.0025159068240523095 0.00020372869202768093 0 -0.0026163975220370246 0.00015616802400543608 0 -0.0025139659918648853 9.213930938016723e-05 0 -0.0025159068240523095 0.00020372869202768093 0 -0.0026163975220370246 0.00015616802400543608 0 -0.0026163975220370246 0.00015616802400543608 0 -0.0027501622368584742 0.00019948520545077182 0 -0.0026425065138127703 1.9915561803178233e-05 0 -0.0026164921320694073 0.00027414192336946118 0 -0.0026163975220370246 0.00015616802400543608 0 -0.0027501622368584742 0.00019948520545077182 0 -0.0026164921320694073 0.00027414192336946118 0 -0.002729272802938624 0.00035769917666816751 0 -0.0027501622368584742 0.00019948520545077182 0 -0.002758724689614335 0.0004219377099692088 0 -0.0026880742952645345 0.00035835453978553069 0 -0.002729272802938624 0.00035769917666816751 0 -0.0026880742952645345 0.00035835453978553069 0 -0.0026164921320694073 0.00027414192336946118 0 -0.002729272802938624 0.00035769917666816751 0 -0.00016215600194057294 -1.6713100822076754e-09 0 1.2334345626695655e-05 4.3176317479139943e-05 0 0.0016985363935088467 -0.00010593176974109968 0 -0.0013353749072374161 0.00015812865551410288 0 -0.00077236764690413436 -1.6604147739429267e-05 0 -0.0027945668018427598 0.00053324378234516378 0 -0.002729272802938624 0.00035769917666816751 0 -0.0027501622368584742 0.00019948520545077182 0 -0.00016215600194057294 -1.6713100822076754e-09 0 0.0016985363935088467 -0.00010593176974109968 0 0.0018686398276282089 -3.7906226052255162e-07 0 0.0016985363935088467 -0.00010593176974109968 0 0.0018686398276282089 -3.7906226052255162e-07 0 0.0023603161065946111 -3.9197813013458318e-05 0 0.0023603161065946111 -3.9197813013458318e-05 0 0.002239095257577867 8.4862883452635322e-05 0 0.0036266662316498011 4.4760436014584618e-05 0 0.0018686398276282089 -3.7906226052255162e-07 0 0.0039014793547643548 7.0857450450137053e-08 0 0.0036266662316498011 4.4760436014584618e-05 0 0.0018686398276282089 -3.7906226052255162e-07 0 0.0023603161065946111 -3.9197813013458318e-05 0 0.0036266662316498011 4.4760436014584618e-05 0 0.0016985363935088467 -0.00010593176974109968 0 0.0023603161065946111 -3.9197813013458318e-05 0 0.002239095257577867 8.4862883452635322e-05 0 -0.00077236764690413436 -1.6604147739429267e-05 0 0.0018095624291342696 0.00041387968713108589 0 0.0038470626042465929 0.00069159164329280268 0 0.0038750614439164621 0.00075807219297459511 0 0.0037987979289782173 0.00079069336324755831 0 0.0045279572688481078 -0.00022247332432456934 0 0.0045753079159319959 0.00034196673486148712 0 0.0044079089332062461 -6.549283810554631e-05 0 0.0044881644372659277 0.00022485225671123373 0 0.0018095624291342696 0.00041387968713108589 0 0.0045753079159319959 0.00034196673486148712 0 0.0044079089332062461 -6.549283810554631e-05 0 0.0036266662316498011 4.4760436014584618e-05 0 0.0045316956373391906 -0.00016731589671299378 0 0.0044079089332062461 -6.549283810554631e-05 0 0.0036266662316498011 4.4760436014584618e-05 0 0.0018095624291342696 0.00041387968713108589 0 0.0040280445334601655 0.00020845568104341868 0 0.0045316956373391906 -0.00016731589671299378 0 0.0039014793547643548 7.0857450450137053e-08 0 0.0036266662316498011 4.4760436014584618e-05 0 0.0088563559078607794 0.00083211662981546859 0 0.0088200696651866192 0.00079979440516257292 0 0.0087747639304642158 0.00083256361281678661 0 0.0088563559078607794 0.00083211662981546859 0 0.0088612779114123422 0.00080441035788891466 0 0.0088200696651866192 0.00079979440516257292 0 0.0088563559078607794 0.00083211662981546859 0 0.008904091700883068 0.00079982340456913998 0 0.0088612779114123422 0.00080441035788891466 0 0.0088612779114123422 0.00080441035788891466 0 0.008849402614855827 0.00081379280403973955 0 0.008807875439487663 0.00082879856257356797 0 0.008904091700883068 0.00079982340456913998 0 0.0088612779114123422 0.00080441035788891466 0 0.008849402614855827 0.00081379280403973955 0 0.0088612779114123422 0.00080441035788891466 0 0.0088200696651866192 0.00079979440516257292 0 0.0088359906717634679 0.00073594324915011392 0 0.0088200696651866192 0.00079979440516257292 0 0.0087747639304642158 0.00083256361281678661 0 0.0087646552678279661 0.00076848936859787327 0 0.012533093199698798 0.0024635442143906929 0 0.011776860235420994 0.0020262296318845074 0 0.012802501751517164 0.0018476725859048475 0 0.0091582496290707489 0.0013874123588880445 0 0.01054138327188753 0.0015360567574188944 0 0.0086930953282867793 0.00080227075714985909 0 0.0087747639304642158 0.00083256361281678661 0 0.0087646552678279661 0.00076848936859787327 0 0.011776860235420994 0.0020262296318845074 0 0.012355626195780062 0.0013155856593153503 0 0.012802501751517164 0.0018476725859048475 0 0.011776860235420994 0.0020262296318845074 0 0.01174899479497156 0.0010933912721084612 0 0.012355626195780062 0.0013155856593153503 0 0.0098592303661517704 0.001188531387666056 0 0.01054138327188753 0.0015360567574188944 0 0.010978159655368276 0.0016034357393124113 0 0.011776860235420994 0.0020262296318845074 0 0.01174899479497156 0.0010933912721084612 0 0.01174899479497156 0.0010933912721084612 0 0.012355626195780062 0.0013155856593153503 0 0.012515871376201321 0.00060405629937725189 0 0.012193985579998744 -0.0002473413076299721 0 0.012515871376201321 0.00060405629937725189 0 0.012966711757113209 0.00031997445697062551 0 0.01174899479497156 0.0010933912721084612 0 0.012515871376201321 0.00060405629937725189 0 0.011709581477056691 0.00036528825221555185 0 0.012193985579998744 -0.0002473413076299721 0 0.012515871376201321 0.00060405629937725189 0 0.011709581477056691 0.00036528825221555185 0 0.01174899479497156 0.0010933912721084612 0 0.011709581477056691 0.00036528825221555185 0 0.010944686962554556 0.00069762861784426354 0 0.011066891038778306 -0.00034059508924041396 0 0.011709581477056691 0.00036528825221555185 0 0.010944686962554556 0.00069762861784426354 0 0.010978159655368276 0.0016034357393124113 0 0.010944686962554556 0.00069762861784426354 0 0.010095429657650552 0.0011795231364989398 0 0.010978159655368276 0.0016034357393124113 0 0.01174899479497156 0.0010933912721084612 0 0.010944686962554556 0.00069762861784426354 0 0.0098592303661517704 0.001188531387666056 0 0.0095197235303425519 0.00097796329078823387 0 0.0088563559078607794 0.00083211662981546859 0 0.008904091700883068 0.00079982340456913998 0 0.0089580043407445475 0.00080056074925638878 0 0.010944686962554556 0.00069762861784426354 0 0.010095429657650552 0.0011795231364989398 0 0.0099442900866557014 0.00038713312540309606 0 0.011066891038778306 -0.00034059508924041396 0 0.010944686962554556 0.00069762861784426354 0 0.0099442900866557014 0.00038713312540309606 0 0.0089580043407445475 0.00080056074925638878 0 0.0090317239081571261 0.0007097338511935856 0 0.0090524336861556223 0.00065525155063863119 0 0.010095429657650552 0.0011795231364989398 0 0.0099442900866557014 0.00038713312540309606 0 0.0090524336861556223 0.00065525155063863119 0 0.0093806488441247129 9.9957848107946494e-05 0 0.0099442900866557014 0.00038713312540309606 0 0.0090524336861556223 0.00065525155063863119 0 0.0088784949459025982 0.0002086462489205598 0 0.0093806488441247129 9.9957848107946494e-05 0 0.0090524336861556223 0.00065525155063863119 0 0.0090317239081571261 0.0007097338511935856 0 0.0090524336861556223 0.00065525155063863119 0 0.008657067112687147 0.00083060726932748905 0 0.0088784949459025982 0.0002086462489205598 0 0.0090524336861556223 0.00065525155063863119 0 0.0085162650368205122 0.00038200708051145982 0 0.0090524336861556223 0.00065525155063863119 0 0.008657067112687147 0.00083060726932748905 0 0.0085162650368205122 0.00038200708051145982 0 0.0090317239081571261 0.0007097338511935856 0 0.008657067112687147 0.00083060726932748905 0 0.008720832923962276 0.0014234519783172114 0 0.0090288766187838678 0.00072931798172345486 0 0.0087205444451026164 0.0011371816173243604 0 0.0090317239081571261 0.0007097338511935856 0 0.0089285111883754854 0.00078091763056220358 0 0.008823707858931204 0.00078715962754654994 0 0.0089580043407445475 0.00080056074925638878 0 0.0090317239081571261 0.0007097338511935856 0 0.0089285111883754854 0.00078091763056220358 0 0.008904091700883068 0.00079982340456913998 0 0.0089580043407445475 0.00080056074925638878 0 0.0089285111883754854 0.00078091763056220358 0 0.0095197235303425519 0.00097796329078823387 0 0.0090674436912338095 0.00067742737253909037 0 0.0079236837971205839 0.00021421287692317364 0 0.0081343275980449228 0.00064658754783757067 0 0.0076442162038216537 0.00072887045066825657 0 0.0073511518280342716 3.5045002950342648e-05 0 0.0079236837971205839 0.00021421287692317364 0 0.0076442162038216537 0.00072887045066825657 0 0.0079236837971205839 0.00021421287692317364 0 0.0081343275980449228 0.00064658754783757067 0 0.0085162650368205122 0.00038200708051145982 0 0.008657067112687147 0.00083060726932748905 0 0.0081343275980449228 0.00064658754783757067 0 0.0085162650368205122 0.00038200708051145982 0 0.008657067112687147 0.00083060726932748905 0 0.0082048245293187775 0.0010981464614723173 0 0.008720832923962276 0.0014234519783172114 0 0.008657067112687147 0.00083060726932748905 0 0.0081343275980449228 0.00064658754783757067 0 0.0082048245293187775 0.0010981464614723173 0 0.0070479927581115183 0.0011531064556390205 0 0.0076442162038216537 0.00072887045066825657 0 0.0077464791865127667 0.0015591732314252005 0 0.0081343275980449228 0.00064658754783757067 0 0.0082048245293187775 0.0010981464614723173 0 0.0076442162038216537 0.00072887045066825657 0 0.0082048245293187775 0.0010981464614723173 0 0.0076442162038216537 0.00072887045066825657 0 0.0077464791865127667 0.0015591732314252005 0 0.0077464791865127667 0.0015591732314252005 0 0.0081510856297003151 0.0022931179682934453 0 0.008720832923962276 0.0014234519783172114 0 0.0082048245293187775 0.0010981464614723173 0 0.0077464791865127667 0.0015591732314252005 0 0.008720832923962276 0.0014234519783172114 0 0.0087117033051271608 0.0014804209533738144 0 0.0087205444451026164 0.0011371816173243604 0 0.0073382770971082154 0.0023566458301883257 0 0.0077464791865127667 0.0015591732314252005 0 0.0081510856297003151 0.0022931179682934453 0 0.0087502996697448356 0.00081911288114943563 0 0.008823707858931204 0.00078715962754654994 0 0.008849402614855827 0.00081379280403973955 0 0.0087502996697448356 0.00081911288114943563 0 0.008849402614855827 0.00081379280403973955 0 0.0087825482191186688 0.00084022808627163192 0 0.0089285111883754854 0.00078091763056220358 0 0.008823707858931204 0.00078715962754654994 0 0.008849402614855827 0.00081379280403973955 0 0.008904091700883068 0.00079982340456913998 0 0.0089285111883754854 0.00078091763056220358 0 0.008849402614855827 0.00081379280403973955 0 0.008849402614855827 0.00081379280403973955 0 0.008807875439487663 0.00082879856257356797 0 0.0087825482191186688 0.00084022808627163192 0 0.008807875439487663 0.00082879856257356797 0 0.0087825482191186688 0.00084022808627163192 0 0.0087639533642115096 0.00082652436854505822 0 0.0087825482191186688 0.00084022808627163192 0 0.0087412226811560741 0.0008561065442799008 0 0.0087566476783770501 0.00082019517626420908 0 0.0087825482191186688 0.00084022808627163192 0 0.0087566476783770501 0.00082019517626420908 0 0.0087639533642115096 0.00082652436854505822 0 0.0087502996697448356 0.00081911288114943563 0 0.0087407363713582712 0.0008441565919161683 0 0.0086855546642282122 0.00086071283688697944 0 0.0087117033051271608 0.0014804209533738144 0 0.0064429970865899208 0.0020322420094640191 0 0.0073382770971082154 0.0023566458301883257 0 0.0081510856297003151 0.0022931179682934453 0 0.0075070045064045418 0.0031997228982998784 0 0.0087502996697448356 0.00081911288114943563 0 0.0087825482191186688 0.00084022808627163192 0 0.0087407363713582712 0.0008441565919161683 0 0.0087825482191186688 0.00084022808627163192 0 0.0087407363713582712 0.0008441565919161683 0 0.0087412226811560741 0.0008561065442799008 0 0.0087407363713582712 0.0008441565919161683 0 0.0087412226811560741 0.0008561065442799008 0 0.0086855546642282122 0.00086071283688697944 0 0.003313462680326599 0.0021343063792837991 0 0.0044583863324028214 0.0020689381709320795 0 0.0045932115167056642 0.0027560891101194558 0 0.0060451347509110544 0.0014757903274142015 0 0.0064429970865899208 0.0020322420094640191 0 0.0052000606424215364 0.0018839920488940471 0 0.0044583863324028214 0.0020689381709320795 0 0.0045932115167056642 0.0027560891101194558 0 0.003313462680326599 0.0021343063792837991 0 0.0044583863324028214 0.0020689381709320795 0 0.0044666757313133517 0.0014493038985374188 0 0.0052000606424215364 0.0018839920488940471 0 0.0044583863324028214 0.0020689381709320795 0 0.0044666757313133517 0.0014493038985374188 0 0.003313462680326599 0.0021343063792837991 0 0.0044666757313133517 0.0014493038985374188 0 0.0036024590827581295 0.0010465793292399426 0 0.003313462680326599 0.0021343063792837991 0 0.0036024590827581295 0.0010465793292399426 0 0.0026784406028554468 0.00085718990153464583 0 0.0033064777478010207 0.00026257727081080651 0 0.0036024590827581295 0.0010465793292399426 0 0.0026784406028554468 0.00085718990153464583 0 0.0033064777478010207 0.00026257727081080651 0 0.0036024590827581295 0.0010465793292399426 0 0.0042461174825610777 0.00057593665444334065 0 0.0044666757313133517 0.0014493038985374188 0 0.0036024590827581295 0.0010465793292399426 0 0.0042461174825610777 0.00057593665444334065 0 0.0044236244262498307 0.001322244266228745 0 0.0042359794954235476 0.00064705871175910711 0 0.0048503795409735343 0.00096649725204158094 0 0.0044666757313133517 0.0014493038985374188 0 0.0043071731425394829 0.00053592582220211285 0 0.004732418166111918 -0.00026870365274692207 0 0.0048503795409735343 0.00096649725204158094 0 0.0043071731425394829 0.00053592582220211285 0 0.0054631676945691657 0.0011958292426203644 0 0.0046827066529565153 0.00084020709965535476 0 0.0087566476783770501 0.00082019517626420908 0 0.0087176984863781733 0.00076342430043564128 0 0.0087639533642115096 0.00082652436854505822 0 0.003313462680326599 0.0021343063792837991 0 0.0021142274111887426 0.0015543294253386067 0 0.0026784406028554468 0.00085718990153464583 0 0.0060451347509110544 0.0014757903274142015 0 0.0054631676945691657 0.0011958292426203644 0 0.0021142274111887426 0.0015543294253386067 0 0.0026784406028554468 0.00085718990153464583 0 0.0020059775839412685 0.00030588982377270375 0 0.0033064777478010207 0.00026257727081080651 0 0.0026784406028554468 0.00085718990153464583 0 0.0020059775839412685 0.00030588982377270375 0 0.0010585841832100452 5.9862884834267695e-06 0 0.0020059775839412685 0.00030588982377270375 0 0.00098081348474787994 0.00095971256944788288 0 0.0021142274111887426 0.0015543294253386067 0 0.0020059775839412685 0.00030588982377270375 0 0.00098081348474787994 0.00095971256944788288 0 0.0046827066529565153 0.00084020709965535476 0 0.0053144307899772123 0.00033260784148491751 0 0.0053144307899772123 0.00033260784148491751 0 0.0090818929159629073 0.00086193654762965061 0 0.0087002880804126388 0.00052682587736333885 0 0.0087453142039250007 0.00054567987084437868 0 0.0087423787509325473 0.00060528270398490516 0 0.0087176984863781733 0.00076342430043564128 0 0.0086102611241487461 0.00070392962001529329 0 0.0086874224111689342 0.00080334986814811988 0 0.0087453142039250007 0.00054567987084437868 0 0.0087982641843843273 0.00064865704691105487 0 0.0087423787509325473 0.00060528270398490516 0 0.00036618095402770733 -6.8393434063749876e-05 0 0.00098081348474787994 0.00095971256944788288 0 5.0089175071439849e-05 0.00040200168146102571 0 0.0058229882174738361 0.00020180172605433814 0 0.0053144307899772123 0.00033260784148491751 0 0.0087982641843843273 0.00064865704691105487 0 0.0087423787509325473 0.00060528270398490516 0 0.0087564182152404507 0.0006883689652031473 0 0.0087176984863781733 0.00076342430043564128 0 0.0086874224111689342 0.00080334986814811988 0 0.0087639533642115096 0.00082652436854505822 0 0.0086874224111689342 0.00080334986814811988 0 0.0087639533642115096 0.00082652436854505822 0 0.0087765477332923288 0.00083401772396413359 0 0.0087982641843843273 0.00064865704691105487 0 0.0088359906717634679 0.00073594324915011392 0 0.0087564182152404507 0.0006883689652031473 0 0.0090818929159629073 0.00086193654762965061 0 0.0087688708043572802 0.00074167415534183683 0 0.0088359906717634679 0.00073594324915011392 0 0.0087646552678279661 0.00076848936859787327 0 0.0087564182152404507 0.0006883689652031473 0 0.0088200696651866192 0.00079979440516257292 0 0.0088359906717634679 0.00073594324915011392 0 0.0087646552678279661 0.00076848936859787327 0 0.0088586877060982342 0.00081790795158351282 0 0.0087688708043572802 0.00074167415534183683 0 0.008807875439487663 0.00082879856257356797 0 0.0087639533642115096 0.00082652436854505822 0 0.0087765477332923288 0.00083401772396413359 0 0.0088612779114123422 0.00080441035788891466 0 0.008807875439487663 0.00082879856257356797 0 0.0087765477332923288 0.00083401772396413359 0 0.0055132454737842618 0.0014230671811045871 0 0.005654109718878619 0.00099221259355104416 0 0.005333585495605103 0.0010369055490742712 0 0.0086930953282867793 0.00080227075714985909 0 0.0087646552678279661 0.00076848936859787327 0 0.0087002874199683129 0.00072126002187307208 0 0.0091582496290707489 0.0013874123588880445 0 0.0069133809676254565 0.00089075974824832482 0 0.0087646552678279661 0.00076848936859787327 0 0.0087564182152404507 0.0006883689652031473 0 0.0087002874199683129 0.00072126002187307208 0 0.0087564182152404507 0.0006883689652031473 0 0.0087002874199683129 0.00072126002187307208 0 0.0086994992595020304 0.0006312716288029833 0 0.0069133809676254565 0.00089075974824832482 0 0.007461029336540752 0.00055677369844969792 0 0.005654109718878619 0.00099221259355104416 0 0.0054757609734542127 0.00072179062241855077 0 0.0058023762846843791 0.00057044557296386292 0 0.005654109718878619 0.00099221259355104416 0 0.0054757609734542127 0.00072179062241855077 0 0.005333585495605103 0.0010369055490742712 0 0.0054757609734542127 0.00072179062241855077 0 0.0055288220639759071 0.00046892843528973445 0 0.0058023762846843791 0.00057044557296386292 0 0.0087423787509325473 0.00060528270398490516 0 0.0087564182152404507 0.0006883689652031473 0 0.0086994992595020304 0.0006312716288029833 0 0.0087002880804126388 0.00052682587736333885 0 0.0087423787509325473 0.00060528270398490516 0 0.0086994992595020304 0.0006312716288029833 0 0.0058229882174738361 0.00020180172605433814 0 0.007461029336540752 0.00055677369844969792 0 0.0059609630222276595 0.00014533327925769738 0 0.0058023762846843791 0.00057044557296386292 0 0.0056720885420976797 0.00028246916044457731 0 0.0055288220639759071 0.00046892843528973445 0 0.0058023762846843791 0.00057044557296386292 0 0.0056720885420976797 0.00028246916044457731 0 0.0055288220639759071 0.00046892843528973445 0 0.0056720885420976797 0.00028246916044457731 0 0.0054353786704645843 0.00022495579235113494 0 0.0052206079892757832 0.00019956227992300974 0 0.0050267728559032525 0.00037636455637552499 0 0.0052757007489897725 0.00049275215575280546 0 0.0052206079892757832 0.00019956227992300974 0 0.0054353786704645843 0.00022495579235113494 0 0.0052757007489897725 0.00049275215575280546 0 0.0055288220639759071 0.00046892843528973445 0 0.0054353786704645843 0.00022495579235113494 0 0.0052757007489897725 0.00049275215575280546 0 0.0050583080912669637 6.7362642952399475e-05 0 0.0052206079892757832 0.00019956227992300974 0 0.0050267728559032525 0.00037636455637552499 0 0.0050583080912669637 6.7362642952399475e-05 0 0.0050267728559032525 0.00037636455637552499 0 0.004796183627119718 0.00030101971136679341 0 0.0034788885896969543 0.00048718685996444402 0 0.003466388180195516 0.00063709361488274914 0 0.0050267728559032525 0.00037636455637552499 0 0.0048208184966184574 0.00030540600573002218 0 0.0048248345672210835 0.00057050272603146701 0 0.0051358245422064401 0.00062062510249387122 0 0.003466388180195516 0.00063709361488274914 0 0.0050267728559032525 0.00037636455637552499 0 0.0050580069186206824 0.00058386725009259666 0 0.0052757007489897725 0.00049275215575280546 0 0.0050267728559032525 0.00037636455637552499 0 0.0050580069186206824 0.00058386725009259666 0 0.0048248345672210835 0.00057050272603146701 0 0.0050580069186206824 0.00058386725009259666 0 0.0049316982046781963 0.00071304361172189526 0 0.0048248345672210835 0.00057050272603146701 0 0.0050580069186206824 0.00058386725009259666 0 0.0049316982046781963 0.00071304361172189526 0 0.0051917859642022449 0.0007561906753280307 0 0.0054757609734542127 0.00072179062241855077 0 0.0052757007489897725 0.00049275215575280546 0 0.0051917859642022449 0.0007561906753280307 0 0.0050580069186206824 0.00058386725009259666 0 0.0052757007489897725 0.00049275215575280546 0 0.0051917859642022449 0.0007561906753280307 0 0.0054757609734542127 0.00072179062241855077 0 0.0055288220639759071 0.00046892843528973445 0 0.0052757007489897725 0.00049275215575280546 0 0.0024507023556990348 0.00059773647128147139 0 0.0026944532486460272 0.0011730179323189505 0 0.0021004981017439819 0.00090074627397467878 0 0.0024507023556990348 0.00059773647128147139 0 0.0030847558202233695 0.00081931300875360646 0 0.0026944532486460272 0.0011730179323189505 0 0.0011817900331318803 0.0010963244450513049 0 0.003466388180195516 0.00063709361488274914 0 0.003466388180195516 0.00063709361488274914 0 0.0036510684602924066 0.00084294109060548334 0 0.0048208184966184574 0.00030540600573002218 0 0.0048248345672210835 0.00057050272603146701 0 0.0045771130070877183 0.00052617930595932579 0 0.0049316982046781963 0.00071304361172189526 0 0.0048248345672210835 0.00057050272603146701 0 0.0047645195800666597 0.00078624987331315393 0 0.0048248345672210835 0.00057050272603146701 0 0.0045920968169359975 0.00070962002858473267 0 0.0047645195800666597 0.00078624987331315393 0 0.0048248345672210835 0.00057050272603146701 0 0.0045771130070877183 0.00052617930595932579 0 0.0045920968169359975 0.00070962002858473267 0 0.0026944532486460272 0.0011730179323189505 0 0.0023073027733801531 0.001526072233492038 0 0.0021004981017439819 0.00090074627397467878 0 0.0045771130070877183 0.00052617930595932579 0 0.0045920968169359975 0.00070962002858473267 0 0.0043251195520535076 0.00075099906459486355 0 0.0036510684602924066 0.00084294109060548334 0 0.003587556089738961 0.00096213079133042995 0 0.0057746079854015453 -0.00048705327011904572 0 0.0059366476092320179 -0.00055144174184176278 0 0.0058261055291746015 -0.00033544535692076321 0 0.0057746079854015453 -0.00048705327011904572 0 0.0057420397904875452 -0.00063837985503574957 0 0.0059366476092320179 -0.00055144174184176278 0 0.003587556089738961 0.00096213079133042995 0 0.0053119143901346191 0.00026206890773374745 0 0.0045920968169359975 0.00070962002858473267 0 0.0043251195520535076 0.00075099906459486355 0 0.0045762980567112307 0.00089342290269577821 0 0.0045762980567112307 0.00089342290269577821 0 0.0047645195800666597 0.00078624987331315393 0 0.004825977522173285 0.0010328328121347082 0 0.0053119143901346191 0.00026206890773374745 0 0.0056752950920539516 0.00032304320245048234 0 0.0045920968169359975 0.00070962002858473267 0 0.0045762980567112307 0.00089342290269577821 0 0.0047645195800666597 0.00078624987331315393 0 0.0049362158122770068 0.00092990125912114068 0 0.0056752950920539516 0.00032304320245048234 0 0.0047645195800666597 0.00078624987331315393 0 0.0048280905976892611 0.0010397318817535076 0 0.0050042036433232077 0.00089509727925320343 0 0.0059366476092320179 -0.00055144174184176278 0 0.0061555170299249359 -0.00044680722464409176 0 0.0060352109850699007 -0.00033115090472611678 0 0.0061555170299249359 -0.00044680722464409176 0 0.0060352109850699007 -0.00033115090472611678 0 0.0062412585578216868 -0.00018455615571560943 0 0.0056752950920539516 0.00032304320245048234 0 0.0065554181275072551 -0.00011872574024860994 0 0.0059366476092320179 -0.00055144174184176278 0 0.0060352109850699007 -0.00033115090472611678 0 0.0058261055291746015 -0.00033544535692076321 0 0.0060352109850699007 -0.00033115090472611678 0 0.0058261055291746015 -0.00033544535692076321 0 0.0060354578679666206 -9.8824648728364526e-05 0 0.0059222294084657224 -0.00024590337808775512 0 0.0057849143463763481 -0.00031102794954064377 0 0.0054757609734542127 0.00072179062241855077 0 0.0051917859642022449 0.0007561906753280307 0 0.005333585495605103 0.0010369055490742712 0 0.0051917859642022449 0.0007561906753280307 0 0.0050042036433232077 0.00089509727925320343 0 0.005333585495605103 0.0010369055490742712 0 0.0049316982046781963 0.00071304361172189526 0 0.0051917859642022449 0.0007561906753280307 0 0.0050042036433232077 0.00089509727925320343 0 0.0049316982046781963 0.00071304361172189526 0 0.0047645195800666597 0.00078624987331315393 0 0.0050042036433232077 0.00089509727925320343 0 0.0068315054935456556 -0.0001341428603430401 0 0.0071055044534723963 2.2563888243814849e-05 0 0.0069182658254575719 0.00019701943306170856 0 0.0071055044534723963 2.2563888243814849e-05 0 0.0073721063288704489 0.00018150469757845992 0 0.0069182658254575719 0.00019701943306170856 0 0.0050042036433232077 0.00089509727925320343 0 0.0050806614716827694 0.0011849296603195277 0 0.005333585495605103 0.0010369055490742712 0 0.0048280905976892611 0.0010397318817535076 0 0.0050042036433232077 0.00089509727925320343 0 0.0050806614716827694 0.0011849296603195277 0 0.0056752950920539516 0.00032304320245048234 0 0.0060002170558544343 0.00050658584832979285 0 0.0060002170558544343 0.00050658584832979285 0 0.0077404851064474135 0.00055040396017079181 0 0.0055132454737842618 0.0014230671811045871 0 0.005333585495605103 0.0010369055490742712 0 0.0053417488117662327 0.0013318304028026051 0 0.0050806614716827694 0.0011849296603195277 0 0.005333585495605103 0.0010369055490742712 0 0.0053417488117662327 0.0013318304028026051 0 0.0091582496290707489 0.0013874123588880445 0 0.011336662982686289 0.0013935029454508923 0 0.0091582496290707489 0.0013874123588880445 0 0.0077404851064474135 0.00055040396017079181 0 0.0098383240298135395 0.0010584437310021408 0 0.0098451061796522837 0.0010414363255224128 0 0.0098629820024459247 0.0010297969905451758 0 0.0098262307428329185 0.0010517239268178036 0 0.0098383240298135395 0.0010584437310021408 0 0.0098451061796522837 0.0010414363255224128 0 0.0098262307428329185 0.0010517239268178036 0 0.0098451061796522837 0.0010414363255224128 0 0.0098519289528537363 0.0010265396370525153 0 0.0098519289528537363 0.0010265396370525153 0 0.0098629820024459247 0.0010297969905451758 0 0.009875032374432928 0.0010084084307770325 0 0.011336662982686289 0.0013935029454508923 0 0.012108758068504434 0.0012135943112179907 0 0.0098451061796522837 0.0010414363255224128 0 0.0098519289528537363 0.0010265396370525153 0 0.0098629820024459247 0.0010297969905451758 0 0.0098629820024459247 0.0010297969905451758 0 0.0098780515277071008 0.0010227894764416733 0 0.009875032374432928 0.0010084084307770325 0 0.011212323476614041 -0.0011286626060176745 0 0.011116693597176895 -0.0012211642861364074 0 0.011087080773149502 -0.00075888668745796388 0 0.010419252949612962 0.0004692538299978705 0 0.012108758068504434 0.0012135943112179907 0 0.0098629820024459247 0.0010297969905451758 0 0.0098780515277071008 0.0010227894764416733 0 0.0098774921667110181 0.0010284513097527995 0 0.010419252949612962 0.0004692538299978705 0 0.0085390751636533931 0.00027924101960272868 0 0.0094848226706035245 0.00011484876952122892 0 0.009322035575018912 -4.6519945285668853e-05 0 0.0094247277862575442 -0.00014130238310461739 0 0.010419252949612962 0.0004692538299978705 0 0.0085262783123450873 -0.00014371298701904437 0 0.0085262783123450873 -0.00014371298701904437 0 0.0085390751636533931 0.00027924101960272868 0 0.0077404851064474135 0.00055040396017079181 0 0.0085390751636533931 0.00027924101960272868 0 0.0073721063288704489 0.00018150469757845992 0 0.0070014117043816103 0.00052424698217467473 0 0.0069182658254575719 0.00019701943306170856 0 0.0085390751636533931 0.00027924101960272868 0 0.0065554181275072551 -0.00011872574024860994 0 0.0098383240298135395 0.0010584437310021408 0 0.0098629820024459247 0.0010297969905451758 0 0.0098774921667110181 0.0010284513097527995 0 0.0063306280852679225 0.00011683419941872367 0 0.0062412585578216868 -0.00018455615571560943 0 0.0060354578679666206 -9.8824648728364526e-05 0 0.0060352109850699007 -0.00033115090472611678 0 0.0062412585578216868 -0.00018455615571560943 0 0.0060354578679666206 -9.8824648728364526e-05 0 0.0085262783123450873 -0.00014371298701904437 0 0.0057849143463763481 -0.00031102794954064377 0 0.0062949633024364775 0.00015074050460101734 0 0.0063306280852679225 0.00011683419941872367 0 0.0060354578679666206 -9.8824648728364526e-05 0 0.0058261055291746015 -0.00033544535692076321 0 0.0060073188793942096 -0.00019689703015895467 0 0.0058089866578582656 -0.00017038072791190147 0 0.0060073188793942096 -0.00019689703015895467 0 0.0058089866578582656 -0.00017038072791190147 0 0.0059142511835726984 -3.2720547556731231e-05 0 0.0058089866578582656 -0.00017038072791190147 0 0.0059142511835726984 -3.2720547556731231e-05 0 0.005694560912424965 -4.3285688754485367e-05 0 0.0059142511835726984 -3.2720547556731231e-05 0 0.0059958987453882992 0.00013706675871313667 0 0.005790344291612925 0.00011507715667198673 0 0.0059142511835726984 -3.2720547556731231e-05 0 0.005790344291612925 0.00011507715667198673 0 0.005694560912424965 -4.3285688754485367e-05 0 0.0061973982436890028 -3.5026538604976482e-05 0 0.0059142511835726984 -3.2720547556731231e-05 0 0.0059958987453882992 0.00013706675871313667 0 0.0061973982436890028 -3.5026538604976482e-05 0 0.0060073188793942096 -0.00019689703015895467 0 0.0059142511835726984 -3.2720547556731231e-05 0 0.011116693597176895 -0.0012211642861364074 0 0.010641926255247885 -0.00080436425481943683 0 0.011087080773149502 -0.00075888668745796388 0 0.0085262783123450873 -0.00014371298701904437 0 0.008373377855204334 -0.0004143464409155808 0 0.010641926255247885 -0.00080436425481943683 0 0.011042135027578242 -0.00026050879874980638 0 0.011087080773149502 -0.00075888668745796388 0 0.0059958987453882992 0.00013706675871313667 0 0.005790344291612925 0.00011507715667198673 0 0.005802295201664337 0.00030071469276412172 0 0.008373377855204334 -0.0004143464409155808 0 0.0079691699557376278 8.1705422196459926e-05 0 0.010641926255247885 -0.00080436425481943683 0 0.010541483081314624 -5.9278297564502082e-05 0 0.01013106362005442 -0.00036644962133208721 0 0.010541483081314624 -5.9278297564502082e-05 0 0.01013106362005442 -0.00036644962133208721 0 0.009920855082053431 0.00039351005905876967 0 0.010541483081314624 -5.9278297564502082e-05 0 0.011042135027578242 -0.00026050879874980638 0 0.010877204516104187 0.00041583436946311892 0 0.010641926255247885 -0.00080436425481943683 0 0.010541483081314624 -5.9278297564502082e-05 0 0.011042135027578242 -0.00026050879874980638 0 0.01142067803635162 -0.00037035468976107745 0 0.011261786380889009 6.9732145452076818e-05 0 0.011628241659024962 0.00037539491234561548 0 0.013246052097659248 0.00070403228588641702 0 0.012966711757113209 0.00031997445697062551 0 0.013163049631589317 -0.00017287836020400275 0 0.012164205122580605 0.00015074034144612697 0 0.01567236813506645 -0.00046609249043792517 0 0.011042135027578242 -0.00026050879874980638 0 0.01142067803635162 -0.00037035468976107745 0 0.011261786380889009 6.9732145452076818e-05 0 0.013246052097659248 0.00070403228588641702 0 0.012966711757113209 0.00031997445697062551 0 0.013120124430752212 0.00076467363616314571 0 0.012515871376201321 0.00060405629937725189 0 0.012966711757113209 0.00031997445697062551 0 0.013120124430752212 0.00076467363616314571 0 0.012355626195780062 0.0013155856593153503 0 0.012515871376201321 0.00060405629937725189 0 0.013073251749466113 0.0012151775095601515 0 0.012515871376201321 0.00060405629937725189 0 0.013007770438791566 0.0010416704792373147 0 0.013120124430752212 0.00076467363616314571 0 0.012355626195780062 0.0013155856593153503 0 0.012802501751517164 0.0018476725859048475 0 0.013073251749466113 0.0012151775095601515 0 0.012108758068504434 0.0012135943112179907 0 0.012755230822268281 0.00068565441817886323 0 0.012769645530250466 0.00074596706178326291 0 0.012108758068504434 0.0012135943112179907 0 0.010419252949612962 0.0004692538299978705 0 0.012164205122580605 0.00015074034144612697 0 0.011042135027578242 -0.00026050879874980638 0 0.01142067803635162 -0.00037035468976107745 0 0.011087080773149502 -0.00075888668745796388 0 0.011212323476614041 -0.0011286626060176745 0 0.01142067803635162 -0.00037035468976107745 0 0.011087080773149502 -0.00075888668745796388 0 0.01326051310660321 0.0011602232999975816 0 0.013246052097659248 0.00070403228588641702 0 0.013045572175693257 0.00091550891642806233 0 0.013246052097659248 0.00070403228588641702 0 0.013045572175693257 0.00091550891642806233 0 0.013120124430752212 0.00076467363616314571 0 0.0050081569302425372 -0.0017432498044520916 0 0.0053075380522266732 -0.0016495373366799317 0 0.0052917665272029322 -0.0019930605734750795 0 0.0053075380522266732 -0.0016495373366799317 0 0.0052917665272029322 -0.0019930605734750795 0 0.005497056970413988 -0.0017552011107618232 0 0.0050081569302425372 -0.0017432498044520916 0 0.0053075380522266732 -0.0016495373366799317 0 0.0053253454184044686 -0.0012958828004734737 0 0.0052917665272029322 -0.0019930605734750795 0 0.0056504200918695196 -0.0020344063597483044 0 0.0054884300648583 -0.0022899003996402476 0 0.0052917665272029322 -0.0019930605734750795 0 0.005497056970413988 -0.0017552011107618232 0 0.0056504200918695196 -0.0020344063597483044 0 0.0050081569302425372 -0.0017432498044520916 0 0.0052917665272029322 -0.0019930605734750795 0 0.0050211115059284519 -0.0020740478479621192 0 0.0052917665272029322 -0.0019930605734750795 0 0.0050211115059284519 -0.0020740478479621192 0 0.0051733607385803923 -0.002263708971782295 0 0.0050048934141595077 -0.00084650091676396328 0 0.0069073128400844452 -0.00092416771095150073 0 0.00534034868686592 0.00021371361853181521 0 0.0056129642294192447 0.00017015415897840775 0 0.0056149882758229231 0.00046462062987785339 0 0.0050081569302425372 -0.0017432498044520916 0 0.0050211115059284519 -0.0020740478479621192 0 0.0047550128736544234 -0.0021101085544346868 0 0.005802295201664337 0.00030071469276412172 0 0.0056129642294192447 0.00017015415897840775 0 0.0056149882758229231 0.00046462062987785339 0 0.01013106362005442 -0.00036644962133208721 0 0.0096107041906294995 8.497356413499363e-05 0 0.009920855082053431 0.00039351005905876967 0 0.0079691699557376278 8.1705422196459926e-05 0 0.0069073128400844452 -0.00092416771095150073 0 0.005790344291612925 0.00011507715667198673 0 0.005802295201664337 0.00030071469276412172 0 0.0056129642294192447 0.00017015415897840775 0 0.00534034868686592 0.00021371361853181521 0 0.0056129642294192447 0.00017015415897840775 0 0.0054375948208177103 -2.8775182434446119e-05 0 0.005790344291612925 0.00011507715667198673 0 0.0056129642294192447 0.00017015415897840775 0 0.005694560912424965 -4.3285688754485367e-05 0 0.0056129642294192447 0.00017015415897840775 0 0.0054375948208177103 -2.8775182434446119e-05 0 0.005694560912424965 -4.3285688754485367e-05 0 0.0054375948208177103 -2.8775182434446119e-05 0 0.005694560912424965 -4.3285688754485367e-05 0 0.0055996430982545708 -0.00021523029415638746 0 0.0058089866578582656 -0.00017038072791190147 0 0.005694560912424965 -4.3285688754485367e-05 0 0.0055996430982545708 -0.00021523029415638746 0 0.0058261055291746015 -0.00033544535692076321 0 0.0058089866578582656 -0.00017038072791190147 0 0.0055996430982545708 -0.00021523029415638746 0 0.0054375948208177103 -2.8775182434446119e-05 0 0.0055996430982545708 -0.00021523029415638746 0 0.0052992074986611135 -0.00023164574459280123 0 0.003519618896140172 0.00059367237178902248 0 0.0043750207355287814 -0.00029046508225380002 0 0.0054375948208177103 -2.8775182434446119e-05 0 0.0052992074986611135 -0.00023164574459280123 0 0.0050738982112778844 -3.9082205933549797e-05 0 0.00534034868686592 0.00021371361853181521 0 0.0054375948208177103 -2.8775182434446119e-05 0 0.0050738982112778844 -3.9082205933549797e-05 0 0.0050048934141595077 -0.00084650091676396328 0 0.0043750207355287814 -0.00029046508225380002 0 0.0053075380522266732 -0.0016495373366799317 0 0.0053253454184044686 -0.0012958828004734737 0 0.005586054669967813 -0.001454289503174054 0 0.0027509253291499278 -5.6950307246539803e-05 0 0.002748395980066199 0.00090623471509979005 0 0.0043209442146237937 0.00076702551664927453 0 0.0019017594397940745 0.0013465030329355499 0 0.0027509253291499278 -5.6950307246539803e-05 0 0.002748395980066199 0.00090623471509979005 0 0.0043750207355287814 -0.00029046508225380002 0 0.0040827610185772698 0.00055463547382021423 0 0.0019017594397940745 0.0013465030329355499 0 0.002748395980066199 0.00090623471509979005 0 0.0026855286350121713 0.0017008874402457974 0 0.002748395980066199 0.00090623471509979005 0 0.0026855286350121713 0.0017008874402457974 0 0.0043209442146237937 0.00076702551664927453 0 0.0019017594397940745 0.0013465030329355499 0 0.0026855286350121713 0.0017008874402457974 0 0.0022271479707960378 0.0016991746621568299 0 0.0026855286350121713 0.0017008874402457974 0 0.0023242288676918114 0.0017110039756842593 0 0.0021049118467203125 0.0016654531182167015 0 0.0023242288676918114 0.0017110039756842593 0 0.0022271479707960378 0.0016991746621568299 0 0.0021961376964498396 0.0017396706344437959 0 0.0026855286350121713 0.0017008874402457974 0 0.0023242288676918114 0.0017110039756842593 0 0.0022271479707960378 0.0016991746621568299 0 0.0019017594397940745 0.0013465030329355499 0 0.0022271479707960378 0.0016991746621568299 0 0.0017372605630401777 0.0016811307324827679 0 0.0022271479707960378 0.0016991746621568299 0 0.0021527168085212303 0.0017840196842548437 0 0.0017372605630401777 0.0016811307324827679 0 0.0021527168085212303 0.0017840196842548437 0 0.0021552352165175766 0.00176335517385581 0 0.0021545252736918652 0.0017600760751202195 0 0.0021205993757346295 0.0018004399773768164 0 0.0020837550728018887 0.0017870681188217608 0 0.0021527168085212303 0.0017840196842548437 0 0.0021552352165175766 0.00176335517385581 0 0.0021961376964498396 0.0017396706344437959 0 0.0021552352165175766 0.00176335517385581 0 0.0021961376964498396 0.0017396706344437959 0 0.0021475896994848634 0.0017613341329752133 0 0.0021961376964498396 0.0017396706344437959 0 0.0021119658592707326 0.0017018925657121368 0 0.0018899264643097305 0.0017230070964875507 0 0.0023242288676918114 0.0017110039756842593 0 0.0021961376964498396 0.0017396706344437959 0 0.0021119658592707326 0.0017018925657121368 0 0.0022271479707960378 0.0016991746621568299 0 0.0021527168085212303 0.0017840196842548437 0 0.0021961376964498396 0.0017396706344437959 0 0.0058261055291746015 -0.00033544535692076321 0 0.0055996430982545708 -0.00021523029415638746 0 0.005517531128018882 -0.00042456506821334351 0 0.0057746079854015453 -0.00048705327011904572 0 0.0058261055291746015 -0.00033544535692076321 0 0.005517531128018882 -0.00042456506821334351 0 0.0055996430982545708 -0.00021523029415638746 0 0.0052992074986611135 -0.00023164574459280123 0 0.005517531128018882 -0.00042456506821334351 0 0.003519618896140172 0.00059367237178902248 0 0.0036705785681667115 0.00055603559534827672 0 0.0021527168085212303 0.0017840196842548437 0 0.0017372605630401777 0.0016811307324827679 0 0.0019461714533107737 0.0019356495576800955 0 0.0017372605630401777 0.0016811307324827679 0 0.0017455168527276623 0.0018824653716639922 0 0.0019461714533107737 0.0019356495576800955 0 0.0057746079854015453 -0.00048705327011904572 0 0.0057420397904875452 -0.00063837985503574957 0 0.005517531128018882 -0.00042456506821334351 0 0.003587556089738961 0.00096213079133042995 0 0.0036705785681667115 0.00055603559534827672 0 0.0015514431856081183 0.0018981781511664168 0 0.0017372605630401777 0.0016811307324827679 0 0.0017455168527276623 0.0018824653716639922 0 0.0015514431856081183 0.0018981781511664168 0 0.0017455168527276623 0.0018824653716639922 0 0.0017715761035529774 0.0020518698486492511 0 0.003587556089738961 0.00096213079133042995 0 0.0011846891531295239 0.0015853286661635612 0 0.0023073027733801531 0.001526072233492038 0 0.0017476608076076963 0.0012045832297432563 0 0.0021004981017439819 0.00090074627397467878 0 0.002148384166954685 0.0017545253335813562 0 0.0021545252736918652 0.0017600760751202195 0 0.0021486070414644771 0.0017471404975796991 0 0.0017455168527276623 0.0018824653716639922 0 0.0017715761035529774 0.0020518698486492511 0 0.0019461714533107737 0.0019356495576800955 0 0.0011846891531295239 0.0015853286661635612 0 0.0020837550728018887 0.0017870681188217608 0 -6.7719312042483114e-05 0.0013086376772583628 0 -8.4065189674623866e-06 0.0013703040818473333 0 -0.00014533319383819429 0.0013595431447556345 0 0.0011846891531295239 0.0015853286661635612 0 0.00099890655186557942 0.0015548635657607738 0 2.239712875599126e-06 0.0014751899640685006 0 -8.4065189674623866e-06 0.0013703040818473333 0 -0.00014533319383819429 0.0013595431447556345 0 4.0324066810326093e-05 0.0012532681462241544 0 -8.4065189674623866e-06 0.0013703040818473333 0 0.00010469055006656934 0.0013928059211745531 0 0.0011846891531295239 0.0015853286661635612 0 0.0011240895757591359 0.0011370510834794742 0 2.239712875599126e-06 0.0014751899640685006 0 -8.4065189674623866e-06 0.0013703040818473333 0 0.00010469055006656934 0.0013928059211745531 0 0.0011817900331318803 0.0010963244450513049 0 0.0011240895757591359 0.0011370510834794742 0 0.0021961376964498396 0.0017396706344437959 0 0.0016655700951765425 0.0017504720647474425 0 0.0018899264643097305 0.0017230070964875507 0 0.0021961376964498396 0.0017396706344437959 0 0.0021475896994848634 0.0017613341329752133 0 0.0021123708198624216 0.0017606979949848084 0 0.0021328068955710055 0.0017456667173571499 0 0.0019822809238633369 0.001813648310053109 0 0.0021475896994848634 0.0017613341329752133 0 0.0021348665014664587 0.0017475323830322958 0 0.0021123708198624216 0.0017606979949848084 0 0.0021552352165175766 0.00176335517385581 0 0.0021545252736918652 0.0017600760751202195 0 0.0021475896994848634 0.0017613341329752133 0 0.0021545252736918652 0.0017600760751202195 0 0.0021475896994848634 0.0017613341329752133 0 0.0021486070414644771 0.0017471404975796991 0 0.0021475896994848634 0.0017613341329752133 0 0.0021486070414644771 0.0017471404975796991 0 0.0021348665014664587 0.0017475323830322958 0 -6.6173476249095355e-05 0.0013270962824089665 0 -0.00015497674114704296 0.0013260205444074133 0 -0.00014533319383819429 0.0013595431447556345 0 -0.00015497674114704296 0.0013260205444074133 0 -6.7719312042483114e-05 0.0013086376772583628 0 -0.00014533319383819429 0.0013595431447556345 0 0.00099777123194055698 0.0014969894010443863 0 0.00099890655186557942 0.0015548635657607738 0 0.0021220201024659451 0.0017128281789638704 0 0.0021348665014664587 0.0017475323830322958 0 0.0021123708198624216 0.0017606979949848084 0 0.0021220201024659451 0.0017128281789638704 0 0.0021486070414644771 0.0017471404975796991 0 0.0021348665014664587 0.0017475323830322958 0 0.0012011051303420816 0.0017610978128982198 0 0.0019822809238633369 0.001813648310053109 0 0.0016655700951765425 0.0017504720647474425 0 0.0016364882888594157 0.0017671527058231765 0 0.0014759559699256454 0.0018803815310096676 0 0.0012621600774343094 0.0020380536716578614 0 0.0016655700951765425 0.0017504720647474425 0 0.0014759559699256454 0.0018803815310096676 0 0.0016655700951765425 0.0017504720647474425 0 0.0016364882888594157 0.0017671527058231765 0 0.0018899264643097305 0.0017230070964875507 0 0.0016364882888594157 0.0017671527058231765 0 0.0018899264643097305 0.0017230070964875507 0 0.0017761698006941123 0.0016878202025445322 0 0.0016364882888594157 0.0017671527058231765 0 0.0016311835874227496 0.0017638015734052174 0 0.0017761698006941123 0.0016878202025445322 0 0.0016364882888594157 0.0017671527058231765 0 0.0014803544900805102 0.0018987378411172533 0 0.0016311835874227496 0.0017638015734052174 0 0.0013322561354937722 0.0020026469462949147 0 0.0014759559699256454 0.0018803815310096676 0 0.0014803544900805102 0.0018987378411172533 0 0.0016364882888594157 0.0017671527058231765 0 0.0014759559699256454 0.0018803815310096676 0 0.0014803544900805102 0.0018987378411172533 0 0.0014803544900805102 0.0018987378411172533 0 0.0015266793228837787 0.0019592112333311029 0 0.0016014242630255087 0.0018500759013821077 0 0.0013872702806859989 0.0020419941564428033 0 0.0014803544900805102 0.0018987378411172533 0 0.0015266793228837787 0.0019592112333311029 0 0.0015266793228837787 0.0019592112333311029 0 0.001673378920585793 0.0018787259324788729 0 0.0016938154220661836 0.002020316626489532 0 0.0014643143015048877 0.0020867150224219647 0 0.0015266793228837787 0.0019592112333311029 0 0.0016938154220661836 0.002020316626489532 0 0.0015266793228837787 0.0019592112333311029 0 0.001673378920585793 0.0018787259324788729 0 0.0016014242630255087 0.0018500759013821077 0 0.0016014242630255087 0.0018500759013821077 0 0.0016311835874227496 0.0017638015734052174 0 0.0017068315691223272 0.0017654583487915136 0 0.001673378920585793 0.0018787259324788729 0 0.0016014242630255087 0.0018500759013821077 0 0.0017068315691223272 0.0017654583487915136 0 0.0014803544900805102 0.0018987378411172533 0 0.0016014242630255087 0.0018500759013821077 0 0.0016311835874227496 0.0017638015734052174 0 0.0016311835874227496 0.0017638015734052174 0 0.0016910961398141453 0.0016914871812809616 0 0.0017761698006941123 0.0016878202025445322 0 0.0016311835874227496 0.0017638015734052174 0 0.0016910961398141453 0.0016914871812809616 0 0.0017068315691223272 0.0017654583487915136 0 0.0016910961398141453 0.0016914871812809616 0 0.0017068315691223272 0.0017654583487915136 0 0.0017584551053798033 0.0016477799555567479 0 0.0017584551053798033 0.0016477799555567479 0 0.0017160346749979199 0.0016458392658300798 0 0.0017392579709670998 0.0015305285982577797 0 0.0016910961398141453 0.0016914871812809616 0 0.0017584551053798033 0.0016477799555567479 0 0.0017160346749979199 0.0016458392658300798 0 0.0016910961398141453 0.0016914871812809616 0 0.0017160346749979199 0.0016458392658300798 0 0.0017224557459477156 0.0016736134816943459 0 0.0018525769990764026 0.0016827166270751003 0 0.0021049118467203125 0.0016654531182167015 0 0.0017761698006941123 0.0016878202025445322 0 0.0016910961398141453 0.0016914871812809616 0 0.0018525769990764026 0.0016827166270751003 0 0.0017224557459477156 0.0016736134816943459 0 0.0026855286350121713 0.0017008874402457974 0 0.0018525769990764026 0.0016827166270751003 0 0.0021049118467203125 0.0016654531182167015 0 0.0021049118467203125 0.0016654531182167015 0 0.0021119658592707326 0.0017018925657121368 0 0.0018899264643097305 0.0017230070964875507 0 0.0021049118467203125 0.0016654531182167015 0 0.0018899264643097305 0.0017230070964875507 0 0.0017761698006941123 0.0016878202025445322 0 0.0023242288676918114 0.0017110039756842593 0 0.0021049118467203125 0.0016654531182167015 0 0.0021119658592707326 0.0017018925657121368 0 0.0016910961398141453 0.0016914871812809616 0 0.0018525769990764026 0.0016827166270751003 0 0.0017761698006941123 0.0016878202025445322 0 0.0026657408984350683 0.0020208239256231781 0 0.0024062409593486444 0.0019925293825212515 0 0.0026038482550687528 0.0018651506414596095 0 0.0024062409593486444 0.0019925293825212515 0 0.0024916643983798645 0.0021331386333072748 0 0.002203818615581922 0.0021142253469993628 0 0.0026657408984350683 0.0020208239256231781 0 0.0024062409593486444 0.0019925293825212515 0 0.0024916643983798645 0.0021331386333072748 0 0.0024062409593486444 0.0019925293825212515 0 0.002203818615581922 0.0021142253469993628 0 0.0020959342632470845 0.0019639485778143308 0 0.002203818615581922 0.0021142253469993628 0 0.0020959342632470845 0.0019639485778143308 0 0.0019658016665439703 0.0020930978113948492 0 0.0020959342632470845 0.0019639485778143308 0 0.0020444900973195916 0.0018379918033057062 0 0.0022784215905084669 0.0018610190722437169 0 0.0024062409593486444 0.0019925293825212515 0 0.0020959342632470845 0.0019639485778143308 0 0.0022784215905084669 0.0018610190722437169 0 0.0020959342632470845 0.0019639485778143308 0 0.0018804698399679429 0.0019895908895376634 0 0.0018449457394381177 0.0018804683318374726 0 0.0020959342632470845 0.0019639485778143308 0 0.0018449457394381177 0.0018804683318374726 0 0.0020444900973195916 0.0018379918033057062 0 0.0018804698399679429 0.0019895908895376634 0 0.0019658016665439703 0.0020930978113948492 0 0.0016938154220661836 0.002020316626489532 0 0.0020959342632470845 0.0019639485778143308 0 0.0018804698399679429 0.0019895908895376634 0 0.0019658016665439703 0.0020930978113948492 0 0.001673378920585793 0.0018787259324788729 0 0.0016938154220661836 0.002020316626489532 0 0.0018449457394381177 0.0018804683318374726 0 0.0018804698399679429 0.0019895908895376634 0 0.0016938154220661836 0.002020316626489532 0 0.0018449457394381177 0.0018804683318374726 0 0.001673378920585793 0.0018787259324788729 0 0.0017068315691223272 0.0017654583487915136 0 0.0018449457394381177 0.0018804683318374726 0 0.0017068315691223272 0.0017654583487915136 0 0.0018449457394381177 0.0018804683318374726 0 0.001892190630024909 0.0017459792615484703 0 0.0017068315691223272 0.0017654583487915136 0 0.0017584551053798033 0.0016477799555567479 0 0.001892190630024909 0.0017459792615484703 0 0.0017584551053798033 0.0016477799555567479 0 0.001892190630024909 0.0017459792615484703 0 0.0019574949225058952 0.0016085215521145588 0 0.0017584551053798033 0.0016477799555567479 0 0.0019574949225058952 0.0016085215521145588 0 0.00186093416034702 0.0014672727131444872 0 0.001892190630024909 0.0017459792615484703 0 0.0019574949225058952 0.0016085215521145588 0 0.0021346787190800382 0.0017281873869293531 0 0.0019574949225058952 0.0016085215521145588 0 0.0021346787190800382 0.0017281873869293531 0 0.002263708184205663 0.0015570360500815597 0 0.001892190630024909 0.0017459792615484703 0 0.0021346787190800382 0.0017281873869293531 0 0.0020444900973195916 0.0018379918033057062 0 0.0018449457394381177 0.0018804683318374726 0 0.001892190630024909 0.0017459792615484703 0 0.0020444900973195916 0.0018379918033057062 0 0.0021346787190800382 0.0017281873869293531 0 0.0020444900973195916 0.0018379918033057062 0 0.0022784215905084669 0.0018610190722437169 0 0.0021346787190800382 0.0017281873869293531 0 0.0022784215905084669 0.0018610190722437169 0 0.0023746669525605995 0.0017439683787026992 0 0.002263708184205663 0.0015570360500815597 0 0.0023746669525605995 0.0017439683787026992 0 0.0025877473435805512 0.0016660738459751453 0 0.0021346787190800382 0.0017281873869293531 0 0.002263708184205663 0.0015570360500815597 0 0.0023746669525605995 0.0017439683787026992 0 0.002848358561942477 0.0017987109252309678 0 0.0025877473435805512 0.0016660738459751453 0 0.0026038482550687528 0.0018651506414596095 0 0.0023746669525605995 0.0017439683787026992 0 0.0025877473435805512 0.0016660738459751453 0 0.0026038482550687528 0.0018651506414596095 0 0.002848358561942477 0.0017987109252309678 0 0.00286406924442726 0.0016000446994674617 0 0.0025877473435805512 0.0016660738459751453 0 0.0024062409593486444 0.0019925293825212515 0 0.0022784215905084669 0.0018610190722437169 0 0.0026038482550687528 0.0018651506414596095 0 0.0022784215905084669 0.0018610190722437169 0 0.0023746669525605995 0.0017439683787026992 0 0.0026038482550687528 0.0018651506414596095 0 0.0031230330624478619 0.0012981602096881701 0 0.0026894827011318214 0.0010507139622317849 0 0.0025823978727933391 0.0013577934430096048 0 0.0031230330624478619 0.0012981602096881701 0 0.0026894827011318214 0.0010507139622317849 0 0.0028542938838326771 0.000621859150535906 0 0.0025051120137622113 0.00078693255045010147 0 0.0026894827011318214 0.0010507139622317849 0 0.0028542938838326771 0.000621859150535906 0 0.0025051120137622113 0.00078693255045010147 0 0.0026894827011318214 0.0010507139622317849 0 0.0024575800658434054 0.0011015819751531801 0 0.0026894827011318214 0.0010507139622317849 0 0.0025823978727933391 0.0013577934430096048 0 0.0024575800658434054 0.0011015819751531801 0 0.002263708184205663 0.0015570360500815597 0 0.0025877473435805512 0.0016660738459751453 0 0.0025823978727933391 0.0013577934430096048 0 0.00286406924442726 0.0016000446994674617 0 0.0025877473435805512 0.0016660738459751453 0 0.0025823978727933391 0.0013577934430096048 0 0.002263708184205663 0.0015570360500815597 0 0.0022745216885937574 0.0012669677456692045 0 0.002050962124304433 0.0013874819083333492 0 0.002263708184205663 0.0015570360500815597 0 0.0025823978727933391 0.0013577934430096048 0 0.0022745216885937574 0.0012669677456692045 0 0.0022745216885937574 0.0012669677456692045 0 0.0022686102329047084 0.00099778700336952534 0 0.0020877366658311352 0.0011417376896777798 0 0.0022745216885937574 0.0012669677456692045 0 0.0024575800658434054 0.0011015819751531801 0 0.0022686102329047084 0.00099778700336952534 0 0.0025823978727933391 0.0013577934430096048 0 0.0022745216885937574 0.0012669677456692045 0 0.0024575800658434054 0.0011015819751531801 0 0.0025051120137622113 0.00078693255045010147 0 0.0024575800658434054 0.0011015819751531801 0 0.0022686102329047084 0.00099778700336952534 0 0.0025051120137622113 0.00078693255045010147 0 0.0022686102329047084 0.00099778700336952534 0 0.0023025888007646655 0.00071638762517909932 0 0.0022686102329047084 0.00099778700336952534 0 0.0021013533556401387 0.00087854833806917665 0 0.0023025888007646655 0.00071638762517909932 0 0.0022686102329047084 0.00099778700336952534 0 0.0020877366658311352 0.0011417376896777798 0 0.0021013533556401387 0.00087854833806917665 0 0.0019888036012435059 0.0010629368965792683 0 0.0018569578337781767 0.0010009808046166845 0 0.0021013533556401387 0.00087854833806917665 0 0.0019888036012435059 0.0010629368965792683 0 0.0020877366658311352 0.0011417376896777798 0 0.0021013533556401387 0.00087854833806917665 0 0.0019888036012435059 0.0010629368965792683 0 0.0019310711034707039 0.0012320164252260495 0 0.0018569578337781767 0.0010009808046166845 0 0.0019888036012435059 0.0010629368965792683 0 0.0019310711034707039 0.0012320164252260495 0 0.0020877366658311352 0.0011417376896777798 0 0.0019310711034707039 0.0012320164252260495 0 0.0020877366658311352 0.0011417376896777798 0 0.002050962124304433 0.0013874819083333492 0 0.0019574949225058952 0.0016085215521145588 0 0.002263708184205663 0.0015570360500815597 0 0.002050962124304433 0.0013874819083333492 0 0.0019574949225058952 0.0016085215521145588 0 0.002050962124304433 0.0013874819083333492 0 0.00186093416034702 0.0014672727131444872 0 0.0022745216885937574 0.0012669677456692045 0 0.0020877366658311352 0.0011417376896777798 0 0.002050962124304433 0.0013874819083333492 0 0.0019310711034707039 0.0012320164252260495 0 0.002050962124304433 0.0013874819083333492 0 0.00186093416034702 0.0014672727131444872 0 0.0019310711034707039 0.0012320164252260495 0 0.00186093416034702 0.0014672727131444872 0 0.0018044348478986835 0.0013436194804634584 0 0.00186093416034702 0.0014672727131444872 0 0.0018044348478986835 0.0013436194804634584 0 0.0017392579709670998 0.0015305285982577797 0 0.0018044348478986835 0.0013436194804634584 0 0.0018569578337781767 0.0010009808046166845 0 0.0016991393308500211 0.0014470630773070166 0 0.0019310711034707039 0.0012320164252260495 0 0.0018044348478986835 0.0013436194804634584 0 0.0018569578337781767 0.0010009808046166845 0 0.008156859258519061 -0.0013944820289473979 0 0.0080636330037401251 -0.0015304899216447166 0 0.007874296943353171 -0.0013932368861552373 0 0.008156859258519061 -0.0013944820289473979 0 0.0080636330037401251 -0.0015304899216447166 0 0.0081518206317585801 -0.0014472047511703465 0 0.0080636330037401251 -0.0015304899216447166 0 0.0079851388372104287 -0.0017297018324675688 0 0.007854932733465346 -0.001648224400548508 0 0.0079851388372104287 -0.0017297018324675688 0 0.0081684413169623524 -0.0016320549754000404 0 0.008051289385091049 -0.0019819556095083679 0 0.0080636330037401251 -0.0015304899216447166 0 0.0079851388372104287 -0.0017297018324675688 0 0.0081684413169623524 -0.0016320549754000404 0 0.0080636330037401251 -0.0015304899216447166 0 0.0081684413169623524 -0.0016320549754000404 0 0.0081518206317585801 -0.0014472047511703465 0 0.0081684413169623524 -0.0016320549754000404 0 0.0082412015573434597 -0.0015818205364662354 0 0.0081518206317585801 -0.0014472047511703465 0 0.0082047020433839452 -0.0014493867289303412 0 0.0080324358629970775 -0.0015453768242778272 0 0.0082412015573434597 -0.0015818205364662354 0 0.0081518206317585801 -0.0014472047511703465 0 0.008343641936784791 -0.0015487747860996079 0 0.0081684413169623524 -0.0016320549754000404 0 0.0082412015573434597 -0.0015818205364662354 0 0.0082206489701917781 -0.0016429720915919278 0 0.008156859258519061 -0.0013944820289473979 0 0.0081518206317585801 -0.0014472047511703465 0 0.0080659363718656191 -0.0014541747265025546 0 0.0018569578337781767 0.0010009808046166845 0 0.0021013533556401387 0.00087854833806917665 0 0.0022263976000788548 0.00038819761041240965 0 0.005073322622950632 -0.00019762246454933094 0 0.0048765176578302811 -0.0005893025337132524 0 0.0081518206317585801 -0.0014472047511703465 0 0.0080659363718656191 -0.0014541747265025546 0 0.0080445977363292585 -0.0013978737943104551 0 0.0021013533556401387 0.00087854833806917665 0 0.0023025888007646655 0.00071638762517909932 0 0.0022263976000788548 0.00038819761041240965 0 0.0025051120137622113 0.00078693255045010147 0 0.0023025888007646655 0.00071638762517909932 0 0.0024767928891185958 0.00050254457612054608 0 0.0023025888007646655 0.00071638762517909932 0 0.0024767928891185958 0.00050254457612054608 0 0.0022263976000788548 0.00038819761041240965 0 0.0024767928891185958 0.00050254457612054608 0 0.0022263976000788548 0.00038819761041240965 0 0.0027326198860419533 0.00014094718236614418 0 0.0082412015573434597 -0.0015818205364662354 0 0.0083089654499944321 -0.0015943373667043051 0 0.0082756218975030202 -0.0016369394381122589 0 0.0082412015573434597 -0.0015818205364662354 0 0.0083089654499944321 -0.0015943373667043051 0 0.008343641936784791 -0.0015487747860996079 0 0.0083089654499944321 -0.0015943373667043051 0 0.008343641936784791 -0.0015487747860996079 0 0.0083689483952318882 -0.0016008884233653228 0 0.007781242049709842 -0.0013277252338833711 0 0.0080659363718656191 -0.0014541747265025546 0 0.0080445977363292585 -0.0013978737943104551 0 0.007781242049709842 -0.0013277252338833711 0 0.0080445977363292585 -0.0013978737943104551 0 0.0078199468171228879 -0.0012867965314071349 0 0.0031158087332012496 -0.00054308638624673644 0 0.0022263976000788548 0.00038819761041240965 0 0.0027326198860419533 0.00014094718236614418 0 0.008343641936784791 -0.0015487747860996079 0 0.0083689483952318882 -0.0016008884233653228 0 0.0084472085735009667 -0.0015818086309650258 0 0.0080324358629970775 -0.0015453768242778272 0 0.0092755812729580119 -0.000124341455380858 0 0.0069197808491063568 -0.00032449018843043015 0 0.0048765176578302811 -0.0005893025337132524 0 0.0031158087332012496 -0.00054308638624673644 0 0.0029839267390438552 -4.6851860779116119e-05 0 0.0027326198860419533 0.00014094718236614418 0 0.0031345853195124417 6.0767961669911058e-05 0 0.0029839267390438552 -4.6851860779116119e-05 0 0.0029150479456944074 0.00028802273457560637 0 0.0029150479456944074 0.00028802273457560637 0 0.0027326198860419533 0.00014094718236614418 0 0.0026837074872997795 0.00044821147755162141 0 0.0029839267390438552 -4.6851860779116119e-05 0 0.0029150479456944074 0.00028802273457560637 0 0.0027326198860419533 0.00014094718236614418 0 0.0024767928891185958 0.00050254457612054608 0 0.0027326198860419533 0.00014094718236614418 0 0.0026837074872997795 0.00044821147755162141 0 0.0025051120137622113 0.00078693255045010147 0 0.0026837074872997795 0.00044821147755162141 0 0.0028542938838326771 0.000621859150535906 0 0.0025051120137622113 0.00078693255045010147 0 0.0024767928891185958 0.00050254457612054608 0 0.0026837074872997795 0.00044821147755162141 0 0.0029150479456944074 0.00028802273457560637 0 0.0026837074872997795 0.00044821147755162141 0 0.0028542938838326771 0.000621859150535906 0 0.0064743762483923722 -0.00088516325305294265 0 0.006611188002365407 0.00040655812227120261 0 0.0071499895602185276 -0.00091241308598873734 0 0.0064743762483923722 -0.00088516325305294265 0 0.0056521885820339278 -0.00031376718478752784 0 0.006611188002365407 0.00040655812227120261 0 0.0064743762483923722 -0.00088516325305294265 0 0.0071499895602185276 -0.00091241308598873734 0 0.0071008731534639939 -0.0015073530067094606 0 0.0064743762483923722 -0.00088516325305294265 0 0.0058319157996754769 -0.00096803768717307315 0 0.00628965985815112 -0.0014856379688613036 0 0.0064743762483923722 -0.00088516325305294265 0 0.0058319157996754769 -0.00096803768717307315 0 0.0056521885820339278 -0.00031376718478752784 0 0.0058319157996754769 -0.00096803768717307315 0 0.0049295428763404649 -0.0004708141443043655 0 0.005586054669967813 -0.001454289503174054 0 0.0037501081558841444 -0.00043674030213459997 0 0.0049295428763404649 -0.0004708141443043655 0 0.005586054669967813 -0.001454289503174054 0 0.0043750207355287814 -0.00029046508225380002 0 0.0055527266517277334 -0.0015600313049259089 0 0.0037501081558841444 -0.00043674030213459997 0 0.0049295428763404649 -0.0004708141443043655 0 0.0043209442146237937 0.00076702551664927453 0 0.0058319157996754769 -0.00096803768717307315 0 0.0049295428763404649 -0.0004708141443043655 0 0.0056521885820339278 -0.00031376718478752784 0 0.0056521885820339278 -0.00031376718478752784 0 0.0043209442146237937 0.00076702551664927453 0 0.006611188002365407 0.00040655812227120261 0 0.0028062850526568948 0.0016780175117426781 0 0.0041688161986433514 0.0010834150603347798 0 0.0026855286350121713 0.0017008874402457974 0 0.0043209442146237937 0.00076702551664927453 0 0.006611188002365407 0.00040655812227120261 0 0.0026855286350121713 0.0017008874402457974 0 0.0018525769990764026 0.0016827166270751003 0 0.0018212481150138647 0.0018377465443603172 0 0.0049295428763404649 -0.0004708141443043655 0 0.0056521885820339278 -0.00031376718478752784 0 0.0043209442146237937 0.00076702551664927453 0 0.0018525769990764026 0.0016827166270751003 0 0.0018212481150138647 0.0018377465443603172 0 0.0017224557459477156 0.0016736134816943459 0 0.0017160346749979199 0.0016458392658300798 0 0.0017224557459477156 0.0016736134816943459 0 0.0017392579709670998 0.0015305285982577797 0 0.0017224557459477156 0.0016736134816943459 0 0.0017392579709670998 0.0015305285982577797 0 0.0016991393308500211 0.0014470630773070166 0 0.0018212481150138647 0.0018377465443603172 0 0.0017224557459477156 0.0016736134816943459 0 0.0016991393308500211 0.0014470630773070166 0 0.0017584551053798033 0.0016477799555567479 0 0.00186093416034702 0.0014672727131444872 0 0.0017392579709670998 0.0015305285982577797 0 0.0018044348478986835 0.0013436194804634584 0 0.0017392579709670998 0.0015305285982577797 0 0.0016991393308500211 0.0014470630773070166 0 0.008156859258519061 -0.0013944820289473979 0 0.0078202078949983888 -0.00087916400183620208 0 0.007874296943353171 -0.0013932368861552373 0 0.005073322622950632 -0.00019762246454933094 0 0.0047448950038481916 0.0003119762366236335 0 0.0078202078949983888 -0.00087916400183620208 0 0.0075271134040333148 -0.0012635484564840743 0 0.007874296943353171 -0.0013932368861552373 0 0.0041688161986433514 0.0010834150603347798 0 0.0047448950038481916 0.0003119762366236335 0 0.006611188002365407 0.00040655812227120261 0 0.0078202078949983888 -0.00087916400183620208 0 0.0071499895602185276 -0.00091241308598873734 0 0.0078202078949983888 -0.00087916400183620208 0 0.0071499895602185276 -0.00091241308598873734 0 0.0075271134040333148 -0.0012635484564840743 0 0.0071499895602185276 -0.00091241308598873734 0 0.0075271134040333148 -0.0012635484564840743 0 0.0071008731534639939 -0.0015073530067094606 0 0.0075271134040333148 -0.0012635484564840743 0 0.0075777885268318787 -0.0015920127518240907 0 0.0071008731534639939 -0.0015073530067094606 0 0.0075271134040333148 -0.0012635484564840743 0 0.0075777885268318787 -0.0015920127518240907 0 0.007874296943353171 -0.0013932368861552373 0 0.0075777885268318787 -0.0015920127518240907 0 0.0073454882509461561 -0.0018750982094583909 0 0.0071008731534639939 -0.0015073530067094606 0 0.0075777885268318787 -0.0015920127518240907 0 0.007874296943353171 -0.0013932368861552373 0 0.007854932733465346 -0.001648224400548508 0 0.0080636330037401251 -0.0015304899216447166 0 0.007874296943353171 -0.0013932368861552373 0 0.007854932733465346 -0.001648224400548508 0 0.0075777885268318787 -0.0015920127518240907 0 0.007854932733465346 -0.001648224400548508 0 0.0076448563573820591 -0.0018079501700489521 0 0.0076448563573820591 -0.0018079501700489521 0 0.0076526654216059215 -0.0019700234328305531 0 0.0077961393273437282 -0.0018978462672201151 0 0.007854932733465346 -0.001648224400548508 0 0.0076448563573820591 -0.0018079501700489521 0 0.0077961393273437282 -0.0018978462672201151 0 0.0079851388372104287 -0.0017297018324675688 0 0.007854932733465346 -0.001648224400548508 0 0.0077961393273437282 -0.0018978462672201151 0 0.0075777885268318787 -0.0015920127518240907 0 0.0073454882509461561 -0.0018750982094583909 0 0.0076448563573820591 -0.0018079501700489521 0 0.0076448563573820591 -0.0018079501700489521 0 0.0075029404224016497 -0.0020407142434402427 0 0.0076526654216059215 -0.0019700234328305531 0 0.0073454882509461561 -0.0018750982094583909 0 0.0076448563573820591 -0.0018079501700489521 0 0.0075029404224016497 -0.0020407142434402427 0 0.0073454882509461561 -0.0018750982094583909 0 0.0073806479726112317 -0.0020029377951261149 0 0.0075029404224016497 -0.0020407142434402427 0 0.0073454882509461561 -0.0018750982094583909 0 0.0073806479726112317 -0.0020029377951261149 0 0.007217834172662389 -0.0019874190865675828 0 0.0073806479726112317 -0.0020029377951261149 0 0.007217834172662389 -0.0019874190865675828 0 0.0074332691488241918 -0.0020895176674842796 0 0.007217834172662389 -0.0019874190865675828 0 0.0069650704259033216 -0.0018233147273059066 0 0.007125715676077924 -0.0019728217125515816 0 0.0073454882509461561 -0.0018750982094583909 0 0.007217834172662389 -0.0019874190865675828 0 0.0069650704259033216 -0.0018233147273059066 0 0.0073454882509461561 -0.0018750982094583909 0 0.0069650704259033216 -0.0018233147273059066 0 0.0071008731534639939 -0.0015073530067094606 0 0.0069650704259033216 -0.0018233147273059066 0 0.00628965985815112 -0.0014856379688613036 0 0.0071008731534639939 -0.0015073530067094606 0 0.0064743762483923722 -0.00088516325305294265 0 0.00628965985815112 -0.0014856379688613036 0 0.0071008731534639939 -0.0015073530067094606 0 0.00628965985815112 -0.0014856379688613036 0 0.005497056970413988 -0.0017552011107618232 0 0.0056504200918695196 -0.0020344063597483044 0 0.0063894764473168796 -0.0014826270137023396 0 0.0063472972736258026 -0.0018957120795537437 0 0.0053075380522266732 -0.0016495373366799317 0 0.005586054669967813 -0.001454289503174054 0 0.005497056970413988 -0.0017552011107618232 0 0.0069650704259033216 -0.0018233147273059066 0 0.00628965985815112 -0.0014856379688613036 0 0.007125715676077924 -0.0019728217125515816 0 0.0058319157996754769 -0.00096803768717307315 0 0.00628965985815112 -0.0014856379688613036 0 0.005586054669967813 -0.001454289503174054 0 0.00628965985815112 -0.0014856379688613036 0 0.005586054669967813 -0.001454289503174054 0 0.005497056970413988 -0.0017552011107618232 0 0.0063472972736258026 -0.0018957120795537437 0 0.0075947461265831193 -0.0027824482277955427 0 0.007217834172662389 -0.0019874190865675828 0 0.007125715676077924 -0.0019728217125515816 0 0.0073800528414830801 -0.0020943870555616153 0 0.007125715676077924 -0.0019728217125515816 0 0.0073800528414830801 -0.0020943870555616153 0 0.0075591682150341543 -0.0022158889010476454 0 0.007125715676077924 -0.0019728217125515816 0 0.0075591682150341543 -0.0022158889010476454 0 0.0075082975566114381 -0.0022207875222222486 0 0.0073800528414830801 -0.0020943870555616153 0 0.0075611273190658163 -0.0021677867577449012 0 0.0075591682150341543 -0.0022158889010476454 0 0.0075611273190658163 -0.0021677867577449012 0 0.0076870098366230632 -0.002205859912806449 0 0.0075591682150341543 -0.0022158889010476454 0 0.0075611273190658163 -0.0021677867577449012 0 0.0076870098366230632 -0.002205859912806449 0 0.0076692360091072647 -0.0021628559393142505 0 0.0077091357311612372 -0.0022265032621386917 0 0.0078486062930356038 -0.0022276704071706654 0 0.0077955601773898736 -0.0022820792621325759 0 0.0075591682150341543 -0.0022158889010476454 0 0.0077091357311612372 -0.0022265032621386917 0 0.0077955601773898736 -0.0022820792621325759 0 0.0076066571989524476 -0.0025915909646145856 0 0.0075947461265831193 -0.0027824482277955427 0 0.0076870098366230632 -0.002205859912806449 0 0.0077091357311612372 -0.0022265032621386917 0 0.0078486062930356038 -0.0022276704071706654 0 0.0076870098366230632 -0.002205859912806449 0 0.0075591682150341543 -0.0022158889010476454 0 0.0077091357311612372 -0.0022265032621386917 0 0.0078486062930356038 -0.0022276704071706654 0 0.0080150736937693676 -0.0022039140230697822 0 0.0080851841649463106 -0.0022451652908017472 0 0.0078486062930356038 -0.0022276704071706654 0 0.0078034866976134497 -0.0021821788069994823 0 0.0080150736937693676 -0.0022039140230697822 0 0.0076870098366230632 -0.002205859912806449 0 0.0078486062930356038 -0.0022276704071706654 0 0.0078034866976134497 -0.0021821788069994823 0 0.0078034866976134497 -0.0021821788069994823 0 0.0077745508104765746 -0.0021262121707555162 0 0.0076692360091072647 -0.0021628559393142505 0 0.0076870098366230632 -0.002205859912806449 0 0.0078034866976134497 -0.0021821788069994823 0 0.0076692360091072647 -0.0021628559393142505 0 0.0078034866976134497 -0.0021821788069994823 0 0.0079012566555364677 -0.0021452149479519816 0 0.0077745508104765746 -0.0021262121707555162 0 0.0079012566555364677 -0.0021452149479519816 0 0.0077745508104765746 -0.0021262121707555162 0 0.0078956158962902191 -0.0020842849992485845 0 0.0079012566555364677 -0.0021452149479519816 0 0.0080150736937693676 -0.0022039140230697822 0 0.0080547839008056187 -0.0021161496210831839 0 0.0078034866976134497 -0.0021821788069994823 0 0.0079012566555364677 -0.0021452149479519816 0 0.0080150736937693676 -0.0022039140230697822 0 0.0077249633350545766 -0.0020770255238232219 0 0.0077745508104765746 -0.0021262121707555162 0 0.0076617144290054926 -0.0021208951038223507 0 0.0077249633350545766 -0.0020770255238232219 0 0.0076617144290054926 -0.0021208951038223507 0 0.0076721357514441604 -0.002081724499721388 0 0.0077249633350545766 -0.0020770255238232219 0 0.0077745508104765746 -0.0021262121707555162 0 0.0078105187133076463 -0.0020419088349229197 0 0.0076692360091072647 -0.0021628559393142505 0 0.0076617144290054926 -0.0021208951038223507 0 0.0075668192522675114 -0.0021307789019049299 0 0.0077745508104765746 -0.0021262121707555162 0 0.0076692360091072647 -0.0021628559393142505 0 0.0076617144290054926 -0.0021208951038223507 0 0.0076617144290054926 -0.0021208951038223507 0 0.0075668192522675114 -0.0021307789019049299 0 0.0076133550097972754 -0.0021024522299616074 0 0.0075668192522675114 -0.0021307789019049299 0 0.0075029404224016497 -0.0020407142434402427 0 0.0076133550097972754 -0.0021024522299616074 0 0.0075611273190658163 -0.0021677867577449012 0 0.0075668192522675114 -0.0021307789019049299 0 0.0074332691488241918 -0.0020895176674842796 0 0.0075611273190658163 -0.0021677867577449012 0 0.0076692360091072647 -0.0021628559393142505 0 0.0075668192522675114 -0.0021307789019049299 0 0.007217834172662389 -0.0019874190865675828 0 0.0073800528414830801 -0.0020943870555616153 0 0.0074332691488241918 -0.0020895176674842796 0 0.0073800528414830801 -0.0020943870555616153 0 0.0075611273190658163 -0.0021677867577449012 0 0.0074332691488241918 -0.0020895176674842796 0 0.0073806479726112317 -0.0020029377951261149 0 0.0074332691488241918 -0.0020895176674842796 0 0.0075029404224016497 -0.0020407142434402427 0 0.0075668192522675114 -0.0021307789019049299 0 0.0074332691488241918 -0.0020895176674842796 0 0.0075029404224016497 -0.0020407142434402427 0 0.0075029404224016497 -0.0020407142434402427 0 0.0076526654216059215 -0.0019700234328305531 0 0.0076262232900292035 -0.0020709953492278211 0 0.0076262232900292035 -0.0020709953492278211 0 0.0076996261959698352 -0.0020448895576266508 0 0.0076745929249569167 -0.0020714962708561473 0 0.0076526654216059215 -0.0019700234328305531 0 0.0076262232900292035 -0.0020709953492278211 0 0.0076996261959698352 -0.0020448895576266508 0 0.0075029404224016497 -0.0020407142434402427 0 0.0076262232900292035 -0.0020709953492278211 0 0.0076133550097972754 -0.0021024522299616074 0 0.0076526654216059215 -0.0019700234328305531 0 0.0077961393273437282 -0.0018978462672201151 0 0.0076996261959698352 -0.0020448895576266508 0 0.0077961393273437282 -0.0018978462672201151 0 0.0076996261959698352 -0.0020448895576266508 0 0.0077540816791858485 -0.0020829851743678174 0 0.0076996261959698352 -0.0020448895576266508 0 0.0077540816791858485 -0.0020829851743678174 0 0.0076973324223955763 -0.002061983999399811 0 0.0077540816791858485 -0.0020829851743678174 0 0.0076973324223955763 -0.002061983999399811 0 0.0076066039370764138 -0.0020418395958167485 0 0.0076996261959698352 -0.0020448895576266508 0 0.0076973324223955763 -0.002061983999399811 0 0.0076745929249569167 -0.0020714962708561473 0 0.0076973324223955763 -0.002061983999399811 0 0.0076745929249569167 -0.0020714962708561473 0 0.0076998120047317006 -0.0020090425805861776 0 0.0076973324223955763 -0.002061983999399811 0 0.0076998120047317006 -0.0020090425805861776 0 0.0076610012394270569 -0.0019730470814070897 0 0.0076973324223955763 -0.002061983999399811 0 0.0076610012394270569 -0.0019730470814070897 0 0.0076066039370764138 -0.0020418395958167485 0 0.0076262232900292035 -0.0020709953492278211 0 0.0076133550097972754 -0.0021024522299616074 0 0.0076721357514441604 -0.002081724499721388 0 0.0076617144290054926 -0.0021208951038223507 0 0.0076133550097972754 -0.0021024522299616074 0 0.0076721357514441604 -0.002081724499721388 0 0.0076262232900292035 -0.0020709953492278211 0 0.0076745929249569167 -0.0020714962708561473 0 0.0076721357514441604 -0.002081724499721388 0 0.0076745929249569167 -0.0020714962708561473 0 0.0076721357514441604 -0.002081724499721388 0 0.0076998120047317006 -0.0020090425805861776 0 0.0077249633350545766 -0.0020770255238232219 0 0.0076721357514441604 -0.002081724499721388 0 0.0077344847639648504 -0.0020157621136413493 0 0.0076721357514441604 -0.002081724499721388 0 0.0077344847639648504 -0.0020157621136413493 0 0.0076998120047317006 -0.0020090425805861776 0 0.0077344847639648504 -0.0020157621136413493 0 0.0076998120047317006 -0.0020090425805861776 0 0.0077532527971869714 -0.0019035215359725171 0 0.0076998120047317006 -0.0020090425805861776 0 0.0077532527971869714 -0.0019035215359725171 0 0.007706163866514233 -0.0018741723897580729 0 0.0077532527971869714 -0.0019035215359725171 0 0.0078263350548180063 -0.0017882176757829961 0 0.0078254741136079622 -0.0019304197742220032 0 0.0077344847639648504 -0.0020157621136413493 0 0.0077532527971869714 -0.0019035215359725171 0 0.0078254741136079622 -0.0019304197742220032 0 0.0076998120047317006 -0.0020090425805861776 0 0.0076610012394270569 -0.0019730470814070897 0 0.007706163866514233 -0.0018741723897580729 0 0.0076610012394270569 -0.0019730470814070897 0 0.007706163866514233 -0.0018741723897580729 0 0.0075732315776728468 -0.0018449352523440309 0 0.0077187777289705797 -0.001710601715794562 0 0.0075732315776728468 -0.0018449352523440309 0 0.0077689413804265198 -0.0014930906025442314 0 0.0078393958751473165 -0.0011521451750514187 0 0.0077549149861951983 -0.0015162357169296974 0 0.007706163866514233 -0.0018741723897580729 0 0.0077187777289705797 -0.001710601715794562 0 0.0075732315776728468 -0.0018449352523440309 0 0.007706163866514233 -0.0018741723897580729 0 0.0077187777289705797 -0.001710601715794562 0 0.0077608570677164933 -0.0017586513776790824 0 0.0077187777289705797 -0.001710601715794562 0 0.0077525723979571847 -0.0016236537177984128 0 0.0077689413804265198 -0.0014930906025442314 0 0.0077532527971869714 -0.0019035215359725171 0 0.0077608570677164933 -0.0017586513776790824 0 0.0078263350548180063 -0.0017882176757829961 0 0.0077532527971869714 -0.0019035215359725171 0 0.007706163866514233 -0.0018741723897580729 0 0.0077608570677164933 -0.0017586513776790824 0 0.0077608570677164933 -0.0017586513776790824 0 0.0077525723979571847 -0.0016236537177984128 0 0.0078073764137274512 -0.0016442219749954576 0 0.0077187777289705797 -0.001710601715794562 0 0.0077608570677164933 -0.0017586513776790824 0 0.0077525723979571847 -0.0016236537177984128 0 0.0077608570677164933 -0.0017586513776790824 0 0.0078073764137274512 -0.0016442219749954576 0 0.0078263350548180063 -0.0017882176757829961 0 0.0078263350548180063 -0.0017882176757829961 0 0.007920524088432945 -0.0018300116898529203 0 0.0079324374414816799 -0.0016380366708499841 0 0.0078073764137274512 -0.0016442219749954576 0 0.0078263350548180063 -0.0017882176757829961 0 0.0079324374414816799 -0.0016380366708499841 0 0.0078263350548180063 -0.0017882176757829961 0 0.007920524088432945 -0.0018300116898529203 0 0.0078254741136079622 -0.0019304197742220032 0 0.007920524088432945 -0.0018300116898529203 0 0.0080731299801132701 -0.0018035454254292738 0 0.0079588983855263199 -0.001970389273279664 0 0.007920524088432945 -0.0018300116898529203 0 0.0079324374414816799 -0.0016380366708499841 0 0.0080731299801132701 -0.0018035454254292738 0 0.0079324374414816799 -0.0016380366708499841 0 0.0082516929387705662 -0.0016032068592022304 0 0.0080731299801132701 -0.0018035454254292738 0 0.0082516929387705662 -0.0016032068592022304 0 0.0082266940555613018 -0.0019229893483340311 0 0.0084884882428482404 -0.0017986675749442948 0 0.0082516929387705662 -0.0016032068592022304 0 0.0082266940555613018 -0.0019229893483340311 0 0.0080731299801132701 -0.0018035454254292738 0 0.0082266940555613018 -0.0019229893483340311 0 0.0080731299801132701 -0.0018035454254292738 0 0.0079588983855263199 -0.001970389273279664 0 0.0082266940555613018 -0.0019229893483340311 0 0.0079588983855263199 -0.001970389273279664 0 0.0080547839008056187 -0.0021161496210831839 0 0.0082266940555613018 -0.0019229893483340311 0 0.0080547839008056187 -0.0021161496210831839 0 0.0082753793507827581 -0.002121925642521998 0 0.0080150736937693676 -0.0022039140230697822 0 0.0080547839008056187 -0.0021161496210831839 0 0.0081817991476884778 -0.002175136549368652 0 0.0080547839008056187 -0.0021161496210831839 0 0.0081817991476884778 -0.002175136549368652 0 0.0082753793507827581 -0.002121925642521998 0 0.0079012566555364677 -0.0021452149479519816 0 0.0080547839008056187 -0.0021161496210831839 0 0.0078956158962902191 -0.0020842849992485845 0 0.0079588983855263199 -0.001970389273279664 0 0.0080547839008056187 -0.0021161496210831839 0 0.0078956158962902191 -0.0020842849992485845 0 0.0077745508104765746 -0.0021262121707555162 0 0.0078956158962902191 -0.0020842849992485845 0 0.0078105187133076463 -0.0020419088349229197 0 0.0079588983855263199 -0.001970389273279664 0 0.0078956158962902191 -0.0020842849992485845 0 0.0078105187133076463 -0.0020419088349229197 0 0.0077344847639648504 -0.0020157621136413493 0 0.0078105187133076463 -0.0020419088349229197 0 0.0078254741136079622 -0.0019304197742220032 0 0.0077249633350545766 -0.0020770255238232219 0 0.0077344847639648504 -0.0020157621136413493 0 0.0078105187133076463 -0.0020419088349229197 0 0.007920524088432945 -0.0018300116898529203 0 0.0079588983855263199 -0.001970389273279664 0 0.0078254741136079622 -0.0019304197742220032 0 0.0079588983855263199 -0.001970389273279664 0 0.0078105187133076463 -0.0020419088349229197 0 0.0078254741136079622 -0.0019304197742220032 0 0.011744742338975763 0.00055298820944439295 0 0.011728877716294904 0.00054218763182430356 0 0.011736178746200764 0.00055286642887701154 0 0.011733725400082115 0.00054332856635957842 0 0.011744742338975763 0.00055298820944439295 0 0.011728877716294904 0.00054218763182430356 0 0.011733725400082115 0.00054332856635957842 0 0.011719197899298104 0.00052885242472140432 0 0.011728877716294904 0.00054218763182430356 0 0.0092755812729580119 -0.000124341455380858 0 0.010103946273216641 -0.00056130845180291935 0 0.0083689483952318882 -0.0016008884233653228 0 0.0084472085735009667 -0.0015818086309650258 0 0.0083660454187500198 -0.0016591397016537197 0 0.0083660454187500198 -0.0016591397016537197 0 0.0082513998723286498 -0.0016713864741379808 0 0.0082756218975030202 -0.0016369394381122589 0 0.0083089654499944321 -0.0015943373667043051 0 0.0083689483952318882 -0.0016008884233653228 0 0.0082756218975030202 -0.0016369394381122589 0 0.0083689483952318882 -0.0016008884233653228 0 0.0083660454187500198 -0.0016591397016537197 0 0.0082756218975030202 -0.0016369394381122589 0 0.0083660454187500198 -0.0016591397016537197 0 0.0082951308445514058 -0.0016996416641207042 0 0.0082513998723286498 -0.0016713864741379808 0 0.011728877716294904 0.00054218763182430356 0 0.011717676393311692 0.00055161830452952988 0 0.011736178746200764 0.00055286642887701154 0 0.010103946273216641 -0.00056130845180291935 0 0.010077394138266232 -0.00055337119516061563 0 0.0082506433946665861 -0.0016970397851646824 0 0.0082513998723286498 -0.0016713864741379808 0 0.0082154723391774133 -0.00169173854190592 0 0.0082951308445514058 -0.0016996416641207042 0 0.0082506433946665861 -0.0016970397851646824 0 0.0082513998723286498 -0.0016713864741379808 0 0.0081684413169623524 -0.0016320549754000404 0 0.0082206489701917781 -0.0016429720915919278 0 0.0082136647945820467 -0.0016564836794418631 0 0.0082513998723286498 -0.0016713864741379808 0 0.0082756218975030202 -0.0016369394381122589 0 0.0082206489701917781 -0.0016429720915919278 0 0.0082412015573434597 -0.0015818205364662354 0 0.0082756218975030202 -0.0016369394381122589 0 0.0082206489701917781 -0.0016429720915919278 0 0.0082513998723286498 -0.0016713864741379808 0 0.0082206489701917781 -0.0016429720915919278 0 0.0082136647945820467 -0.0016564836794418631 0 0.0081775864449906109 -0.0016241970263590514 0 0.0081087997057423776 -0.0018884677177498164 0 0.0079851388372104287 -0.0017297018324675688 0 0.0077961393273437282 -0.0018978462672201151 0 0.008051289385091049 -0.0019819556095083679 0 0.0077961393273437282 -0.0018978462672201151 0 0.0077540816791858485 -0.0020829851743678174 0 0.008051289385091049 -0.0019819556095083679 0 0.0078693556852416947 -0.0021039274245632155 0 0.0080444773957250981 -0.0015201187582418922 0 0.0082513998723286498 -0.0016713864741379808 0 0.0082136647945820467 -0.0016564836794418631 0 0.0082154723391774133 -0.00169173854190592 0 0.0081087997057423776 -0.0018884677177498164 0 0.0080444773957250981 -0.0015201187582418922 0 0.0077540816791858485 -0.0020829851743678174 0 0.008051289385091049 -0.0019819556095083679 0 0.0079370778710533864 -0.0023031985657464512 0 0.0080444773957250981 -0.0015201187582418922 0 0.0091793142006944706 -0.00036579269278068664 0 0.0082506433946665861 -0.0016970397851646824 0 0.0082154723391774133 -0.00169173854190592 0 0.0082549751548363498 -0.0017208977384248422 0 0.0076610012394270569 -0.0019730470814070897 0 0.0076066039370764138 -0.0020418395958167485 0 0.0075732315776728468 -0.0018449352523440309 0 0.0082867626911142592 6.5796426172655845e-05 0 0.0083757650799742966 -0.00040061858941716849 0 0.0080567299811652587 -0.00064556986720772037 0 0.0082867626911142592 6.5796426172655845e-05 0 0.0083757650799742966 -0.00040061858941716849 0 0.0087861546635911204 -0.00053200802196535298 0 0.0080444773957250981 -0.0015201187582418922 0 0.0078393958751473165 -0.0011521451750514187 0 0.0083757650799742966 -0.00040061858941716849 0 0.0080567299811652587 -0.00064556986720772037 0 0.008294020491285508 -0.0010959391569547697 0 0.0083757650799742966 -0.00040061858941716849 0 0.008294020491285508 -0.0010959391569547697 0 0.0087861546635911204 -0.00053200802196535298 0 0.0080567299811652587 -0.00064556986720772037 0 0.008294020491285508 -0.0010959391569547697 0 0.0077689413804265198 -0.0014930906025442314 0 0.008294020491285508 -0.0010959391569547697 0 0.0089267053416068973 -0.00057358381292793104 0 0.0089170360976838208 -0.001169442701356156 0 0.008294020491285508 -0.0010959391569547697 0 0.0089267053416068973 -0.00057358381292793104 0 0.0089592584088431064 -0.00029748087487109319 0 0.0082658457370451497 -0.0010868116439794091 0 0.0091793142006944706 -0.00036579269278068664 0 0.0089170360976838208 -0.001169442701356156 0 0.009356671144751012 -0.0007765913588510142 0 0.010038438203616553 -0.001556973175472403 0 0.0089267053416068973 -0.00057358381292793104 0 0.0089170360976838208 -0.001169442701356156 0 0.009356671144751012 -0.0007765913588510142 0 0.0089267053416068973 -0.00057358381292793104 0 0.0093947348516656044 -0.00080311214852003517 0 0.0089592584088431064 -0.00029748087487109319 0 0.0105270366047904 -6.0191877711347877e-05 0 0.0091793142006944706 -0.00036579269278068664 0 0.009246461564300942 -0.00016491159772763107 0 0.0105270366047904 -6.0191877711347877e-05 0 0.011704379881717616 0.00052957320947465158 0 0.011683879463190694 0.00053957199007507236 0 0.011717869035611931 0.00054538175771402927 0 0.011717676393311692 0.00055161830452952988 0 0.011683879463190694 0.00053957199007507236 0 0.011717869035611931 0.00054538175771402927 0 0.0082951308445514058 -0.0016996416641207042 0 0.0082506433946665861 -0.0016970397851646824 0 0.0082549751548363498 -0.0017208977384248422 0 0.010077394138266232 -0.00055337119516061563 0 0.0091793142006944706 -0.00036579269278068664 0 0.011717676393311692 0.00055161830452952988 0 0.011736178746200764 0.00055286642887701154 0 0.011717869035611931 0.00054538175771402927 0 0.011736178746200764 0.00055286642887701154 0 0.011717869035611931 0.00054538175771402927 0 0.011739167843135454 0.00054661150286536883 0 0.011704379881717616 0.00052957320947465158 0 0.011739167843135454 0.00054661150286536883 0 0.011769481655682834 0.00053364211521138218 0 0.011704379881717616 0.00052957320947465158 0 0.011717869035611931 0.00054538175771402927 0 0.011739167843135454 0.00054661150286536883 0 0.0105270366047904 -6.0191877711347877e-05 0 0.013098042012935934 0.0010936823173142412 0 0.0105270366047904 -6.0191877711347877e-05 0 0.013323578264112897 0.0012240192205875105 0 0.011739167843135454 0.00054661150286536883 0 0.011765189299441392 0.0005517007781619121 0 0.011769481655682834 0.00053364211521138218 0 0.011739167843135454 0.00054661150286536883 0 0.011765189299441392 0.0005517007781619121 0 0.011757601674273409 0.00055557106667201506 0 0.011765189299441392 0.0005517007781619121 0 0.011788470242853627 0.00055763821485688256 0 0.011776264615699923 0.00055891414357467676 0 0.011765189299441392 0.0005517007781619121 0 0.011788470242853627 0.00055763821485688256 0 0.011769481655682834 0.00053364211521138218 0 0.011765189299441392 0.0005517007781619121 0 0.011776264615699923 0.00055891414357467676 0 0.011757601674273409 0.00055557106667201506 0 0.011771349979307203 0.00055964556694798877 0 0.011776264615699923 0.00055891414357467676 0 0.011757601674273409 0.00055557106667201506 0 0.011771349979307203 0.00055964556694798877 0 0.011762041226730134 0.00055763267669849733 0 0.011757601674273409 0.00055557106667201506 0 0.011736178746200764 0.00055286642887701154 0 0.011739167843135454 0.00054661150286536883 0 0.011757601674273409 0.00055557106667201506 0 0.011744742338975763 0.00055298820944439295 0 0.011736178746200764 0.00055286642887701154 0 0.011757601674273409 0.00055557106667201506 0 0.011752359013870197 0.00055444267332061437 0 0.011762041226730134 0.00055763267669849733 0 0.011744742338975763 0.00055298820944439295 0 0.011762041226730134 0.00055763267669849733 0 0.011744742338975763 0.00055298820944439295 0 0.011757601674273409 0.00055557106667201506 0 0.01546095540036815 0.0031986919661260069 0 0.015418971200283465 0.0033250408862863577 0 0.015220196690143968 0.0033875525555861243 0 0.01546095540036815 0.0031986919661260069 0 0.015506746861043341 0.0030446541899762179 0 0.015515148129121583 0.003151355530608092 0 0.01546095540036815 0.0031986919661260069 0 0.015515148129121583 0.003151355530608092 0 0.015546150275678731 0.0032918984669942364 0 0.015977037510915809 0.0037682020112356444 0 0.013323578264112897 0.0012240192205875105 0 0.015497145980080613 0.0032670636639683514 0 0.01546095540036815 0.0031986919661260069 0 0.015418971200283465 0.0033250408862863577 0 0.015534771822449592 0.0033576974135024447 0 0.015418971200283465 0.0033250408862863577 0 0.015371212913170977 0.0034221696568664294 0 0.013639379028028715 0.0020115441476653223 0 0.013098042012935934 0.0010936823173142412 0 0.015418971200283465 0.0033250408862863577 0 0.015371212913170977 0.0034221696568664294 0 0.015220196690143968 0.0033875525555861243 0 0.011816119760285317 0.00057434694062454038 0 0.011788470242853627 0.00055763821485688256 0 0.011769481655682834 0.00053364211521138218 0 0.011445976496064415 0.00054285564171675641 0 0.013098042012935934 0.0010936823173142412 0 0.013098042012935934 0.0010936823173142412 0 0.013323578264112897 0.0012240192205875105 0 0.011579945451375877 0.0010666963363219176 0 0.012897387956495854 0.00040932882493768525 0 0.012229566997581742 0.00029213502584988572 0 0.015506746861043341 0.0030446541899762179 0 0.015570814889434499 0.00310045546172107 0 0.015515148129121583 0.003151355530608092 0 0.015515148129121583 0.003151355530608092 0 0.01559720501788397 0.0031596593969747304 0 0.015546150275678731 0.0032918984669942364 0 0.015570814889434499 0.00310045546172107 0 0.015515148129121583 0.003151355530608092 0 0.01559720501788397 0.0031596593969747304 0 0.015647020238961497 0.0032304256792184825 0 0.01559720501788397 0.0031596593969747304 0 0.015736839147887215 0.0031528885434033973 0 0.01559720501788397 0.0031596593969747304 0 0.015681385794491784 0.0030347907940432642 0 0.015736839147887215 0.0031528885434033973 0 0.015570814889434499 0.00310045546172107 0 0.01559720501788397 0.0031596593969747304 0 0.015681385794491784 0.0030347907940432642 0 0.015647020238961497 0.0032304256792184825 0 0.015736839147887215 0.0031528885434033973 0 0.015754215770001943 0.0032328623101700398 0 0.015506746861043341 0.0030446541899762179 0 0.015570814889434499 0.00310045546172107 0 0.015681385794491784 0.0030347907940432642 0 0.0089170360976838208 -0.001169442701356156 0 0.010038438203616553 -0.001556973175472403 0 0.008754289338079594 -0.001751289245834035 0 0.013323578264112897 0.0012240192205875105 0 0.012100595152244063 0.00059255585491795255 0 0.008754289338079594 -0.001751289245834035 0 0.0077689413804265198 -0.0014930906025442314 0 0.0077455876785890998 -0.0016877356686608848 0 0.012100595152244063 0.00059255585491795255 0 0.011904542735673896 0.00070071886176662607 0 0.008294020491285508 -0.0010959391569547697 0 0.008754289338079594 -0.001751289245834035 0 0.0077689413804265198 -0.0014930906025442314 0 0.008294020491285508 -0.0010959391569547697 0 0.0089170360976838208 -0.001169442701356156 0 0.008754289338079594 -0.001751289245834035 0 0.015736839147887215 0.0031528885434033973 0 0.015862196129164681 0.0031880007524727636 0 0.015944085026208289 0.0030467955759588077 0 0.015681385794491784 0.0030347907940432642 0 0.015736839147887215 0.0031528885434033973 0 0.015944085026208289 0.0030467955759588077 0 0.015736839147887215 0.0031528885434033973 0 0.015754215770001943 0.0032328623101700398 0 0.015862196129164681 0.0031880007524727636 0 0.015823040744426781 0.0033173440101331802 0 0.015751318359745876 0.0034275296088812465 0 0.015926168096662606 0.0033992835859891213 0 0.015862196129164681 0.0031880007524727636 0 0.015823040744426781 0.0033173440101331802 0 0.015952744990168244 0.0032857927086987139 0 0.015754215770001943 0.0032328623101700398 0 0.015862196129164681 0.0031880007524727636 0 0.015823040744426781 0.0033173440101331802 0 0.015754215770001943 0.0032328623101700398 0 0.015823040744426781 0.0033173440101331802 0 0.015697404214944605 0.0033027892870456498 0 0.015823040744426781 0.0033173440101331802 0 0.015751318359745876 0.0034275296088812465 0 0.015697404214944605 0.0033027892870456498 0 0.018881766801601512 0.0042910039674449122 0 0.01947230847926168 0.0048807647658436794 0 0.017732225698140851 0.0044062525060951088 0 0.01760380423855035 0.0041528058287425302 0 0.016907957901419475 0.0039690013288739218 0 0.019247730015127366 0.0039355766666634116 0 0.018881766801601512 0.0042910039674449122 0 0.019635884677025459 0.0044472273025243682 0 0.018881766801601512 0.0042910039674449122 0 0.019635884677025459 0.0044472273025243682 0 0.01947230847926168 0.0048807647658436794 0 0.019247730015127366 0.0039355766666634116 0 0.019868399548073956 0.0037798556599698526 0 0.019635884677025459 0.0044472273025243682 0 0.019635884677025459 0.0044472273025243682 0 0.01947230847926168 0.0048807647658436794 0 0.020286631136083023 0.0043692470362608898 0 0.020547590071995712 0.0037204817239165403 0 0.019635884677025459 0.0044472273025243682 0 0.020286631136083023 0.0043692470362608898 0 0.01947230847926168 0.0048807647658436794 0 0.020286631136083023 0.0043692470362608898 0 0.020689017807746422 0.0051244205555537083 0 0.015647020238961497 0.0032304256792184825 0 0.01559720501788397 0.0031596593969747304 0 0.015546150275678731 0.0032918984669942364 0 0.01760380423855035 0.0041528058287425302 0 0.018114106868398039 0.0041942634619651547 0 0.015647020238961497 0.0032304256792184825 0 0.015697404214944605 0.0033027892870456498 0 0.015546150275678731 0.0032918984669942364 0 0.015751318359745876 0.0034275296088812465 0 0.015697404214944605 0.0033027892870456498 0 0.015546150275678731 0.0032918984669942364 0 0.015647020238961497 0.0032304256792184825 0 0.015754215770001943 0.0032328623101700398 0 0.015697404214944605 0.0033027892870456498 0 0.020689017807746422 0.0051244205555537083 0 0.020906756978503131 0.0043877286384999287 0 0.021393940337466628 0.0049263730407771338 0 0.020286631136083023 0.0043692470362608898 0 0.020689017807746422 0.0051244205555537083 0 0.020906756978503131 0.0043877286384999287 0 0.020661901242999329 0.0041214097189194703 0 0.020286631136083023 0.0043692470362608898 0 0.020906756978503131 0.0043877286384999287 0 0.020904181779108709 0.0040032408995353671 0 0.021270864749930927 0.0041100302086990986 0 0.020906756978503131 0.0043877286384999287 0 0.020661901242999329 0.0041214097189194703 0 0.020904181779108709 0.0040032408995353671 0 0.020906756978503131 0.0043877286384999287 0 0.020906756978503131 0.0043877286384999287 0 0.021401639138590896 0.0044398502082872975 0 0.021393940337466628 0.0049263730407771338 0 0.021270864749930927 0.0041100302086990986 0 0.021401639138590896 0.0044398502082872975 0 0.021733227385812764 0.0042004899168567259 0 0.021270864749930927 0.0041100302086990986 0 0.020906756978503131 0.0043877286384999287 0 0.021401639138590896 0.0044398502082872975 0 0.021958656773851802 0.0044324036932169861 0 0.021733227385812764 0.0042004899168567259 0 0.021704181845245727 0.0045705363538406357 0 0.021401639138590896 0.0044398502082872975 0 0.021733227385812764 0.0042004899168567259 0 0.021704181845245727 0.0045705363538406357 0 0.022069731805338184 0.0047880669232487376 0 0.021704181845245727 0.0045705363538406357 0 0.021393940337466628 0.0049263730407771338 0 0.021401639138590896 0.0044398502082872975 0 0.021704181845245727 0.0045705363538406357 0 0.021393940337466628 0.0049263730407771338 0 0.021870520729673833 0.0054305714996013199 0 0.020689017807746422 0.0051244205555537083 0 0.021393940337466628 0.0049263730407771338 0 0.022069731805338184 0.0047880669232487376 0 0.021870520729673833 0.0054305714996013199 0 0.021393940337466628 0.0049263730407771338 0 0.015472401003635108 0.0031905708096298586 0 0.01546095540036815 0.0031986919661260069 0 0.015546150275678731 0.0032918984669942364 0 0.018680308365782473 0.0044456124382380204 0 0.018114106868398039 0.0041942634619651547 0 0.012062134811166584 0.00088706297083238712 0 0.012397810237690494 0.0010767873486381826 0 0.016256734937000951 0.0031268471892750183 0 0.016239941564767369 0.0033492080461267888 0 0.016404277842195017 0.003338104340840334 0 0.016256734937000951 0.0031268471892750183 0 0.016471272244880254 0.0032430575032918909 0 0.016404277842195017 0.003338104340840334 0 0.0079324374414816799 -0.0016380366708499841 0 0.0082516929387705662 -0.0016032068592022304 0 0.0083207613652886789 -0.0010886769940270024 0 0.0082516929387705662 -0.0016032068592022304 0 0.0083207613652886789 -0.0010886769940270024 0 0.0086143188324496519 -0.0014211845465097565 0 0.0078073764137274512 -0.0016442219749954576 0 0.0079324374414816799 -0.0016380366708499841 0 0.0078571583933793165 -0.0013426465321233465 0 0.0079324374414816799 -0.0016380366708499841 0 0.0078571583933793165 -0.0013426465321233465 0 0.0083207613652886789 -0.0010886769940270024 0 0.0078073764137274512 -0.0016442219749954576 0 0.0078571583933793165 -0.0013426465321233465 0 0.0077530918990726151 -0.0015729020213936973 0 0.0078571583933793165 -0.0013426465321233465 0 0.0077530918990726151 -0.0015729020213936973 0 0.0077455876785890998 -0.0016877356686608848 0 0.0077525723979571847 -0.0016236537177984128 0 0.0078073764137274512 -0.0016442219749954576 0 0.0077530918990726151 -0.0015729020213936973 0 0.0077525723979571847 -0.0016236537177984128 0 0.0077530918990726151 -0.0015729020213936973 0 0.0077689413804265198 -0.0014930906025442314 0 0.0077530918990726151 -0.0015729020213936973 0 0.0077689413804265198 -0.0014930906025442314 0 0.0077455876785890998 -0.0016877356686608848 0 0.015862196129164681 0.0031880007524727636 0 0.015944085026208289 0.0030467955759588077 0 0.015963877406564096 0.0031730525069412299 0 0.015944085026208289 0.0030467955759588077 0 0.015963877406564096 0.0031730525069412299 0 0.016085412204645645 0.0032045901720439145 0 0.015963877406564096 0.0031730525069412299 0 0.016085412204645645 0.0032045901720439145 0 0.015952744990168244 0.0032857927086987139 0 0.015862196129164681 0.0031880007524727636 0 0.015963877406564096 0.0031730525069412299 0 0.015952744990168244 0.0032857927086987139 0 0.016256734937000951 0.0031268471892750183 0 0.015944085026208289 0.0030467955759588077 0 0.016085412204645645 0.0032045901720439145 0 0.016256734937000951 0.0031268471892750183 0 0.016085412204645645 0.0032045901720439145 0 0.016239941564767369 0.0033492080461267888 0 0.012062134811166584 0.00088706297083238712 0 0.011904542735673896 0.00070071886176662607 0 0.016085412204645645 0.0032045901720439145 0 0.016239941564767369 0.0033492080461267888 0 0.016079251242329153 0.0033894327575998608 0 0.016239941564767369 0.0033492080461267888 0 0.016079251242329153 0.0033894327575998608 0 0.016261712769574759 0.0034843940529618975 0 0.016239941564767369 0.0033492080461267888 0 0.016261712769574759 0.0034843940529618975 0 0.016424389609915057 0.0034809171994564427 0 0.016085412204645645 0.0032045901720439145 0 0.015952744990168244 0.0032857927086987139 0 0.016079251242329153 0.0033894327575998608 0 0.015823040744426781 0.0033173440101331802 0 0.015952744990168244 0.0032857927086987139 0 0.015926168096662606 0.0033992835859891213 0 0.015952744990168244 0.0032857927086987139 0 0.016079251242329153 0.0033894327575998608 0 0.015926168096662606 0.0033992835859891213 0 0.018431285271327928 0.0039073827753397994 0 0.018881766801601512 0.0042910039674449122 0 0.017732225698140851 0.0044062525060951088 0 0.015751318359745876 0.0034275296088812465 0 0.015926168096662606 0.0033992835859891213 0 0.016045523338613674 0.003576741888937167 0 0.016079251242329153 0.0033894327575998608 0 0.015926168096662606 0.0033992835859891213 0 0.016045523338613674 0.003576741888937167 0 0.016543851920593863 0.0037230455604521226 0 0.016907957901419475 0.0039690013288739218 0 0.016519101006910314 0.0036724665159354915 0 0.016045523338613674 0.003576741888937167 0 0.016261712769574759 0.0034843940529618975 0 0.016079251242329153 0.0033894327575998608 0 0.016045523338613674 0.003576741888937167 0 0.016261712769574759 0.0034843940529618975 0 0.016519101006910314 0.0036724665159354915 0 0.016424389609915057 0.0034809171994564427 0 0.016513746028403015 0.0035642960919808212 0 0.016519101006910314 0.0036724665159354915 0 0.016261712769574759 0.0034843940529618975 0 0.016424389609915057 0.0034809171994564427 0 0.016424389609915057 0.0034809171994564427 0 0.016404277842195017 0.003338104340840334 0 0.016508929925268662 0.0034472385208166394 0 0.016239941564767369 0.0033492080461267888 0 0.016424389609915057 0.0034809171994564427 0 0.016404277842195017 0.003338104340840334 0 0.016471272244880254 0.0032430575032918909 0 0.016404277842195017 0.003338104340840334 0 0.016508929925268662 0.0034472385208166394 0 0.016534259815060202 0.0035280449665127758 0 0.016508929925268662 0.0034472385208166394 0 0.016513746028403015 0.0035642960919808212 0 0.016424389609915057 0.0034809171994564427 0 0.016508929925268662 0.0034472385208166394 0 0.016513746028403015 0.0035642960919808212 0 0.016534259815060202 0.0035280449665127758 0 0.016602171009919561 0.0035057888374444421 0 0.01656510041989202 0.0034047340097835411 0 0.016534259815060202 0.0035280449665127758 0 0.016508929925268662 0.0034472385208166394 0 0.01656510041989202 0.0034047340097835411 0 0.016602171009919561 0.0035057888374444421 0 0.016634927592702634 0.0034260668434527436 0 0.01656510041989202 0.0034047340097835411 0 0.016616916730600468 0.0029912135257659307 0 0.012761666390102889 0.0011137031218409917 0 0.015676231395372064 0.0018841522849963855 0 0.015202337372755857 0.00099727260895249759 0 0.016315433215665014 0.0011929415317501219 0 0.016634927592702634 0.0034260668434527436 0 0.01656510041989202 0.0034047340097835411 0 0.016575512166469134 0.0032920975228772505 0 0.016471272244880254 0.0032430575032918909 0 0.016508929925268662 0.0034472385208166394 0 0.01656510041989202 0.0034047340097835411 0 0.016471272244880254 0.0032430575032918909 0 0.01656510041989202 0.0034047340097835411 0 0.016575512166469134 0.0032920975228772505 0 0.012761666390102889 0.0011137031218409917 0 0.0076703651346791777 -0.0020302453546364287 0 0.0083207613652886789 -0.0010886769940270024 0 0.0089104432722567333 -0.00093210817327805495 0 0.0086143188324496519 -0.0014211845465097565 0 0.012397810237690494 0.0010767873486381826 0 0.012761666390102889 0.0011137031218409917 0 0.0094342537570157974 0.00089460976902559276 0 0.011045588288444401 -0.00015219728051270149 0 0.0097580256252027524 -0.0010499857399619633 0 0.011045588288444401 -0.00015219728051270149 0 0.0097580256252027524 -0.0010499857399619633 0 0.010400439165868223 -0.0014928630252967934 0 0.0097580256252027524 -0.0010499857399619633 0 0.010400439165868223 -0.0014928630252967934 0 0.010081423291954474 -0.0017451530872497761 0 0.010400439165868223 -0.0014928630252967934 0 0.010081423291954474 -0.0017451530872497761 0 0.010380410048615901 -0.0018905306459290584 0 0.0097580256252027524 -0.0010499857399619633 0 0.010081423291954474 -0.0017451530872497761 0 0.0093299419879205314 -0.0015737495352405827 0 0.0094342537570157974 0.00089460976902559276 0 0.0097580256252027524 -0.0010499857399619633 0 0.0086143188324496519 -0.0014211845465097565 0 0.0097580256252027524 -0.0010499857399619633 0 0.0093299419879205314 -0.0015737495352405827 0 0.0086143188324496519 -0.0014211845465097565 0 0.01389992087398855 -0.002501446975974144 0 0.012646404607065072 -0.00049402199038330247 0 0.015309877157012493 -0.0003067219148975171 0 0.01389992087398855 -0.002501446975974144 0 0.015309877157012493 -0.0003067219148975171 0 0.016581261679330255 -0.0014438482152616381 0 0.010603444034751577 -0.0015546481265525573 0 0.012399762851067976 -0.0021525566479890981 0 0.010400439165868223 -0.0014928630252967934 0 0.01389992087398855 -0.002501446975974144 0 0.012646404607065072 -0.00049402199038330247 0 0.010400439165868223 -0.0014928630252967934 0 0.011213808033014565 -0.0017174577877115539 0 0.010715473829070659 -0.0019903995541847865 0 0.011045588288444401 -0.00015219728051270149 0 0.010400439165868223 -0.0014928630252967934 0 0.012646404607065072 -0.00049402199038330247 0 0.011045588288444401 -0.00015219728051270149 0 0.012646404607065072 -0.00049402199038330247 0 0.013181035241752646 0.0015487937822428841 0 0.012761666390102889 0.0011137031218409917 0 0.014654353329769648 0.0012948139295622175 0 0.0094342537570157974 0.00089460976902559276 0 0.011045588288444401 -0.00015219728051270149 0 0.013181035241752646 0.0015487937822428841 0 0.015309877157012493 -0.0003067219148975171 0 0.013181035241752646 0.0015487937822428841 0 0.017175697531142901 0.0013277138470678812 0 0.012646404607065072 -0.00049402199038330247 0 0.015309877157012493 -0.0003067219148975171 0 0.013181035241752646 0.0015487937822428841 0 0.016315433215665014 0.0011929415317501219 0 0.01675218167756545 0.0020717844457591094 0 0.017175697531142901 0.0013277138470678812 0 0.014654353329769648 0.0012948139295622175 0 0.017049858743029573 0.0013927827139146901 0 0.015676231395372064 0.0018841522849963855 0 0.016315433215665014 0.0011929415317501219 0 0.01675218167756545 0.0020717844457591094 0 0.016356097547208535 0.003081542390053899 0 0.016616916730600468 0.0029912135257659307 0 0.016152807528689118 0.0028068604643154832 0 0.015676231395372064 0.0018841522849963855 0 0.01675218167756545 0.0020717844457591094 0 0.01675218167756545 0.0020717844457591094 0 0.017762803007618986 0.0020442778500124751 0 0.017175697531142901 0.0013277138470678812 0 0.017528867245356163 0.002755044255905368 0 0.01675218167756545 0.0020717844457591094 0 0.017762803007618986 0.0020442778500124751 0 0.017175697531142901 0.0013277138470678812 0 0.018723293175600335 0.0015285337683011984 0 0.018477971567837769 0.00039618149713606171 0 0.017762803007618986 0.0020442778500124751 0 0.017175697531142901 0.0013277138470678812 0 0.018723293175600335 0.0015285337683011984 0 0.020516535550276466 0.0018902124755519583 0 0.020043721106618655 0.0021505902619275538 0 0.019922985127277602 0.001546227459224082 0 0.019173269304889724 0.0023200890271313978 0 0.020043721106618655 0.0021505902619275538 0 0.019922985127277602 0.001546227459224082 0 0.019173269304889724 0.0023200890271313978 0 0.017762803007618986 0.0020442778500124751 0 0.018723293175600335 0.0015285337683011984 0 0.019173269304889724 0.0023200890271313978 0 0.019922985127277602 0.001546227459224082 0 0.018723293175600335 0.0015285337683011984 0 0.019922985127277602 0.001546227459224082 0 0.019468158949079151 0.00068312748292884747 0 0.018723293175600335 0.0015285337683011984 0 0.019468158949079151 0.00068312748292884747 0 0.018723293175600335 0.0015285337683011984 0 0.018477971567837769 0.00039618149713606171 0 0.020540987197916249 0.00073372468957572611 0 0.019922985127277602 0.001546227459224082 0 0.019468158949079151 0.00068312748292884747 0 0.021189537332386349 0.00027944265542380857 0 0.019448075904373988 0.00073561739111996903 0 0.021098301256808439 0.00079437831898516986 0 0.019468158949079151 0.00068312748292884747 0 0.019651965606445988 -0.00044921084708403759 0 0.021098301256808439 0.00079437831898516986 0 0.019651965606445988 -0.00044921084708403759 0 0.020720617528178973 -0.0010436466870169783 0 0.019468158949079151 0.00068312748292884747 0 0.019651965606445988 -0.00044921084708403759 0 0.018477971567837769 0.00039618149713606171 0 0.019651965606445988 -0.00044921084708403759 0 0.018610068015843341 -0.0010704530427813361 0 0.018477971567837769 0.00039618149713606171 0 0.019651965606445988 -0.00044921084708403759 0 0.018610068015843341 -0.0010704530427813361 0 0.019688329938807425 -0.0017998763904065612 0 0.018610068015843341 -0.0010704530427813361 0 0.019688329938807425 -0.0017998763904065612 0 0.018654239661379728 -0.0026054105761719182 0 0.019651965606445988 -0.00044921084708403759 0 0.019688329938807425 -0.0017998763904065612 0 0.020720617528178973 -0.0010436466870169783 0 0.015309877157012493 -0.0003067219148975171 0 0.017175697531142901 0.0013277138470678812 0 0.017405969435417657 -0.00040784457060793426 0 0.017175697531142901 0.0013277138470678812 0 0.018477971567837769 0.00039618149713606171 0 0.017405969435417657 -0.00040784457060793426 0 0.018610068015843341 -0.0010704530427813361 0 0.018477971567837769 0.00039618149713606171 0 0.017405969435417657 -0.00040784457060793426 0 0.018610068015843341 -0.0010704530427813361 0 0.017739195822993794 -0.0015936504116547225 0 0.018654239661379728 -0.0026054105761719182 0 0.017405969435417657 -0.00040784457060793426 0 0.017739195822993794 -0.0015936504116547225 0 0.016581261679330255 -0.0014438482152616381 0 0.018610068015843341 -0.0010704530427813361 0 0.017405969435417657 -0.00040784457060793426 0 0.017739195822993794 -0.0015936504116547225 0 0.01389992087398855 -0.002501446975974144 0 0.016581261679330255 -0.0014438482152616381 0 0.016962593837229201 -0.0030535256032753846 0 0.017739195822993794 -0.0015936504116547225 0 0.016581261679330255 -0.0014438482152616381 0 0.016896072273652592 -0.0023494561165364847 0 0.016439948801817064 -0.0020503213634471534 0 0.015287840031784095 -0.0015657387648620863 0 0.015309877157012493 -0.0003067219148975171 0 0.017405969435417657 -0.00040784457060793426 0 0.016581261679330255 -0.0014438482152616381 0 0.012399762851067976 -0.0021525566479890981 0 0.015287840031784095 -0.0015657387648620863 0 0.012210620425663935 -0.001901299626973426 0 0.011872868866351111 -0.0025074521969033108 0 0.011472402782316803 -0.0022363430376320386 0 0.017739195822993794 -0.0015936504116547225 0 0.016896072273652592 -0.0023494561165364847 0 0.018654239661379728 -0.0026054105761719182 0 0.015287840031784095 -0.0015657387648620863 0 0.017219193756990919 -0.0015226106399855173 0 0.015231247748936166 -0.00019541334256351645 0 0.015661484949076671 -0.00078153916123854653 0 0.015987817870971918 -0.00033668518306782813 0 0.015661484949076671 -0.00078153916123854653 0 0.015420382488432008 -0.0010191840193038788 0 0.015983249932868638 -0.0012353343639651692 0 0.015231247748936166 -0.00019541334256351645 0 0.015661484949076671 -0.00078153916123854653 0 0.01542498390290057 -0.0010251722547629681 0 0.01542041837843486 -0.00054208965287226519 0 0.01372443432553697 -0.0016649112766944395 0 0.012443113470722687 -0.0028906707444374272 0 0.011733538183797547 -0.0029657981078078568 0 0.011872868866351111 -0.0025074521969033108 0 0.015287840031784095 -0.0015657387648620863 0 0.01372443432553697 -0.0016649112766944395 0 0.012210620425663935 -0.001901299626973426 0 0.012443113470722687 -0.0028906707444374272 0 0.011872868866351111 -0.0025074521969033108 0 0.022052787057452259 0.00028773014054912088 0 0.022053948251021589 0.00025999513650426493 0 0.022054125874039786 0.00029806796249440867 0 0.021544208483681482 -0.00045415569715990926 0 0.019932782950715374 -0.00055351200743622507 0 0.019688329938807425 -0.0017998763904065612 0 0.020720617528178973 -0.0010436466870169783 0 0.020322511328174673 -0.0029009718222167084 0 0.022052787057452259 0.00028773014054912088 0 0.022043367976981573 0.00030915126710429124 0 0.022054125874039786 0.00029806796249440867 0 0.021429179643062499 -0.00046313127064801147 0 0.019932782950715374 -0.00055351200743622507 0 0.019688329938807425 -0.0017998763904065612 0 0.020322511328174673 -0.0029009718222167084 0 0.018654239661379728 -0.0026054105761719182 0 0.019932782950715374 -0.00055351200743622507 0 0.017219193756990919 -0.0015226106399855173 0 0.01676989250177429 -0.00048438174227748913 0 0.015987817870971918 -0.00033668518306782813 0 0.016196097760168122 -0.00081378628280634436 0 0.016196097760168122 -0.00081378628280634436 0 0.016597984639317442 -0.0011522483936999266 0 0.015983249932868638 -0.0012353343639651692 0 0.015661484949076671 -0.00078153916123854653 0 0.015987817870971918 -0.00033668518306782813 0 0.016196097760168122 -0.00081378628280634436 0 0.015661484949076671 -0.00078153916123854653 0 0.016196097760168122 -0.00081378628280634436 0 0.015983249932868638 -0.0012353343639651692 0 0.022043367976981573 0.00030915126710429124 0 0.022032845723565883 0.00030998238570408113 0 0.021996173980217956 0.00033586943945217526 0 0.022037022200208464 0.00033790851039638769 0 0.022043367976981573 0.00030915126710429124 0 0.021996173980217956 0.00033586943945217526 0 0.01676989250177429 -0.00048438174227748913 0 0.016196097760168122 -0.00081378628280634436 0 0.016597984639317442 -0.0011522483936999266 0 0.019932782950715374 -0.00055351200743622507 0 0.019432057394135553 -0.00028838464746204322 0 0.019432057394135553 -0.00028838464746204322 0 0.01567236813506645 -0.00046609249043792517 0 0.022019093073342738 0.00037396878585459263 0 0.021996173980217956 0.00033586943945217526 0 0.021934259963319987 0.00031493500096656555 0 0.016597984639317442 -0.0011522483936999266 0 0.015983249932868638 -0.0012353343639651692 0 0.016428250068983637 -0.0018152068647120717 0 0.015983249932868638 -0.0012353343639651692 0 0.016428250068983637 -0.0018152068647120717 0 0.015602899171898284 -0.0018328273053061512 0 0.011261786380889009 6.9732145452076818e-05 0 0.011628241659024962 0.00037539491234561548 0 0.010932162774149174 0.00035630751576721273 0 0.01567236813506645 -0.00046609249043792517 0 0.012279919835847497 -0.0008936435937846605 0 0.017517143446557713 0.00013754624021737965 0 0.01567236813506645 -0.00046609249043792517 0 0.012193985579998744 -0.0002473413076299721 0 0.012966711757113209 0.00031997445697062551 0 0.013163049631589317 -0.00017287836020400275 0 0.012443113470722687 -0.0028906707444374272 0 0.011733538183797547 -0.0029657981078078568 0 0.011951308775143728 -0.0033920555013483762 0 0.011673354670874393 -0.0026250030999706649 0 0.01048782950151228 -0.0016050443654536391 0 0.01372443432553697 -0.0016649112766944395 0 0.011673354670874393 -0.0026250030999706649 0 0.012185684198178769 -0.001075192315684224 0 0.011751446898960856 -0.0015145900092061947 0 0.012387245840556829 -0.0019290323985652876 0 0.01372443432553697 -0.0016649112766944395 0 0.012279919835847497 -0.0008936435937846605 0 0.015420382488432008 -0.0010191840193038788 0 0.015983249932868638 -0.0012353343639651692 0 0.015602899171898284 -0.0018328273053061512 0 0.011042135027578242 -0.00026050879874980638 0 0.011261786380889009 6.9732145452076818e-05 0 0.010932162774149174 0.00035630751576721273 0 0.010752085199249355 0.00034476866444477618 0 0.012279919835847497 -0.0008936435937846605 0 0.012279919835847497 -0.0008936435937846605 0 0.01048782950151228 -0.0016050443654536391 0 0.010541483081314624 -5.9278297564502082e-05 0 0.010877204516104187 0.00041583436946311892 0 0.009920855082053431 0.00039351005905876967 0 0.011751446898960856 -0.0015145900092061947 0 0.012387245840556829 -0.0019290323985652876 0 0.011318237286778285 -0.0019555761750316317 0 0.01048782950151228 -0.0016050443654536391 0 0.0086788444479951477 -0.002899561450790128 0 0.011457376275775659 -0.0038930114119719653 0 0.011203646488774104 -0.0033004585323804102 0 0.010653671227098064 -0.0039170898572003154 0 0.0087480879257384476 -0.0022213366836248819 0 0.0091665074077134003 -0.0017924212248044055 0 0.0083051778955689545 -0.0018187306558913265 0 0.0069073128400844452 -0.00092416771095150073 0 0.01048782950151228 -0.0016050443654536391 0 0.011733538183797547 -0.0029657981078078568 0 0.011951308775143728 -0.0033920555013483762 0 0.011203646488774104 -0.0033004585323804102 0 0.011951308775143728 -0.0033920555013483762 0 0.011457376275775659 -0.0038930114119719653 0 0.011203646488774104 -0.0033004585323804102 0 0.011733538183797547 -0.0029657981078078568 0 0.011203646488774104 -0.0033004585323804102 0 0.011263404772556586 -0.0028452809177742203 0 0.011203646488774104 -0.0033004585323804102 0 0.010589631010021255 -0.003229991747996984 0 0.010653671227098064 -0.0039170898572003154 0 0.010589631010021255 -0.003229991747996984 0 0.010653671227098064 -0.0039170898572003154 0 0.010287635024215898 -0.0031608365379673523 0 0.010589631010021255 -0.003229991747996984 0 0.010287635024215898 -0.0031608365379673523 0 0.010388277033298216 -0.0028791923014840218 0 0.011203646488774104 -0.0033004585323804102 0 0.010589631010021255 -0.003229991747996984 0 0.010811797810470073 -0.0028659523896691157 0 0.0050211115059284519 -0.0020740478479621192 0 0.0047550128736544234 -0.0021101085544346868 0 0.00490042437835163 -0.0022479846980428785 0 0.0069073128400844452 -0.00092416771095150073 0 0.0086788444479951477 -0.002899561450790128 0 0.010098759593412172 -0.0034760432787481837 0 0.0097543577254744062 -0.0034883740028891544 0 0.009770223881316516 -0.0033052204292917434 0 0.0050211115059284519 -0.0020740478479621192 0 0.00490042437835163 -0.0022479846980428785 0 0.0051733607385803923 -0.002263708971782295 0 0.0086788444479951477 -0.002899561450790128 0 0.0072177473433524941 -0.0028862531288353335 0 0.0097543577254744062 -0.0034883740028891544 0 0.009545680232278312 -0.0033070120742161673 0 0.009770223881316516 -0.0033052204292917434 0 0.0072177473433524941 -0.0028862531288353335 0 0.0075947461265831193 -0.0027824482277955427 0 0.0097543577254744062 -0.0034883740028891544 0 0.0093117046152858245 -0.0035361370693665329 0 0.009545680232278312 -0.0033070120742161673 0 0.0052917665272029322 -0.0019930605734750795 0 0.0051733607385803923 -0.002263708971782295 0 0.0054884300648583 -0.0022899003996402476 0 0.0077955601773898736 -0.0022820792621325759 0 0.0080851841649463106 -0.0022451652908017472 0 0.008534919987485904 -0.0022858792874672377 0 0.0075947461265831193 -0.0027824482277955427 0 0.009289878741895562 -0.0025158987667826187 0 0.0093117046152858245 -0.0035361370693665329 0 0.009545680232278312 -0.0033070120742161673 0 0.0096284090885857265 -0.0028657478311928243 0 0.009545680232278312 -0.0033070120742161673 0 0.0096772260721184073 -0.0031606540842132481 0 0.0096284090885857265 -0.0028657478311928243 0 0.0078486062930356038 -0.0022276704071706654 0 0.0077955601773898736 -0.0022820792621325759 0 0.0080851841649463106 -0.0022451652908017472 0 0.009545680232278312 -0.0033070120742161673 0 0.0096772260721184073 -0.0031606540842132481 0 0.009770223881316516 -0.0033052204292917434 0 0.0096772260721184073 -0.0031606540842132481 0 0.0097405579572856903 -0.0030612268242599405 0 0.0096284090885857265 -0.0028657478311928243 0 0.0082331669028647917 -0.0022296425578644872 0 0.0080851841649463106 -0.0022451652908017472 0 0.008534919987485904 -0.0022858792874672377 0 0.0080150736937693676 -0.0022039140230697822 0 0.0082331669028647917 -0.0022296425578644872 0 0.0081817991476884778 -0.002175136549368652 0 0.0080150736937693676 -0.0022039140230697822 0 0.0082331669028647917 -0.0022296425578644872 0 0.0080851841649463106 -0.0022451652908017472 0 0.0086788444479951477 -0.002899561450790128 0 0.010443343808538872 -0.0035034409540560287 0 0.010098759593412172 -0.0034760432787481837 0 0.009770223881316516 -0.0033052204292917434 0 0.0097405579572856903 -0.0030612268242599405 0 0.010653671227098064 -0.0039170898572003154 0 0.0097405579572856903 -0.0030612268242599405 0 0.010287635024215898 -0.0031608365379673523 0 0.0096772260721184073 -0.0031606540842132481 0 0.009770223881316516 -0.0033052204292917434 0 0.0097405579572856903 -0.0030612268242599405 0 0.010287635024215898 -0.0031608365379673523 0 0.010094720103965343 -0.0027671529563333967 0 0.010388277033298216 -0.0028791923014840218 0 0.010094720103965343 -0.0027671529563333967 0 0.010388277033298216 -0.0028791923014840218 0 0.010492717801265004 -0.002527263370821306 0 0.0097405579572856903 -0.0030612268242599405 0 0.010287635024215898 -0.0031608365379673523 0 0.010094720103965343 -0.0027671529563333967 0 0.0097405579572856903 -0.0030612268242599405 0 0.010094720103965343 -0.0027671529563333967 0 0.0096284090885857265 -0.0028657478311928243 0 0.010094720103965343 -0.0027671529563333967 0 0.0096284090885857265 -0.0028657478311928243 0 0.010233060406038195 -0.0023070380251182057 0 0.010094720103965343 -0.0027671529563333967 0 0.010233060406038195 -0.0023070380251182057 0 0.010492717801265004 -0.002527263370821306 0 0.008534919987485904 -0.0022858792874672377 0 0.0085034581766170493 -0.0020874112183992106 0 0.0089562905940906087 -0.0019317123767492693 0 0.0081817991476884778 -0.002175136549368652 0 0.0083404307686369087 -0.0021913688133051849 0 0.0082753793507827581 -0.002121925642521998 0 0.0082331669028647917 -0.0022296425578644872 0 0.0081817991476884778 -0.002175136549368652 0 0.0083404307686369087 -0.0021913688133051849 0 0.0082331669028647917 -0.0022296425578644872 0 0.0083404307686369087 -0.0021913688133051849 0 0.008534919987485904 -0.0022858792874672377 0 0.0083404307686369087 -0.0021913688133051849 0 0.008534919987485904 -0.0022858792874672377 0 0.0085034581766170493 -0.0020874112183992106 0 0.0082266940555613018 -0.0019229893483340311 0 0.0085034581766170493 -0.0020874112183992106 0 0.0082753793507827581 -0.002121925642521998 0 0.0083404307686369087 -0.0021913688133051849 0 0.0085034581766170493 -0.0020874112183992106 0 0.0082753793507827581 -0.002121925642521998 0 0.0082266940555613018 -0.0019229893483340311 0 0.0085034581766170493 -0.0020874112183992106 0 0.0084884882428482404 -0.0017986675749442948 0 0.0085034581766170493 -0.0020874112183992106 0 0.0089562905940906087 -0.0019317123767492693 0 0.0084884882428482404 -0.0017986675749442948 0 0.0093299419879205314 -0.0015737495352405827 0 0.0086143188324496519 -0.0014211845465097565 0 0.0089562905940906087 -0.0019317123767492693 0 0.0086143188324496519 -0.0014211845465097565 0 0.0089562905940906087 -0.0019317123767492693 0 0.0084884882428482404 -0.0017986675749442948 0 0.0082516929387705662 -0.0016032068592022304 0 0.0086143188324496519 -0.0014211845465097565 0 0.0084884882428482404 -0.0017986675749442948 0 0.010081423291954474 -0.0017451530872497761 0 0.0096284090885857265 -0.0028657478311928243 0 0.010233060406038195 -0.0023070380251182057 0 0.0099508705185500264 -0.0017236065407643169 0 0.009289878741895562 -0.0025158987667826187 0 0.010081423291954474 -0.0017451530872497761 0 0.008534919987485904 -0.0022858792874672377 0 0.0089562905940906087 -0.0019317123767492693 0 0.010081423291954474 -0.0017451530872497761 0 0.0093299419879205314 -0.0015737495352405827 0 0.0089562905940906087 -0.0019317123767492693 0 0.010081423291954474 -0.0017451530872497761 0 0.010233060406038195 -0.0023070380251182057 0 0.010380410048615901 -0.0018905306459290584 0 0.010233060406038195 -0.0023070380251182057 0 0.010380410048615901 -0.0018905306459290584 0 0.010715473829070659 -0.0019903995541847865 0 0.010400439165868223 -0.0014928630252967934 0 0.010380410048615901 -0.0018905306459290584 0 0.010715473829070659 -0.0019903995541847865 0 0.011213808033014565 -0.0017174577877115539 0 0.010715473829070659 -0.0019903995541847865 0 0.010963061918850939 -0.002428992740773234 0 0.010233060406038195 -0.0023070380251182057 0 0.010715473829070659 -0.0019903995541847865 0 0.010492717801265004 -0.002527263370821306 0 0.010715473829070659 -0.0019903995541847865 0 0.010492717801265004 -0.002527263370821306 0 0.010963061918850939 -0.002428992740773234 0 0.011213808033014565 -0.0017174577877115539 0 0.012210620425663935 -0.001901299626973426 0 0.011472402782316803 -0.0022363430376320386 0 0.011213808033014565 -0.0017174577877115539 0 0.011472402782316803 -0.0022363430376320386 0 0.010963061918850939 -0.002428992740773234 0 0.011472402782316803 -0.0022363430376320386 0 0.011263404772556586 -0.0028452809177742203 0 0.010963061918850939 -0.002428992740773234 0 0.011872868866351111 -0.0025074521969033108 0 0.011472402782316803 -0.0022363430376320386 0 0.011263404772556586 -0.0028452809177742203 0 0.011733538183797547 -0.0029657981078078568 0 0.011872868866351111 -0.0025074521969033108 0 0.011263404772556586 -0.0028452809177742203 0 0.011203646488774104 -0.0033004585323804102 0 0.011263404772556586 -0.0028452809177742203 0 0.010811797810470073 -0.0028659523896691157 0 0.011263404772556586 -0.0028452809177742203 0 0.010811797810470073 -0.0028659523896691157 0 0.010963061918850939 -0.002428992740773234 0 0.010811797810470073 -0.0028659523896691157 0 0.010388277033298216 -0.0028791923014840218 0 0.010492717801265004 -0.002527263370821306 0 0.010589631010021255 -0.003229991747996984 0 0.010811797810470073 -0.0028659523896691157 0 0.010388277033298216 -0.0028791923014840218 0 0.010811797810470073 -0.0028659523896691157 0 0.010492717801265004 -0.002527263370821306 0 0.010963061918850939 -0.002428992740773234 0 
</DataArray>
</PointData>
<CellData Scalars="region_id,cross_section_updated," Vectors="" Tensors="stress,">
<DataArray type="Float64" Name="region_id" format="ascii">
5 5 5 5 5 5 6 5 5 5 6 5 5 5 6 5 5 5 5 5 5 6 6 5 5 5 5 6 6 5 6 6 5 6 5 5 5 6 5 5 6 5 5 5 5 5 5 5 6 5 5 5 5 5 5 5 5 6 5 5 6 5 6 5 6 5 6 5 5 5 5 5 5 5 5 5 5 5 5 5 5 5 5 6 5 5 5 5 5 5 5 5 6 5 5 6 6 5 5 5 5 5 5 5 5 5 5 5 5 6 5 5 5 5 5 6 5 5 6 5 5 5 5 5 5 5 5 5 5 5 5 5 5 5 5 5 5 5 6 5 5 5 5 5 6 5 5 5 5 5 5 5 5 5 5 5 5 5 5 5 5 5 5 5 5 5 5 5 5 6 5 6 5 5 5 6 5 5 5 6 5 5 5 6 6 5 5 6 5 5 5 5 6 5 5 5 5 5 6 5 5 5 5 6 5 6 5 5 6 5 5 5 6 5 5 6 5 5 5 5 5 5 5 5 5 5 6 5 5 6 5 5 5 5 5 5 5 6 5 5 5 5 5 5 5 5 5 5 5 5 5 5 5 5 5 5 5 5 5 6 5 6 5 5 5 5 5 6 5 5 5 5 5 5 5 5 6 5 5 5 6 5 5 6 5 5 5 5 6 5 5 6 5 5 5 5 5 6 5 6 5 5 5 5 5 5 5 5 5 5 5 5 5 5 5 5 5 5 6 5 5 5 5 5 6 6 5 5 5 5 5 5 5 5 5 5 6 5 5 5 5 5 5 5 5 5 6 5 5 6 6 5 5 5 6 5 5 6 5 5 5 5 5 5 5 5 5 5 5 5 5 5 5 6 5 5 5 5 5 5 5 5 6 5 5 6 5 5 5 5 6 5 5 5 5 5 5 5 5 5 5 5 5 5 5 6 6 5 5 6 6 5 6 5 6 5 6 5 5 6 5 5 5 5 5 5 5 5 5 6 6 5 5 6 5 5 5 5 5 6 5 5 6 5 5 5 5 6 5 5 5 6 5 5 5 6 5 6 5 5 6 5 5 5 5 5 5 5 5 5 5 5 6 5 5 5 5 5 5 6 5 5 5 6 5 5 5 5 5 5 5 6 5 5 5 5 5 6 5 6 5 5 5 5 5 6 6 5 5 5 6 6 5 6 5 5 5 5 5 5 5 6 5 5 5 5 5 5 5 5 5 5 5 5 5 5 6 5 5 6 5 6 5 5 5 5 5 5 5 5 5 5 5 5 5 5 6 5 5 5 5 5 5 5 5 5 5 5 5 5 5 5 5 6 5 5 5 5 5 5 5 5 5 5 5 6 6 5 5 5 5 5 5 5 5 5 5 5 5 5 5 5 5 6 5 5 5 5 5 5 5 6 5 5 5 5 5 5 5 5 6 5 5 5 6 5 5 5 5 5 5 5 5 5 5 5 5 5 5 5 5 5 5 5 5 5 5 5 5 5 5 5 5 6 5 6 5 5 5 5 5 5 5 5 5 5 5 5 5 6 5 5 5 6 5 5 5 5 5 5 5 5 5 5 5 5 5 6 6 5 5 5 5 5 5 5 6 5 5 5 5 5 5 5 5 5 5 5 6 5 5 5 5 5 5 5 6 5 5 5 5 5 5 5 5 5 5 5 5 5 5 5 5 5 6 5 5 5 5 5 5 5 5 5 5 6 5 5 5 5 5 6 5 5 5 6 5 5 5 5 6 5 5 5 5 5 5 5 6 5 6 5 5 6 5 6 5 5 5 5 5 5 5 5 5 5 5 5 5 5 5 5 5 5 5 5 5 5 5 5 5 5 5 5 5 5 5 5 5 5 5 6 5 6 6 5 5 5 5 5 5 5 5 5 5 5 6 5 5 5 5 5 5 5 6 5 6 5 6 5 5 5 5 5 5 6 5 6 6 5 5 5 5 5 5 5 5 5 5 5 5 5 5 5 5 5 6 5 5 5 5 5 5 5 5 5 5 5 5 5 5 6 5 5 5 5 5 5 5 5 5 5 5 5 5 6 5 5 5 5 5 5 5 5 5 6 5 5 5 5 5 6 6 5 5 5 5 6 6 5 5 5 5 5 5 5 5 5 5 5 6 5 5 5 5 6 5 5 5 5 5 5 6 5 5 6 5 6 5 5 5 6 5 5 5 5 5 5 5 6 5 5 5 5 6 6 5 5 6 5 5 5 6 6 6 6 5 5 6 5 5 5 5 5 5 5 5 6 6 5 5 5 5 5 5 6 5 6 5 5 5 6 5 5 5 5 5 5 5 5 5 5 5 5 5 5 5 5 5 5 5 5 5 5 5 5 5 5 5 5 6 5 5 5 5 5 5 5 5 5 5 5 5 5 5 5 5 5 5 5 5 5 6 5 5 5 5 5 5 5 5 5 6 5 5 5 5 5 5 6 5 5 5 5 5 6 5 5 5 5 5 6 5 5 5 5 5 5 5 5 5 5 6 5 5 5 5 6 6 5 5 6 5 5 5 5 6 5 5 6 5 5 5 5 5 6 6 5 5 5 5 5 5 6 5 5 5 5 5 5 5 6 6 5 5 5 6 5 5 5 6 5 5 6 5 6 5 5 5 6 5 5 6 6 5 5 5 5 5 5 6 5 6 5 6 5 5 5 6 6 5 6 5 5 5 5 5 5 5 5 5 5 5 5 5 5 5 5 6 5 5 5 5 5 5 5 6 5 5 5 5 5 6 5 5 5 6 5 5 5 5 6 5 6 5 6 5 5 5 5 6 5 5 6 5 5 5 5 5 5 5 5 5 5 5 6 5 5 5 5 6 5 5 5 5 6 5 5 5 5 5 5 6 5 5 5 6 5 6 6 5 5 5 5 5 5 5 5 5 5 5 5 5 5 5 5 5 5 5 5 5 5 5 5 5 5 5 5 6 5 5 6 6 5 6 5 5 5 5 6 5 5 6 5 5 5 5 5 5 5 5 5 5 5 5 5 5 5 5 5 5 5 5 5 5 5 5 5 5 5 5 6 5 5 5 5 5 5 5 5 6 5 5 5 5 5 5 5 6 5 6 5 5 5 6 5 5 5 5 5 5 5 6 5 6 5 5 5 5 5 6 5 5 5 5 5 5 5 5 5 5 5 5 5 5 5 5 5 5 5 5 5 5 5 5 5 5 5 5 5 5 5 5 5 5 5 5 5 5 5 6 6 5 5 6 5 5 5 6 5 5 5 6 6 5 5 6 5 5 5 5 5 5 5 5 5 5 5 5 5 5 5 5 5 5 5 5 5 6 5 6 5 5 5 5 5 5 5 5 5 5 5 5 5 5 5 5 5 5 5 5 5 5 5 5 5 5 5 5 5 5 5 5 5 5 5 5 5 5 5 5 5 5 5 5 5 6 5 6 5 6 5 5 6 5 5 5 5 5 5 5 5 5 5 5 5 5 5 5 5 5 5 5 5 5 5 5 5 5 5 5 6 5 5 5 5 5 5 5 5 5 5 5 5 5 5 5 5 5 5 5 5 5 5 5 5 5 5 5 5 5 5 5 5 5 5 5 5 5 5 5 5 5 5 5 5 5 5 5 5 5 6 5 5 5 5 6 5 5 5 5 5 5 5 5 6 5 5 5 5 5 6 6 6 5 5 5 5 6 6 5 5 6 5 5 5 5 5 5 5 5 5 5 5 5 5 5 6 6 5 6 5 5 5 5 5 5 5 5 5 5 5 5 5 5 5 5 5 5 6 5 5 5 5 5 5 6 5 5 5 5 5 5 5 5 5 5 5 5 5 5 5 5 5 5 6 5 5 5 5 5 5 5 5 5 6 5 5 6 5 5 5 5 5 5 5 5 5 5 5 5 5 5 5 5 6 5 6 5 5 5 5 6 5 6 5 5 6 6 5 5 6 5 5 5 6 5 5 5 5 5 5 6 5 5 5 6 5 5 5 5 6 5 5 5 5 5 5 5 6 5 5 5 5 5 6 5 5 6 5 5 5 5 5 5 5 6 5 5 5 6 6 5 5 5 6 5 5 5 5 5 6 6 6 5 5 5 5 5 5 5 5 5 6 6 5 6 5 5 5 5 5 6 5 5 6 5 6 5 5 5 6 5 5 6 5 5 5 5 5 5 5 6 5 5 6 6 5 5 6 5 6 5 5 6 5 5 6 5 6 5 5 5 6 5 5 6 5 6 5 5 6 5 6 5 5 5 5 6 6 5 5 5 5 5 5 5 5 5 6 5 5 5 5 5 5 5 5 5 5 5 5 5 5 5 5 5 5 6 6 5 5 5 6 5 5 5 5 6 5 5 6 5 5 5 6 5 5 6 5 5 5 5 6 5 5 5 5 5 6 5 5 5 6 6 5 5 6 5 5 5 5 5 6 6 5 5 5 5 6 5 5 5 5 6 5 5 5 5 5 5 5 5 5 5 5 5 5 5 5 5 5 5 5 5 5 5 5 5 5 5 5 5 6 5 5 5 5 5 5 5 5 5 5 5 6 5 5 5 5 6 5 5 5 6 5 5 6 5 5 5 5 5 6 5 5 5 5 5 5 5 5 5 5 5 5 5 5 5 5 5 5 5 5 6 5 5 5 5 5 6 5 5 5 5 5 5 5 6 5 5 5 5 5 5 5 5 5 5 5 5 5 6 5 5 5 5 5 6 6 5 5 5 5 6 5 6 5 5 5 6 6 5 5 6 5 5 5 6 5 5 5 5 6 5 5 6 6 5 5 5 5 5 5 6 5 5 6 5 5 5 5 6 5 5 5 5 5 5 5 5 5 5 5 5 5 5 5 5 5 5 5 6 5 6 5 5 5 6 5 6 5 6 5 5 6 5 5 6 6 6 5 5 5 6 5 5 5 5 5 5 6 5 5 5 5 5 5 5 6 5 6 5 5 5 5 5 5 5 6 5 5 5 5 5 5 5 5 5 5 5 6 5 5 6 5 5 5 5 5 5 5 5 5 5 5 5 5 5 5 5 6 5 5 5 5 5 5 5 5 5 5 5 5 5 5 5 5 5 5 5 5 5 6 5 5 5 6 5 5 5 5 5 5 5 5 5 5 6 5 5 5 5 5 5 5 5 5 5 6 5 5 5 5 5 5 6 5 5 5 6 5 5 5 5 5 5 5 5 5 5 5 5 5 5 5 5 5 5 5 5 5 6 5 5 5 5 5 6 5 5 6 5 5 5 5 5 5 6 5 5 5 5 6 5 5 5 5 5 5 5 5 5 5 5 5 5 5 5 5 5 5 6 5 5 5 5 5 6 5 5 5 6 5 6 5 5 5 5 5 5 5 6 5 5 5 6 6 5 5 5 5 5 6 5 5 5 6 5 5 5 5 5 5 5 5 5 5 5 5 5 5 5 6 5 5 5 5 5 5 6 5 5 5 5 5 5 5 5 5 5 5 6 5 5 5 5 5 5 5 5 5 6 5 5 5 5 6 6 5 5 5 5 5 5 5 5 6 6 5 6 5 5 5 5 5 6 5 5 5 5 5 5 6 5 6 5 5 5 5 5 5 5 5 5 5 6 5 5 5 5 5 5 6 5 5 5 5 5 5 5 5 6 5 5 5 5 5 6 5 5 6 5 5 5 5 5 5 6 5 5 5 5 5 5 5 5 6 5 5 5 5 6 5 5 5 5 5 5 5 5 5 5 6 5 5 5 5 5 5 5 5 5 6 5 5 5 5 6 5 5 5 5 5 5 5 5 6 5 6 5 5 5 6 5 5 5 5 5 5 5 5 6 5 5 5 6 5 5 5 6 5 5 6 5 5 5 5 5 5 5 5 5 5 5 5 5 5 5 5 5 5 5 5 5 5 5 5 5 5 5 5 5 5 5 5 5 5 5 5 5 5 5 5 5 5 5 5 5 5 5 5 5 5 5 5 5 6 5 5 5 6 5 5 5 5 5 5 6 5 6 5 5 5 5 6 6 5 5 5 5 5 5 5 5 5 5 5 5 5 5 5 5 5 5 5 5 5 5 6 5 5 6 5 5 5 6 5 5 5 5 5 5 5 5 5 5 5 5 5 5 6 5 6 5 6 5 5 5 5 5 5 5 5 5 5 5 5 5 5 5 5 5 6 5 5 5 5 5 5 5 5 5 5 5 5 5 5 5 5 5 5 5 5 5 5 5 5 5 5 5 5 5 5 5 5 5 6 5 5 5 5 5 5 6 5 5 6 5 6 5 5 6 5 5 5 6 5 5 5 5 5 5 5 5 5 5 5 5 5 5 5 5 5 5 5 5 5 5 5 5 5 6 5 5 5 5 6 5 5 6 5 5 5 5 5 5 5 5 5 5 5 5 5 5 5 5 5 5 5 5 5 5 5 5 5 5 5 5 5 5 6 5 5 5 6 5 5 5 5 6 5 5 5 5 5 6 5 5 5 5 6 5 5 5 5 5 5 5 5 5 5 5 5 5 5 6 6 5 6 5 6 5 5 5 5 5 5 5 5 5 5 5 5 5 5 5 5 5 5 5 5 5 5 5 5 5 6 6 5 5 6 5 5 6 5 5 5 5 5 5 5 5 5 5 5 6 5 5 6 5 5 5 5 5 5 5 5 5 5 5 5 5 5 6 6 5 6 6 5 5 5 5 6 5 5 5 6 6 5 5 5 5 5 5 5 6 5 5 5 5 5 5 5 5 5 5 5 5 5 5 5 5 6 5 5 5 5 6 5 5 5 5 5 5 5 6 5 5 5 5 5 5 5 6 5 5 6 5 5 5 5 5 5 5 5 5 5 5 5 5 5 5 6 5 5 5 5 5 5 5 5 6 5 5 5 5 5 5 5 6 5 5 5 5 5 6 5 5 5 5 6 5 5 5 5 5 5 5 5 5 5 5 5 6 5 5 5 5 5 5 5 5 5 5 5 5 5 5 6 5 5 5 5 5 5 5 5 5 5 5 5 5 6 6 5 5 6 5 5 5 5 6 5 5 5 6 5 5 6 5 5 5 5 6 5 5 5 5 5 5 5 5 5 5 5 5 5 5 5 5 5 5 5 5 5 5 5 5 5 5 5 5 5 5 5 5 5 5 6 5 5 5 6 5 6 5 5 5 5 5 5 5 5 5 5 5 5 5 5 6 5 5 5 5 5 5 5 5 6 5 5 5 6 5 5 5 5 5 5 5 6 5 6 5 5 5 5 5 5 5 5 5 5 5 5 5 5 6 5 5 6 5 5 5 5 5 5 5 6 5 5 5 5 5 5 5 5 5 5 5 5 5 5 5 5 5 5 5 5 5 5 5 5 5 5 5 6 5 5 6 5 5 5 6 5 5 6 5 5 5 5 5 5 5 5 5 5 5 5 5 5 5 5 5 5 5 6 5 5 5 5 5 5 5 5 5 5 5 5 5 6 5 5 5 5 5 5 5 5 5 5 5 5 5 5 5 5 5 5 5 6 5 5 5 5 5 5 5 5 5 5 5 5 5 5 5 5 6 5 5 6 5 5 5 6 5 5 6 5 5 5 5 5 5 5 5 5 5 5 5 5 5 6 5 5 6 5 5 5 5 5 5 5 5 5 5 5 5 5 5 5 5 5 5 5 5 5 5 5 5 5 5 5 5 5 5 5 5 5 5 5 5 6 5 5 5 5 6 5 5 5 5 5 5 5 5 5 5 5 5 5 5 5 6 5 6 6 5 5 6 5 6 5 5 5 5 5 5 5 5 6 5 5 6 5 5 5 5 6 6 5 6 5 5 5 5 5 5 5 5 5 5 5 5 5 5 5 5 5 5 5 5 5 6 5 5 5 5 5 5 5 5 5 5 5 5 5 5 5 5 5 5 5 5 5 5 5 5 5 6 5 5 5 5 5 6 5 5 5 5 5 5 5 5 5 6 5 5 5 5 5 5 5 5 5 5 5 5 5 5 5 5 5 6 6 5 5 6 5 5 5 6 5 5 5 5 5 5 5 5 5 5 6 5 5 6 5 6 5 5 5 5 6 5 5 5 6 5 5 5 5 5 5 6 5 5 5 5 5 5 6 5 5 5 5 5 5 5 5 5 5 5 5 5 5 6 5 5 6 5 5 5 6 6 5 5 5 5 5 5 5 5 5 5 6 5 5 5 6 5 5 5 5 6 5 5 5 5 5 5 5 5 6 5 5 5 5 5 6 6 5 5 5 6 5 6 6 5 5 5 5 5 6 5 5 5 5 5 5 6 5 5 5 5 5 5 5 6 5 5 6 5 5 6 5 5 5 5 5 5 5 5 5 5 5 5 5 5 6 5 5 5 6 5 5 6 5 5 5 5 6 5 5 5 5 5 5 5 5 6 5 5 5 5 6 5 5 5 5 5 5 5 5 6 5 5 5 5 5 5 5 5 5 6 5 5 5 6 5 5 6 5 5 6 5 5 5 5 5 5 5 5 5 6 5 5 5 5 5 5 5 5 5 5 5 5 5 5 5 5 6 5 5 5 5 5 5 5 5 5 5 5 5 5 5 5 5 5 5 5 5 5 5 5 5 5 5 6 5 6 5 5 5 5 5 5 5 5 5 5 6 5 5 6 5 5 5 5 5 5 5 5 5 5 5 5 5 5 5 5 5 5 5 5 5 6 5 5 5 5 5 5 5 5 5 6 5 6 5 5 5 5 5 5 5 6 5 6 5 5 5 5 5 5 5 5 5 5 5 6 5 5 5 5 6 5 6 5 5 5 5 5 5 6 5 5 6 5 5 6 5 5 5 6 6 6 5 5 5 5 5 5 5 5 5 5 5 5 5 6 5 5 5 5 5 5 5 6 5 6 5 6 5 5 6 6 5 5 5 5 5 5 6 5 5 5 5 6 5 6 5 6 5 6 5 5 5 5 6 5 5 5 5 5 6 5 5 5 5 5 5 5 5 5 5 5 5 5 5 6 5 5 5 5 5 6 5 5 5 6 5 5 5 5 5 5 5 5 5 5 5 5 5 5 5 5 5 6 5 5 5 5 6 5 5 5 5 5 5 6 5 5 5 5 5 5 5 5 5 5 6 5 5 6 5 6 5 5 5 5 5 5 5 5 5 5 5 6 5 5 5 5 5 5 6 5 6 6 5 6 5 5 5 5 5 5 5 6 5 5 5 5 5 5 5 5 5 5 5 5 5 5 5 5 6 5 5 5 5 5 5 5 5 5 5 6 5 5 5 5 5 5 5 5 5 5 6 5 5 5 5 6 5 5 5 5 5 6 5 5 5 5 6 5 5 5 5 5 5 5 5 5 5 5 5 5 5 5 5 5 5 6 5 5 5 5 5 5 5 5 6 5 6 6 5 5 5 5 5 6 5 5 5 5 5 5 5 5 5 5 5 5 5 5 6 5 5 6 5 6 6 5 5 5 5 5 5 6 5 5 5 5 6 5 6 5 5 6 5 5 5 5 5 5 6 6 5 5 5 5 5 5 5 5 5 5 5 5 5 5 5 6 5 5 5 5 5 5 5 6 5 6 5 5 5 6 5 6 5 5 5 5 5 5 5 5 6 5 5 5 5 5 6 5 6 5 5 5 5 6 5 5 5 5 5 6 5 5 5 5 5 5 5 5 5 5 5 5 5 5 5 5 5 5 5 5 5 5 5 5 6 5 5 5 6 5 6 5 5 5 6 5 5 5 5 5 5 5 5 5 5 5 5 5 5 5 5 5 6 6 6 6 5 5 5 5 5 5 6 5 5 5 6 5 5 5 5 5 5 5 5 5 5 6 6 6 5 5 6 6 5 5 5 5 5 5 5 5 5 6 5 5 5 5 5 5 5 5 6 6 5 5 5 6 5 5 5 5 5 5 5 5 5 5 5 6 5 6 5 5 5 5 5 6 6 5 5 6 6 5 5 5 5 5 5 5 5 5 5 5 5 5 5 5 5 5 5 5 5 5 5 5 5 5 5 5 5 5 5 5 5 5 5 5 5 5 5 5 5 5 5 6 6 5 5 5 5 5 5 5 5 5 5 5 5 5 5 5 5 5 5 5 5 6 5 5 5 5 5 5 5 5 5 5 5 5 5 5 5 5 6 5 6 5 5 5 5 5 5 5 5 6 5 5 5 5 5 5 5 5 5 5 5 6 5 5 6 5 5 6 5 5 5 5 6 5 5 5 5 6 5 5 6 5 6 5 5 5 5 5 6 5 5 5 5 5 5 5 6 5 5 5 5 5 5 5 5 5 5 5 5 5 5 5 5 5 5 5 5 5 5 5 5 6 5 5 5 6 5 5 6 5 5 5 6 5 5 5 5 6 5 6 5 5 5 5 5 5 5 5 6 5 5 5 5 5 5 5 5 5 5 6 5 5 6 5 5 6 5 5 6 6 5 5 5 5 5 5 5 6 6 5 5 5 6 5 5 6 6 5 5 5 6 6 5 6 5 5 6 5 5 5 5 6 5 6 6 5 5 5 6 5 6 6 5 6 6 6 6 5 6 5 6 5 6 5 5 5 6 5 5 6 5 6 6 5 5 5 5 6 5 6 6 5 5 5 6 6 5 5 6 6 5 5 5 5 6 5 5 5 5 6 5 5 5 5 6 5 6 5 6 5 6 5 6 5 6 5 5 5 5 5 6 5 5 6 6 6 5 5 6 6 5 6 5 5 6 5 5 5 5 5 5 6 5 5 6 5 6 5 5 5 5 6 5 6 5 6 5 5 5 6 5 5 6 5 6 5 6 5 5 5 5 5 6 5 5 5 5 5 5 5 5 5 5 6 5 5 5 5 6 5 5 6 5 5 5 5 5 6 5 5 6 5 5 5 6 5 6 5 5 5 6 5 5 5 5 6 5 5 5 5 6 6 5 5 5 5 5 5 6 5 5 6 5 5 5 5 5 5 5 5 5 5 5 5 5 5 5 5 5 5 5 5 5 5 5 5 5 5 5 5 5 5 5 5 5 5 5 5 5 5 5 5 5 5 5 5 5 5 5 5 5 5 5 5 5 5 5 5 5 5 6 5 5 5 5 5 5 5 5 5 5 5 5 6 5 5 6 5 5 5 6 5 5 5 5 5 5 5 5 5 5 5 5 5 5 5 6 5 5 5 5 5 5 5 5 5 5 5 5 5 5 5 5 6 5 5 5 5 5 5 5 5 5 5 5 5 5 6 5 5 6 5 5 6 5 6 5 5 5 5 5 5 5 6 5 5 5 5 5 5 5 5 5 5 5 5 6 5 5 5 6 5 5 5 5 5 5 5 5 5 6 5 5 5 5 5 5 6 5 5 5 5 5 5 6 5 5 5 6 5 5 5 5 5 5 5 6 5 5 5 5 5 5 5 5 5 5 6 5 5 5 5 5 5 5 5 5 5 5 5 5 5 5 5 6 5 6 5 5 5 5 5 5 5 5 5 5 6 5 6 5 5 5 5 5 5 5 5 5 5 5 6 5 5 5 5 5 5 5 5 5 5 5 6 5 5 5 5 5 5 5 6 5 5 5 5 5 5 5 6 5 5 5 5 5 5 5 5 5 5 5 6 5 5 5 5 5 5 5 5 6 5 6 5 5 5 5 5 5 5 5 5 5 6 5 5 5 6 5 5 5 5 5 5 5 5 5 6 5 5 5 5 5 5 5 5 5 5 5 5 5 5 5 5 6 5 5 5 5 5 5 5 5 5 5 5 5 5 5 5 5 5 5 6 5 5 6 5 5 6 5 5 5 5 5 6 5 5 5 5 5 5 5 5 5 5 5 5 5 5 5 5 5 5 5 5 5 5 5 5 5 5 5 5 5 5 5 5 5 5 5 5 5 5 5 5 5 5 5 5 5 5 5 5 5 5 5 5 5 5 5 5 5 5 5 6 5 5 6 5 5 5 5 5 5 5 5 5 5 5 5 5 5 5 5 5 5 5 5 5 5 5 5 6 6 5 5 5 5 5 5 5 5 5 5 5 5 5 5 5 5 6 6 5 5 5 5 5 5 5 6 5 6 5 5 6 6 5 5 5 5 5 5 5 5 5 5 5 6 5 6 5 5 5 6 5 5 5 6 5 6 5 5 5 5 5 6 6 5 5 5 5 5 5 5 5 5 5 5 5 5 5 5 5 5 5 5 5 5 5 5 5 5 5 5 5 5 5 5 5 5 5 5 5 5 5 5 5 5 5 5 5 5 5 5 5 5 5 5 5 5 5 5 5 5 5 5 5 5 5 5 5 5 5 5 5 5 5 5 5 5 5 5 5 5 5 5 5 5 5 5 5 5 5 5 5 5 5 5 5 5 5 5 5 5 5 5 5 5 5 5 5 6 6 5 6 5 6 5 5 6 5 5 5 5 6 5 5 5 5 5 5 5 6 6 6 5 5 5 5 5 6 6 5 5 5 5 5 5 5 5 5 5 5 5 5 5 5 5 5 5 5 5 5 5 5 5 5 5 5 5 5 5 5 5 5 5 6 5 5 6 5 5 5 5 5 5 5 5 5 5 5 6 5 5 5 5 5 5 5 6 5 5 5 5 5 5 5 5 5 5 5 5 5 5 5 5 6 5 5 6 5 5 5 5 5 5 5 5 5 5 5 5 5 5 5 5 5 5 5 5 5 5 5 6 5 5 6 5 5 6 5 5 5 5 5 5 5 6 5 5 5 5 5 5 6 5 5 6 5 5 5 5 6 5 6 5 5 6 5 5 5 5 6 5 6 5 5 6 5 5 5 5 5 5 5 5 5 5 5 5 6 5 5 5 6 5 5 6 5 5 5 5 6 5 5 5 5 5 5 5 5 5 5 6 5 5 5 5 5 5 5 5 5 5 6 5 5 5 5 5 5 5 5 5 5 5 5 6 5 5 6 5 5 5 5 5 5 5 5 5 5 6 5 5 5 5 5 6 5 6 6 5 5 6 5 5 5 5 5 5 5 5 5 6 6 5 5 5 5 5 5 6 5 5 5 5 5 5 5 5 5 5 5 5 5 5 5 5 5 5 5 5 5 5 5 5 5 6 5 5 5 5 5 5 5 5 5 5 5 5 5 5 5 5 5 5 5 5 5 5 5 5 5 5 5 5 5 5 5 5 5 5 5 5 5 5 5 5 6 5 5 5 5 5 5 5 5 5 5 6 5 5 5 6 5 6 5 5 5 6 5 5 5 6 5 6 5 6 5 6 6 5 5 6 5 5 5 6 5 5 5 5 5 6 5 5 5 5 6 5 5 5 6 5 5 5 5 6 5 6 5 5 5 5 5 5 5 5 5 5 5 5 5 5 6 5 5 5 5 6 5 5 6 5 5 6 6 5 5 6 5 6 5 5 5 6 6 6 6 5 5 6 5 5 5 5 6 5 6 5 5 6 6 6 5 6 5 5 6 6 6 5 5 5 5 5 5 5 5 5 6 6 5 5 5 5 6 6 5 5 5 6 5 6 5 5 5 5 5 5 5 5 5 5 5 6 5 5 5 5 5 5 5 5 5 5 5 5 5 5 5 5 5 5 5 5 5 5 5 6 5 5 5 5 5 5 5 5 5 5 5 5 5 5 5 5 6 5 5 6 5 5 5 5 5 5 5 5 5 6 5 5 5 6 6 5 5 6 5 5 5 5 5 6 5 6 5 5 5 6 5 5 5 5 5 5 5 6 5 5 6 5 5 5 5 6 5 5 5 6 6 5 5 6 5 5 5 6 5 5 5 5 5 5 5 6 5 5 6 5 6 6 6 5 6 5 6 6 5 5 5 5 5 5 6 5 5 6 5 5 5 5 5 5 5 5 5 5 5 5 5 5 5 5 5 5 5 5 5 5 5 5 5 5 5 5 5 5 5 5 5 5 5 6 6 5 5 5 5 5 5 5 5 6 6 6 6 5 5 6 5 5 5 5 5 5 5 5 6 5 5 6 5 5 5 6 5 5 5 5 6 5 5 5 5 5 5 5 5 5 5 5 5 5 5 6 5 5 5 5 5 6 5 5 5 5 5 5 5 5 6 5 5 5 6 6 5 5 6 6 5 5 5 5 5 6 5 5 5 5 5 5 6 5 6 5 5 5 5 5 5 5 5 6 6 5 6 6 6 5 6 5 5 5 5 5 5 6 5 5 5 5 5 5 5 6 5 5 5 5 5 5 5 5 5 5 5 5 5 5 5 5 5 5 5 5 5 5 5 5 5 5 5 5 5 5 5 5 5 5 5 5 5 5 5 5 5 5 5 5 5 5 5 5 5 5 5 5 5 5 5 5 5 6 5 5 5 5 5 5 5 6 5 5 6 5 5 5 6 5 6 5 5 6 5 5 5 5 5 5 5 6 5 5 5 6 5 5 5 5 5 5 5 6 5 6 5 5 5 5 5 5 5 5 5 5 5 5 5 5 5 5 5 5 5 5 5 5 5 5 5 6 6 5 6 5 5 5 5 5 5 5 6 5 6 5 6 6 6 5 5 6 5 5 6 5 5 5 6 5 5 5 5 5 5 5 6 6 5 5 6 5 5 5 6 5 5 5 5 6 5 6 5 5 5 5 5 5 6 5 6 5 5 5 5 5 6 5 5 6 5 5 5 5 5 5 5 5 5 5 5 5 5 5 5 5 6 5 5 6 6 5 6 5 5 5 5 5 5 5 5 6 5 5 5 5 5 5 5 5 5 5 5 5 5 5 5 5 6 5 5 5 6 5 5 6 5 5 5 5 5 5 6 5 5 5 5 5 5 5 5 5 5 5 5 5 5 5 5 5 5 5 6 6 5 5 5 5 5 5 5 6 5 5 5 6 5 5 6 5 6 5 5 6 5 6 6 5 6 5 6 5 6 5 5 5 5 5 5 5 5 5 5 5 5 5 5 5 6 6 5 5 5 5 5 5 5 6 5 5 5 5 5 5 5 5 5 5 5 5 5 5 5 6 5 6 5 5 5 5 5 5 6 5 5 5 6 5 5 5 6 5 5 5 5 5 5 5 5 5 5 5 5 5 5 5 5 5 5 5 5 5 6 5 5 5 5 6 5 5 5 5 5 6 5 5 5 6 5 5 5 5 5 5 5 5 5 5 5 5 6 5 5 5 5 6 5 5 5 5 5 5 5 5 6 5 5 5 5 5 5 5 6 5 5 5 5 6 5 5 5 5 5 5 5 5 6 5 5 5 5 5 5 5 5 5 6 5 5 5 5 5 5 5 5 5 5 5 5 5 5 5 5 5 5 5 5 5 5 5 5 5 5 5 5 6 5 5 5 5 5 5 5 6 5 5 5 5 5 5 5 5 5 5 5 5 5 5 5 5 5 5 5 5 5 5 5 5 5 5 5 5 5 6 5 5 5 5 5 5 5 5 5 5 5 5 5 5 5 5 5 5 5 5 5 5 5 5 5 5 5 5 5 5 5 5 6 5 5 6 5 5 5 5 6 5 5 6 5 5 5 5 6 5 5 5 6 5 5 5 6 5 5 5 5 5 5 5 5 5 5 6 5 5 6 5 5 5 5 5 5 6 5 5 5 5 5 6 5 5 5 5 6 5 5 5 5 5 5 5 5 5 5 6 5 5 5 5 5 5 5 5 5 6 5 5 5 5 5 5 5 5 5 5 5 5 5 6 5 5 5 5 5 5 5 6 5 5 5 5 5 6 5 5 5 5 5 5 5 5 5 5 5 5 5 5 6 5 5 5 5 5 5 5 5 6 5 5 5 5 5 5 5 5 5 5 5 5 5 5 5 5 5 5 5 5 5 5 5 5 5 5 5 5 5 5 5 5 5 6 5 5 5 5 6 6 5 5 6 5 5 6 5 5 6 5 5 5 5 5 5 5 5 5 5 5 5 5 5 5 5 5 5 5 6 5 5 5 5 6 5 5 5 5 5 5 5 5 5 5 5 5 5 5 5 5 5 5 5 5 5 5 5 5 5 5 5 5 5 5 5 5 5 5 5 5 5 5 5 5 5 5 5 5 5 5 5 5 5 5 5 5 5 5 5 5 5 5 5 5 5 5 5 5 5 5 5 5 5 5 5 6 5 5 5 5 6 5 6 5 5 6 5 5 5 5 6 5 5 6 5 5 5 5 5 5 5 5 5 5 5 5 5 5 5 5 5 5 5 5 5 5 5 5 5 5 5 5 5 5 5 5 5 5 5 5 5 5 5 5 5 5 5 5 5 5 5 5 5 5 5 5 5 5 5 5 5 5 5 5 6 5 5 5 5 5 5 5 5 5 6 5 5 5 5 5 5 5 6 5 5 5 5 5 5 5 5 5 5 5 5 5 5 5 5 5 5 5 6 6 5 5 6 5 6 5 5 5 5 5 5 5 5 5 5 5 5 5 5 5 5 5 5 5 5 5 5 5 5 5 5 5 5 5 5 5 5 5 5 5 5 5 5 5 5 5 5 5 5 5 5 5 5 5 5 5 5 5 5 5 6 6 5 5 5 5 5 5 5 5 5 5 5 5 5 5 5 5 5 5 5 5 6 5 5 5 5 5 5 5 5 5 5 6 5 5 5 6 5 5 5 5 5 5 6 5 5 5 5 5 5 5 5 5 5 5 5 5 6 5 5 5 5 5 5 6 6 5 6 5 5 6 5 5 5 6 5 5 5 6 5 5 5 5 5 6 5 6 5 5 5 5 6 5 5 5 5 6 5 6 5 5 6 6 5 5 5 5 5 6 5 5 5 5 5 6 6 6 5 6 5 6 5 5 5 5 5 6 5 5 5 5 5 5 5 5 6 6 5 5 6 5 5 5 5 6 5 5 6 5 5 6 5 5 5 5 5 5 5 5 5 6 5 5 5 5 5 5 5 5 6 5 5 5 5 5 5 5 5 5 6 6 5 5 5 5 5 5 5 5 5 5 5 5 5 5 5 5 5 5 5 5 5 5 5 5 5 5 5 5 5 5 5 5 5 5 5 6 5 5 5 5 6 5 5 5 5 5 5 5 5 5 5 5 5 5 5 5 5 6 6 5 5 5 5 5 5 5 5 5 6 5 5 5 5 6 5 5 6 5 5 5 5 5 5 5 5 5 5 5 5 5 6 5 5 5 5 5 5 5 5 5 5 5 5 5 5 5 5 5 5 5 5 5 5 5 5 5 6 5 5 5 5 5 6 5 5 5 6 5 5 5 6 6 5 5 5 5 5 5 5 5 5 5 5 5 5 5 6 5 5 5 6 5 5 5 5 6 6 5 5 5 5 5 5 5 5 5 5 5 5 5 5 5 5 5 5 5 5 5 5 5 6 5 5 5 5 5 5 5 5 5 6 5 5 5 5 6 5 6 5 5 5 5 6 5 5 5 5 5 5 5 5 5 5 5 5 5 5 5 6 5 5 6 5 5 5 5 5 5 5 5 5 5 6 6 5 5 5 5 6 5 5 5 6 5 5 5 5 6 6 5 6 5 6 5 6 5 5 6 5 5 6 5 5 6 5 5 5 6 5 5 6 5 6 5 6 5 5 6 5 5 5 5 5 5 5 5 5 5 5 5 5 6 5 5 5 5 5 5 5 5 5 5 5 5 5 5 5 5 6 6 5 5 5 5 5 6 5 5 5 5 6 5 5 6 5 5 5 5 6 5 5 5 5 5 5 5 5 5 5 5 5 5 5 5 5 5 5 5 5 5 5 5 5 5 5 5 5 5 5 5 5 5 5 5 5 5 5 6 5 5 5 5 5 5 5 5 5 5 5 5 5 6 5 6 5 5 5 5 6 5 5 5 5 5 5 5 5 5 5 5 5 5 5 5 5 5 5 6 5 6 5 5 6 5 5 5 6 5 5 5 5 5 5 5 5 5 5 5 5 5 5 5 5 5 5 5 5 5 5 5 5 5 5 5 6 5 5 6 5 5 5 5 5 5 5 5 5 5 5 5 5 5 5 5 5 5 5 5 5 5 5 5 5 5 5 5 5 5 5 5 5 5 5 6 5 6 5 5 5 5 5 5 5 5 5 5 5 5 5 5 5 5 5 6 6 5 5 5 5 5 6 5 5 5 5 6 5 5 5 5 6 5 5 5 5 5 5 5 5 5 5 5 5 5 5 5 5 5 5 6 5 5 5 5 5 5 6 5 5 6 5 5 5 5 5 5 5 5 5 5 5 5 6 5 5 6 5 5 5 5 5 5 5 5 6 5 5 5 5 5 5 6 5 5 6 5 5 5 5 5 5 5 5 5 5 5 5 5 5 5 5 5 5 5 5 5 5 5 5 5 5 5 5 5 5 5 5 5 5 5 5 6 5 5 5 6 5 5 6 5 5 5 5 5 5 6 5 5 5 5 5 6 5 5 5 5 5 5 6 5 5 5 5 6 5 6 5 5 6 5 5 5 6 5 5 5 5 5 5 5 5 5 5 5 5 5 6 5 5 5 5 5 5 5 5 5 5 5 5 5 5 5 5 5 5 5 5 5 5 5 5 6 5 6 5 6 5 6 5 5 5 5 6 5 5 5 5 6 5 5 5 5 5 5 5 5 5 5 5 5 5 5 6 5 5 5 6 5 5 5 6 5 5 6 5 5 5 6 5 5 5 5 6 5 5 5 5 6 5 5 5 5 5 5 5 5 5 5 6 5 5 5 5 5 6 5 6 5 5 5 5 5 6 6 5 5 6 5 6 5 5 6 5 5 5 5 5 5 5 5 5 5 5 5 5 6 5 5 5 5 5 6 5 5 5 5 5 5 5 5 5 5 6 5 6 5 5 6 5 5 6 5 6 5 6 5 5 5 5 5 6 6 5 5 5 5 5 5 5 5 5 5 5 6 5 5 5 5 5 6 5 5 5 6 5 6 5 5 5 5 5 5 5 5 5 5 5 5 5 5 5 6 5 5 5 5 6 5 5 5 5 5 5 5 5 5 5 5 5 5 5 5 5 5 5 5 5 5 5 5 6 5 5 6 5 5 5 5 5 5 5 6 5 5 6 5 6 5 5 5 5 5 5 5 5 5 6 5 5 6 5 5 5 6 5 5 5 5 5 5 5 6 5 5 5 5 6 6 5 5 5 5 5 5 5 5 5 6 5 5 5 5 5 5 5 5 5 5 5 5 5 5 5 5 6 5 6 5 5 5 6 5 5 5 5 5 5 5 5 5 5 5 5 5 6 5 5 5 5 5 6 5 5 5 6 6 5 5 5 6 5 5 6 5 5 5 5 6 6 5 5 5 6 5 5 6 5 5 5 5 6 5 6 5 5 5 6 5 5 5 5 5 5 5 5 5 5 5 5 5 5 5 5 5 5 5 5 5 6 5 5 5 5 5 5 5 5 5 6 5 5 5 6 5 6 5 5 5 5 5 5 5 5 5 5 5 6 5 5 5 5 5 6 5 5 5 5 5 6 5 5 5 5 5 5 5 5 5 5 5 5 5 5 5 5 6 5 5 5 5 5 5 5 5 5 6 5 5 5 5 5 5 5 5 5 5 5 5 5 5 5 6 5 5 5 5 5 5 5 5 5 5 5 5 5 5 5 5 5 5 5 5 5 5 5 5 5 5 5 5 5 6 5 5 5 5 6 5 6 6 5 5 5 5 5 5 6 5 6 5 5 5 6 5 5 6 5 5 5 5 5 5 6 5 5 5 5 5 5 5 6 5 5 5 5 6 5 5 5 5 5 5 6 5 5 5 5 5 5 5 5 5 5 5 5 6 5 6 5 5 5 5 5 5 5 6 6 5 5 5 5 5 5 5 5 6 5 5 5 6 5 5 6 5 5 5 5 5 5 5 5 5 5 5 5 5 5 5 5 5 5 5 5 5 5 5 5 5 6 5 5 6 5 5 5 5 5 6 5 5 6 5 6 5 5 5 6 5 5 5 5 6 5 5 6 6 5 5 5 5 5 6 5 5 6 5 5 5 5 5 6 5 5 5 5 5 5 5 5 5 6 5 5 5 5 6 5 5 5 5 5 5 6 5 6 5 5 5 6 5 6 5 5 6 5 6 5 5 5 6 5 5 5 5 5 5 5 5 5 5 5 5 5 6 5 5 5 5 6 5 5 5 5 5 5 6 5 5 5 5 5 5 5 6 5 5 5 5 5 5 6 5 5 5 5 5 5 5 6 5 5 6 5 5 5 5 5 5 5 5 5 6 6 5 5 5 5 5 5 5 5 5 5 5 5 6 5 5 5 5 5 5 5 6 5 5 5 6 5 6 5 5 6 5 5 5 5 5 6 5 5 5 6 5 5 5 5 6 5 5 5 6 5 5 5 5 5 5 5 6 5 5 6 5 5 5 6 5 5 5 6 5 5 5 5 6 5 5 5 6 5 5 5 5 5 5 5 5 5 6 5 5 5 5 5 5 5 5 5 6 5 5 5 5 6 5 5 6 5 5 5 5 5 5 5 5 5 5 5 5 5 5 5 5 5 5 5 5 5 5 5 5 5 5 6 5 5 5 5 5 5 5 5 5 5 5 6 5 5 5 6 5 5 5 5 5 5 6 5 5 5 5 5 5 5 5 5 5 5 5 5 5 5 5 5 5 5 5 5 5 5 5 5 5 6 5 6 5 5 6 6 5 5 5 5 5 5 5 5 5 5 5 5 5 5 5 5 5 6 5 5 5 5 5 5 5 5 5 5 5 5 5 5 5 5 5 5 5 5 5 5 5 5 5 5 5 5 5 5 5 5 5 5 5 5 5 5 5 5 5 5 5 5 5 5 5 5 5 5 5 5 5 5 5 5 5 5 5 5 5 6 5 5 6 5 5 5 5 6 5 5 5 5 5 5 5 5 5 5 6 5 6 5 5 5 6 5 5 5 6 5 6 5 5 5 6 5 6 5 6 5 5 5 6 5 5 5 5 6 5 6 5 5 5 5 5 6 5 6 6 5 5 5 5 5 5 6 5 5 5 6 5 5 5 5 5 5 5 5 5 5 5 5 5 5 5 5 5 5 5 6 5 5 5 6 6 5 5 5 5 5 6 5 5 5 5 5 5 5 5 5 5 5 5 5 5 6 5 5 6 5 6 5 5 5 6 5 6 5 5 6 5 5 5 5 5 5 5 5 5 5 5 6 5 5 5 5 5 5 5 5 5 5 6 6 5 5 5 5 5 5 5 6 5 5 5 5 5 5 5 5 5 5 5 5 5 5 6 5 5 5 5 5 5 5 5 5 5 6 5 5 5 6 5 6 6 5 5 5 5 5 5 5 5 6 5 5 5 5 5 5 5 5 5 6 5 6 5 6 5 5 5 5 5 5 5 5 6 5 6 5 5 5 5 5 5 6 5 5 6 5 6 5 5 5 5 5 5 5 5 5 5 5 5 5 5 6 5 5 5 5 5 5 5 5 5 5 6 5 5 5 5 5 5 6 5 5 5 5 5 5 5 5 5 5 5 5 5 5 5 5 5 5 5 5 5 5 5 5 5 6 5 5 5 5 5 6 5 5 5 5 5 5 5 5 5 5 5 6 5 5 5 5 6 5 5 5 5 5 6 5 5 5 5 5 6 5 5 6 5 5 5 5 5 5 5 5 5 5 5 5 5 5 5 5 5 5 5 5 5 5 5 5 5 5 6 5 5 6 5 5 5 5 5 5 5 5 5 5 5 5 5 5 5 6 5 5 5 5 5 5 5 5 5 6 5 5 5 5 5 5 5 6 5 5 5 5 5 6 5 5 5 5 5 5 6 5 5 5 5 6 5 5 5 5 5 5 5 6 5 5 6 5 5 6 5 5 5 5 6 5 5 5 5 5 5 5 5 6 5 5 6 5 5 5 5 5 5 5 5 5 6 5 5 5 5 5 6 5 5 5 5 6 5 5 5 6 5 5 5 5 5 5 5 5 5 5 5 6 6 5 5 5 5 5 5 5 5 5 5 5 6 5 5 5 5 5 6 5 6 6 5 6 6 5 5 6 5 5 5 5 5 5 6 5 6 6 5 5 5 5 5 6 5 5 5 5 5 5 5 5 6 5 5 5 5 6 5 5 5 5 5 6 5 5 6 5 5 5 5 5 5 5 6 5 6 5 5 5 5 5 5 5 6 6 5 5 5 5 5 5 5 6 5 5 5 5 5 5 6 5 5 5 5 5 5 5 5 5 5 5 5 5 5 6 5 5 6 5 5 5 5 6 5 5 5 5 6 5 5 5 5 5 5 6 5 5 5 5 5 5 5 6 5 5 5 6 5 5 5 5 6 5 5 6 5 5 5 5 5 5 5 6 5 5 5 5 6 5 6 5 5 5 5 5 5 5 5 5 5 5 5 5 5 6 5 5 5 5 5 5 5 6 5 5 6 5 5 6 5 5 5 5 5 5 5 5 5 6 5 5 5 6 5 5 5 5 5 5 5 5 5 6 5 5 5 5 5 5 5 5 5 5 5 6 5 5 5 6 5 5 5 5 5 5 5 5 5 5 5 6 5 5 5 5 5 5 5 5 5 5 6 5 5 5 5 5 6 5 5 5 5 5 5 5 5 6 5 5 6 5 5 6 5 5 5 5 6 6 5 5 5 5 6 5 5 5 5 6 5 5 6 5 5 5 5 6 5 5 6 5 5 5 5 5 6 5 5 5 5 5 5 5 5 6 5 6 5 5 5 5 5 5 5 5 5 6 6 5 5 5 5 5 5 6 5 5 6 5 5 6 5 6 5 5 5 6 5 5 6 5 5 5 5 5 5 5 5 6 6 5 5 6 6 5 5 5 5 6 5 5 5 6 5 6 5 6 6 6 5 6 5 5 5 6 5 5 5 5 5 5 5 5 5 6 5 5 6 5 5 5 5 5 5 6 5 5 5 5 5 5 6 6 6 5 5 5 5 5 5 5 5 5 5 5 6 5 5 5 5 6 5 5 5 5 5 5 5 5 6 5 5 6 5 5 5 6 5 5 5 5 5 5 5 5 5 6 5 5 5 5 5 5 5 5 6 5 5 5 6 5 5 6 5 5 5 6 5 6 5 5 6 5 6 5 5 6 5 5 5 5 5 5 6 5 5 6 5 5 5 5 5 5 5 5 5 5 5 5 5 5 5 5 5 5 5 5 5 5 5 5 5 5 5 5 5 5 5 5 5 5 5 5 5 5 5 5 5 5 5 5 5 5 5 5 5 5 5 5 5 5 5 5 5 5 5 5 5 5 5 5 5 5 5 5 5 5 5 5 5 5 5 5 5 5 5 5 5 5 5 5 5 5 5 5 5 5 5 5 5 5 5 5 6 5 5 5 5 6 5 5 5 5 5 5 5 5 5 5 5 5 6 6 5 5 5 5 5 5 5 5 5 5 5 5 5 5 5 6 5 5 5 6 5 5 5 5 5 5 5 5 5 5 6 5 6 5 5 5 5 5 5 5 5 5 5 5 5 5 5 5 5 5 5 5 5 5 5 5 5 6 5 5 5 5 6 5 5 5 5 5 5 5 5 6 5 5 5 5 5 5 5 5 5 5 5 5 5 5 5 5 5 5 5 5 5 5 5 5 5 5 5 5 5 5 5 5 5 5 5 5 5 5 5 5 5 5 5 5 5 5 5 5 5 6 5 5 5 5 5 5 5 5 5 5 5 5 5 5 5 5 5 5 5 5 5 5 5 5 5 5 5 5 5 5 5 5 6 5 5 5 5 5 5 6 5 5 5 5 5 5 6 5 5 6 5 6 5 6 5 5 5 5 6 5 5 5 5 5 6 5 5 5 6 6 5 5 5 6 5 5 5 5 6 6 5 5 5 5 5 5 5 5 5 5 5 5 5 5 6 5 5 6 5 5 6 6 5 5 5 5 5 5 5 5 5 5 6 5 6 5 5 5 5 5 5 5 5 5 5 5 6 5 5 5 5 5 5 5 6 5 5 5 5 5 5 5 5 5 5 5 5 5 5 5 5 5 5 6 6 5 5 5 5 5 5 5 5 5 5 5 5 5 5 5 5 5 6 5 5 5 5 5 5 5 5 5 6 5 5 5 5 5 5 5 5 5 5 5 5 6 5 5 5 5 6 5 6 5 5 5 5 5 5 5 5 5 6 5 5 5 5 6 5 5 5 5 6 5 6 5 5 5 5 5 5 5 5 5 5 5 5 6 5 5 5 5 5 5 5 5 5 5 5 5 5 5 5 6 5 6 5 5 6 5 5 5 6 5 6 5 5 6 5 5 6 5 6 5 5 5 5 5 5 5 6 6 5 5 5 5 6 6 5 5 6 6 5 6 5 5 6 6 5 5 6 5 5 6 5 5 5 5 5 5 5 5 6 5 5 6 5 6 5 5 5 6 5 5 5 5 5 5 5 5 6 5 5 5 5 5 5 5 5 5 5 5 5 5 5 5 5 5 5 5 5 5 5 6 5 5 5 5 5 5 5 5 5 5 5 5 5 5 5 5 5 5 
</DataArray>
<DataArray type="Float64" Name="stress" NumberOfComponents="9" format="ascii">
1982.0986808215093 -162.66223956332874 0 -162.66223956332874 1.084356031738678 0 0 0 0 3492.8310998766356 -1003.0700358154272 0 -1003.0700358154272 -432.18826182574958 0 0 0 0 2310.7638714482273 -1943.0182585882189 0 -1943.0182585882189 366.62384043442529 0 0 0 0 1814.2379957813282 -571.49122605833441 0 -571.49122605833441 -10.405168291953615 0 0 0 0 -350.37739365755988 -19.537094244620722 0 -19.537094244620722 399.90162940349711 0 0 0 0 1225.1432015160062 -1768.3371701157175 0 -1768.3371701157175 1343.3206040795221 0 0 0 0 19.318714543038709 -1.6991741740057478 0 -1.6991741740057478 -0.33363784223801335 0 0 0 0 122.23031867088139 -189.39241722474611 0 -189.39241722474611 102.72675510410966 0 0 0 0 847.71631574719504 236.08501264491503 0 236.08501264491503 -1119.4361414670034 0 0 0 0 205.10113729309523 -273.91197738487074 0 -273.91197738487074 -362.96381232392685 0 0 0 0 32.670924728220996 0.13797505312214753 0 0.13797505312214753 -2.7466237201189259 0 0 0 0 1535.716541181806 91.879021271303344 0 91.879021271303344 -120.22728641309536 0 0 0 0 -551.57867054105736 -274.85795192001342 0 -274.85795192001342 -176.78079593158816 0 0 0 0 -208.67739843195886 366.98932595137467 0 366.98932595137467 580.74064502940257 0 0 0 0 6.4405335231534764 2.0309537921627054 0 2.0309537921627054 0.78803978047581114 0 0 0 0 1043.2317987491551 -251.08565958454795 0 -251.08565958454795 426.95961635905769 0 0 0 0 524.18155508778 -439.50732370941762 0 -439.50732370941762 419.41475583986619 0 0 0 0 1035.8565030759032 -350.25064198812669 0 -350.25064198812669 -48.939927544911171 0 0 0 0 225.11432915594196 79.866846409700599 0 79.866846409700599 -18.004577664070712 0 0 0 0 89.767922345927218 20.280361540075944 0 20.280361540075944 -0.0073933632242385609 0 0 0 0 150.4237607264804 -25.626675125876048 0 -25.626675125876048 5.9604011914056798 0 0 0 0 3.4807209293685446 1.6678691228995461 0 1.6678691228995461 -0.58961480870552685 0 0 0 0 17.945391376662428 3.1692324538357006 0 3.1692324538357006 -0.60818022313225584 0 0 0 0 452.1398154017952 174.0374848134249 0 174.0374848134249 -377.22358458542129 0 0 0 0 10.985538448177977 -1.1751670487253785 0 -1.1751670487253785 -2.9634183832962586 0 0 0 0 -9.6184738617157564 -10.92170972504327 0 -10.92170972504327 -6.6932656192338769 0 0 0 0 6.8193600557860918 -1.2622627434856613 0 -1.2622627434856613 -1.2071019477584821 0 0 0 0 -0.0022687620721626445 -0.52948707672704742 0 -0.52948707672704742 0.48797260809575643 0 0 0 0 0.64933982414892455 -0.45460759658072902 0 -0.45460759658072902 0.1618438399697279 0 0 0 0 11.01617590006208 -2.8213863974863651 0 -2.8213863974863651 -2.0853579660735391 0 0 0 0 8.355198151175216 -1.6426405986748946 0 -1.6426405986748946 -0.6935195897296853 0 0 0 0 12.888929159260783 -4.2833712511618103 0 -4.2833712511618103 -1.8107636307503856 0 0 0 0 3.7822331722563831 -10.258180878282445 0 -10.258180878282445 6.6893058702785595 0 0 0 0 3.4142668399558289 -4.9084768342171401 0 -4.9084768342171401 0.34306586743727807 0 0 0 0 2.4476373418438016 -9.7424237096990716 0 -9.7424237096990716 11.951804568078614 0 0 0 0 26.640543336237897 29.142811099900854 0 29.142811099900854 29.809049104387327 0 0 0 0 2.1689702465810115 -20.711224424145129 0 -20.711224424145129 -3.1008152333051413 0 0 0 0 12.563844910766136 -9.2112683626699265 0 -9.2112683626699265 1.933510553450204 0 0 0 0 87.435662282652629 -447.86039063046928 0 -447.86039063046928 -78.405244904575397 0 0 0 0 -387.94812923505378 321.32207264824024 0 321.32207264824024 609.52940494629445 0 0 0 0 3.1236411658010894 -1.8910705446801899 0 -1.8910705446801899 -0.99173481690399545 0 0 0 0 50.202172081466415 -90.780029023922594 0 -90.780029023922594 49.305114039038699 0 0 0 0 -377.05544408617425 -102.9798609789176 0 -102.9798609789176 182.13615160065405 0 0 0 0 48.78589416196337 8.1595033367937049 0 8.1595033367937049 -27.169659874177569 0 0 0 0 32.935852227747091 12.134188597990658 0 12.134188597990658 22.947705380276489 0 0 0 0 68.178076849697391 -6.4618052661852516 0 -6.4618052661852516 -107.04478975476736 0 0 0 0 -31.665233465246274 94.262380229813459 0 94.262380229813459 -77.377573724495846 0 0 0 0 100.02066656512761 352.16768471574062 0 352.16768471574062 -150.96481155346191 0 0 0 0 13.819597780379354 0.72217624761533727 0 0.72217624761533727 -0.56706552442735136 0 0 0 0 356.45605103652269 805.37614659640883 0 805.37614659640883 -486.52655757495614 0 0 0 0 1013.8787098482426 -135.97231670406273 0 -135.97231670406273 -202.84869692822406 0 0 0 0 347.89285717799794 -613.93730115759217 0 -613.93730115759217 595.23725140591955 0 0 0 0 70.873271284130169 -166.43453174268086 0 -166.43453174268086 265.09378871523393 0 0 0 0 214.5486694513238 -66.760550527045098 0 -66.760550527045098 -222.16058911217431 0 0 0 0 448.84448091330705 -319.68269207414903 0 -319.68269207414903 -25.844306577805355 0 0 0 0 92.194131118463702 190.65099413669896 0 190.65099413669896 -164.43767275772572 0 0 0 0 104.44491078829742 -24.333409931244887 0 -24.333409931244887 -27.158436076520502 0 0 0 0 89.489157036849207 -2.3869462511566013 0 -2.3869462511566013 -7.0014428277792424 0 0 0 0 111.14267365273736 0.53875086262840455 0 0.53875086262840455 -74.162140314944281 0 0 0 0 47.828877079507947 -16.546335310339799 0 -16.546335310339799 -13.380140689017992 0 0 0 0 32.439262730573262 -15.014704974637922 0 -15.014704974637922 -2.191400982002818 0 0 0 0 -0.86745632458769251 148.80703056987724 0 148.80703056987724 -205.97330167228785 0 0 0 0 94.101598388870002 -2.1926444353356018 0 -2.1926444353356018 -8.9343650275306938 0 0 0 0 173.85227651332389 242.93518880228669 0 242.93518880228669 -177.22842396015869 0 0 0 0 24.546467900571344 1.9343521654191989 0 1.9343521654191989 -11.758109647411215 0 0 0 0 99.444706914429844 -26.814721528569862 0 -26.814721528569862 -21.08171077661973 0 0 0 0 44.384247227264211 -24.646655892632992 0 -24.646655892632992 3.7372892763759413 0 0 0 0 98.929591672647803 -25.820257092937254 0 -25.820257092937254 -13.226526331117384 0 0 0 0 72.750624516913376 -27.199119200975247 0 -27.199119200975247 -12.623991614368606 0 0 0 0 102.84745354222832 -47.448514041039743 0 -47.448514041039743 -5.2067497298212402 0 0 0 0 104.76368162339986 -34.020177682619135 0 -34.020177682619135 -36.511168714561791 0 0 0 0 97.539220287486387 -83.122398883879214 0 -83.122398883879214 -32.969427324543176 0 0 0 0 61.16126812155926 -89.831961118036588 0 -89.831961118036588 90.104702521075978 0 0 0 0 89.568393064066186 -71.666334252909792 0 -71.666334252909792 -0.64880267612625175 0 0 0 0 95.341645944099582 -13.370572443711808 0 -13.370572443711808 -47.630878068587663 0 0 0 0 153.0697623151791 -1.4464029654230899 0 -1.4464029654230899 -45.431535751352385 0 0 0 0 138.70835775998421 -56.187553560145716 0 -56.187553560145716 -25.184082480766165 0 0 0 0 129.20870160966297 -39.413330872206643 0 -39.413330872206643 -53.398825296126233 0 0 0 0 188.80281332241429 -42.507090803199389 0 -42.507090803199389 -53.920312108214063 0 0 0 0 127.47562190324243 17.315918039184453 0 17.315918039184453 -58.228661971414112 0 0 0 0 129.68273212909116 49.216612742999132 0 49.216612742999132 2.3734178849172167 0 0 0 0 108.80449094614596 17.734095979162021 0 17.734095979162021 -28.917335956515899 0 0 0 0 87.774802545420243 36.024783833623133 0 36.024783833623133 -42.383784733438915 0 0 0 0 9.367060604155057 12.849973232047518 0 12.849973232047518 -25.186171269790979 0 0 0 0 327.32998488245357 283.28787193668268 0 283.28787193668268 340.38037356225141 0 0 0 0 122.08413492820182 31.291059036149136 0 31.291059036149136 -53.667281168755835 0 0 0 0 693.26267102251586 490.63543660603386 0 490.63543660603386 -156.35337463681023 0 0 0 0 2099.8487200952295 1775.1695624970826 0 1775.1695624970826 -116.86832438461184 0 0 0 0 605.52409339694714 877.7942078860292 0 877.7942078860292 925.92482338468062 0 0 0 0 3494.388218684835 2451.3289260511942 0 2451.3289260511942 339.2301816672026 0 0 0 0 2136.6693370204375 1488.1706556200563 0 1488.1706556200563 -243.92554903450178 0 0 0 0 739.03822593546647 2024.3584458064286 0 2024.3584458064286 3483.3450446951006 0 0 0 0 17.667214042252397 6.5208862231207156 0 6.5208862231207156 5.4473721113609512 0 0 0 0 465.08920139819384 462.93897314081937 0 462.93897314081937 350.95075360872488 0 0 0 0 337.90908668357224 430.55251261377202 0 430.55251261377202 596.89766944597341 0 0 0 0 43.571164329792424 16.507801142350409 0 16.507801142350409 0.57076248809307306 0 0 0 0 18.112960453568704 0.18365508096340477 0 0.18365508096340477 3.9502000553065568 0 0 0 0 345.36939394903311 -160.17091593131235 0 -160.17091593131235 328.11155255109611 0 0 0 0 936.66008128010981 7.7338344033580313 0 7.7338344033580313 -42.456413513936639 0 0 0 0 1050.7197690824505 -427.44361639184626 0 -427.44361639184626 -117.81720516142276 0 0 0 0 3495.2134696956491 -1719.3107030053573 0 -1719.3107030053573 339.73138056719563 0 0 0 0 3490.6679416096304 -640.58592104480488 0 -640.58592104480488 -148.01025199584879 0 0 0 0 1763.0420949514737 226.94139808815655 0 226.94139808815655 204.71516397760558 0 0 0 0 560.18013702330063 860.79891218569173 0 860.79891218569173 -86.051197191123919 0 0 0 0 -56.356891847506631 -96.988541220203615 0 -96.988541220203615 667.52194760829173 0 0 0 0 50.043401648841609 -786.22707950322751 0 -786.22707950322751 317.13322441226944 0 0 0 0 57.917976338940207 -236.48755220140424 0 -236.48755220140424 98.659366479008852 0 0 0 0 -71.316897197852086 -211.55181602687355 0 -211.55181602687355 253.58889503939963 0 0 0 0 106.86012679722626 29.793608660686232 0 29.793608660686232 97.175785988545158 0 0 0 0 81.814548157657725 -3.0993382420092317 0 -3.0993382420092317 -9.7531794649365935 0 0 0 0 109.20360742892808 44.759802829355522 0 44.759802829355522 -64.72300010514482 0 0 0 0 115.04964061181818 152.422951343254 0 152.422951343254 428.49087296115226 0 0 0 0 42.360222736559081 -4.6605032139828069 0 -4.6605032139828069 8.0516178560288267 0 0 0 0 55.500759236689191 -27.864393715322024 0 -27.864393715322024 3.1608094158528957 0 0 0 0 3.1029624340262671 43.42601155114771 0 43.42601155114771 9.3298403181644858 0 0 0 0 2.4873132594898664 1.7912209450155387 0 1.7912209450155387 0.65434220810731336 0 0 0 0 60.558227574307239 -5.1024769502180201 0 -5.1024769502180201 25.324358270231588 0 0 0 0 39.666824317813735 -35.824344141521379 0 -35.824344141521379 -7.1953739007029593 0 0 0 0 1.4972973447082154 0.98469067434896829 0 0.98469067434896829 0.2142687974394118 0 0 0 0 -9.7211106070644746 23.937173074052751 0 23.937173074052751 5.0650163191288904 0 0 0 0 7.8106631946720881 -15.782284209335112 0 -15.782284209335112 7.6737514325276717 0 0 0 0 22.523021391767543 -1.328492043825898 0 -1.328492043825898 0.059054706420813882 0 0 0 0 11.896500744289369 -11.700257687528268 0 -11.700257687528268 4.722022948481527 0 0 0 0 59.827816295539378 -8.193195019592924 0 -8.193195019592924 -6.5338993593958943 0 0 0 0 78.343172796558065 -39.216899766513329 0 -39.216899766513329 19.872206459157699 0 0 0 0 145.05585624309606 -27.419029912034649 0 -27.419029912034649 -2.6231521472941717 0 0 0 0 146.57090612696811 -16.614664972235584 0 -16.614664972235584 24.693141467563287 0 0 0 0 152.4563225933307 -10.461731631862433 0 -10.461731631862433 -0.01052900118071394 0 0 0 0 217.47356676979689 -41.220598867304375 0 -41.220598867304375 -0.27467986970179226 0 0 0 0 227.58452715903877 -10.244644028066393 0 -10.244644028066393 -0.041375702329577449 0 0 0 0 260.28276264226588 -27.668831326656317 0 -27.668831326656317 -16.244491557472564 0 0 0 0 253.92947490037841 40.947028242958694 0 40.947028242958694 53.966544836438914 0 0 0 0 153.99029488235828 -58.830399064385603 0 -58.830399064385603 8.373826172341964 0 0 0 0 206.14827457196952 -7.9257067775135965 0 -7.9257067775135965 -1.455918342657462 0 0 0 0 45.31368170748101 -78.63657275535337 0 -78.63657275535337 24.784397942285636 0 0 0 0 282.34474618621607 -82.695875617906651 0 -82.695875617906651 -61.443440093888 0 0 0 0 295.76852089418389 83.751422937186675 0 83.751422937186675 -31.317220593054742 0 0 0 0 370.34600759474415 34.768042523972014 0 34.768042523972014 -8.9267136248632255 0 0 0 0 0.35895123770896298 1.341281300771044 0 1.341281300771044 3.2181540152233952 0 0 0 0 60.139660777625977 -1.3870936466095429 0 -1.3870936466095429 3.2151988786861523 0 0 0 0 59.622961951719844 -18.618138499999521 0 -18.618138499999521 -4.9001013804252125 0 0 0 0 57.4750806378579 -6.6334648487702736 0 -6.6334648487702736 -2.862655647153872 0 0 0 0 441.89464922636398 2.8355749011825928 0 2.8355749011825928 -37.886400798093185 0 0 0 0 69.575878173185629 -8.079936350325978 0 -8.079936350325978 7.9282644240797495 0 0 0 0 0.42080123116681989 0.48049296022853127 0 0.48049296022853127 0.98510013216812342 0 0 0 0 258.08621841913555 -30.053751780895567 0 -30.053751780895567 12.071980383657099 0 0 0 0 222.01032851011405 56.897626324274569 0 56.897626324274569 8.6179898326230742 0 0 0 0 113.68502004354377 -20.425103602298908 0 -20.425103602298908 0.022662149236848245 0 0 0 0 81.668436157968245 -13.284635380904799 0 -13.284635380904799 1.712347200696172 0 0 0 0 71.488823052452062 9.6044645984744008 0 9.6044645984744008 41.32935509322067 0 0 0 0 48.479177957691718 -31.960367049051072 0 -31.960367049051072 21.569798866057745 0 0 0 0 39.524196178434067 -15.268901612027619 0 -15.268901612027619 6.0697842091504697 0 0 0 0 55.736024360023293 -10.278341075458835 0 -10.278341075458835 -15.754271644086145 0 0 0 0 61.585347454543808 12.62438738367179 0 12.62438738367179 26.232188853898176 0 0 0 0 5.3457298118446488 -22.627617847698687 0 -22.627617847698687 0.021795281749284575 0 0 0 0 4.0630763013177784 -10.353438761454875 0 -10.353438761454875 7.4141895371548969 0 0 0 0 7.1835940608580131 -28.799951088797968 0 -28.799951088797968 21.42509739927533 0 0 0 0 19.265076589072123 -13.160281389838445 0 -13.160281389838445 -9.9078136446726148 0 0 0 0 1.594857070249418 -17.864861042306874 0 -17.864861042306874 12.72544823519442 0 0 0 0 24.75057606206974 -25.825185875014768 0 -25.825185875014768 9.2922185570610623 0 0 0 0 45.801651846442837 -18.167354232283401 0 -18.167354232283401 7.639899154317817 0 0 0 0 46.498135565401753 -18.538303683266527 0 -18.538303683266527 -5.9179463100000476 0 0 0 0 34.502048893511528 -26.82486115731254 0 -26.82486115731254 -4.657696046061119 0 0 0 0 46.367696053173859 -24.569450443922165 0 -24.569450443922165 -7.9914762517176996 0 0 0 0 35.820668149943231 -20.4303389495077 0 -20.4303389495077 0.040004276034800057 0 0 0 0 40.15947872994002 -25.858377813314462 0 -25.858377813314462 -2.7506242738577384 0 0 0 0 46.08870970067801 -15.740372651906739 0 -15.740372651906739 -0.14959319103741109 0 0 0 0 37.279049391800072 -26.85274000151918 0 -26.85274000151918 -3.0577360443926409 0 0 0 0 39.473675517619995 -21.173609579303616 0 -21.173609579303616 -30.653098282921292 0 0 0 0 4.7719806097875335 -9.2848861864068155 0 -9.2848861864068155 0.65364801558662566 0 0 0 0 22.96588186910958 -20.0609550798832 0 -20.0609550798832 -7.3950086941764539 0 0 0 0 17.201710124312513 -7.1924896192611527 0 -7.1924896192611527 -1.9191007806081264 0 0 0 0 21.20718389817921 -29.310305048062702 0 -29.310305048062702 -11.662675007538354 0 0 0 0 41.528623796795728 -23.702018486617817 0 -23.702018486617817 -4.0019032622818713 0 0 0 0 25.998310965427663 -32.831960666545399 0 -32.831960666545399 4.3133964863697258 0 0 0 0 27.851594461901357 -20.400695439112582 0 -20.400695439112582 11.888008405964797 0 0 0 0 22.171928798721638 -28.619937030550773 0 -28.619937030550773 2.6717524267476165 0 0 0 0 25.991824487689883 -17.663047327899676 0 -17.663047327899676 10.655095065165597 0 0 0 0 36.212415499256167 -32.825125735069264 0 -32.825125735069264 -4.3938498319960217 0 0 0 0 34.978889978295882 -31.726290768789156 0 -31.726290768789156 11.38454685122047 0 0 0 0 44.097069349809317 -19.373467008352009 0 -19.373467008352009 9.3908957258618102 0 0 0 0 36.441876694145321 -59.114632483860078 0 -59.114632483860078 14.530653297253139 0 0 0 0 51.675972992681636 -63.095715539492062 0 -63.095715539492062 15.568811090710369 0 0 0 0 11.447595348972811 -12.295634560437151 0 -12.295634560437151 0.37056755570676536 0 0 0 0 49.475973893063838 -43.939283484810872 0 -43.939283484810872 10.77909996315438 0 0 0 0 -10.504915059369523 -59.3583446633466 0 -59.3583446633466 25.349441573293518 0 0 0 0 -29.885916959610768 -120.7304873739551 0 -120.7304873739551 54.454563831071567 0 0 0 0 -4.4760320238548843 -21.975810847194907 0 -21.975810847194907 0.11311435594429653 0 0 0 0 9.1834535545931431 -32.730574806048566 0 -32.730574806048566 19.150252085438751 0 0 0 0 40.920088844961356 -43.385746359385372 0 -43.385746359385372 19.249776188288479 0 0 0 0 10.711970774413203 -37.020446175743814 0 -37.020446175743814 6.3977470869607487 0 0 0 0 0.087260503404792189 40.079487906275411 0 40.079487906275411 41.564938454250523 0 0 0 0 -14.153091990383643 -7.5750645883635315 0 -7.5750645883635315 2.3859109760968709 0 0 0 0 30.638223863352323 -117.13892999058623 0 -117.13892999058623 105.6776063872943 0 0 0 0 271.93834380854969 -227.69413837255038 0 -227.69413837255038 57.261003268430727 0 0 0 0 413.82055802442483 116.05634871546044 0 116.05634871546044 32.875342486136219 0 0 0 0 2.2079653133696411 -149.74286794499861 0 -149.74286794499861 273.0739555544103 0 0 0 0 641.31276196780709 -183.74589518663998 0 -183.74589518663998 13.048107629276956 0 0 0 0 0.32204933936961311 -2.1951014699649392 0 -2.1951014699649392 1.8206545809214434 0 0 0 0 297.89745536039118 169.24914038787426 0 169.24914038787426 51.668736758469095 0 0 0 0 640.4669387988688 -36.736076825616664 0 -36.736076825616664 -53.793185169996377 0 0 0 0 0.16299672239304641 -17.504937229369002 0 -17.504937229369002 243.51178899141837 0 0 0 0 26.736623481789138 68.889733898368632 0 68.889733898368632 172.45779648963966 0 0 0 0 0.20327672918612016 0.69607363033330216 0 0.69607363033330216 -0.30326622175139928 0 0 0 0 85.319681435539678 -14.84624263184998 0 -14.84624263184998 -3.7663247694856636 0 0 0 0 8.7566467346501327 -2.852843118198706 0 -2.852843118198706 3.1419587630372598 0 0 0 0 598.19420730308047 -85.139956911016782 0 -85.139956911016782 -67.66688218940763 0 0 0 0 563.63999054051237 -175.552850186607 0 -175.552850186607 50.192509827349923 0 0 0 0 1.2919372578918455 1.2460327372021425 0 1.2460327372021425 3.7113357482769675 0 0 0 0 303.66409726491838 -135.63458408397639 0 -135.63458408397639 153.45553232428347 0 0 0 0 167.86392682571022 64.720538582299241 0 64.720538582299241 30.271791313300184 0 0 0 0 33.513635962401167 -8.8869266166192631 0 -8.8869266166192631 3.341244035509817 0 0 0 0 -0.17679508170658664 0.012230087835177983 0 0.012230087835177983 1.4061359482227624 0 0 0 0 19.78505107005185 1.1982990876693975 0 1.1982990876693975 7.5179008428386851 0 0 0 0 25.806677996879444 -13.824528674995349 0 -13.824528674995349 4.4286132474899205 0 0 0 0 18.471776731738686 -13.957124673778893 0 -13.957124673778893 8.275959953124584 0 0 0 0 32.641362588590709 -12.318791800551992 0 -12.318791800551992 3.5197323728368133 0 0 0 0 30.492297066120955 -10.291204338492662 0 -10.291204338492662 5.6397359433570955 0 0 0 0 24.504009490890894 -14.862248931887159 0 -14.862248931887159 6.1460834037743552 0 0 0 0 43.330697832730948 -17.268583361821129 0 -17.268583361821129 -1.7487431131399944 0 0 0 0 42.925170418338666 -3.3636544120347684 0 -3.3636544120347684 5.9639611783090913 0 0 0 0 530.29334757917968 174.18521081292238 0 174.18521081292238 -62.981637194882182 0 0 0 0 591.01960480725393 -332.86383488352726 0 -332.86383488352726 262.80783299507721 0 0 0 0 152.46448470342148 -196.1911820593927 0 -196.1911820593927 141.60105275804915 0 0 0 0 564.29104697075672 -86.066026455381518 0 -86.066026455381518 -61.954149188538196 0 0 0 0 41.019210390804801 41.395319780357738 0 41.395319780357738 19.84579672154991 0 0 0 0 2.2529575657049179 2.4360029022702747 0 2.4360029022702747 0.80327979620743406 0 0 0 0 -36.808367620338686 -71.640449100717206 0 -71.640449100717206 -20.616071525742313 0 0 0 0 19.230912438826635 -17.54622828696472 0 -17.54622828696472 -107.19828100898849 0 0 0 0 2.9607755410359857 -0.86096215888034067 0 -0.86096215888034067 -0.72650098837819965 0 0 0 0 14.068673809168104 -3.7289802144995861 0 -3.7289802144995861 -17.482474481804502 0 0 0 0 -12.086163765183301 -8.2324753644045749 0 -8.2324753644045749 54.368259647633636 0 0 0 0 -26.014251860207878 -49.019076652123999 0 -49.019076652123999 26.734785412762278 0 0 0 0 -1.3742750488891033 6.6720779542738455 0 6.6720779542738455 52.766301423901837 0 0 0 0 -77.294212380034878 68.65252352186053 0 68.65252352186053 101.59540665577947 0 0 0 0 4.8109216968587134 -5.2170552344465619 0 -5.2170552344465619 73.241014063354442 0 0 0 0 104.57330160730635 118.89155511040525 0 118.89155511040525 78.822523803563115 0 0 0 0 3.9749110121800868 -1.8172316883851991 0 -1.8172316883851991 1.1449730931788 0 0 0 0 331.71186267054873 196.31307210370386 0 196.31307210370386 123.08384534801652 0 0 0 0 47.274226904148236 89.501864358156126 0 89.501864358156126 245.57873361889187 0 0 0 0 225.14799686956394 42.24884601669455 0 42.24884601669455 40.943163466128198 0 0 0 0 285.93058452042169 126.62331008304422 0 126.62331008304422 0.64554138816163231 0 0 0 0 578.33922129834536 146.06228741553653 0 146.06228741553653 1.7464192156904801 0 0 0 0 668.04341851488789 62.897658814035275 0 62.897658814035275 -90.583958682089019 0 0 0 0 617.29224208430969 -77.859674361035161 0 -77.859674361035161 -77.089671151382078 0 0 0 0 550.04436406854074 49.616042791121217 0 49.616042791121217 -55.38172018332736 0 0 0 0 504.07109896198381 5.201362218447116 0 5.201362218447116 -8.3606752546262726 0 0 0 0 456.21154817409115 -80.747977506332631 0 -80.747977506332631 -41.199170185163098 0 0 0 0 455.45190540302428 -81.129333131459816 0 -81.129333131459816 45.273220718636821 0 0 0 0 270.57782595063327 18.595964622877261 0 18.595964622877261 9.3274153405756692 0 0 0 0 259.83708806596769 73.770631621520693 0 73.770631621520693 21.809267578428148 0 0 0 0 139.21388794964878 30.782070951131573 0 30.782070951131573 123.37454533930821 0 0 0 0 301.0452604315069 -143.95579166031979 0 -143.95579166031979 243.28925826420868 0 0 0 0 7.0851491214780253 32.330861447787413 0 32.330861447787413 28.761240208970435 0 0 0 0 163.63594574869785 89.70966710001062 0 89.70966710001062 20.796410967055181 0 0 0 0 93.422434796841117 -3.5012074529682593 0 -3.5012074529682593 70.940614465812587 0 0 0 0 14.452018369902362 59.933631845942955 0 59.933631845942955 93.86874402753574 0 0 0 0 12.344262351038196 42.801403840911213 0 42.801403840911213 28.865288725804305 0 0 0 0 -68.819527137748082 43.828162268497408 0 43.828162268497408 32.480873704406577 0 0 0 0 59.087836732090608 41.364121819614724 0 41.364121819614724 -12.120856460645731 0 0 0 0 -32.321058793604607 16.804898771020532 0 16.804898771020532 22.146496239548355 0 0 0 0 50.010138774770425 44.80065307673226 0 44.80065307673226 -7.9394908354332978 0 0 0 0 -60.625254181461059 141.41821845514949 0 141.41821845514949 1.1537871339803303 0 0 0 0 69.415413178081508 65.526306295952054 0 65.526306295952054 2.4469061596573738 0 0 0 0 80.103276191111945 69.674163528957934 0 69.674163528957934 -12.546220795812587 0 0 0 0 74.477415108187415 75.928447620967972 0 75.928447620967972 12.90548512026362 0 0 0 0 65.165923748223577 73.838425269652362 0 73.838425269652362 13.14263692898669 0 0 0 0 -20.905815249673537 15.143775162752789 0 15.143775162752789 14.015915054759146 0 0 0 0 128.81528623158374 99.249126998286101 0 99.249126998286101 -35.694874338423688 0 0 0 0 111.20002765058598 99.038580688629509 0 99.038580688629509 13.687182280578782 0 0 0 0 131.44077608630687 84.711221047804884 0 84.711221047804884 -32.999797676681737 0 0 0 0 157.007154927589 83.466821434933536 0 83.466821434933536 -79.272790976094939 0 0 0 0 153.28364382482687 20.285934715127496 0 20.285934715127496 -38.140815576649885 0 0 0 0 146.4995003986478 38.25588240865568 0 38.25588240865568 -81.602823862356217 0 0 0 0 121.35744474332023 63.458275532328571 0 63.458275532328571 -32.925121317870435 0 0 0 0 385.83905723585485 -49.129723464334347 0 -49.129723464334347 -295.62226564081629 0 0 0 0 119.56846625094789 -6.6524107950467624 0 -6.6524107950467624 -7.5578051701600728 0 0 0 0 -5.7816367432242259 0.33503432646743647 0 0.33503432646743647 -1.0888712045747297 0 0 0 0 -32.488254915529978 25.549747869790522 0 25.549747869790522 -0.94622655968314007 0 0 0 0 40.27746704564197 1.5776905345460364 0 1.5776905345460364 0.22020175321216584 0 0 0 0 10.79306556637647 3.0733422750561346 0 3.0733422750561346 -1.0287033718500109 0 0 0 0 38.926396922768618 -12.380000200441486 0 -12.380000200441486 -1.8006542028366539 0 0 0 0 31.055337676574709 3.390322857606975 0 3.390322857606975 2.7356766533350765 0 0 0 0 12.665463904715409 -7.810107232632987 0 -7.810107232632987 -10.999894672715774 0 0 0 0 57.868924736845656 -9.9896405216151152 0 -9.9896405216151152 -4.3639249921492365 0 0 0 0 -354.42113377161149 5.132120959511326 0 5.132120959511326 908.17948723084783 0 0 0 0 18.047463781025726 3.2470657109317038 0 3.2470657109317038 0.633248951630204 0 0 0 0 14.678642977407435 3.8221770594288955 0 3.8221770594288955 1.048222748927401 0 0 0 0 9.2219961481771549 -0.79853130502841907 0 -0.79853130502841907 1.0927753515025818 0 0 0 0 9.0906455606309464 0.34140818513196791 0 0.34140818513196791 2.5385120824423666 0 0 0 0 16.467619378658128 -0.045366632682117825 0 -0.045366632682117825 2.5232957773152975 0 0 0 0 8.4970149624127771 1.8586691047122201 0 1.8586691047122201 2.627804429007178 0 0 0 0 37.237578021726222 -11.044406480329684 0 -11.044406480329684 17.792158344388781 0 0 0 0 26.027354027828551 2.1050603501623328 0 2.1050603501623328 2.3007538458770114 0 0 0 0 28.15513307098081 3.7040284029714883 0 3.7040284029714883 -0.67668097852788378 0 0 0 0 2.7736801743885735 -7.600184045891865 0 -7.600184045891865 7.5234035708617739 0 0 0 0 24.145451081480132 10.67369057767803 0 10.67369057767803 -7.0962049460954404 0 0 0 0 5.2701643735456827 2.0079303859441353 0 2.0079303859441353 -0.13492141043393069 0 0 0 0 22.345433854759904 12.907554878333485 0 12.907554878333485 5.786847503221459 0 0 0 0 13.454950145401881 1.2250051896121548 0 1.2250051896121548 0.023027947082940425 0 0 0 0 28.237058694459847 -6.3517865151588921 0 -6.3517865151588921 -37.245853109941891 0 0 0 0 24.757262572748004 31.570255911048207 0 31.570255911048207 64.69674387881787 0 0 0 0 -9.2557339752092957 -36.761050125964402 0 -36.761050125964402 28.744780969533167 0 0 0 0 15.603082239627838 15.976316856701487 0 15.976316856701487 86.767062231142972 0 0 0 0 13.576237213201239 40.752097042191508 0 40.752097042191508 59.258548246169084 0 0 0 0 43.140558620158117 89.371759482832658 0 89.371759482832658 128.82040343579501 0 0 0 0 95.317332800041186 112.96508094621731 0 112.96508094621731 79.212291999861918 0 0 0 0 61.924597609693592 93.574506072188342 0 93.574506072188342 69.820521325896152 0 0 0 0 65.180601124433451 93.58124720037722 0 93.58124720037722 61.881332419659884 0 0 0 0 78.753489800910756 95.901710574774597 0 95.901710574774597 15.603647894426103 0 0 0 0 111.60056458475447 132.83791945792564 0 132.83791945792564 55.687908215651987 0 0 0 0 67.9396503226817 57.766849986953275 0 57.766849986953275 10.179890310904739 0 0 0 0 108.73190809966763 50.553561201211778 0 50.553561201211778 11.401022641139207 0 0 0 0 57.104830371972639 74.669008228112943 0 74.669008228112943 15.845836126552967 0 0 0 0 73.809766045407741 95.32771506377162 0 95.32771506377162 31.49175201889102 0 0 0 0 38.359922336676391 66.337319062978167 0 66.337319062978167 36.750549128410057 0 0 0 0 55.590192545023456 56.902380839113903 0 56.902380839113903 2.5624802020502102 0 0 0 0 38.568755660686293 64.109465309560619 0 64.109465309560619 20.552474971913398 0 0 0 0 -0.23412846230523598 0.39858601192509013 0 0.39858601192509013 0.094852159512516465 0 0 0 0 3.6754664855907322 15.294057612794631 0 15.294057612794631 22.761497998268624 0 0 0 0 14.410841525677824 12.42878016689474 0 12.42878016689474 5.7843971716163161 0 0 0 0 29.000407962870668 41.523604053829331 0 41.523604053829331 40.001726930166569 0 0 0 0 7.598369164061296 -12.076323479132725 0 -12.076323479132725 10.781230121944191 0 0 0 0 15.263085193677398 15.056020278275355 0 15.056020278275355 11.11285774566386 0 0 0 0 64.507291527396092 16.867156448290899 0 16.867156448290899 -10.41770451074302 0 0 0 0 24.474066916240261 16.208139349434234 0 16.208139349434234 6.4855509082374141 0 0 0 0 37.976333744794829 15.784108534458028 0 15.784108534458028 -9.3990668465758063 0 0 0 0 143.60715595833608 191.89398444022629 0 191.89398444022629 -134.97037091631768 0 0 0 0 49.062059817271802 0.94002522651067011 0 0.94002522651067011 23.511269994031863 0 0 0 0 81.265692638993642 -43.439528005995342 0 -43.439528005995342 -36.380962744737758 0 0 0 0 87.829199268577213 -7.5004841007435061 0 -7.5004841007435061 2.8719450016988048 0 0 0 0 87.343414945804398 -4.8865843325534115 0 -4.8865843325534115 -0.97600194235474191 0 0 0 0 85.119127808502526 0.17536523642252178 0 0.17536523642252178 -1.63321898369108 0 0 0 0 83.076945942637394 -1.7765529346270341 0 -1.7765529346270341 7.7585704228304166 0 0 0 0 73.575197596568614 2.8016904140632448 0 2.8016904140632448 6.5759239004118228 0 0 0 0 78.011600243466091 -9.0029783943567452 0 -9.0029783943567452 3.1933545252011299 0 0 0 0 14.442794108694386 13.767804449962171 0 13.767804449962171 -4.9548778459598655 0 0 0 0 84.152009425262804 -0.15464285367806951 0 -0.15464285367806951 8.9063965053160246 0 0 0 0 21.514242284787542 15.873303429180822 0 15.873303429180822 -8.7320700237114579 0 0 0 0 25.745976314690779 12.11326991769829 0 12.11326991769829 -8.1037866204019338 0 0 0 0 20.579099930488155 19.280281468492376 0 19.280281468492376 5.0732032875566802 0 0 0 0 21.759704223266453 15.532441645436165 0 15.532441645436165 -5.9480049390090244 0 0 0 0 25.933973807637813 10.050190131100862 0 10.050190131100862 -10.842709518708944 0 0 0 0 23.585122558200965 16.857708888705929 0 16.857708888705929 -7.1262781809214175 0 0 0 0 18.180089502893679 10.856654906239442 0 10.856654906239442 -15.335330419700767 0 0 0 0 23.246335199466557 18.236132126122016 0 18.236132126122016 -12.733129001277121 0 0 0 0 9.7724108799609652 4.3202624946513737 0 4.3202624946513737 -0.73655548619893452 0 0 0 0 31.504369807029434 11.863226898583699 0 11.863226898583699 -1.6101154759625143 0 0 0 0 31.327805623659515 1.8507075159711519 0 1.8507075159711519 0.40349111954976991 0 0 0 0 24.323829052652968 3.623486622283 0 3.623486622283 -0.80562489267474291 0 0 0 0 2.726794587262205 1.5681876989189334 0 1.5681876989189334 0.54512310688544652 0 0 0 0 29.933017008181196 3.2366404066988252 0 3.2366404066988252 -38.176427387366857 0 0 0 0 82.910780365178653 16.297653040688374 0 16.297653040688374 -7.4772036230754679 0 0 0 0 90.044333011930576 3.8093836888435533 0 3.8093836888435533 0.50915694625030028 0 0 0 0 -2.4947548533209556 8.2263891350425435 0 8.2263891350425435 0.53637251703756905 0 0 0 0 117.84158787218621 -20.164597960590925 0 -20.164597960590925 -13.77579538873465 0 0 0 0 7.1882965755248733 21.121928740748274 0 21.121928740748274 -5.3368979797533029 0 0 0 0 16.862967320684788 14.971873508050788 0 14.971873508050788 0.25618060918719343 0 0 0 0 73.906916518579237 3.8441601845847799 0 3.8441601845847799 0.17192417266142002 0 0 0 0 77.98017961718142 -18.191842809290165 0 -18.191842809290165 -0.52189151923369081 0 0 0 0 66.5269801641698 -16.186247751180872 0 -16.186247751180872 8.177880509671013 0 0 0 0 90.378567033883883 -4.7712045371720251 0 -4.7712045371720251 3.3747761889223966 0 0 0 0 80.446320337301586 5.7497473625646762 0 5.7497473625646762 0.14564509387059843 0 0 0 0 83.95499662932707 0.21909136309085397 0 0.21909136309085397 1.5653876541784939 0 0 0 0 71.975562484003603 -4.7074808805568864 0 -4.7074808805568864 4.5164586224831282 0 0 0 0 74.094715295374044 -9.2152496490174372 0 -9.2152496490174372 13.792377702699469 0 0 0 0 55.108310477546183 1.8197297584069929 0 1.8197297584069929 9.5572611426707681 0 0 0 0 57.898030812430079 -7.3413588394739691 0 -7.3413588394739691 35.309026585288393 0 0 0 0 45.552108614821918 -20.941361522562602 0 -20.941361522562602 21.016648134898787 0 0 0 0 56.046295798689243 -47.006384358243395 0 -47.006384358243395 84.354861368718048 0 0 0 0 69.548315859894501 -27.45331446925627 0 -27.45331446925627 22.778406112610867 0 0 0 0 68.41521108285815 -2.4533488438689552 0 -2.4533488438689552 -26.793665572449072 0 0 0 0 88.95840315856185 -38.597074937707418 0 -38.597074937707418 -18.579487397129697 0 0 0 0 19.511772374575457 -4.41419361214286 0 -4.41419361214286 -0.69239582463997973 0 0 0 0 65.236081577284494 -49.765179293688107 0 -49.765179293688107 14.127630389174556 0 0 0 0 107.36774601181969 0.48848782110530919 0 0.48848782110530919 8.0092125234295963 0 0 0 0 117.24061577441171 -14.601822101283915 0 -14.601822101283915 -2.80862437365613 0 0 0 0 104.84808468582924 -16.764059421665252 0 -16.764059421665252 -2.5861511612453114 0 0 0 0 86.278396544963471 -5.0880221571733273 0 -5.0880221571733273 7.040249562356621 0 0 0 0 89.662031132174889 -0.32151996772608982 0 -0.32151996772608982 1.1880015155774117 0 0 0 0 91.438049501710339 -4.2587029072383302 0 -4.2587029072383302 5.7255590531221969 0 0 0 0 90.66331884948886 -4.8482285991462959 0 -4.8482285991462959 16.637748077441756 0 0 0 0 88.764030960901124 12.465643039771379 0 12.465643039771379 -8.9776397210054597 0 0 0 0 98.403121386931161 -0.29328593880586595 0 -0.29328593880586595 -2.3901021845695141 0 0 0 0 135.42121327164932 -7.7280077975447057 0 -7.7280077975447057 -1.0912827702081813 0 0 0 0 20.843536897299742 2.1949816949627348 0 2.1949816949627348 -7.1981151112659134 0 0 0 0 191.52314024658699 19.00793661388397 0 19.00793661388397 -159.04569129919381 0 0 0 0 92.83084589644568 -85.460968551762733 0 -85.460968551762733 -55.590841185154204 0 0 0 0 105.08815829188097 -97.726757829695742 0 -97.726757829695742 -61.732148244456738 0 0 0 0 47.120363094829372 -67.782239524677266 0 -67.782239524677266 33.566625309722895 0 0 0 0 62.069807804890701 -37.061081029009571 0 -37.061081029009571 7.406151743152118 0 0 0 0 37.409734583998215 -55.817734800437165 0 -55.817734800437165 28.712960389471391 0 0 0 0 46.109591169370105 -43.285333555980571 0 -43.285333555980571 6.5637514304949036 0 0 0 0 58.576324671215843 -57.367247916476799 0 -57.367247916476799 16.736823764699466 0 0 0 0 56.305461251671659 -49.588159419835051 0 -49.588159419835051 -1.2150023464373589 0 0 0 0 56.271952213181066 -52.976684462131288 0 -52.976684462131288 -35.553674161352774 0 0 0 0 30.857975303122657 -47.888976794814994 0 -47.888976794814994 4.5310230962263631 0 0 0 0 54.603735640870582 -58.903689258999407 0 -58.903689258999407 -2.6004248129443113 0 0 0 0 46.405330062909343 -44.145933622253779 0 -44.145933622253779 64.041774638831612 0 0 0 0 18.894724234763999 -69.214584945577712 0 -69.214584945577712 105.52257233750356 0 0 0 0 29.779417473851936 -54.415634379511118 0 -54.415634379511118 104.28472860214907 0 0 0 0 91.12583942047786 -57.448895333123573 0 -57.448895333123573 11.302485730727312 0 0 0 0 24.172491265846475 49.268414020598641 0 49.268414020598641 24.416194903373707 0 0 0 0 4.2608007287926739 -1.4807668088184016 0 -1.4807668088184016 6.5171110070214127 0 0 0 0 24.652716832337319 40.852601083253319 0 40.852601083253319 -13.145096044495517 0 0 0 0 17.226690765161038 7.323106364511851 0 7.323106364511851 -0.092573604343159199 0 0 0 0 -2.5734188934412288 11.619441350599956 0 11.619441350599956 9.3476499741482808 0 0 0 0 29.685479532810859 -39.593591053248929 0 -39.593591053248929 45.432259155964857 0 0 0 0 4.4163986630665022 7.5808634520388978 0 7.5808634520388978 51.071211907938505 0 0 0 0 53.899104724409824 12.391395912359457 0 12.391395912359457 4.3230108597573675 0 0 0 0 47.546213445761225 11.811568890063242 0 11.811568890063242 -0.2195468560852516 0 0 0 0 119.51963049594633 -44.466578005546808 0 -44.466578005546808 -35.728381068016915 0 0 0 0 4.3105120904035346 -2.1223253698867097 0 -2.1223253698867097 -0.55491341491882373 0 0 0 0 46.091372608170786 -4.0815114735216866 0 -4.0815114735216866 -13.528638627530199 0 0 0 0 45.093689155034212 -5.2590813917857808 0 -5.2590813917857808 -2.6643293871390745 0 0 0 0 47.758211059051973 6.382041248636142 0 6.382041248636142 -26.041920410396415 0 0 0 0 29.524152753653155 -9.5362244450046489 0 -9.5362244450046489 -23.472198926509662 0 0 0 0 120.79213046743098 -148.71219684219068 0 -148.71219684219068 -57.036894375414704 0 0 0 0 68.233690444074455 79.920141282305849 0 79.920141282305849 -90.757077677706548 0 0 0 0 53.198424790956096 17.571601111393157 0 17.571601111393157 0.65552530418659849 0 0 0 0 25.021556046674959 5.9205441881576917 0 5.9205441881576917 -15.943705570475686 0 0 0 0 19.174232347988436 72.121785283629833 0 72.121785283629833 4.1813948294256988 0 0 0 0 44.609792267357989 20.873035402477399 0 20.873035402477399 58.576733832576792 0 0 0 0 250.95990915787297 7.3747592982956576 0 7.3747592982956576 22.699081841456064 0 0 0 0 301.66708366510102 117.71403400829513 0 117.71403400829513 22.817612514396387 0 0 0 0 117.00859261861478 29.244083059987133 0 29.244083059987133 54.658473774215963 0 0 0 0 221.62005367797246 50.365247130288481 0 50.365247130288481 21.517955644654648 0 0 0 0 189.63088739021987 88.231325352798649 0 88.231325352798649 64.061654252151129 0 0 0 0 132.14598835760989 44.216185878789474 0 44.216185878789474 36.385982445786794 0 0 0 0 -1.8674323028321211 -5.4021517821588461 0 -5.4021517821588461 -1.3374292906594896 0 0 0 0 21.880765919204578 -22.914032816379631 0 -22.914032816379631 -11.667392333561754 0 0 0 0 -112.84056188402246 -90.751836518311848 0 -90.751836518311848 -14.069832849500017 0 0 0 0 202.10185415371234 64.684968839785142 0 64.684968839785142 36.135081685987643 0 0 0 0 3.1992655072376479 -1.7520328248990893 0 -1.7520328248990893 -1.6236411029073778 0 0 0 0 -131.93973493759404 -6.9359837275005702 0 -6.9359837275005702 -55.897327139980916 0 0 0 0 67.700674117935705 -14.224531723230029 0 -14.224531723230029 -7.7164678272602032 0 0 0 0 53.662432664859807 1.329998881914662 0 1.329998881914662 -9.8356505142387505 0 0 0 0 -71.864346648177161 92.858980899994236 0 92.858980899994236 52.119239112477771 0 0 0 0 -71.976780671284359 80.882092891535649 0 80.882092891535649 5.5251606577348866 0 0 0 0 17.758106470602016 8.7730022477433209 0 8.7730022477433209 -10.113716583636423 0 0 0 0 64.917184864301817 -13.429132801064043 0 -13.429132801064043 -1.3085661075135704 0 0 0 0 57.785038284171605 2.5381246852757613 0 2.5381246852757613 -13.434327581249931 0 0 0 0 9.863609040834973 10.13830768715907 0 10.13830768715907 -8.9030864843345654 0 0 0 0 97.379765690722706 0.38261730042552244 0 0.38261730042552244 -42.854190542325796 0 0 0 0 25.746572571093566 81.889712909637865 0 81.889712909637865 -38.867932534724787 0 0 0 0 67.130129688652232 17.148156151245303 0 17.148156151245303 -37.129125144565933 0 0 0 0 55.870223976795387 0.58497262380114989 0 0.58497262380114989 -25.841301014781038 0 0 0 0 23.341143286458873 8.494751686652279 0 8.494751686652279 -9.9903939780437465 0 0 0 0 47.85527345976152 -5.2961158659691137 0 -5.2961158659691137 -7.0894695350419283 0 0 0 0 24.556642858151463 32.048638654066849 0 32.048638654066849 80.775644931261468 0 0 0 0 39.217166170805285 42.87769313235799 0 42.87769313235799 9.3711195965925072 0 0 0 0 53.028053846184775 4.1647846472885153 0 4.1647846472885153 -3.1164978719026939 0 0 0 0 72.4709728587477 25.901494665757127 0 25.901494665757127 -38.778962234094706 0 0 0 0 73.925583748052304 4.1026201426720945 0 4.1026201426720945 -2.795348458828812 0 0 0 0 34.258105144625006 12.405226468859603 0 12.405226468859603 -8.3268634745817884 0 0 0 0 40.270279939381112 5.5929959478537601 0 5.5929959478537601 -2.3876167010037119 0 0 0 0 55.555054448181181 4.8149743478750224 0 4.8149743478750224 -4.9129761919970178 0 0 0 0 30.342838819396945 17.349621252851264 0 17.349621252851264 -9.1127955965004848 0 0 0 0 53.742436236814683 -0.18420510085860542 0 -0.18420510085860542 -11.85388982706354 0 0 0 0 52.032162830972084 -3.4166980363447124 0 -3.4166980363447124 -7.8858405776554719 0 0 0 0 12.1154272538041 -4.0023663601184296 0 -4.0023663601184296 0.31741759423351645 0 0 0 0 54.884909850676195 -6.5080831507009407 0 -6.5080831507009407 -5.7612066452252293 0 0 0 0 59.090667154297989 -4.156052612583494 0 -4.156052612583494 -10.208478083612135 0 0 0 0 63.502253327322251 -3.6574854671440562 0 -3.6574854671440562 -38.417936698972426 0 0 0 0 69.030966991835157 10.121398044269881 0 10.121398044269881 -14.788762463175544 0 0 0 0 80.609984102069575 4.9145232916773693 0 4.9145232916773693 -43.380524847604647 0 0 0 0 89.582057551247999 -6.1854936498812094 0 -6.1854936498812094 -38.817287707185869 0 0 0 0 282.7640201933973 -52.075203097721896 0 -52.075203097721896 -21.994348951971745 0 0 0 0 84.076132639893331 -0.60744848864624146 0 -0.60744848864624146 -31.437648464462654 0 0 0 0 -19.337236668769037 -17.686073544611872 0 -17.686073544611872 25.435288244592357 0 0 0 0 -101.27391315868226 -89.258621667049283 0 -89.258621667049283 78.522869781598274 0 0 0 0 106.72183075700013 -30.506411495614088 0 -30.506411495614088 -47.010991964093591 0 0 0 0 2.2496507352675721 0.59855374754667423 0 0.59855374754667423 0.074901916361010734 0 0 0 0 58.365158165855973 -37.230519529084063 0 -37.230519529084063 -44.047710995248053 0 0 0 0 8.0228968786759651 -29.930856990420125 0 -29.930856990420125 -17.431792972842459 0 0 0 0 45.021597370126983 -8.2139031865773404 0 -8.2139031865773404 4.324983538917877 0 0 0 0 46.310806637109636 -7.4246492320593234 0 -7.4246492320593234 2.3618065176174241 0 0 0 0 68.383878560154699 -6.1173090115955802 0 -6.1173090115955802 1.623638836567352 0 0 0 0 43.858368714325479 -7.0244552318097249 0 -7.0244552318097249 3.4929842457320319 0 0 0 0 -0.47975947251353546 0.76573806467123973 0 0.76573806467123973 0.51620520483973209 0 0 0 0 143.60426028595975 -22.420174262197179 0 -22.420174262197179 -0.15227393269310596 0 0 0 0 78.540361672385188 -60.742858484654562 0 -60.742858484654562 37.042852267545186 0 0 0 0 16.833348843363638 -14.508550880646794 0 -14.508550880646794 27.015222296706725 0 0 0 0 9.5022344890431896 -2.9675115243042569 0 -2.9675115243042569 1.0969003968936359 0 0 0 0 0.55749965056020301 -12.602024490538497 0 -12.602024490538497 46.581710740150811 0 0 0 0 30.715038978480152 -27.088639138562485 0 -27.088639138562485 31.954391894398213 0 0 0 0 33.058870657230727 -23.752051934245628 0 -23.752051934245628 30.751111345672143 0 0 0 0 33.451966800668743 -19.074373722877567 0 -19.074373722877567 9.6424114763199213 0 0 0 0 38.584260999421531 -18.007787007209799 0 -18.007787007209799 9.4703754651486634 0 0 0 0 53.934391510905698 -33.487356841023029 0 -33.487356841023029 20.746537061786285 0 0 0 0 40.529963172215503 -7.1112552687095558 0 -7.1112552687095558 7.3113401336825063 0 0 0 0 13.126302298542939 -17.06792201906741 0 -17.06792201906741 12.186158527015865 0 0 0 0 46.889177956771164 -12.05966758140255 0 -12.05966758140255 6.5295969416538355 0 0 0 0 42.372695036116056 -7.4439627486797804 0 -7.4439627486797804 6.9523301505498694 0 0 0 0 38.391637108674331 -7.8387945324439556 0 -7.8387945324439556 8.4490690778690123 0 0 0 0 45.618043210997712 -6.4805861563952476 0 -6.4805861563952476 1.3276702448997639 0 0 0 0 39.728124263325299 -1.0158919407806479 0 -1.0158919407806479 1.8811567086411518 0 0 0 0 15.602213387351611 2.6198127133352642 0 2.6198127133352642 -1.304802033293496 0 0 0 0 27.184124174782482 1.4046014939651883 0 1.4046014939651883 3.1520884441238479 0 0 0 0 18.5327721832723 0.28898503627423899 0 0.28898503627423899 1.1300798439772057 0 0 0 0 14.568705220954143 -0.917791257558628 0 -0.917791257558628 1.6962155251611506 0 0 0 0 26.573875937552657 2.17214216463654 0 2.17214216463654 2.1999930572749236 0 0 0 0 11.876549305336084 -3.9285480305730971 0 -3.9285480305730971 -2.299273994716259 0 0 0 0 16.668744786868047 -24.166306442213909 0 -24.166306442213909 27.292041837477882 0 0 0 0 15.847039597443654 -20.20593645042959 0 -20.20593645042959 13.660589019831605 0 0 0 0 16.076545963747208 -1.663594605440494 0 -1.663594605440494 0.7605187278154234 0 0 0 0 16.141095235596936 -1.9116134642452209 0 -1.9116134642452209 5.9169264376452952 0 0 0 0 16.955112263429328 -12.819106389908256 0 -12.819106389908256 9.2386237427253945 0 0 0 0 21.731637792545371 -18.474392345006891 0 -18.474392345006891 15.279956492629935 0 0 0 0 35.796480808057822 -11.182301204074065 0 -11.182301204074065 8.7694007068330393 0 0 0 0 1.2976434751796546 -7.2785360926470153 0 -7.2785360926470153 1.2523793145178501 0 0 0 0 14.543880861514381 -15.570336594421903 0 -15.570336594421903 9.7726392495774697 0 0 0 0 45.729893744864967 -22.269780453068051 0 -22.269780453068051 5.6319295574658099 0 0 0 0 24.543272327760093 -3.4845213071654531 0 -3.4845213071654531 -0.24774015968587337 0 0 0 0 40.571002933000273 -9.6643745974637625 0 -9.6643745974637625 8.3466095990648341 0 0 0 0 1374.5928436177783 114.14162546181524 0 114.14162546181524 296.17304487349713 0 0 0 0 697.01204776082886 49.082680094168154 0 49.082680094168154 176.76044555042927 0 0 0 0 654.22825194273173 93.896960663474829 0 93.896960663474829 332.86688883393708 0 0 0 0 1238.4418929161366 361.98892564495293 0 361.98892564495293 203.198259314805 0 0 0 0 1260.1522335489135 126.37065874340851 0 126.37065874340851 153.28650082389595 0 0 0 0 943.11895115255902 171.33386479234429 0 171.33386479234429 224.13486734275375 0 0 0 0 3.3805230847247323 3.0819685364635063 0 3.0819685364635063 -3.3153021690002675 0 0 0 0 1814.9217742815672 259.1369240042776 0 259.1369240042776 -13.399918998884971 0 0 0 0 3119.6599385116824 677.17202440388121 0 677.17202440388121 596.67599714472385 0 0 0 0 1309.5713712551078 375.03039602328772 0 375.03039602328772 292.35538386898611 0 0 0 0 3030.8068995355716 380.41901080019107 0 380.41901080019107 -203.29329321004332 0 0 0 0 2753.3010267664795 469.62124674183832 0 469.62124674183832 -213.43939183149456 0 0 0 0 2713.0591016570543 192.36928862760919 0 192.36928862760919 -499.19279242720421 0 0 0 0 3498.8944876944297 436.13797035723798 0 436.13797035723798 -439.88099044012 0 0 0 0 2871.9611389409711 758.5842633251732 0 758.5842633251732 -349.11062492114633 0 0 0 0 2741.7767212443141 402.33811598916247 0 402.33811598916247 -195.23398777940551 0 0 0 0 2490.3185492192315 553.07436876990857 0 553.07436876990857 -223.49821061260809 0 0 0 0 2574.2913434323636 664.81373858414963 0 664.81373858414963 -90.200565096576327 0 0 0 0 2483.3027154122974 904.5413006402564 0 904.5413006402564 -369.6990672841668 0 0 0 0 3500.4532983148251 1411.9225910659707 0 1411.9225910659707 -581.12547133863313 0 0 0 0 718.1848156340584 989.21255160811143 0 989.21255160811143 207.69016859173121 0 0 0 0 2.6264317718609185 1.6940801641319183 0 1.6940801641319183 -4.3870485487456783 0 0 0 0 2380.5326681219376 983.75186546570274 0 983.75186546570274 -161.05297365265338 0 0 0 0 1409.7118579204798 -46.083983019170944 0 -46.083983019170944 162.15731429772313 0 0 0 0 -2.7147965748771838 3.5754953030811549 0 3.5754953030811549 -6.7209976983068467 0 0 0 0 1405.3964799508394 863.23336962956887 0 863.23336962956887 13.303174714591933 0 0 0 0 3.9699997513487624 5.0685269264214128 0 5.0685269264214128 -7.6037485470885997 0 0 0 0 2268.2867842007472 467.0865642782137 0 467.0865642782137 -243.76969795286459 0 0 0 0 533.93111929802762 -78.02460100748749 0 -78.02460100748749 -121.98702482512454 0 0 0 0 389.68424626454362 203.79829413874563 0 203.79829413874563 296.99496907312903 0 0 0 0 220.01322516481014 167.75318457235778 0 167.75318457235778 -179.29056039342095 0 0 0 0 89.519556038791052 83.770728520964894 0 83.770728520964894 -23.95886243991481 0 0 0 0 226.69849754380994 22.215055402329426 0 22.215055402329426 -77.362603039929581 0 0 0 0 304.18299783683324 -12.667362721919744 0 -12.667362721919744 -63.358214839169023 0 0 0 0 201.41757634102032 -54.468644213015182 0 -54.468644213015182 -43.981150297795466 0 0 0 0 268.71595387619163 -45.805729257103849 0 -45.805729257103849 -42.870253767562644 0 0 0 0 190.78153015532007 -97.506994642949621 0 -97.506994642949621 39.147189692299435 0 0 0 0 206.10088277902105 -57.808974011343253 0 -57.808974011343253 40.850042718431254 0 0 0 0 385.96107066409604 -92.425069596736648 0 -92.425069596736648 -11.485934226417271 0 0 0 0 343.43225223382615 -60.673942703771104 0 -60.673942703771104 224.03496676688746 0 0 0 0 249.75938766514446 -29.822816734743355 0 -29.822816734743355 -27.20695801436068 0 0 0 0 -1.4238469120539889 0.34244237424579183 0 0.34244237424579183 0.17701741821322337 0 0 0 0 69.828292078178492 -33.940067554319512 0 -33.940067554319512 -178.75926294255623 0 0 0 0 168.12962649166002 -52.166799951000257 0 -52.166799951000257 -46.415438712648097 0 0 0 0 154.4185550992388 -101.23568356151105 0 -101.23568356151105 -44.419219519339549 0 0 0 0 102.67901578063902 -58.27265992550042 0 -58.27265992550042 47.139449571877634 0 0 0 0 31.211868434547796 -78.345364841565242 0 -78.345364841565242 45.136828711921225 0 0 0 0 32.701025251342799 -89.111065201310339 0 -89.111065201310339 56.944071493659294 0 0 0 0 25.609674940318655 -58.182395313895199 0 -58.182395313895199 113.64585609472351 0 0 0 0 36.437341499695322 -37.313342517861884 0 -37.313342517861884 151.64044452171265 0 0 0 0 90.487226128418115 -60.462473273808541 0 -60.462473273808541 106.21700945028408 0 0 0 0 81.330831291423237 -46.040154087043646 0 -46.040154087043646 161.8034808937382 0 0 0 0 153.55766585978563 -61.560305967121508 0 -61.560305967121508 160.61558057257798 0 0 0 0 133.50377752412169 -108.46151061422597 0 -108.46151061422597 126.26110990012717 0 0 0 0 77.998384319411343 -1.6662253639624112 0 -1.6662253639624112 223.86997236703951 0 0 0 0 82.865383132273564 -7.9462989678092413 0 -7.9462989678092413 111.26626336798824 0 0 0 0 18.883561775714043 57.953211010483386 0 57.953211010483386 101.72285208294304 0 0 0 0 73.50606012535718 -25.706980380834864 0 -25.706980380834864 78.641939509778013 0 0 0 0 -1.5484024548719617 1.0010994816021608 0 1.0010994816021608 2.1166449158264413 0 0 0 0 29.012429549969966 -50.037195297493213 0 -50.037195297493213 130.24937045776392 0 0 0 0 385.42819494529977 -117.83184389736448 0 -117.83184389736448 260.0928625112972 0 0 0 0 230.82235415151081 -121.75473250353639 0 -121.75473250353639 181.35835425561868 0 0 0 0 312.95586109816213 -32.282928533365521 0 -32.282928533365521 168.3771394965147 0 0 0 0 152.90012114038927 -57.508193534255021 0 -57.508193534255021 238.46718055308884 0 0 0 0 320.25980680451903 -47.784887492704229 0 -47.784887492704229 192.10324533917674 0 0 0 0 790.20563216358278 -81.904527510737751 0 -81.904527510737751 153.1732695163264 0 0 0 0 338.34745047430624 9.4030731566188024 0 9.4030731566188024 286.14840406428425 0 0 0 0 361.94151157140732 -168.12319557566798 0 -168.12319557566798 35.360705702593407 0 0 0 0 577.14956615292613 64.983072828483756 0 64.983072828483756 200.90100383358578 0 0 0 0 -93.557525366915797 -62.747800964898232 0 -62.747800964898232 277.45707122597332 0 0 0 0 -0.50072122552712983 0.87874431385959895 0 0.87874431385959895 0.39266567885474724 0 0 0 0 8.4734128349020317 5.8940642736003355 0 5.8940642736003355 -1.326715776524849 0 0 0 0 98.143865210106014 38.158280000618674 0 38.158280000618674 -31.441976505753019 0 0 0 0 -114.41458712095482 36.854133822994527 0 36.854133822994527 143.06608108084265 0 0 0 0 284.58845449483488 151.36478301452894 0 151.36478301452894 19.818069680561848 0 0 0 0 729.07473998490605 68.232461706403683 0 68.232461706403683 -16.5863140412946 0 0 0 0 591.01794331656129 -117.53937471404561 0 -117.53937471404561 82.47889726415724 0 0 0 0 12.533916414009582 34.264421037967537 0 34.264421037967537 32.881559550876716 0 0 0 0 46.108601474785246 74.340823693711201 0 74.340823693711201 -9.03530729130118 0 0 0 0 37.653523283603135 70.944504454606431 0 70.944504454606431 -10.03088233708138 0 0 0 0 105.38157091621542 52.636177286722926 0 52.636177286722926 23.998721940785458 0 0 0 0 56.31647808560956 53.781675489924936 0 53.781675489924936 -18.77862998836963 0 0 0 0 50.899825040920405 66.709799592271111 0 66.709799592271111 34.867823604030946 0 0 0 0 107.42657616418728 86.589484779434827 0 86.589484779434827 165.54069831179916 0 0 0 0 234.69163090352004 64.27067989227524 0 64.27067989227524 20.829538549054405 0 0 0 0 82.99758077865954 101.72233137523891 0 101.72233137523891 -28.685620283155458 0 0 0 0 78.97617422080657 23.363806858029307 0 23.363806858029307 10.117402187521805 0 0 0 0 70.828698714773054 85.365121046761487 0 85.365121046761487 -23.119816631344634 0 0 0 0 73.798189375936772 40.630328507183911 0 40.630328507183911 18.726955187332077 0 0 0 0 87.59674353407172 92.689686399528114 0 92.689686399528114 -62.302356457491896 0 0 0 0 88.59108100933372 82.269452170312434 0 82.269452170312434 -22.971751966740783 0 0 0 0 104.87190270236897 52.342805569229313 0 52.342805569229313 -22.390849591605729 0 0 0 0 58.447280632593902 52.85282093479691 0 52.85282093479691 -21.709204748957291 0 0 0 0 34.373945412458852 47.702184223598579 0 47.702184223598579 -20.260737566123453 0 0 0 0 47.555388536515238 55.193048041736802 0 55.193048041736802 29.392472557369729 0 0 0 0 85.07024437111977 52.251296939235544 0 52.251296939235544 20.953519859413063 0 0 0 0 57.751565972145954 37.905795176587432 0 37.905795176587432 19.904831532996145 0 0 0 0 47.195473672696949 70.000783407343476 0 70.000783407343476 9.9496525278027548 0 0 0 0 53.215283322791947 55.354476162189258 0 55.354476162189258 9.9857507558326688 0 0 0 0 59.514751811799215 40.479909256584051 0 40.479909256584051 36.518171170264395 0 0 0 0 69.52782632347953 53.232487657573074 0 53.232487657573074 44.866375562427493 0 0 0 0 132.73373621892824 45.463332047708718 0 45.463332047708718 17.969429093470353 0 0 0 0 97.215097193919064 66.652825455669699 0 66.652825455669699 31.744513503101189 0 0 0 0 744.92461178231315 -98.445815147128542 0 -98.445815147128542 -116.58346020738009 0 0 0 0 225.04472104797878 -13.916240788844902 0 -13.916240788844902 70.599054687655553 0 0 0 0 10.206748485610328 36.875935427983904 0 36.875935427983904 17.087375413376677 0 0 0 0 215.34311098942089 118.13037299495173 0 118.13037299495173 -110.4140008638451 0 0 0 0 -53.834076660161372 22.197369678216546 0 22.197369678216546 51.648990053609396 0 0 0 0 35.941638125914324 59.038694721282809 0 59.038694721282809 25.523172021658866 0 0 0 0 -6.6905088157164698 3.2386965802645094 0 3.2386965802645094 5.5872393951357449 0 0 0 0 391.13713543204358 91.432606290288959 0 91.432606290288959 -63.481906885635908 0 0 0 0 244.83586035924964 22.685613815346187 0 22.685613815346187 -18.983512286587484 0 0 0 0 144.70062508722913 -87.950569380491288 0 -87.950569380491288 38.043654315434651 0 0 0 0 251.64265419072763 -62.403281976307881 0 -62.403281976307881 57.043665689752743 0 0 0 0 867.84836576225644 -182.29542644550384 0 -182.29542644550384 -106.08642729842128 0 0 0 0 938.23506995197386 -218.04838266914476 0 -218.04838266914476 -107.08821333318822 0 0 0 0 1372.6771850669484 -20.849612396172347 0 -20.849612396172347 -190.29553683675204 0 0 0 0 890.17834138569015 -69.175539309625492 0 -69.175539309625492 -69.922396021848272 0 0 0 0 1697.7621564122383 -167.07190764669485 0 -167.07190764669485 -314.53598398754366 0 0 0 0 1427.4568331471692 -147.3915611668242 0 -147.3915611668242 -287.64783466700464 0 0 0 0 1736.4622006917562 -30.770755923982506 0 -30.770755923982506 -257.69292275261159 0 0 0 0 1367.6146832093145 11.467945794327534 0 11.467945794327534 -17.787767855939819 0 0 0 0 1252.957195733572 -143.26745760046128 0 -143.26745760046128 -163.22072882452869 0 0 0 0 940.48464690349647 118.88908473200331 0 118.88908473200331 -37.589247669188808 0 0 0 0 802.53899764997186 75.245395824029714 0 75.245395824029714 167.98140081609665 0 0 0 0 825.57200179096617 -91.782124990562806 0 -91.782124990562806 65.86102664015516 0 0 0 0 1229.2400836028537 3.398284917872104 0 3.398284917872104 -13.716544089725119 0 0 0 0 1788.7920101875352 -66.111660826842453 0 -66.111660826842453 300.30941661885498 0 0 0 0 1832.9362511279178 -91.983907843460088 0 -91.983907843460088 -84.533940311162496 0 0 0 0 1228.1737670046496 -10.041322124053806 0 -10.041322124053806 250.67150612134776 0 0 0 0 2004.2271815661079 -72.419586629102639 0 -72.419586629102639 10.22574585180314 0 0 0 0 1467.8062871584916 -14.031866988894308 0 -14.031866988894308 69.031103335486364 0 0 0 0 2156.8239392890027 -661.8122171765865 0 -661.8122171765865 551.22914179551481 0 0 0 0 1103.6326198424576 -136.81436601552576 0 -136.81436601552576 110.51181054361086 0 0 0 0 1246.7345533452171 84.204101060837729 0 84.204101060837729 128.12881175367434 0 0 0 0 2533.8950439784894 -376.07845965093554 0 -376.07845965093554 -261.79581827680414 0 0 0 0 3499.6660903230295 -5.9675601555548834 0 -5.9675601555548834 -587.22965007560401 0 0 0 0 4122.2306580378172 -541.77101825045429 0 -541.77101825045429 -633.02369796561311 0 0 0 0 6.9136604801307371 3.6190105172268261 0 3.6190105172268261 0.85947394569422686 0 0 0 0 1756.9509228098468 352.89655348158345 0 352.89655348158345 -48.392004754875643 0 0 0 0 10.111808666142281 9.4881520631284388 0 9.4881520631284388 8.7031104596493734 0 0 0 0 2924.3460635346128 -519.7584692658304 0 -519.7584692658304 -28.536041726914476 0 0 0 0 3218.1550662538066 -523.1849348431515 0 -523.1849348431515 -251.65454641350661 0 0 0 0 3499.2659795912768 -680.24835396776098 0 -680.24835396776098 -218.80383969428141 0 0 0 0 3085.8605579625073 -826.19125865768001 0 -826.19125865768001 113.33759639748061 0 0 0 0 2169.6977707958176 -290.07024893677931 0 -290.07024893677931 -108.04487779691453 0 0 0 0 1647.3992581115526 -318.92910267108846 0 -318.92910267108846 4.9180365719471411 0 0 0 0 1090.7576719444187 -4.3012927278286952 0 -4.3012927278286952 -172.6910893152608 0 0 0 0 1785.4407496246858 77.514885027605487 0 77.514885027605487 -293.90237920519394 0 0 0 0 1655.1331231012955 -96.069657183677919 0 -96.069657183677919 -431.62765241812303 0 0 0 0 3382.0303104641789 -912.79277463707081 0 -912.79277463707081 118.68084172131887 0 0 0 0 3500.0484990072509 -1108.2384711196651 0 -1108.2384711196651 346.1108570742652 0 0 0 0 2928.2975618399578 -1110.0255375540796 0 -1110.0255375540796 513.14991179230776 0 0 0 0 985.59490172871483 358.442363320494 0 358.442363320494 -136.32776222583925 0 0 0 0 11.529935191009223 9.3967061483793799 0 9.3967061483793799 24.911681654330462 0 0 0 0 3300.2913251309074 -1139.2510941363996 0 -1139.2510941363996 979.37261878151389 0 0 0 0 3240.1817671564204 -2005.1542474636567 0 -2005.1542474636567 741.52316398273342 0 0 0 0 4535.2589245866111 -1053.7185052534087 0 -1053.7185052534087 224.58277917673209 0 0 0 0 1.9191753252003991 6.7167678767835923 0 6.7167678767835923 7.0465692272030029 0 0 0 0 1164.5111036445742 179.62511695705325 0 179.62511695705325 -396.03408708026927 0 0 0 0 1244.6979232271697 409.36904560065523 0 409.36904560065523 -332.44746336382741 0 0 0 0 1240.2999467544723 192.48603385179558 0 192.48603385179558 -306.28033791755661 0 0 0 0 1718.3683855785348 412.43066748532874 0 412.43066748532874 -432.29461259455917 0 0 0 0 2133.5601131755975 -121.46672684012083 0 -121.46672684012083 -433.01280845821032 0 0 0 0 1844.0009772109916 354.03030775898515 0 354.03030775898515 -433.42469339691888 0 0 0 0 2482.8413625906542 836.81959498186552 0 836.81959498186552 -490.0045074824302 0 0 0 0 1608.2812804092828 997.60813823918761 0 997.60813823918761 -37.427771401471546 0 0 0 0 952.15321975492407 444.91629192192704 0 444.91629192192704 -22.41907252738747 0 0 0 0 175.46032729670696 2049.5722622825342 0 2049.5722622825342 2162.198198915703 0 0 0 0 -670.51887267679558 -267.69727517483261 0 -267.69727517483261 911.74747095531893 0 0 0 0 3633.0762016624358 1230.9077403975625 0 1230.9077403975625 -18.228884136381339 0 0 0 0 3499.8459460432023 -766.35178944188317 0 -766.35178944188317 214.88376001510679 0 0 0 0 8.4095411714772723 4.9254005830514274 0 4.9254005830514274 14.757925433955005 0 0 0 0 17.716152773258337 -17.517352692057926 0 -17.517352692057926 24.102276257447819 0 0 0 0 69.278143147588708 -86.184839654544859 0 -86.184839654544859 469.40742689254012 0 0 0 0 657.62755054784793 -453.92071548069362 0 -453.92071548069362 378.76054448806008 0 0 0 0 1474.6401816250363 -517.648320739876 0 -517.648320739876 -38.737007390640429 0 0 0 0 738.62262726855261 -308.08114926254211 0 -308.08114926254211 147.77015936974385 0 0 0 0 1575.6861005239261 -213.52937411738276 0 -213.52937411738276 -332.02446449043919 0 0 0 0 1704.0897500825013 -303.7178361194774 0 -303.7178361194774 -432.14894457492937 0 0 0 0 2717.4774562347957 -507.3552799111294 0 -507.3552799111294 -462.76008549539256 0 0 0 0 40.710582555566901 -9.0152473378499351 0 -9.0152473378499351 3.5829720201706614 0 0 0 0 1321.8562692590349 -1091.3709337008822 0 -1091.3709337008822 520.63026635835377 0 0 0 0 4004.1679122905543 -451.57342936466921 0 -451.57342936466921 -474.37474212311099 0 0 0 0 -127.62765247664356 -44.270683700676273 0 -44.270683700676273 249.94582777365213 0 0 0 0 684.07440094334743 901.22486141045499 0 901.22486141045499 130.76209417589996 0 0 0 0 2549.2831647200073 994.38176707144157 0 994.38176707144157 -100.57179785053313 0 0 0 0 2268.4206287631023 126.93153258473762 0 126.93153258473762 44.56559682893112 0 0 0 0 4213.0084938840955 581.55485218185879 0 581.55485218185879 -294.90530402705429 0 0 0 0 3494.0813131505674 1500.9199611114609 0 1500.9199611114609 -354.84713903059372 0 0 0 0 1451.4186833019812 1829.8599060123856 0 1829.8599060123856 1205.767604378533 0 0 0 0 4583.0338703279049 -585.63276907880572 0 -585.63276907880572 -607.62857601943233 0 0 0 0 445.61973528404269 328.68159025834456 0 328.68159025834456 379.71338783389217 0 0 0 0 19.301467543425247 -23.809805623057244 0 -23.809805623057244 23.012851740679245 0 0 0 0 2303.7329555766119 -83.961153721923893 0 -83.961153721923893 -553.23915420856292 0 0 0 0 2160.2590698667555 835.43135369197853 0 835.43135369197853 -206.01198544853332 0 0 0 0 2203.312537318172 770.35145146508398 0 770.35145146508398 -466.19098637309776 0 0 0 0 3500.6241161536068 469.09485064247326 0 469.09485064247326 -529.13799257549601 0 0 0 0 2375.7048621778558 -18.093672876491553 0 -18.093672876491553 -462.56008276035476 0 0 0 0 2497.4623448798666 -351.1293027294779 0 -351.1293027294779 163.96252458825899 0 0 0 0 762.75793963338219 -36.849289028971 0 -36.849289028971 125.3016352167628 0 0 0 0 10.326152881683996 -8.445353605216944 0 -8.445353605216944 7.1563834317180559 0 0 0 0 883.34420335521281 -100.34324816758249 0 -100.34324816758249 860.34455242950014 0 0 0 0 2209.9582493912822 600.37311342832447 0 600.37311342832447 -6.0638184331321554 0 0 0 0 2985.4636307294095 -240.57331885485507 0 -240.57331885485507 -310.99417810943783 0 0 0 0 1917.5147959368678 -108.88797389630587 0 -108.88797389630587 -264.59392895929784 0 0 0 0 1976.6907745836779 1.7204538229050854 0 1.7204538229050854 -63.733994279412514 0 0 0 0 596.31672712376167 501.02053717400884 0 501.02053717400884 135.17128505804146 0 0 0 0 1250.9757206211616 79.163732785817558 0 79.163732785817558 -55.5862755972787 0 0 0 0 677.60615387205689 -107.65722218077917 0 -107.65722218077917 160.01126592891285 0 0 0 0 1947.2690457628196 -250.84904059363009 0 -250.84904059363009 -129.3530053610109 0 0 0 0 1895.6946691779526 -484.31744286003203 0 -484.31744286003203 -111.76819534799438 0 0 0 0 3501.7383629452816 -833.77577834898273 0 -833.77577834898273 -466.37830493628536 0 0 0 0 3498.2164951288178 -291.96665390429126 0 -291.96665390429126 -431.68895366847948 0 0 0 0 2585.37558181645 -614.24306182924965 0 -614.24306182924965 -451.95198373572919 0 0 0 0 2640.7479993366251 -382.97772294962408 0 -382.97772294962408 -310.09492650882646 0 0 0 0 36.601545559802616 -57.198586946358432 0 -57.198586946358432 35.777338011165327 0 0 0 0 35.398837505323172 -24.610763809961156 0 -24.610763809961156 217.0579526723096 0 0 0 0 -23.428396478015202 -79.746558165129926 0 -79.746558165129926 138.52501711702692 0 0 0 0 0.47778929439921569 0.56123363543362359 0 0.56123363543362359 0.65865334527845698 0 0 0 0 51.91151325955434 120.42781443868071 0 120.42781443868071 41.087291383665502 0 0 0 0 222.48023953315715 33.3662877329038 0 33.3662877329038 121.50699811167709 0 0 0 0 32.776820137594768 69.561525562915321 0 69.561525562915321 226.64217506591817 0 0 0 0 679.60799654464427 -34.240861963602129 0 -34.240861963602129 151.76245004715537 0 0 0 0 249.46095947318463 120.7149227885771 0 120.7149227885771 282.6496205258843 0 0 0 0 580.40601615327114 51.746822391935851 0 51.746822391935851 108.56917812330062 0 0 0 0 205.7762676644852 -39.062913223500743 0 -39.062913223500743 276.0822111163335 0 0 0 0 179.85204916441216 10.567849298621653 0 10.567849298621653 183.35557048147399 0 0 0 0 -49.787248134885886 -84.569301977546985 0 -84.569301977546985 199.74677815640752 0 0 0 0 200.22835203166323 127.58518629636808 0 127.58518629636808 123.79561155409692 0 0 0 0 -4.3610352819814437 -0.7660404384701387 0 -0.7660404384701387 0.42199637015495656 0 0 0 0 690.96596144754585 443.07035450856597 0 443.07035450856597 -115.1917115622939 0 0 0 0 151.45774225957575 138.83110519959257 0 138.83110519959257 568.9096262966807 0 0 0 0 -400.02313715108085 -784.37731974152871 0 -784.37731974152871 299.1615280515914 0 0 0 0 -424.43536071514245 654.61714204778991 0 654.61714204778991 139.20895166472383 0 0 0 0 152.52283526462998 105.84593658189226 0 105.84593658189226 -441.27791204839798 0 0 0 0 -7.3587176000148986 -3.9847541931212369 0 -3.9847541931212369 -1.0145130488702487 0 0 0 0 32.053647769185773 -72.425255018136568 0 -72.425255018136568 72.690169833921999 0 0 0 0 21.219940199498524 -77.513852923502753 0 -77.513852923502753 132.31594149982843 0 0 0 0 12.788563827001781 -88.987732694591301 0 -88.987732694591301 155.13549358090037 0 0 0 0 -5.0966406946652114 -4.0929647518180943 0 -4.0929647518180943 -1.8720963422059025 0 0 0 0 108.97654526897077 -162.94193981984694 0 -162.94193981984694 -160.45420417896798 0 0 0 0 212.86793153382678 18.949776412807012 0 18.949776412807012 -332.44190979164853 0 0 0 0 47.946287424754701 -2.475760493596681 0 -2.475760493596681 -31.109651472609357 0 0 0 0 43.098544009455509 88.311388465614527 0 88.311388465614527 -206.09128011968636 0 0 0 0 51.187603278104007 -4.5520370719179404 0 -4.5520370719179404 -6.0114698752745355 0 0 0 0 82.619127272275364 45.230298139854654 0 45.230298139854654 17.358130183854428 0 0 0 0 32.698912531295719 10.076351948735237 0 10.076351948735237 19.395036105471718 0 0 0 0 16.80665590555509 -361.87414048388155 0 -361.87414048388155 -940.18285608768929 0 0 0 0 70.908886109860759 111.73775841050656 0 111.73775841050656 693.02299261033068 0 0 0 0 641.61574811314426 -724.96451983312522 0 -724.96451983312522 -340.40059814084907 0 0 0 0 -19.205223443685099 152.99116349427996 0 152.99116349427996 -269.48244598588525 0 0 0 0 -815.50081649678032 -443.72758921576633 0 -443.72758921576633 92.79963954141931 0 0 0 0 22.19892022365568 -5.014323917289957 0 -5.014323917289957 -13.485613519963779 0 0 0 0 131.77909661984813 -305.02178437677594 0 -305.02178437677594 -577.67040036345679 0 0 0 0 107.23306539427307 -21.692829851061305 0 -21.692829851061305 -4.7482934605510927 0 0 0 0 254.39686282508046 120.64209755626598 0 120.64209755626598 -344.80027190213286 0 0 0 0 29.181230914376783 5.0437728861089965 0 5.0437728861089965 -5.7913586906252021 0 0 0 0 26.65792453304293 30.389467456434801 0 30.389467456434801 -37.767331409237656 0 0 0 0 71.554520964127732 79.418219678411333 0 79.418219678411333 -51.889158215179123 0 0 0 0 0.42572741561313432 35.831611420407881 0 35.831611420407881 -9.5492929826030277 0 0 0 0 12.486765423806446 42.264766008984225 0 42.264766008984225 8.2168404867970821 0 0 0 0 -50.535033464512708 76.558098832199789 0 76.558098832199789 91.25192513661932 0 0 0 0 159.96143654892512 81.250862440309902 0 81.250862440309902 -51.854392402311305 0 0 0 0 74.734908439655555 -42.900793674769375 0 -42.900793674769375 227.13995686698945 0 0 0 0 101.7153535108082 28.060976790799941 0 28.060976790799941 1.1888008678183724 0 0 0 0 58.781588389472745 20.184019616125852 0 20.184019616125852 -6.7429325903813151 0 0 0 0 25.486126445859554 28.147506614852318 0 28.147506614852318 22.631222722044186 0 0 0 0 46.28814136753499 35.478002644803382 0 35.478002644803382 -23.68672179035093 0 0 0 0 102.02772552120587 26.233397144172613 0 26.233397144172613 24.351748926159416 0 0 0 0 65.77871219665758 45.231952076632126 0 45.231952076632126 23.710969210502299 0 0 0 0 189.12769419548567 58.877987261730595 0 58.877987261730595 21.71363643634686 0 0 0 0 148.85129222446994 50.446147710499645 0 50.446147710499645 26.239981884799818 0 0 0 0 145.17588812452595 54.394508521769922 0 54.394508521769922 25.418842054972629 0 0 0 0 177.57044810648949 60.944261043008737 0 60.944261043008737 20.057925622701077 0 0 0 0 147.63620527219609 49.256540671507537 0 49.256540671507537 13.745018925118529 0 0 0 0 134.3536540074092 61.441896861489113 0 61.441896861489113 22.35975708019032 0 0 0 0 94.12240999880305 48.630328748603006 0 48.630328748603006 24.271489681632829 0 0 0 0 154.56961477613368 54.142444496250391 0 54.142444496250391 13.039635927290874 0 0 0 0 146.40772025955084 63.544828276226326 0 63.544828276226326 16.459419384957982 0 0 0 0 181.66838976071449 69.46811540046383 0 69.46811540046383 -11.591450652500725 0 0 0 0 167.90236478063161 66.475348964805562 0 66.475348964805562 15.115491745278632 0 0 0 0 198.42875762156473 50.486420150035428 0 50.486420150035428 24.559073521530081 0 0 0 0 199.52134352721623 52.701032588326598 0 52.701032588326598 4.0144524647548678 0 0 0 0 205.14592020499231 83.414347593453044 0 83.414347593453044 28.495849931900011 0 0 0 0 183.94553935949807 74.044238080332434 0 74.044238080332434 28.731215267375774 0 0 0 0 -119.36856195909786 -74.687868414375771 0 -74.687868414375771 -46.657932024834736 0 0 0 0 262.87741271930281 82.078261864400702 0 82.078261864400702 37.015891299115538 0 0 0 0 183.47259983523691 69.973373799313777 0 69.973373799313777 54.802046587326913 0 0 0 0 173.00056946063705 58.872705469722405 0 58.872705469722405 26.400700648151542 0 0 0 0 173.34619632773683 75.746108902966625 0 75.746108902966625 35.978007052344765 0 0 0 0 198.73811515420675 74.70879912849523 0 74.70879912849523 26.14178352611998 0 0 0 0 176.31590633648739 76.382970995836786 0 76.382970995836786 33.18072448557723 0 0 0 0 194.44438172275841 80.453115286288721 0 80.453115286288721 37.193188029546945 0 0 0 0 -174.78766243750579 -19.66820743370954 0 -19.66820743370954 -34.957002810257563 0 0 0 0 -66.64293322260346 9.3913271799094673 0 9.3913271799094673 -62.125626500459475 0 0 0 0 6.793635678907826 0.69233847965341511 0 0.69233847965341511 -1.9316207085590804 0 0 0 0 -8.498586391840945 -45.851225811343284 0 -45.851225811343284 -59.180362452774716 0 0 0 0 39.123563501992592 -25.027295275687734 0 -25.027295275687734 -13.924585969988627 0 0 0 0 0.42675784229574276 -1.9483943052183577 0 -1.9483943052183577 -2.1529920284807194 0 0 0 0 148.07014690666983 132.33107275132932 0 132.33107275132932 98.279463272494468 0 0 0 0 -50.588241979738086 -41.991064441659319 0 -41.991064441659319 101.30496426078116 0 0 0 0 63.557893033736036 -39.989391258201977 0 -39.989391258201977 7.5091257821586623 0 0 0 0 66.130262838003091 -0.35130628292930055 0 -0.35130628292930055 64.290190464826992 0 0 0 0 227.59857420544722 -160.91107882248343 0 -160.91107882248343 213.14290418705605 0 0 0 0 324.45446575275855 -56.037888853905315 0 -56.037888853905315 25.516585223973152 0 0 0 0 -115.31923440356331 -18.711698401887134 0 -18.711698401887134 91.175714122029149 0 0 0 0 62.676897177123465 -37.173422795651732 0 -37.173422795651732 -67.403566422304721 0 0 0 0 51.365809939721657 -83.645593702056431 0 -83.645593702056431 187.13901219154468 0 0 0 0 197.52080616055355 42.606112247475323 0 42.606112247475323 -43.801889593502892 0 0 0 0 -144.95370880275732 -108.76154919216015 0 -108.76154919216015 45.240166564519541 0 0 0 0 19.194295149136664 -18.564373859815944 0 -18.564373859815944 -4.5727076713060377 0 0 0 0 -154.12962096517731 -82.397557964148291 0 -82.397557964148291 -29.548164323665333 0 0 0 0 127.32162970920399 56.609827300543429 0 56.609827300543429 47.940469302463043 0 0 0 0 222.34118774261151 98.752601749966175 0 98.752601749966175 -65.737831453946058 0 0 0 0 136.75151558477501 84.823294593667612 0 84.823294593667612 59.757882573412644 0 0 0 0 178.15348222506145 93.500913035614758 0 93.500913035614758 -78.482983102880098 0 0 0 0 20.627554021179094 -167.09060819914657 0 -167.09060819914657 -20.058585225461911 0 0 0 0 140.480880322518 -312.83690376950972 0 -312.83690376950972 -214.03585896453046 0 0 0 0 23.384666284108874 -23.205194391936537 0 -23.205194391936537 5.8181547106171312 0 0 0 0 -24.30657062395403 -56.887741665585509 0 -56.887741665585509 52.87127386688735 0 0 0 0 -0.0020519025468956897 -0.015621917536748242 0 -0.015621917536748242 -1.399561101005359 0 0 0 0 66.163138109011925 -89.175156530931645 0 -89.175156530931645 -10.252659796057515 0 0 0 0 18.226066483973376 -26.531380475112122 0 -26.531380475112122 10.918344096629012 0 0 0 0 -359.52754647613256 -154.9478392646314 0 -154.9478392646314 512.12242648524716 0 0 0 0 775.27721267221932 -68.342822011909362 0 -68.342822011909362 -358.65136301353544 0 0 0 0 714.44605965337541 262.48636872956172 0 262.48636872956172 -229.59881334837806 0 0 0 0 359.1810119187794 366.70846353315716 0 366.70846353315716 262.23163704857416 0 0 0 0 305.18191021385428 -282.15421445272119 0 -282.15421445272119 -185.20047274234281 0 0 0 0 -188.70358275157923 -180.72344531347551 0 -180.72344531347551 -187.58104560303664 0 0 0 0 10.623410207063145 0.041235139733563742 0 0.041235139733563742 -0.56817422978087917 0 0 0 0 181.34012114370853 323.09575641273761 0 323.09575641273761 397.90517375597079 0 0 0 0 -1.5258519174146983 -1.6882704627106779 0 -1.6882704627106779 -1.0459155750538229 0 0 0 0 30.119276566137898 -4.0531116071839772 0 -4.0531116071839772 0.5955514943170408 0 0 0 0 54.925973192446691 -27.437285768869856 0 -27.437285768869856 -423.45583243180943 0 0 0 0 163.78638412511282 -38.588340181663796 0 -38.588340181663796 -562.12992880186198 0 0 0 0 86.966299326682929 8.8932565693658034 0 8.8932565693658034 -7.0889194802255133 0 0 0 0 30.836799852389959 24.296803672003989 0 24.296803672003989 78.777129649839935 0 0 0 0 87.15318820309767 41.867002779266386 0 41.867002779266386 18.370122236838597 0 0 0 0 144.86531506061147 100.23807313444524 0 100.23807313444524 65.538438427887286 0 0 0 0 181.62230109744269 90.590490240652798 0 90.590490240652798 -6.0469820323265253 0 0 0 0 205.62370954603284 116.98519352758257 0 116.98519352758257 19.431723793782112 0 0 0 0 267.8260484769562 191.13485084927788 0 191.13485084927788 -15.408045230575681 0 0 0 0 85.45398732531612 137.59749667054211 0 137.59749667054211 298.16491633878627 0 0 0 0 11.828912001203207 1.833253720181915 0 1.833253720181915 2.3252437224728055 0 0 0 0 12.967206979097682 4.4247578079471168 0 4.4247578079471168 4.0367098772076133 0 0 0 0 13.050170667367638 2.1536002894008561 0 2.1536002894008561 1.3238550572555141 0 0 0 0 11.984963038729916 0.70725901488330933 0 0.70725901488330933 0.2272351436831741 0 0 0 0 34.493463107457501 14.972028511641156 0 14.972028511641156 -5.3731230532584959 0 0 0 0 11.984900908740769 0.70037711559253069 0 0.70037711559253069 2.6267702630984786 0 0 0 0 8.088440596460714 -5.0698243730771537 0 -5.0698243730771537 -3.9978128484053741 0 0 0 0 9.6163248000886199 -0.79976300481128337 0 -0.79976300481128337 0.03702441451822458 0 0 0 0 38.212834574107546 -19.516377458626266 0 -19.516377458626266 29.005373293795856 0 0 0 0 22.031270436727937 -48.503958306606705 0 -48.503958306606705 51.222743624167379 0 0 0 0 -9.7740144590497948 -11.025238415600143 0 -11.025238415600143 10.667653740195419 0 0 0 0 5.111362715326095 6.8074122721222778 0 6.8074122721222778 20.334880321019227 0 0 0 0 4.8755257466400508 1.6000750708044507 0 1.6000750708044507 3.0678847809813306 0 0 0 0 7.1098605652950937 17.184192135680405 0 17.184192135680405 7.6170566137775495 0 0 0 0 7.0832360276399413 21.028329724607829 0 21.028329724607829 19.652104794018669 0 0 0 0 27.684851272846572 34.314915397258574 0 34.314915397258574 -9.0201301166916892 0 0 0 0 20.329203327331925 19.463566284680383 0 19.463566284680383 2.9985453853030322 0 0 0 0 20.757263278739629 36.139876396067052 0 36.139876396067052 47.917179299078271 0 0 0 0 95.547700320952572 38.415727964026701 0 38.415727964026701 6.9783135889974801 0 0 0 0 19.525801656986005 29.200751287651997 0 29.200751287651997 24.681758714714306 0 0 0 0 7.1035940443107393 -74.785246666607804 0 -74.785246666607804 217.31714410839731 0 0 0 0 46.763653008703841 47.955137839646341 0 47.955137839646341 79.072544442400158 0 0 0 0 3.3521507507815045 -0.67515088256730849 0 -0.67515088256730849 0.13416748763208342 0 0 0 0 -16.078924549787189 2.2209714427435756 0 2.2209714427435756 61.554364102927138 0 0 0 0 9.5537092430167831 -25.986455509964799 0 -25.986455509964799 46.710814597815443 0 0 0 0 132.98627234431842 -131.39586275967713 0 -131.39586275967713 110.29235244187112 0 0 0 0 151.50938460018369 67.043884008434361 0 67.043884008434361 53.093148126795313 0 0 0 0 357.96183281553385 -62.025929670859796 0 -62.025929670859796 -32.065577218341787 0 0 0 0 207.88958191627171 -47.378921091322809 0 -47.378921091322809 -33.024613294016945 0 0 0 0 280.91246911764028 30.194891100417408 0 30.194891100417408 4.4957670645762846 0 0 0 0 93.853995658486383 16.306541864789324 0 16.306541864789324 3.6975885540405216 0 0 0 0 215.06351854684181 -31.832394311579264 0 -31.832394311579264 -26.619131803459823 0 0 0 0 32.813059951149626 -35.81220740523986 0 -35.81220740523986 -25.291167109395928 0 0 0 0 68.944879554022918 -3.9336158313872147 0 -3.9336158313872147 -40.395234179609361 0 0 0 0 179.57229766859382 -126.06841538970548 0 -126.06841538970548 -100.39923933098908 0 0 0 0 328.16046107707007 -81.538663330586189 0 -81.538663330586189 -89.527556571343666 0 0 0 0 1.6625252629967378 -1.1714846085830715 0 -1.1714846085830715 0.63851754618036161 0 0 0 0 206.36962977351504 -138.5081452383256 0 -138.5081452383256 -132.16003415168507 0 0 0 0 446.57949103346618 209.70321580823133 0 209.70321580823133 -78.692722863655945 0 0 0 0 610.55828729047789 -94.668523505636131 0 -94.668523505636131 -284.06626134964881 0 0 0 0 -47.016185894348382 -8.823633634413909 0 -8.823633634413909 -24.906708150352642 0 0 0 0 -15.385309346747817 -138.24602850792144 0 -138.24602850792144 -62.617774794786328 0 0 0 0 118.31966096695396 35.564850725452743 0 35.564850725452743 27.405337145916747 0 0 0 0 102.90526462826529 81.333991532291293 0 81.333991532291293 16.654250280513224 0 0 0 0 223.64020563522354 166.8077326743396 0 166.8077326743396 84.237463561295954 0 0 0 0 94.537379727640655 73.801420125483673 0 73.801420125483673 102.31304029820683 0 0 0 0 7.4093519835599722 -1.7113065456539545 0 -1.7113065456539545 -4.7756321884285864 0 0 0 0 128.53354499672423 -1.6024725018182835 0 -1.6024725018182835 -68.420658144682875 0 0 0 0 89.209029834913963 -24.494154622201449 0 -24.494154622201449 -4.0978706409232473 0 0 0 0 111.64872577774804 -4.7105836422929315 0 -4.7105836422929315 -15.390127485031371 0 0 0 0 146.43606113072019 -6.5136510428619658 0 -6.5136510428619658 -20.564037466298032 0 0 0 0 124.87801545855473 1.0066696320972142 0 1.0066696320972142 55.09749349212143 0 0 0 0 4.838815216353197 -3.1911166034408325 0 -3.1911166034408325 2.4084996505108229 0 0 0 0 -0.03259399151619391 -0.062128460484316861 0 -0.062128460484316861 1.2155891769626885 0 0 0 0 109.38042833110921 -23.213158926058327 0 -23.213158926058327 14.350635857230372 0 0 0 0 8.5946411468030419 -19.227335568778471 0 -19.227335568778471 -36.795186524297606 0 0 0 0 47.814644550424418 30.397723254682205 0 30.397723254682205 9.2621204701342776 0 0 0 0 122.48455881436166 42.426807601949918 0 42.426807601949918 6.2792084010898179 0 0 0 0 12.987774335571771 -4.0097010076598565 0 -4.0097010076598565 -0.46705295327148999 0 0 0 0 6.8348331500000938 1.9292084693605887 0 1.9292084693605887 -2.3453576774272626 0 0 0 0 8.0240239606996511 -14.294991228249387 0 -14.294991228249387 -13.587138535523991 0 0 0 0 20.726417362879147 4.5475690255107111 0 4.5475690255107111 -25.663515638991157 0 0 0 0 13.758093318487226 6.4204319863652017 0 6.4204319863652017 -18.466209334740597 0 0 0 0 14.917201239979477 10.061338866141796 0 10.061338866141796 -55.397006530175076 0 0 0 0 19.009579848319845 9.269438563248741 0 9.269438563248741 -24.034804546236046 0 0 0 0 18.096917861854308 1.676207066273264 0 1.676207066273264 -1.5477977942091456 0 0 0 0 13.858916646277066 10.472494585755612 0 10.472494585755612 0.53665561427942521 0 0 0 0 20.148389316671455 14.233375422723384 0 14.233375422723384 -8.6588573097433255 0 0 0 0 13.763799697646277 5.9148789943079478 0 5.9148789943079478 1.5838675480008533 0 0 0 0 21.273953894298756 0.27418998179655318 0 0.27418998179655318 -13.000774636113192 0 0 0 0 22.188629403550294 -10.433312316587944 0 -10.433312316587944 -4.0439667974192162 0 0 0 0 8.7132723267384478 0.30756818666812791 0 0.30756818666812791 -1.7830293660444632 0 0 0 0 4.9777803282981949 -10.742202518943714 0 -10.742202518943714 0.66811828200343371 0 0 0 0 19.062370421197556 -2.187119653094669 0 -2.187119653094669 -1.9124332493838665 0 0 0 0 3.5379541395273009 8.6726552157508081 0 8.6726552157508081 -1.2482922999506627 0 0 0 0 16.376885088881409 0.64354446565045009 0 0.64354446565045009 1.7619864273083294 0 0 0 0 7.1780342165135949 4.0636864400670376 0 4.0636864400670376 -0.93182913994730754 0 0 0 0 -2.2479063939790649 4.7847504160893095 0 4.7847504160893095 3.9623685213630324 0 0 0 0 16.073123015725287 3.2166145054011395 0 3.2166145054011395 -2.7128076492399487 0 0 0 0 31.929003386927434 9.2103260415357369 0 9.2103260415357369 -22.035323828761875 0 0 0 0 4.8494173875878914 -22.674476552844126 0 -22.674476552844126 14.7256014945483 0 0 0 0 -20.00172417327849 5.795857042165153 0 5.795857042165153 4.9426123772382198 0 0 0 0 -9.4459827488171868 -6.8561192705094527 0 -6.8561192705094527 2.6712139332958031 0 0 0 0 11.389949534968139 -5.5341972653739973 0 -5.5341972653739973 2.1608972943524307 0 0 0 0 14.974771527646226 -12.989451787853568 0 -12.989451787853568 -9.5088421149605438 0 0 0 0 13.096956486813724 -1.3592507937337359 0 -1.3592507937337359 -3.4090084031267907 0 0 0 0 15.703870916994475 -6.848337916707834 0 -6.848337916707834 -1.2409556805343565 0 0 0 0 28.227947485087498 5.1089586410941479 0 5.1089586410941479 4.5056919937101156 0 0 0 0 11.238609055713724 -4.9983630908669952 0 -4.9983630908669952 -3.1564630585175157 0 0 0 0 23.406622187401808 2.1169867646068496 0 2.1169867646068496 5.3206715136452658 0 0 0 0 29.481868838422997 -0.65591902713245531 0 -0.65591902713245531 6.5733667940307896 0 0 0 0 41.602926664938423 -18.152726583655067 0 -18.152726583655067 0.34635353729436247 0 0 0 0 15.325667952517222 9.2231843839693965 0 9.2231843839693965 -0.12202651396111897 0 0 0 0 26.194273291032005 28.268205498583484 0 28.268205498583484 4.2167408689938384 0 0 0 0 20.563609188095143 -5.8793561635997094 0 -5.8793561635997094 -0.05958815635085557 0 0 0 0 77.713855716778198 14.951458765300572 0 14.951458765300572 0.58581282796859568 0 0 0 0 85.234119349690445 -22.588069992242026 0 -22.588069992242026 46.172582609661276 0 0 0 0 90.957432781702664 -18.439891447272885 0 -18.439891447272885 9.2537106465069883 0 0 0 0 110.27058448366006 -2.6567446572180415 0 -2.6567446572180415 -9.4634618588788726 0 0 0 0 174.00491250355844 15.087096969405138 0 15.087096969405138 -8.1578615529649596 0 0 0 0 -7.4488408448798538 0.11626294787708957 0 0.11626294787708957 2.3825141069298308 0 0 0 0 89.588327165132796 -28.222869679869689 0 -28.222869679869689 5.9600449315885271 0 0 0 0 80.651528333597525 5.2285173991772353 0 5.2285173991772353 -8.0006040054162639 0 0 0 0 86.402253643289441 3.2281147609846244 0 3.2281147609846244 -14.969789611669285 0 0 0 0 71.500036757293856 -15.498609741499877 0 -15.498609741499877 12.135314264058252 0 0 0 0 15.362914143092979 -23.577500942458208 0 -23.577500942458208 4.4495095138422966 0 0 0 0 24.375617509963718 7.0536234408537197 0 7.0536234408537197 0.36154651606029375 0 0 0 0 84.114921201929974 16.188562010732412 0 16.188562010732412 13.222144279323686 0 0 0 0 43.227127085001484 10.335189244318656 0 10.335189244318656 -0.21278314303299339 0 0 0 0 -2.5260894954834185 -4.8819745631596234 0 -4.8819745631596234 2.4348326830378642 0 0 0 0 54.515804094779014 20.348295592212665 0 20.348295592212665 25.088928661425939 0 0 0 0 26.054165287961951 -20.178956402328851 0 -20.178956402328851 11.371988067698567 0 0 0 0 7.5385255408764351 -2.1855687795364247 0 -2.1855687795364247 -3.8917351966083515 0 0 0 0 11.765646690759869 -2.2067563072996776 0 -2.2067563072996776 2.5854551005606363 0 0 0 0 31.870238522793699 -12.383994341927806 0 -12.383994341927806 -4.6343551298411221 0 0 0 0 26.911107156620218 2.5055653379803928 0 2.5055653379803928 -0.7881994404940853 0 0 0 0 3.3141168343700684 -1.1355667991592426 0 -1.1355667991592426 -0.44797859299486376 0 0 0 0 31.301219662076619 7.7733107594875719 0 7.7733107594875719 11.540951524728825 0 0 0 0 121.65141789046902 49.961208838309119 0 49.961208838309119 16.786871356450774 0 0 0 0 5.5479823930974916 1.7466843643241319 0 1.7466843643241319 5.8313513424404793 0 0 0 0 91.48663357620535 6.5204616993399469 0 6.5204616993399469 0.031271944305444777 0 0 0 0 34.942162841882237 7.5680803746073479 0 7.5680803746073479 9.7089551985257003 0 0 0 0 106.84160803954728 14.914148201957261 0 14.914148201957261 -15.741233201729756 0 0 0 0 22.291376078544999 8.5888395860740729 0 8.5888395860740729 4.7221842672881849 0 0 0 0 34.460762026094017 9.7841468957534516 0 9.7841468957534516 -0.35835801593680117 0 0 0 0 26.028535227041175 10.453180263432131 0 10.453180263432131 5.9952077975740394 0 0 0 0 26.633331301669386 -0.67988379648039654 0 -0.67988379648039654 -1.7484773113341703 0 0 0 0 37.636168828234076 8.0274775422913081 0 8.0274775422913081 2.5306797619593908 0 0 0 0 24.364644135970664 2.1764470333675128 0 2.1764470333675128 -0.40834749807441462 0 0 0 0 23.678051129446231 0.31323020187474526 0 0.31323020187474526 -2.0487061689951926 0 0 0 0 25.746371654304312 2.8427663379472321 0 2.8427663379472321 -2.0390923672019312 0 0 0 0 22.567115489960997 2.6965203280132073 0 2.6965203280132073 5.3321819889252566 0 0 0 0 24.822491161328799 9.7861337088222626 0 9.7861337088222626 -4.0268488578713004 0 0 0 0 27.500699877529769 1.8600944650910378 0 1.8600944650910378 -11.392740660828622 0 0 0 0 27.002287838098709 7.5131566239133463 0 7.5131566239133463 -2.1862752648407877 0 0 0 0 34.729960443535674 6.6906713894716177 0 6.6906713894716177 -50.362884219268835 0 0 0 0 22.109947056250292 -2.5910070340544689 0 -2.5910070340544689 -1.3859200407929071 0 0 0 0 20.05222764712471 -1.5653601840072895 0 -1.5653601840072895 -18.237256949686753 0 0 0 0 13.58343443324253 -4.7597117164837286 0 -4.7597117164837286 -0.0036413477526398008 0 0 0 0 22.580521743660483 2.6752868882039342 0 2.6752868882039342 4.1726451904556967 0 0 0 0 30.228984942099487 -100.41331318127992 0 -100.41331318127992 131.96265176325042 0 0 0 0 153.66956905201755 -24.239698787032879 0 -24.239698787032879 -7.2652310592750382 0 0 0 0 0.46217280223407897 0.30943566630510588 0 0.30943566630510588 0.54490526247050763 0 0 0 0 39.23623073152703 -76.488371773653455 0 -76.488371773653455 130.80675789449288 0 0 0 0 34.023707348580501 -55.149968892447149 0 -55.149968892447149 153.51015726443092 0 0 0 0 -5.9621123880788218 -103.17695635350299 0 -103.17695635350299 219.70403290060918 0 0 0 0 192.69032001672167 -82.5153058603766 0 -82.5153058603766 126.77642140805145 0 0 0 0 -119.37430982359365 -282.8898298798739 0 -282.8898298798739 -0.69777704455759704 0 0 0 0 274.93595155166986 -294.95118698702629 0 -294.95118698702629 -189.40136874077501 0 0 0 0 456.30005397661262 -59.596118884466449 0 -59.596118884466449 -41.360318356039443 0 0 0 0 285.41304021604446 169.39196716803556 0 169.39196716803556 -22.902539858849362 0 0 0 0 -32.229393368371348 57.50306325963043 0 57.50306325963043 29.709860619545708 0 0 0 0 164.16566349592904 -16.632634329864942 0 -16.632634329864942 -53.844555654865189 0 0 0 0 136.85526462159214 17.448616836937163 0 17.448616836937163 16.807229435725958 0 0 0 0 155.71541846848413 14.169082283659762 0 14.169082283659762 -58.940514522794686 0 0 0 0 141.47431500545645 24.079772624606136 0 24.079772624606136 -20.363636949022748 0 0 0 0 137.45627220839378 -6.283503185262191 0 -6.283503185262191 -5.2744763329659605 0 0 0 0 144.63919435796197 7.6084910616658448 0 7.6084910616658448 -16.443885559435557 0 0 0 0 206.35895671767503 8.3754258860065534 0 8.3754258860065534 -13.667829297771846 0 0 0 0 149.45483848004369 81.332402335650102 0 81.332402335650102 59.743698169170614 0 0 0 0 146.64712657112977 3.876718153431284 0 3.876718153431284 -9.6352466018693121 0 0 0 0 153.2909700600394 5.6493943827493212 0 5.6493943827493212 -19.620433824072848 0 0 0 0 147.50603741080704 9.5570875213144575 0 9.5570875213144575 -21.820757207573905 0 0 0 0 147.94052662610011 5.9101592255994078 0 5.9101592255994078 -19.770113906109827 0 0 0 0 149.68388132277323 12.44411890492637 0 12.44411890492637 -27.005209884410192 0 0 0 0 114.08035397094864 -6.1378779061084572 0 -6.1378779061084572 -18.442908059237197 0 0 0 0 138.65906803366306 21.096668948464014 0 21.096668948464014 -7.0514164063531091 0 0 0 0 119.11222162942067 16.871478025762386 0 16.871478025762386 -7.4402817537883834 0 0 0 0 54.021526540269406 -29.450254989159518 0 -29.450254989159518 -3.8527584666250903 0 0 0 0 16.219380795864708 28.135468163350424 0 28.135468163350424 19.500510004933272 0 0 0 0 -4.9750606502757364 -22.828078901004844 0 -22.828078901004844 83.183687438847727 0 0 0 0 0.72584032184444425 0.96237773080358835 0 0.96237773080358835 1.2740325955085838 0 0 0 0 13.470139870318235 6.3485880570433153 0 6.3485880570433153 26.108965477307741 0 0 0 0 7.6739640046145041 38.445063565670992 0 38.445063565670992 68.387902675275484 0 0 0 0 7.7227842450724893 39.492109875064436 0 39.492109875064436 34.103536817887118 0 0 0 0 58.410665276096552 43.807847842668991 0 43.807847842668991 -63.370578520513618 0 0 0 0 64.194603850075509 31.156508754279628 0 31.156508754279628 -38.479294398475758 0 0 0 0 55.088688025527517 32.978320884034119 0 32.978320884034119 -98.319441368270986 0 0 0 0 41.056858985359213 34.930929351213749 0 34.930929351213749 56.722444159011786 0 0 0 0 37.558138367705396 11.418723681416452 0 11.418723681416452 -8.3914802407151114 0 0 0 0 49.006858638799244 41.160570223854769 0 41.160570223854769 42.443124252997848 0 0 0 0 49.098876454212586 26.994075839692144 0 26.994075839692144 32.612493041933902 0 0 0 0 141.22915525485223 22.98860138904746 0 22.98860138904746 -21.343151224330541 0 0 0 0 297.18112619802196 35.517756069861719 0 35.517756069861719 -28.407558759124335 0 0 0 0 154.82574062300409 24.515730193689421 0 24.515730193689421 -25.706170029533951 0 0 0 0 172.70601125494409 -20.706150637970921 0 -20.706150637970921 -22.143295973443628 0 0 0 0 170.41196141133696 18.241439796134927 0 18.241439796134927 -30.206973121363092 0 0 0 0 106.93391966962372 -18.164696038675856 0 -18.164696038675856 0.11182377490521844 0 0 0 0 94.282823496498168 -27.937797002244054 0 -27.937797002244054 2.587571903887806 0 0 0 0 209.47360994048358 -64.693499797677447 0 -64.693499797677447 10.368500813407877 0 0 0 0 117.40337009611176 146.51605493152644 0 146.51605493152644 139.41029406828648 0 0 0 0 81.869159733574634 27.251854393480102 0 27.251854393480102 25.474366584351174 0 0 0 0 259.45755423089349 110.3965308367799 0 110.3965308367799 -319.74645744811392 0 0 0 0 95.269950459016243 2.7747370367070743 0 2.7747370367070743 -0.81029615681382161 0 0 0 0 176.43881362913453 19.180565455696346 0 19.180565455696346 -230.44955986811453 0 0 0 0 326.07967499349252 -183.08322175515656 0 -183.08322175515656 -10.485724166793879 0 0 0 0 51.543516885127246 200.3140297283137 0 200.3140297283137 26.725776552657052 0 0 0 0 224.35388563119429 279.742200679728 0 279.742200679728 -87.725421521231056 0 0 0 0 237.76148061400318 -387.2932040214917 0 -387.2932040214917 0.53726138290767267 0 0 0 0 88.239638246550385 120.78516269367549 0 120.78516269367549 168.59009747798666 0 0 0 0 168.74095375940942 30.919937870404738 0 30.919937870404738 -95.657665194083449 0 0 0 0 97.219321801335809 64.132868334378827 0 64.132868334378827 -93.695401158949608 0 0 0 0 71.181267690065397 36.647436855958233 0 36.647436855958233 26.343571334296144 0 0 0 0 -0.23325544497064499 -0.81428723799577885 0 -0.81428723799577885 -1.5762413255656904 0 0 0 0 -240.36736824866693 143.7393203962115 0 143.7393203962115 25.261757348866013 0 0 0 0 12.406407466346536 -15.345223689626408 0 -15.345223689626408 -15.031692399718736 0 0 0 0 -110.6817496763415 0.75226366368292474 0 0.75226366368292474 -26.055018394062927 0 0 0 0 181.68219312997917 19.27281952789258 0 19.27281952789258 -112.91872631469232 0 0 0 0 5.9982966106549611 200.15841673220336 0 200.15841673220336 -98.556556817526143 0 0 0 0 108.49206467519252 -8.9525955819145082 0 -8.9525955819145082 -155.01538654486933 0 0 0 0 17.13380684181837 -15.899869358095032 0 -15.899869358095032 -12.973066904663956 0 0 0 0 41.94689648733592 9.3828180291567822 0 9.3828180291567822 -89.297115113665768 0 0 0 0 42.117029150555027 49.206174282930135 0 49.206174282930135 -115.13463529303209 0 0 0 0 77.248253623140045 1.4269030532910278 0 1.4269030532910278 -44.601388096227083 0 0 0 0 82.077231586757989 7.9063309701431876 0 7.9063309701431876 -84.956844809872678 0 0 0 0 85.312290004440001 -60.067841776937271 0 -60.067841776937271 -139.6985491552382 0 0 0 0 90.010822775214095 4.0706600240997215 0 4.0706600240997215 -1.3438527242097367 0 0 0 0 -253.64378636394395 56.353545352121728 0 56.353545352121728 -48.274846948541835 0 0 0 0 47.649641276322654 -97.507634672208255 0 -97.507634672208255 25.302861573250848 0 0 0 0 151.44691726789085 -59.680310500799294 0 -59.680310500799294 -77.074410226170585 0 0 0 0 140.88585496616724 -48.72570937113062 0 -48.72570937113062 -99.130743850796136 0 0 0 0 12.918246203946183 9.0827043014892297 0 9.0827043014892297 44.99427700530623 0 0 0 0 15.81680075336412 0.0057528547945135955 0 0.0057528547945135955 0.095253462934178079 0 0 0 0 142.98436408459747 -113.04841850282173 0 -113.04841850282173 -34.118418707870205 0 0 0 0 22.286074924661079 1.7751984425248111 0 1.7751984425248111 28.892223256021396 0 0 0 0 17.37660521624548 12.412605833576706 0 12.412605833576706 34.239673659304117 0 0 0 0 17.907994057142787 18.428209897313479 0 18.428209897313479 10.550771331854548 0 0 0 0 21.483965307743347 10.613005835369108 0 10.613005835369108 10.444322466313224 0 0 0 0 27.790958435129141 23.158006281653797 0 23.158006281653797 -10.75628438157014 0 0 0 0 18.475192106945542 18.492768143301959 0 18.492768143301959 16.398486588787819 0 0 0 0 22.747399421690716 15.54123506026383 0 15.54123506026383 5.1949000498220812 0 0 0 0 24.124038186469988 9.591247841914992 0 9.591247841914992 12.824303224056507 0 0 0 0 -10.051256754195492 73.392987017498172 0 73.392987017498172 -50.42903051905931 0 0 0 0 25.506703845778915 0.79021846830958842 0 0.79021846830958842 -1.1912593931334452 0 0 0 0 22.118804732673652 7.8076357510492258 0 7.8076357510492258 12.40741656017326 0 0 0 0 -39.183102558792598 34.54604312837364 0 34.54604312837364 80.222672465300548 0 0 0 0 32.420508578674344 7.0524352550030471 0 7.0524352550030471 5.8282813748827493 0 0 0 0 26.757904522441095 5.9582798212609305 0 5.9582798212609305 12.681637810066206 0 0 0 0 24.721327065691753 12.144245494907114 0 12.144245494907114 -0.42982972115366658 0 0 0 0 12.358725793273592 0.68024796563820189 0 0.68024796563820189 -1.8931621603587399 0 0 0 0 33.430588279108633 9.3189464135740536 0 9.3189464135740536 5.6609493485632356 0 0 0 0 29.144055538596149 12.148045826971497 0 12.148045826971497 5.3231974636128143 0 0 0 0 1.4600925953809654 2.4462294491749503 0 2.4462294491749503 3.4861032478683205 0 0 0 0 42.129440260312549 -21.824772883035358 0 -21.824772883035358 14.998445501020797 0 0 0 0 38.836968806954246 11.535575632646328 0 11.535575632646328 1.8190241873277273 0 0 0 0 100.25891413424688 -29.245355435076249 0 -29.245355435076249 -11.27545364019872 0 0 0 0 96.619633777969284 -36.671350305165504 0 -36.671350305165504 -9.2560243434193126 0 0 0 0 3.8828963843171778 2.6570621466551305 0 2.6570621466551305 1.7307839143105261 0 0 0 0 0.12250007787224604 72.728667133384491 0 72.728667133384491 181.76532874521004 0 0 0 0 82.60197345961933 -49.703279336536866 0 -49.703279336536866 73.120591432959202 0 0 0 0 2.3122622844515242 6.6840364610403 0 6.6840364610403 3.8583062805713038 0 0 0 0 15.552192402676155 10.270154539064833 0 10.270154539064833 1.8328774204433103 0 0 0 0 -34.107105166287511 7.2459926701359905 0 7.2459926701359905 48.775352457083045 0 0 0 0 302.68146064252414 -37.647717351348092 0 -37.647717351348092 -416.89994468773307 0 0 0 0 122.8385241544056 76.83660192722698 0 76.83660192722698 -135.11233068473589 0 0 0 0 49.301688856223336 24.911554208868921 0 24.911554208868921 -25.392866368723219 0 0 0 0 94.795757697124529 1.8950246073593411 0 1.8950246073593411 -2.5539380833450411 0 0 0 0 3.9377384825917514 1.7094008965212959 0 1.7094008965212959 0.70092836439834816 0 0 0 0 166.07812381501901 149.52038599536695 0 149.52038599536695 -149.15143009595965 0 0 0 0 304.84888600676277 -269.46710545358678 0 -269.46710545358678 -272.33344781231472 0 0 0 0 33.026698953816322 -249.87551534368413 0 -249.87551534368413 372.46462178329034 0 0 0 0 146.90970124357409 98.659297592838357 0 98.659297592838357 -76.155303856059618 0 0 0 0 69.012130680046539 87.376598511053089 0 87.376598511053089 154.66425533374058 0 0 0 0 -47.343943225209841 132.16576644138104 0 132.16576644138104 -81.926662739662333 0 0 0 0 15.04330283942355 -2.017848512865354 0 -2.017848512865354 -1.6876054815301527 0 0 0 0 -172.81532671107743 -82.691775729979781 0 -82.691775729979781 -24.124605133842579 0 0 0 0 68.122741733136536 4.5247021767561364 0 4.5247021767561364 -209.95818426408937 0 0 0 0 -21.704639828386462 -98.796392666693237 0 -98.796392666693237 75.361065458418125 0 0 0 0 -95.355261756474647 -136.44871056254487 0 -136.44871056254487 -9.4218088924578751 0 0 0 0 -9.1759639399469961 -151.7635818867584 0 -151.7635818867584 -6.7007735472107015 0 0 0 0 113.3608804155225 -70.327980138056034 0 -70.327980138056034 -35.937017066384215 0 0 0 0 -3.2528151295603038 -111.01099840215647 0 -111.01099840215647 -103.23331748675344 0 0 0 0 20.949198892581503 -1.0474238913039002 0 -1.0474238913039002 1.5711072334201615 0 0 0 0 16.06131308243982 13.704519952852102 0 13.704519952852102 2.6878485042955185 0 0 0 0 24.055983199090406 -96.628232672583181 0 -96.628232672583181 -102.13888531135444 0 0 0 0 46.095072717202129 14.01366753882381 0 14.01366753882381 7.7523138127353377 0 0 0 0 46.114499285271449 13.997068500779392 0 13.997068500779392 6.5053653653238044 0 0 0 0 55.320941777366912 7.1242458758155429 0 7.1242458758155429 2.8418043047146266 0 0 0 0 0.015838906980206957 -31.232925793783352 0 -31.232925793783352 51.947980337552508 0 0 0 0 206.44299839600717 115.90124022132295 0 115.90124022132295 107.08138406159787 0 0 0 0 -74.722993912044331 -286.92171174267401 0 -286.92171174267401 599.96676320363804 0 0 0 0 38.860638965351079 -10.654452669828235 0 -10.654452669828235 1.1963273703927835 0 0 0 0 4.9371017642697552 -98.139963480089705 0 -98.139963480089705 -136.75908416346238 0 0 0 0 76.741081970492814 30.436096997994127 0 30.436096997994127 11.846840892887712 0 0 0 0 18.411657067449809 -10.214367712970114 0 -10.214367712970114 -1.1455551156343047 0 0 0 0 -17.242093914522911 -97.526035626831458 0 -97.526035626831458 134.23990630298249 0 0 0 0 43.716528676830904 -0.56691372488587888 0 -0.56691372488587888 -2.1805862067079875 0 0 0 0 -87.174200449578848 31.20564732596614 0 31.20564732596614 235.76464558469297 0 0 0 0 13.187965457217615 60.571419772502622 0 60.571419772502622 -92.593660294279061 0 0 0 0 34.84384855834287 -5.9734811374937635 0 -5.9734811374937635 -20.923370892157891 0 0 0 0 26.897174296236368 -4.8448609692861151 0 -4.8448609692861151 -0.14733382221297409 0 0 0 0 31.3925433479817 -5.2748235797706684 0 -5.2748235797706684 -19.16934487446747 0 0 0 0 30.485626459411151 -10.920877129942994 0 -10.920877129942994 2.1177672547901807 0 0 0 0 32.295438527052973 1.9505837558961812 0 1.9505837558961812 -0.65426368406194813 0 0 0 0 5.2237787809687717 0.39555789687350673 0 0.39555789687350673 0.13904652589425659 0 0 0 0 79.107621540941182 -116.86561542955474 0 -116.86561542955474 102.6860601708936 0 0 0 0 -88.093421498393582 -4.3242160615973262 0 -4.3242160615973262 146.6437382411001 0 0 0 0 303.77572944186431 362.49301792704182 0 362.49301792704182 -350.16135769869516 0 0 0 0 297.56384346539926 -80.842003855014326 0 -80.842003855014326 -28.859677939065932 0 0 0 0 35.942274618146257 -3.8598753579674394 0 -3.8598753579674394 1.0414612233147409 0 0 0 0 7.5917783822915226 -17.189002234948219 0 -17.189002234948219 2.4516553250601874 0 0 0 0 17.220392651888133 -12.891049932373601 0 -12.891049932373601 2.7122170230285536 0 0 0 0 -8.7791193446091711 13.613343287364017 0 13.613343287364017 1.949948425301109 0 0 0 0 10.037619705125559 -12.206225479446301 0 -12.206225479446301 3.1232394031685136 0 0 0 0 38.896279091157339 -3.9749791237715897 0 -3.9749791237715897 1.0378085889582849 0 0 0 0 0.28634485365362949 -0.86266875476956573 0 -0.86266875476956573 1.2901948704591701 0 0 0 0 1.5878984227949786 -41.871039531748835 0 -41.871039531748835 -28.873657667455177 0 0 0 0 99.347372526982326 -109.70286659684095 0 -109.70286659684095 6.7443977309490437 0 0 0 0 64.440756698812493 -56.718323706013308 0 -56.718323706013308 125.51450384914915 0 0 0 0 1.2874349498672686 0.42523748542938211 0 0.42523748542938211 -0.24379840563772054 0 0 0 0 7.8423747170121718 -0.29020998729420722 0 -0.29020998729420722 -0.070574801650696517 0 0 0 0 7.6124082791067167 2.4070481711556475 0 2.4070481711556475 3.2746738948129064 0 0 0 0 3.9463875222389309 3.0861975309209591 0 3.0861975309209591 4.1630575288367311 0 0 0 0 -259.85683891268491 8.4190650563818963 0 8.4190650563818963 155.39054676757769 0 0 0 0 -105.09203979530253 -121.99741568574473 0 -121.99741568574473 119.71332071730899 0 0 0 0 63.388304339552292 -74.920321591449394 0 -74.920321591449394 -25.799654723936214 0 0 0 0 60.748076567177122 -110.24943768356509 0 -110.24943768356509 -110.10713500642984 0 0 0 0 -8.2841649050560591 -200.2845118160368 0 -200.2845118160368 -96.368943224966884 0 0 0 0 41.890615354694091 -114.27688287391754 0 -114.27688287391754 5.796808807197408 0 0 0 0 10.034161708398528 -54.946307869219623 0 -54.946307869219623 -20.472022416682648 0 0 0 0 47.592144391577222 -103.88496217623333 0 -103.88496217623333 -4.816164459693681 0 0 0 0 29.525955750898817 -92.352459423900982 0 -92.352459423900982 -31.320745997792017 0 0 0 0 230.50198040198035 28.458250400443887 0 28.458250400443887 -61.270665763350735 0 0 0 0 -84.989558925389559 24.539071400909819 0 24.539071400909819 -61.304810852892047 0 0 0 0 165.14089842228941 105.10950953244063 0 105.10950953244063 -52.541351872156987 0 0 0 0 235.23886003878056 114.0014682020211 0 114.0014682020211 -57.421728708297451 0 0 0 0 276.0129965183595 131.45468788532096 0 131.45468788532096 -58.457686635379332 0 0 0 0 418.25516575112135 -181.64011214587026 0 -181.64011214587026 -6.8787132621691853 0 0 0 0 807.4578344490626 107.76891000890483 0 107.76891000890483 -61.359569678193566 0 0 0 0 10.963551194350186 1.4454498872296138 0 1.4454498872296138 0.50772083335094975 0 0 0 0 226.35201757076175 253.23936757578304 0 253.23936757578304 39.010185427458964 0 0 0 0 581.23031410558565 -604.06187944681403 0 -604.06187944681403 520.58600387749266 0 0 0 0 609.23312602851001 -670.60980635874057 0 -670.60980635874057 465.94862744938337 0 0 0 0 1083.1866488609076 127.11568825944511 0 127.11568825944511 -342.66963744683972 0 0 0 0 87.222138439786704 163.79148830180998 0 163.79148830180998 -60.386784368186284 0 0 0 0 179.28400107605194 -158.6099899922649 0 -158.6099899922649 306.79876319304935 0 0 0 0 621.97199891224523 22.267293589837863 0 22.267293589837863 -82.416774445372909 0 0 0 0 22.55867836222955 20.295880154637725 0 20.295880154637725 3.1029386068382063 0 0 0 0 55.321015069853729 3.8805011077152187 0 3.8805011077152187 9.5932549714170818 0 0 0 0 -116.97972752315778 134.98183987539517 0 134.98183987539517 52.801988627512401 0 0 0 0 -85.789496741605376 388.11950011337797 0 388.11950011337797 -135.90043869405349 0 0 0 0 59.324838009965788 5.9164555058798669 0 5.9164555058798669 -3.8113563934784906 0 0 0 0 -149.86864268564136 -171.85060339895915 0 -171.85060339895915 359.03163527890547 0 0 0 0 -7.3612046207572508 5.5004223671873724 0 5.5004223671873724 3.9790567062882278 0 0 0 0 -337.23280881640449 5.1648170023031525 0 5.1648170023031525 57.489601587247307 0 0 0 0 -359.89462521298083 -184.19713325344537 0 -184.19713325344537 885.04600008080388 0 0 0 0 -553.25421571656034 518.32301489087354 0 518.32301489087354 -383.92496969701222 0 0 0 0 18.866668291771365 2.7808222528114097 0 2.7808222528114097 1.0079053585025006 0 0 0 0 34.877333769408324 -0.34552723346882885 0 -0.34552723346882885 9.1490147871492127 0 0 0 0 56.009742999654691 -4.9793148977516388 0 -4.9793148977516388 5.0259431042808274 0 0 0 0 30.654050982229819 -3.6640132012509525 0 -3.6640132012509525 -1.0473370872051078 0 0 0 0 39.06919435533473 -1.7493249604389405 0 -1.7493249604389405 5.4385893992099454 0 0 0 0 22.622653311658475 0.72159040513957784 0 0.72159040513957784 -1.6778619509603199 0 0 0 0 37.38045012591374 -2.2119556118160233 0 -2.2119556118160233 11.419631570615906 0 0 0 0 11.576440536286228 0.44624221113879869 0 0.44624221113879869 -1.4349613198154505 0 0 0 0 30.230039170623741 -5.7441365039628991 0 -5.7441365039628991 5.5086135549860273 0 0 0 0 25.682625058754159 0.43489178880742596 0 0.43489178880742596 0.42750332573256244 0 0 0 0 39.378858301062792 -12.001953635368409 0 -12.001953635368409 7.8755292674437101 0 0 0 0 23.837750327832964 -2.7922992205573465 0 -2.7922992205573465 8.3750271423678555 0 0 0 0 22.735866077027822 -5.3042499695247898 0 -5.3042499695247898 11.888948639830573 0 0 0 0 14.856208556222555 -8.3349199302833767 0 -8.3349199302833767 -1.5938973840020481 0 0 0 0 16.573712387511453 -7.6431701235610934 0 -7.6431701235610934 6.2320596509537154 0 0 0 0 43.078216740417986 -19.154546077762276 0 -19.154546077762276 25.944506639122892 0 0 0 0 43.764163358344376 -46.432069609879136 0 -46.432069609879136 4.5082047586624867 0 0 0 0 -1.5851373868986229 -1.1329349789194865 0 -1.1329349789194865 -6.1207223907938744 0 0 0 0 93.120779141640924 35.780892595876935 0 35.780892595876935 -39.894925421047787 0 0 0 0 -71.855723693151845 41.137972219037891 0 41.137972219037891 35.907158088011329 0 0 0 0 91.526714085899584 -12.795454633272016 0 -12.795454633272016 -65.658761518399047 0 0 0 0 91.039826258066569 -10.728110299068703 0 -10.728110299068703 1.534861413765725 0 0 0 0 104.5502377544608 -56.984459655722702 0 -56.984459655722702 151.49407017162184 0 0 0 0 339.57933559118567 16.325716644922977 0 16.325716644922977 -50.376714234849828 0 0 0 0 301.06675948918678 99.671644718549615 0 99.671644718549615 -131.81224258139869 0 0 0 0 245.67801740767703 79.445493563667497 0 79.445493563667497 -8.6261918740809733 0 0 0 0 -11.734696049432159 37.383632337885047 0 37.383632337885047 64.218819881767104 0 0 0 0 99.194847505452799 -28.561477899361307 0 -28.561477899361307 -76.622167302196658 0 0 0 0 49.382787723206093 35.630231274114067 0 35.630231274114067 -118.11905219246842 0 0 0 0 31.262969937211974 5.0465079130276349 0 5.0465079130276349 0.91246706226346497 0 0 0 0 148.54519450738735 -55.949287385825926 0 -55.949287385825926 89.761149828677276 0 0 0 0 87.927709743579726 -66.857763230092417 0 -66.857763230092417 73.929360192520676 0 0 0 0 100.15240651248223 -129.57896677692628 0 -129.57896677692628 189.99970805166276 0 0 0 0 100.34739895538951 -54.772401054438404 0 -54.772401054438404 68.884513178829707 0 0 0 0 49.734944791714994 9.34291202957683 0 9.34291202957683 -0.56967651033667988 0 0 0 0 54.743905916215226 -25.866043343070487 0 -25.866043343070487 -36.490572970147923 0 0 0 0 79.748457588164456 -17.011102858398772 0 -17.011102858398772 -60.176548548741266 0 0 0 0 65.360056686125063 -8.1499266186705199 0 -8.1499266186705199 -16.440715248110337 0 0 0 0 -5.3826280694083835 42.612423186625676 0 42.612423186625676 -12.204383928183915 0 0 0 0 13.703798911816971 -2.0563125795493704 0 -2.0563125795493704 -12.167585037310705 0 0 0 0 81.334050143065269 -9.5080804422329948 0 -9.5080804422329948 -45.524676640280177 0 0 0 0 26.686892731740045 54.375631896836012 0 54.375631896836012 -32.341697497895893 0 0 0 0 15.510265222141243 24.593614022381416 0 24.593614022381416 -18.696586055970329 0 0 0 0 12.767869544421046 36.264737977822961 0 36.264737977822961 -30.219581112813103 0 0 0 0 53.973860160920594 17.420587272537432 0 17.420587272537432 -48.151235224358743 0 0 0 0 15.656891310948708 28.514055063703115 0 28.514055063703115 -33.155218134011648 0 0 0 0 19.027863301341164 1.3860451282077264 0 1.3860451282077264 -0.096304133974821848 0 0 0 0 16.846590415472747 30.960950502587139 0 30.960950502587139 -32.158957188565182 0 0 0 0 121.74504540890484 -48.306092742070405 0 -48.306092742070405 47.986227159311738 0 0 0 0 109.48784177731613 -9.9293683645527153 0 -9.9293683645527153 -14.538463364988445 0 0 0 0 59.814452843828171 10.820474773189758 0 10.820474773189758 -9.3749487551887327 0 0 0 0 17.654228670291559 37.089168865754004 0 37.089168865754004 -43.581812325566489 0 0 0 0 5.8129712467970336 0.49612780370952159 0 0.49612780370952159 -2.787172723184026 0 0 0 0 -2.484678585354942 6.2812455080912795 0 6.2812455080912795 1.2991313230925647 0 0 0 0 70.550432351303243 4.9219639315501809 0 4.9219639315501809 -37.28688836815752 0 0 0 0 108.34318014366181 9.5850542636808314 0 9.5850542636808314 -45.674177691153091 0 0 0 0 52.874926077642158 15.962402131810677 0 15.962402131810677 -15.768010102296557 0 0 0 0 50.326113542432722 9.843782013431337 0 9.843782013431337 -29.920385838353923 0 0 0 0 3.6525327756316983 22.895503662885517 0 22.895503662885517 -22.106276504343896 0 0 0 0 -6.4705203915714264 3.1401180331255887 0 3.1401180331255887 -27.001450744413432 0 0 0 0 -23.13490926895247 21.757817980407026 0 21.757817980407026 -32.085881647441056 0 0 0 0 6.011587207311095 46.447075612497883 0 46.447075612497883 -45.559433944860757 0 0 0 0 -116.44788036122918 98.722055782109237 0 98.722055782109237 -66.983818562856868 0 0 0 0 119.28401258206861 24.296636916955165 0 24.296636916955165 -26.237091102882232 0 0 0 0 115.92550509427258 42.48381041141964 0 42.48381041141964 -17.958670151015212 0 0 0 0 216.97873430617165 32.071858200697648 0 32.071858200697648 -28.434203134523386 0 0 0 0 115.51363768511874 -12.07155702772593 0 -12.07155702772593 -19.195914026221317 0 0 0 0 104.63828580503105 35.961004148910661 0 35.961004148910661 7.4168735895580085 0 0 0 0 23.078067899403322 30.369286715775615 0 30.369286715775615 -22.463160888078164 0 0 0 0 53.472596949663057 15.619721259003654 0 15.619721259003654 -24.406791408847255 0 0 0 0 56.526695915783421 -1.9372313740343543 0 -1.9372313740343543 -16.903203450377447 0 0 0 0 86.024281856923153 18.278908401831984 0 18.278908401831984 -9.7568061399115322 0 0 0 0 85.971292923361034 -15.900698562964863 0 -15.900698562964863 -10.705537635874371 0 0 0 0 67.391632017084703 3.747315203840742 0 3.747315203840742 -31.473839103872706 0 0 0 0 70.299541605645572 10.162817946026735 0 10.162817946026735 -17.609973791970333 0 0 0 0 112.50054308704193 -14.207608899022318 0 -14.207608899022318 -30.244717386119646 0 0 0 0 91.350865096951566 -45.084944706495548 0 -45.084944706495548 -75.303799742722731 0 0 0 0 60.702038844898198 27.440820109981587 0 27.440820109981587 -5.8327193743627959 0 0 0 0 127.84718573163445 9.5436111385581626 0 9.5436111385581626 -7.3151845226886394 0 0 0 0 45.553891940602625 -6.295146072101943 0 -6.295146072101943 -67.47533755885263 0 0 0 0 77.959278479220302 32.248643432326048 0 32.248643432326048 -49.756905446191013 0 0 0 0 -7.74251502610241 -19.854832078274512 0 -19.854832078274512 -23.596381020947206 0 0 0 0 11.020614621833175 6.4580945099353499 0 6.4580945099353499 -0.085556693366107606 0 0 0 0 145.47546918680496 107.26611307017626 0 107.26611307017626 38.374965718460089 0 0 0 0 31.853870719593033 -88.85907589982412 0 -88.85907589982412 -90.477185181974505 0 0 0 0 0.0090110025973260122 -0.64532809626180487 0 -0.64532809626180487 0.70299233397898631 0 0 0 0 41.99005960889474 8.9651596755903498 0 8.9651596755903498 0.7238705381984134 0 0 0 0 62.149182323604691 33.812817265322337 0 33.812817265322337 -35.378677587765992 0 0 0 0 43.273656460152147 12.354500826546081 0 12.354500826546081 2.8385916064332202 0 0 0 0 60.310096656637143 19.620838434477548 0 19.620838434477548 -23.002185363575961 0 0 0 0 58.369793743618175 85.444030632616631 0 85.444030632616631 95.478554592515138 0 0 0 0 47.966061208907377 19.537501146945658 0 19.537501146945658 33.485928404272158 0 0 0 0 36.998935833131327 11.17213482583179 0 11.17213482583179 -59.799654254915822 0 0 0 0 6.3820517547612479 3.0895222553191708 0 3.0895222553191708 -0.80215895899946865 0 0 0 0 41.662367192502415 52.934812060135414 0 52.934812060135414 12.03998540915768 0 0 0 0 31.375820871657197 55.630450965770024 0 55.630450965770024 0.27267732205791617 0 0 0 0 0.22239649407508466 -0.43878794421469181 0 -0.43878794421469181 -0.38186168085008987 0 0 0 0 7.2427438053528022 -5.973834334400749 0 -5.973834334400749 -15.341625277431149 0 0 0 0 156.83019191663516 141.97933904948621 0 141.97933904948621 70.647357033186836 0 0 0 0 69.555384369479725 -61.263970595937053 0 -61.263970595937053 -129.80523818706149 0 0 0 0 115.7774966707384 15.143704483709826 0 15.143704483709826 -26.717773943327586 0 0 0 0 30.104726675973325 57.825326034643695 0 57.825326034643695 -3.445938528443321 0 0 0 0 100.01617704424007 83.844309095475921 0 83.844309095475921 -2.0381207998070359 0 0 0 0 76.478921169225032 53.575635908342406 0 53.575635908342406 -7.7443023839107354 0 0 0 0 121.08812280541497 128.48499488457219 0 128.48499488457219 5.0505588023360914 0 0 0 0 64.786331181690912 133.39010325811705 0 133.39010325811705 4.7311468966546215 0 0 0 0 162.93496753732961 98.450211038550037 0 98.450211038550037 -136.33739943336309 0 0 0 0 28.082181251932525 -0.822567190048062 0 -0.822567190048062 20.604666183369432 0 0 0 0 -12.092659485465447 13.272841890027394 0 13.272841890027394 240.71368840661054 0 0 0 0 104.69608579428404 232.43007891787289 0 232.43007891787289 224.88746823212773 0 0 0 0 46.189698834578849 65.706768726937867 0 65.706768726937867 -12.685622695329585 0 0 0 0 32.666643298607596 80.360046065191909 0 80.360046065191909 127.05830031929804 0 0 0 0 3789.4757837339675 947.76816408471382 0 947.76816408471382 237.67505213549038 0 0 0 0 153.81270986620802 -87.27504728451629 0 -87.27504728451629 -504.19937990445914 0 0 0 0 151.37043990350321 179.52424852434353 0 179.52424852434353 -507.19122382928481 0 0 0 0 -398.67549978971329 190.96537578667221 0 190.96537578667221 -107.92589631061696 0 0 0 0 410.12900544720105 276.31169630366571 0 276.31169630366571 -206.68973467608123 0 0 0 0 177.69271291386394 77.062893792571458 0 77.062893792571458 -222.70869030971016 0 0 0 0 202.84167442061516 153.76259451639089 0 153.76259451639089 -61.342368257574435 0 0 0 0 291.39816283788423 116.48272864107912 0 116.48272864107912 -320.22980473339283 0 0 0 0 264.68619773916544 248.0315737350511 0 248.0315737350511 -60.391855004951246 0 0 0 0 1048.9566753556192 279.27207759671194 0 279.27207759671194 144.71821483050417 0 0 0 0 233.50617499548616 219.8905970098202 0 219.8905970098202 191.45528294125324 0 0 0 0 3504.1932232711033 -1669.5454659441602 0 -1669.5454659441602 1899.5356633511092 0 0 0 0 -789.8038233166717 -877.26621902517593 0 -877.26621902517593 676.25137404510269 0 0 0 0 6.1059010065458796 -6.4055842748909715 0 -6.4055842748909715 2.560314635192054 0 0 0 0 254.865015775345 -373.87640273143791 0 -373.87640273143791 180.88507333447114 0 0 0 0 -63.037338490230468 -326.07808544694797 0 -326.07808544694797 244.34384754107606 0 0 0 0 1786.1298113507346 -1411.3496919048462 0 -1411.3496919048462 858.0603529222501 0 0 0 0 4393.0260062466186 -2525.2519509247172 0 -2525.2519509247172 1086.4945397639663 0 0 0 0 1143.235577620555 -1564.7653471957256 0 -1564.7653471957256 1219.3536596903468 0 0 0 0 596.18271638983515 -1806.604451808982 0 -1806.604451808982 1040.8149426760087 0 0 0 0 3498.4552866795543 -926.11953627312187 0 -926.11953627312187 72.166613607047367 0 0 0 0 1980.8697987513297 -1034.752698324364 0 -1034.752698324364 1209.1683439616293 0 0 0 0 10.835258566257259 1.7005522255369296 0 1.7005522255369296 0.79690349026339891 0 0 0 0 1929.4520036555468 -1202.0813655405977 0 -1202.0813655405977 751.47535309441446 0 0 0 0 178.91965702563812 285.23705286628808 0 285.23705286628808 446.63676087340275 0 0 0 0 612.53451319677151 -951.87314192359111 0 -951.87314192359111 814.89892807655178 0 0 0 0 1661.6031513549806 -704.44653818817687 0 -704.44653818817687 631.93656340141058 0 0 0 0 1539.2042936862254 130.17951613338437 0 130.17951613338437 -465.32002943610149 0 0 0 0 25.74171036921598 6.6747430636854688 0 6.6747430636854688 30.450406446544548 0 0 0 0 35.092559029226322 24.560683236054047 0 24.560683236054047 -17.513244911797528 0 0 0 0 24.675781664896867 5.572572620551929 0 5.572572620551929 1.128324152297532 0 0 0 0 821.18946226989397 -61.245924521180221 0 -61.245924521180221 9.5510932631906371 0 0 0 0 10.532000475033939 0.41458792326057647 0 0.41458792326057647 1.8893933465786865 0 0 0 0 622.53612226922996 995.51798137858964 0 995.51798137858964 -579.96007144925659 0 0 0 0 433.00008461380276 -1233.0456286778626 0 -1233.0456286778626 40.593201786699524 0 0 0 0 843.01683596843168 -849.21245420882269 0 -849.21245420882269 -341.70961364139345 0 0 0 0 19.956794906515441 -7.7035981559775593 0 -7.7035981559775593 1.531387585425835 0 0 0 0 2124.4062854065451 288.42382478094453 0 288.42382478094453 -1173.8635917932015 0 0 0 0 836.22634909131921 -1581.4445400314989 0 -1581.4445400314989 -216.16056061785048 0 0 0 0 158.79841310530901 1177.3044573451712 0 1177.3044573451712 895.1017245524688 0 0 0 0 2806.1580011121914 397.80523677578532 0 397.80523677578532 -1158.1376050345589 0 0 0 0 3310.7355639821908 -998.03331788714536 0 -998.03331788714536 -912.23564099511395 0 0 0 0 2811.9935206564996 925.56852073464665 0 925.56852073464665 146.51526359505988 0 0 0 0 880.55835122419376 782.38165117717278 0 782.38165117717278 -416.28118776172141 0 0 0 0 14.917261135446452 -1.5077196719804791 0 -1.5077196719804791 -0.57423159370542076 0 0 0 0 489.2779954909056 -619.87322670526419 0 -619.87322670526419 886.28167703985309 0 0 0 0 2.0623769716679305 4.9204963363953382 0 4.9204963363953382 -2.4219045545088225 0 0 0 0 2033.328100048222 1376.2811604061458 0 1376.2811604061458 -143.38759348539543 0 0 0 0 3493.7702388496764 156.00270683797345 0 156.00270683797345 -824.5235904957417 0 0 0 0 -1085.0737781114258 -19.08721082473744 0 -19.08721082473744 464.6980670101176 0 0 0 0 -800.38063267741018 -478.67150188768795 0 -478.67150188768795 1097.76711835687 0 0 0 0 2282.7008859466241 943.9080876730211 0 943.9080876730211 -810.36846380925681 0 0 0 0 19.60701402885983 -7.9411546658915473 0 -7.9411546658915473 2.8939606616904037 0 0 0 0 768.79013412807035 -1870.251741549888 0 -1870.251741549888 921.04199684855007 0 0 0 0 2024.5241931249325 -1156.3920407216544 0 -1156.3920407216544 -96.118772607627704 0 0 0 0 3491.2023326861654 -1970.6343306853823 0 -1970.6343306853823 98.401301209708919 0 0 0 0 2041.5633343755071 -1058.9886060644039 0 -1058.9886060644039 366.69880526101883 0 0 0 0 1260.3858680694175 -773.6813315157965 0 -773.6813315157965 1128.2223908897759 0 0 0 0 1933.7922908116452 -395.50401057266333 0 -395.50401057266333 -144.45192253976396 0 0 0 0 2374.8582602066963 -719.25854847630171 0 -719.25854847630171 -113.38692255854441 0 0 0 0 1693.2584213345854 -676.93685606979022 0 -676.93685606979022 -35.77188809686831 0 0 0 0 2331.7397615729328 -1056.0362279618662 0 -1056.0362279618662 -125.46253311081881 0 0 0 0 1132.030684353158 -390.28934933999801 0 -390.28934933999801 -74.980787328917472 0 0 0 0 -52.877707623923925 -556.05055729855872 0 -556.05055729855872 -180.62883158979758 0 0 0 0 759.29710025252507 -155.6388885222984 0 -155.6388885222984 -86.925002055223672 0 0 0 0 1880.4190608872668 -232.80694750406116 0 -232.80694750406116 -70.610021466192279 0 0 0 0 851.17549933566352 -790.47722332758508 0 -790.47722332758508 -119.57952781591621 0 0 0 0 808.05612866728188 -121.54360572832371 0 -121.54360572832371 322.41064851131068 0 0 0 0 1334.5073402747366 277.31789846487368 0 277.31789846487368 -31.529862808614013 0 0 0 0 1695.2827871966656 -616.77549186525835 0 -616.77549186525835 373.68398521916555 0 0 0 0 1136.7120222206286 -421.29708812217359 0 -421.29708812217359 27.836945085780968 0 0 0 0 1707.2683799569422 -527.54169877868731 0 -527.54169877868731 13.685336186397393 0 0 0 0 1392.5339619062579 -271.31090205505876 0 -271.31090205505876 13.577988557762609 0 0 0 0 1191.7464064753585 -201.06483793763346 0 -201.06483793763346 -32.949223455952776 0 0 0 0 1204.4287588466977 -165.18307836219617 0 -165.18307836219617 40.256965751272446 0 0 0 0 514.11301031381663 -217.34527324679019 0 -217.34527324679019 155.62311226854479 0 0 0 0 549.45476235765773 -24.692731740112848 0 -24.692731740112848 -37.081494336309873 0 0 0 0 169.38671744741805 16.65480360220208 0 16.65480360220208 175.54343840060545 0 0 0 0 15.753635848850536 -129.58529877492475 0 -129.58529877492475 -56.392585861355627 0 0 0 0 36.457359869087668 186.95475077058143 0 186.95475077058143 -119.8385299085954 0 0 0 0 100.81169949376635 -7.393198305127072 0 -7.393198305127072 13.666489183023089 0 0 0 0 160.5157324228112 114.08734879552713 0 114.08734879552713 155.63066663259039 0 0 0 0 27.141615400356386 174.96925349442188 0 174.96925349442188 91.916977597580001 0 0 0 0 -23.680645132742939 16.755363491733149 0 16.755363491733149 55.131132054475188 0 0 0 0 -24.776938125673041 -2.9706413436456103 0 -2.9706413436456103 198.63736625286219 0 0 0 0 25.469639104059752 64.624976886014153 0 64.624976886014153 -53.943710569393659 0 0 0 0 20.956836118795763 95.440487875185369 0 95.440487875185369 -17.293750372207967 0 0 0 0 3.5415494781627785 121.48245369905777 0 121.48245369905777 -91.360756788189633 0 0 0 0 14.988171046928983 24.078188931849297 0 24.078188931849297 8.0201273402594779 0 0 0 0 109.1355593582266 19.406156088013176 0 19.406156088013176 -402.40762756661013 0 0 0 0 76.462554378638742 57.499653073613359 0 57.499653073613359 -203.99226876094275 0 0 0 0 56.161320301922387 -10.020247080281479 0 -10.020247080281479 -29.148921092983983 0 0 0 0 42.617362427081474 7.2649021191001246 0 7.2649021191001246 0.16222908488480797 0 0 0 0 44.356222309364874 4.1218948348766915 0 4.1218948348766915 0.020578093220738669 0 0 0 0 140.97553845750508 -44.099982181521966 0 -44.099982181521966 -1.1165568084870756 0 0 0 0 61.144054620170209 10.154495192094828 0 10.154495192094828 -36.955265104983937 0 0 0 0 40.426421051131811 12.708729295903042 0 12.708729295903042 3.3051174807403392 0 0 0 0 77.135672306842707 45.294720893336603 0 45.294720893336603 -6.0717411034238467 0 0 0 0 39.168488464052643 -8.3854938015927019 0 -8.3854938015927019 17.766379425133266 0 0 0 0 -468.87867000936967 71.485312612717394 0 71.485312612717394 4.9880823847734916 0 0 0 0 12.683302055247509 2.4143626264864935 0 2.4143626264864935 1.8955857261153575 0 0 0 0 47.676715483603402 24.196621154149994 0 24.196621154149994 12.472351307298595 0 0 0 0 -470.85104960545868 45.701021364785106 0 45.701021364785106 913.21510366309315 0 0 0 0 367.63448800744573 14.561286236935757 0 14.561286236935757 -520.57975126274346 0 0 0 0 11.754173466992498 -2.2892308644597108 0 -2.2892308644597108 0.93343647872862023 0 0 0 0 21.037031058218403 1.4342748807479442 0 1.4342748807479442 -0.53087491612862137 0 0 0 0 31.445582102598564 10.320933563592916 0 10.320933563592916 -3.5763119079347234 0 0 0 0 6.9748430235267733 -0.21097903466215939 0 -0.21097903466215939 9.8732232972531051 0 0 0 0 33.46196302386619 2.3504648304801208 0 2.3504648304801208 -0.88338543481178966 0 0 0 0 56.226726139058883 4.6387152033839811 0 4.6387152033839811 -25.527870965930333 0 0 0 0 471.57142268067997 -231.00942361126772 0 -231.00942361126772 371.91349670611089 0 0 0 0 968.60244954456323 -4.2267851949081887 0 -4.2267851949081887 -293.69007526050336 0 0 0 0 1436.0542393206292 433.08821138457847 0 433.08821138457847 -35.760514291893742 0 0 0 0 1368.3546961681068 -371.26069961392295 0 -371.26069961392295 36.857417583256392 0 0 0 0 1236.6171089860688 -11.153916235402448 0 -11.153916235402448 -124.83421297041423 0 0 0 0 863.20438553795657 -7.7915185994052081 0 -7.7915185994052081 -87.64599763784372 0 0 0 0 944.32103444927952 -36.605972998468133 0 -36.605972998468133 -59.84213443693352 0 0 0 0 1157.7655132783766 -159.09613319288019 0 -159.09613319288019 -328.52435866972155 0 0 0 0 1033.354968013401 -240.51074744517609 0 -240.51074744517609 -377.29409439880692 0 0 0 0 725.73959371004116 -0.015157161567231014 0 -0.015157161567231014 51.460505575774732 0 0 0 0 660.17914738926027 -197.35823908428756 0 -197.35823908428756 -154.68401400938819 0 0 0 0 823.07895944613892 -114.97312924078506 0 -114.97312924078506 -42.672382706703502 0 0 0 0 902.1688163378501 -103.18961133143966 0 -103.18961133143966 -124.65606696208488 0 0 0 0 -32.637754946932091 -24.565110005170936 0 -24.565110005170936 143.39050045703334 0 0 0 0 117.474957124924 -58.771734280905548 0 -58.771734280905548 64.931500387308915 0 0 0 0 48.663155411783919 31.210058892966117 0 31.210058892966117 88.634713568248117 0 0 0 0 84.108051044022432 -16.604482935339547 0 -16.604482935339547 60.691272528771151 0 0 0 0 -33.997986916794673 24.190255067012259 0 24.190255067012259 48.05802742862943 0 0 0 0 -9.6359283865940597 -0.87741787130016746 0 -0.87741787130016746 68.093772738940515 0 0 0 0 -3.189196625439763 17.70876053091888 0 17.70876053091888 25.240451587681491 0 0 0 0 -8.3857641012823834 5.295066161384554 0 5.295066161384554 4.1598508043129048 0 0 0 0 -85.572252948930526 -98.113056081881524 0 -98.113056081881524 -51.825046998277685 0 0 0 0 -2.1673053810464729 1.0109853058409861 0 1.0109853058409861 -1.1667865524516827 0 0 0 0 437.88331275660971 -89.202678728596766 0 -89.202678728596766 -215.79656164421158 0 0 0 0 -93.575503260946334 -28.896401693357802 0 -28.896401693357802 260.19192904892043 0 0 0 0 361.36225625299676 256.89036555941402 0 256.89036555941402 173.2844105345614 0 0 0 0 -199.71819022698645 61.284985187601933 0 61.284985187601933 133.86390709305579 0 0 0 0 398.05495604107682 299.54559002277665 0 299.54559002277665 27.598898875977511 0 0 0 0 8.1658394211737004 -79.410356269784188 0 -79.410356269784188 -43.492107925512755 0 0 0 0 477.80605193095857 123.18525213628186 0 123.18525213628186 107.22872670526704 0 0 0 0 672.25088555071261 463.95058864581551 0 463.95058864581551 637.82312064837242 0 0 0 0 771.8108285690995 -459.32744867772635 0 -459.32744867772635 545.21753159637774 0 0 0 0 1217.0796727200288 48.726698759909141 0 48.726698759909141 48.206859430214536 0 0 0 0 933.44199217522453 -528.88734544929707 0 -528.88734544929707 128.83025234758315 0 0 0 0 239.77749181894205 -358.37162903439184 0 -358.37162903439184 193.83084841163054 0 0 0 0 103.85255319060434 -296.41313246367918 0 -296.41313246367918 201.75857073481984 0 0 0 0 201.30256009086952 -412.66652211363999 0 -412.66652211363999 233.22145145845934 0 0 0 0 -41.852920819352107 -166.66190514736331 0 -166.66190514736331 147.9511944103906 0 0 0 0 -19.074489120514954 -313.76301820584649 0 -313.76301820584649 350.96675451147985 0 0 0 0 -45.507662408978831 -76.026107393810889 0 -76.026107393810889 86.071653775828963 0 0 0 0 63.031889383237285 -102.88186828740163 0 -102.88186828740163 -289.91102023365056 0 0 0 0 107.50071303928007 -490.02565431791663 0 -490.02565431791663 479.4128448808724 0 0 0 0 0.58029646925751877 -123.33927052317904 0 -123.33927052317904 215.21296204579812 0 0 0 0 54.299203759524971 -136.50665986058812 0 -136.50665986058812 119.44684139827677 0 0 0 0 -33.550386576427627 -164.42349843879765 0 -164.42349843879765 112.22910649492678 0 0 0 0 7.3565477568208735 -202.77649724520234 0 -202.77649724520234 194.55602426079167 0 0 0 0 7.1032337368651497 -279.23637456453071 0 -279.23637456453071 257.18524993130814 0 0 0 0 35.323415134914285 -189.31679612648622 0 -189.31679612648622 123.88138408827581 0 0 0 0 12.342445450748528 -202.26544355128226 0 -202.26544355128226 27.560880748520503 0 0 0 0 -44.064059232701766 -135.38858800638081 0 -135.38858800638081 5.2669349702923682 0 0 0 0 9.1006817303368734 -171.33993297713823 0 -171.33993297713823 -210.92538277988933 0 0 0 0 5.5623889712896926 -142.10628607193803 0 -142.10628607193803 -22.623344054145491 0 0 0 0 -47.602649659487724 -174.72794078541665 0 -174.72794078541665 128.13213072634153 0 0 0 0 -75.888067731806586 -151.47250705319129 0 -151.47250705319129 -23.168428167302295 0 0 0 0 -40.859179758001119 -122.26044322073676 0 -122.26044322073676 -58.960592969240679 0 0 0 0 2.1139596592402086 -165.908192603114 0 -165.908192603114 -36.532496896379598 0 0 0 0 7.486769200206254 -97.599846587469983 0 -97.599846587469983 32.937530561841413 0 0 0 0 10.424391950172321 -166.68220471115637 0 -166.68220471115637 -407.6233564557042 0 0 0 0 -43.526991539065421 -142.04079706630182 0 -142.04079706630182 -207.77784961455052 0 0 0 0 -4.9292577606902341 -148.66337757181282 0 -148.66337757181282 -207.51993333248902 0 0 0 0 -45.359486646845653 -79.704220112594157 0 -79.704220112594157 -402.93085839338528 0 0 0 0 -128.36583909217552 -168.15224517582465 0 -168.15224517582465 -207.4811132722084 0 0 0 0 125.20072502697167 216.51334427370057 0 216.51334427370057 -268.12216476593312 0 0 0 0 100.75691875812481 -183.94961693749065 0 -183.94961693749065 256.23454859539697 0 0 0 0 -151.23693330963579 416.0494451372706 0 416.0494451372706 555.06077436695068 0 0 0 0 36.593512297970847 -223.92735290197288 0 -223.92735290197288 -513.6315367458119 0 0 0 0 -25.837654185868814 -268.32655586041983 0 -268.32655586041983 -392.8518296693519 0 0 0 0 108.92430836837912 -199.17502851925292 0 -199.17502851925292 -250.21587463202377 0 0 0 0 3.041493315156778 -1.7309475402422354 0 -1.7309475402422354 1.0265091660627768 0 0 0 0 -212.69620814993658 -367.61996627165632 0 -367.61996627165632 520.76898974485448 0 0 0 0 41.450404657797101 -16.396783748220649 0 -16.396783748220649 5.5349898686401389 0 0 0 0 684.68990058915551 275.83799869016684 0 275.83799869016684 -62.602677183700507 0 0 0 0 13.937191126005416 -4.822163512454928 0 -4.822163512454928 1.9873564097386449 0 0 0 0 262.31047733262494 -76.10981924902444 0 -76.10981924902444 -396.75884797383515 0 0 0 0 22.04524034319229 -255.30194429075755 0 -255.30194429075755 -354.43063480204546 0 0 0 0 34.76731468102831 -13.081258351914297 0 -13.081258351914297 4.0509558094350862 0 0 0 0 160.58580712329785 66.009237297923391 0 66.009237297923391 184.08736968119956 0 0 0 0 146.10498045406143 -107.11972070288039 0 -107.11972070288039 -46.283068729273509 0 0 0 0 111.00941270104977 -32.997815449907648 0 -32.997815449907648 188.6332058402113 0 0 0 0 260.03142913963211 133.49792280277507 0 133.49792280277507 111.9958881492239 0 0 0 0 458.98465801841337 76.178875742039509 0 76.178875742039509 215.72655105413287 0 0 0 0 845.69523894948111 1.4925791953842236 0 1.4925791953842236 69.605587950575682 0 0 0 0 596.46742605955933 123.27602449178266 0 123.27602449178266 180.90253142193978 0 0 0 0 313.82040563803912 88.724102453223168 0 88.724102453223168 204.17934269894795 0 0 0 0 447.93636585603713 45.808268978600836 0 45.808268978600836 147.31855294202614 0 0 0 0 61.608640676262439 -61.473264771778304 0 -61.473264771778304 174.59737852691615 0 0 0 0 202.42474978538485 27.602055223511343 0 27.602055223511343 165.79264398583655 0 0 0 0 252.09387030577864 5.4487448687282267 0 5.4487448687282267 133.28763455699391 0 0 0 0 353.69193878464466 73.310173557480994 0 73.310173557480994 136.39407208947614 0 0 0 0 223.78253676737404 84.813858601245101 0 84.813858601245101 196.21355321472583 0 0 0 0 578.08728250783861 67.98439407467913 0 67.98439407467913 143.03028277538215 0 0 0 0 401.22573169362158 141.38290372633628 0 141.38290372633628 226.61998146559563 0 0 0 0 481.12943751288321 22.275057125844341 0 22.275057125844341 191.8032938914439 0 0 0 0 155.51059659748717 -50.31326595873179 0 -50.31326595873179 -17.294058553343348 0 0 0 0 -22.989825227109293 33.51431702518812 0 33.51431702518812 17.843532477145345 0 0 0 0 93.844029893873994 -5.41852642025151 0 -5.41852642025151 2.2686752337885991 0 0 0 0 83.054709976827326 -17.278052700911758 0 -17.278052700911758 83.193502152623978 0 0 0 0 217.78049098443489 -142.68744771120328 0 -142.68744771120328 53.256066384350561 0 0 0 0 121.8759018433957 -49.74472387462265 0 -49.74472387462265 95.498081023928535 0 0 0 0 218.0413155181617 53.865567322951733 0 53.865567322951733 41.487610964688429 0 0 0 0 106.26509326610903 94.377699532283259 0 94.377699532283259 122.86344898193693 0 0 0 0 97.803086256133611 35.930159579410429 0 35.930159579410429 -15.649781711776996 0 0 0 0 59.623269208099373 79.25360773783359 0 79.25360773783359 -58.446133332566205 0 0 0 0 -0.79390652666715766 0.78590922626741211 0 0.78590922626741211 0.38577690599073211 0 0 0 0 69.872342485121862 48.189394790653296 0 48.189394790653296 -18.906153674950474 0 0 0 0 -23.978917873102546 13.755892826544368 0 13.755892826544368 -15.33951086651723 0 0 0 0 125.15391182243729 124.22971853584022 0 124.22971853584022 51.630139888630083 0 0 0 0 75.094919000975096 84.800184394724056 0 84.800184394724056 79.436331207961302 0 0 0 0 41.720011979198262 77.503121776398757 0 77.503121776398757 77.968524498661282 0 0 0 0 212.2046391797594 150.27365769994594 0 150.27365769994594 69.892621441352276 0 0 0 0 120.07973618017058 113.71839725636164 0 113.71839725636164 127.30170533762703 0 0 0 0 192.13772168119931 150.68049218940678 0 150.68049218940678 122.30548716752492 0 0 0 0 173.78378569192864 175.10429134554943 0 175.10429134554943 94.641939637711403 0 0 0 0 136.76850970900432 139.20114162511004 0 139.20114162511004 101.27145078268586 0 0 0 0 156.07924872251624 138.12771329144698 0 138.12771329144698 64.623032944216561 0 0 0 0 438.48503893671523 92.677506100885921 0 92.677506100885921 122.26836932882907 0 0 0 0 440.89728624765098 105.56721419615565 0 105.56721419615565 176.76224649106825 0 0 0 0 234.96259708620937 101.44236427420651 0 101.44236427420651 151.48686515158806 0 0 0 0 299.27591946723896 157.30005269347112 0 157.30005269347112 166.89833751319497 0 0 0 0 196.76001504866053 161.71611291036425 0 161.71611291036425 138.69427628222275 0 0 0 0 290.52577132922761 118.15453326174566 0 118.15453326174566 126.40130384299391 0 0 0 0 302.34609596552946 153.60468992468577 0 153.60468992468577 106.00147118752329 0 0 0 0 327.126344683551 138.22609238235555 0 138.22609238235555 120.45254548152525 0 0 0 0 372.04336306404139 29.513207636658535 0 29.513207636658535 126.16883447239252 0 0 0 0 302.39716837270316 106.67266577683313 0 106.67266577683313 153.9973018183673 0 0 0 0 375.92322760959814 -60.755199936312238 0 -60.755199936312238 113.57257169156367 0 0 0 0 497.52523749927906 -36.673818493927769 0 -36.673818493927769 106.43002278840322 0 0 0 0 576.94987663506254 -77.309124730148142 0 -77.309124730148142 106.60325124679525 0 0 0 0 504.82564004208598 66.172957236137336 0 66.172957236137336 93.095957249270214 0 0 0 0 487.53926228784167 -155.59650667134383 0 -155.59650667134383 104.77407183448872 0 0 0 0 532.93048950963475 -130.21488333259913 0 -130.21488333259913 89.430920142105606 0 0 0 0 601.72045694416011 -194.97260323831779 0 -194.97260323831779 115.34780136413974 0 0 0 0 551.8817885112544 -239.01793806555906 0 -239.01793806555906 110.65422640860379 0 0 0 0 626.52007903997719 -234.49885600434845 0 -234.49885600434845 86.524350290314032 0 0 0 0 635.95862401431941 -250.38416195855234 0 -250.38416195855234 111.10638237973035 0 0 0 0 750.84867966291495 -139.884904358737 0 -139.884904358737 88.544740398641807 0 0 0 0 758.4155286117475 -243.71295949710566 0 -243.71295949710566 85.642569436681697 0 0 0 0 727.56076443029269 -249.41868168755627 0 -249.41868168755627 91.075646663288353 0 0 0 0 603.46853342921167 50.008767242368776 0 50.008767242368776 95.111968342860564 0 0 0 0 611.83179411889341 -45.646409216090433 0 -45.646409216090433 104.89674533685275 0 0 0 0 608.42905341234155 -53.389529101646531 0 -53.389529101646531 90.328499324541554 0 0 0 0 859.14945006584912 -13.644813677929051 0 -13.644813677929051 92.230483559555068 0 0 0 0 662.04456591518647 166.42453074335208 0 166.42453074335208 227.92697314595716 0 0 0 0 777.60822609030265 -22.096354825915114 0 -22.096354825915114 201.15448451578663 0 0 0 0 766.17072233699764 -59.605372635034655 0 -59.605372635034655 366.35685003319941 0 0 0 0 746.86818803628751 -51.689665031691788 0 -51.689665031691788 135.95119830337535 0 0 0 0 1054.8801816158502 131.81519470055628 0 131.81519470055628 217.59403635520357 0 0 0 0 996.64498017980031 -231.34595050283588 0 -231.34595050283588 174.75120216396863 0 0 0 0 1115.1673556686728 -257.93698177023543 0 -257.93698177023543 84.356683899917698 0 0 0 0 628.61048888791356 -399.12751964683957 0 -399.12751964683957 187.43897877778363 0 0 0 0 1470.9449998925643 -649.00848380476236 0 -649.00848380476236 295.61175261109747 0 0 0 0 531.66262947087671 -668.41367560611161 0 -668.41367560611161 777.28779480207777 0 0 0 0 1452.085589445288 -553.2252021260083 0 -553.2252021260083 213.51400254673445 0 0 0 0 1.1978741074628196 1.9404411126903085 0 1.9404411126903085 0.81553793585793821 0 0 0 0 1152.1928895511624 -122.89023429077906 0 -122.89023429077906 247.09388591715469 0 0 0 0 1727.8408967860078 -369.65235474320252 0 -369.65235474320252 259.58058662848288 0 0 0 0 1194.8019757273801 179.04051355869478 0 179.04051355869478 386.57082516420087 0 0 0 0 766.80458106108881 205.3730156922918 0 205.3730156922918 107.57711223940169 0 0 0 0 2.9282316814851876 1.0566525977716701 0 1.0566525977716701 2.393443931025093 0 0 0 0 767.67914097686798 469.42466076237724 0 469.42466076237724 -5.8395566415256326 0 0 0 0 849.15387370078588 -82.683120711998527 0 -82.683120711998527 -33.124200202544216 0 0 0 0 1515.066645378974 132.11166656443402 0 132.11166656443402 -67.59928755846704 0 0 0 0 1044.6413916539775 -272.36972167583144 0 -272.36972167583144 267.08725928955391 0 0 0 0 10.638514575925456 -15.832023405011796 0 -15.832023405011796 19.052801330783041 0 0 0 0 -0.97019487450597808 -15.735643069718208 0 -15.735643069718208 58.106810970586594 0 0 0 0 19.980232943938518 -33.659124151818105 0 -33.659124151818105 25.800161122112513 0 0 0 0 24.668060692973086 -29.386271278171989 0 -29.386271278171989 -0.48333886877571786 0 0 0 0 0.65274764715198041 -1.5148118452575132 0 -1.5148118452575132 2.1685081687968193 0 0 0 0 25.022817690953161 4.2904697024159759 0 4.2904697024159759 63.034805489550308 0 0 0 0 9.3249966242210576 -25.360321642096096 0 -25.360321642096096 61.464356411277777 0 0 0 0 112.50305301382866 -201.82304551209472 0 -201.82304551209472 13.623531665729388 0 0 0 0 -2.2278650251089971 -7.7613089224016107 0 -7.7613089224016107 11.048664479733361 0 0 0 0 56.955167023633749 -38.805922033871411 0 -38.805922033871411 239.68154366915769 0 0 0 0 4.1748666742942717 4.7832165028159919 0 4.7832165028159919 4.2757867192171322 0 0 0 0 4.6124919983225654 4.0546153405712193 0 4.0546153405712193 5.6644916967910408 0 0 0 0 5.6633085024962515 1.3265852651533887 0 1.3265852651533887 8.5769825442930543 0 0 0 0 0.57591674515788327 3.1481588999895393 0 3.1481588999895393 1.8214819666209223 0 0 0 0 624.28270418875877 -382.75957535660871 0 -382.75957535660871 149.5591121066318 0 0 0 0 502.7565997900092 -391.62162897557755 0 -391.62162897557755 184.05770705490795 0 0 0 0 2.6119817540503618 -23.934757358721072 0 -23.934757358721072 24.330354796173651 0 0 0 0 7.1932781506398102 -3.9134076110237199 0 -3.9134076110237199 2.343674615615253 0 0 0 0 2.4866057367117169 2.7423514250321257 0 2.7423514250321257 4.0070688518572739 0 0 0 0 -42.301172344039969 29.33261000161292 0 29.33261000161292 47.147315349418932 0 0 0 0 -5.3744315990232394 5.4688272116732151 0 5.4688272116732151 22.994490309745743 0 0 0 0 7.2061501493483711 4.9132879563344112 0 4.9132879563344112 6.2603780082119282 0 0 0 0 412.55138037402003 -185.38334438578124 0 -185.38334438578124 148.05697415350187 0 0 0 0 412.03483074336509 -332.00232343804601 0 -332.00232343804601 220.43726503352991 0 0 0 0 558.88660325385445 -287.76532563006549 0 -287.76532563006549 128.58336094708466 0 0 0 0 722.94431308938624 -372.38256741726929 0 -372.38256741726929 123.17601273067703 0 0 0 0 737.69386719195973 -137.53499999881751 0 -137.53499999881751 -141.45304177562502 0 0 0 0 504.66175618221314 -229.93050853243585 0 -229.93050853243585 126.54956056167248 0 0 0 0 576.59676350724203 -292.10002044616067 0 -292.10002044616067 128.07896396712863 0 0 0 0 604.63467655599197 -253.16269447308832 0 -253.16269447308832 131.51469355608424 0 0 0 0 574.32079491883997 -266.36056222531306 0 -266.36056222531306 140.16133484858619 0 0 0 0 612.91425102984977 -239.27713394437342 0 -239.27713394437342 126.81137081721897 0 0 0 0 715.20535345273584 -365.29601544971047 0 -365.29601544971047 233.0601722319916 0 0 0 0 500.74836619896541 -230.72781746505598 0 -230.72781746505598 144.17186792958131 0 0 0 0 19.322583171431148 31.832677006205131 0 31.832677006205131 -17.746615617280668 0 0 0 0 50.882322748209845 -7.8086883437399592 0 -7.8086883437399592 -11.835710555288642 0 0 0 0 17.293184911137146 6.7593854487214813 0 6.7593854487214813 2.7036848836864955 0 0 0 0 -0.50267500490146944 0.04549827871959522 0 0.04549827871959522 1.8130088862599223 0 0 0 0 74.563052442396383 53.483736653054621 0 53.483736653054621 -11.728010942111723 0 0 0 0 1.3704066088759732 1.03013933531461 0 1.03013933531461 0.60765952755488328 0 0 0 0 -44.132784255507829 -53.495337382095613 0 -53.495337382095613 26.92434388078027 0 0 0 0 59.549889876481984 -41.725516638156478 0 -41.725516638156478 -28.96822711873665 0 0 0 0 72.71391575579355 20.588234914979694 0 20.588234914979694 -33.450797587918032 0 0 0 0 34.387940653705982 -49.068341312068924 0 -49.068341312068924 48.757846622337638 0 0 0 0 44.925665040456806 -24.829501700413857 0 -24.829501700413857 6.5599968018104846 0 0 0 0 42.993117914589902 -57.56186167626629 0 -57.56186167626629 -2.1838956444844371 0 0 0 0 123.62861798159122 -55.636226159817852 0 -55.636226159817852 92.920507932811688 0 0 0 0 58.393803102510589 -4.8268859455525899 0 -4.8268859455525899 53.515569286444588 0 0 0 0 45.744776433043626 -12.09771933299362 0 -12.09771933299362 74.478066607099208 0 0 0 0 61.861421511462595 -33.677271757595463 0 -33.677271757595463 44.37672414956478 0 0 0 0 84.204923889626571 58.979177479503051 0 58.979177479503051 53.267756483078301 0 0 0 0 49.370504109012359 14.162975861556788 0 14.162975861556788 36.688379553372215 0 0 0 0 99.516989765890912 79.560032807910375 0 79.560032807910375 -35.263590379097877 0 0 0 0 44.000475091844748 21.309646750800766 0 21.309646750800766 210.71224224392608 0 0 0 0 72.323522599543935 149.34520904310739 0 149.34520904310739 94.673526523001783 0 0 0 0 73.067078246926272 49.19091424192618 0 49.19091424192618 48.043630930265863 0 0 0 0 87.744283883869798 16.220895642912637 0 16.220895642912637 -10.962149549703554 0 0 0 0 65.334167033216318 26.069245423039774 0 26.069245423039774 75.374511487553718 0 0 0 0 -0.72458856389236881 -0.61650164816514419 0 -0.61650164816514419 -0.56315607791324673 0 0 0 0 20.580444731848885 -48.010466465247532 0 -48.010466465247532 63.87295979280816 0 0 0 0 70.223965231405714 43.564867619669712 0 43.564867619669712 -104.70339020124311 0 0 0 0 11.995806726584846 -27.71169035196408 0 -27.71169035196408 47.232290977326556 0 0 0 0 -43.2365131404854 44.625659868825892 0 44.625659868825892 18.600220362849541 0 0 0 0 87.215673916665523 17.859990968520208 0 17.859990968520208 54.320626261063808 0 0 0 0 8.9694602643635335 36.769662026481001 0 36.769662026481001 -81.085193365005125 0 0 0 0 -1.0381586248729648 -4.485934956862291 0 -4.485934956862291 0.25716577497921556 0 0 0 0 6.0221833809374061 -30.024608259424895 0 -30.024608259424895 15.53920897012722 0 0 0 0 -16.415727388461846 -26.645091433204243 0 -26.645091433204243 -22.781934220332914 0 0 0 0 7.1891946355895016 19.359016673994574 0 19.359016673994574 22.541616614378199 0 0 0 0 -57.959539327205448 6.0745769608586215 0 6.0745769608586215 34.230733638527454 0 0 0 0 -12.237998081794103 11.758703501897799 0 11.758703501897799 33.57906368363723 0 0 0 0 -14.774428270912267 18.453221658153325 0 18.453221658153325 56.312020177701015 0 0 0 0 -5.174284883250948 34.176360539400321 0 34.176360539400321 52.183469242245337 0 0 0 0 5.9828096634760186 10.819979335411062 0 10.819979335411062 59.023264396156719 0 0 0 0 41.976688166245822 -16.481001916250989 0 -16.481001916250989 48.319545311497677 0 0 0 0 1.5684551240213978 -16.82174252408447 0 -16.82174252408447 62.399076702021375 0 0 0 0 5.6582541018796633 15.581931848150816 0 15.581931848150816 160.57839233786535 0 0 0 0 172.66215052229171 -135.45210005334127 0 -135.45210005334127 3.7839205825312092 0 0 0 0 1.6311741334104681 23.044718105774336 0 23.044718105774336 22.770340903937722 0 0 0 0 -28.633569395194797 23.861185649447634 0 23.861185649447634 71.316319918449153 0 0 0 0 1.0621725373451341 -1.0464885157020944 0 -1.0464885157020944 100.41843781034549 0 0 0 0 24.172096397052655 55.476720140874022 0 55.476720140874022 73.825111324947557 0 0 0 0 -3.6962410679828963 39.433213668661665 0 39.433213668661665 63.707624140798771 0 0 0 0 -6.8011182136856405 43.806276618456195 0 43.806276618456195 76.443122432632663 0 0 0 0 -0.12180119940631251 0.063068653983480161 0 0.063068653983480161 2.1824866261106228 0 0 0 0 57.093913095942455 84.51790632847451 0 84.51790632847451 83.57777513788642 0 0 0 0 141.2451325674034 15.989334866637819 0 15.989334866637819 29.96003250418471 0 0 0 0 21.536408982913002 60.054734927244681 0 60.054734927244681 144.45492638078099 0 0 0 0 80.112187785563947 42.606103280856587 0 42.606103280856587 20.836180897166741 0 0 0 0 50.839322988455251 22.243584353363303 0 22.243584353363303 15.74939836255362 0 0 0 0 5.8704319187439751 7.2433993746906253 0 7.2433993746906253 -3.026248589917941 0 0 0 0 52.133468263743367 55.04221681188335 0 55.04221681188335 38.173798970078678 0 0 0 0 -70.805667083984531 -12.643557879126547 0 -12.643557879126547 44.972471099752738 0 0 0 0 52.143196197588111 18.961031280098041 0 18.961031280098041 -9.1343574153079317 0 0 0 0 10.013104207839101 0.5765166057628921 0 0.5765166057628921 4.4066093297881963 0 0 0 0 80.065742603941771 22.955153924669048 0 22.955153924669048 -22.113357327217273 0 0 0 0 11.575502123564888 30.345528264825361 0 30.345528264825361 -22.27673986429545 0 0 0 0 10.548964686629201 -0.61800781744010447 0 -0.61800781744010447 -2.7016296578059809 0 0 0 0 82.744110786081364 -15.234169666945036 0 -15.234169666945036 34.041500330498366 0 0 0 0 31.399211114087848 -11.772924692755169 0 -11.772924692755169 47.346176553719488 0 0 0 0 1.488650087156401 41.556844789539127 0 41.556844789539127 46.311448601221855 0 0 0 0 71.408452389345712 23.204424454389937 0 23.204424454389937 27.264844885297862 0 0 0 0 17.311809313950789 24.214911617313646 0 24.214911617313646 40.937888818149077 0 0 0 0 36.94468361908929 13.550503667427051 0 13.550503667427051 45.877975077017254 0 0 0 0 18.677263570862124 28.615693280334199 0 28.615693280334199 52.571522907829461 0 0 0 0 -61.86661559121751 49.855725805111433 0 49.855725805111433 54.293475851290168 0 0 0 0 22.434878106354063 25.002229702618479 0 25.002229702618479 19.645780148326139 0 0 0 0 121.12025114282369 59.405542051999191 0 59.405542051999191 0.15392813997186749 0 0 0 0 22.542229309444021 41.173857074804587 0 41.173857074804587 35.975949330641015 0 0 0 0 156.89697907656227 -3.5840575472218461 0 -3.5840575472218461 0.33640485050364077 0 0 0 0 124.1865905081022 -48.955434586191473 0 -48.955434586191473 27.143036309898889 0 0 0 0 61.354478482579907 -0.033124853277058719 0 -0.033124853277058719 25.863769534170387 0 0 0 0 32.260147584124297 1.9194698567382602 0 1.9194698567382602 7.349908874358789 0 0 0 0 36.24807925535606 6.5234338375639709 0 6.5234338375639709 1.659629361755492 0 0 0 0 14.776701480782382 -5.9532459309623853 0 -5.9532459309623853 1.5876284057988723 0 0 0 0 385.1986999809302 -112.35129593846295 0 -112.35129593846295 -55.425928978836737 0 0 0 0 28.974676394915527 -2.3823600714582152 0 -2.3823600714582152 1.5473948640509283 0 0 0 0 21.344874356402897 76.583825686139562 0 76.583825686139562 16.19407024768816 0 0 0 0 54.281452572296075 9.6648454512002218 0 9.6648454512002218 9.5957938566589291 0 0 0 0 44.724439138841262 0.43881446733439589 0 0.43881446733439589 10.996443601124383 0 0 0 0 62.937794627314702 8.0077423607804121 0 8.0077423607804121 1.8398948339890921 0 0 0 0 36.120488506704184 1.0052126007800535 0 1.0052126007800535 1.4849276238357079 0 0 0 0 36.552883953885612 6.0327944093475026 0 6.0327944093475026 12.482777708943559 0 0 0 0 21.12577422219794 0.42559618684090772 0 0.42559618684090772 7.6615016922935757 0 0 0 0 49.260464549479593 -1.4001693513027931 0 -1.4001693513027931 -35.074951094598191 0 0 0 0 24.127150738259388 2.5141278374638887 0 2.5141278374638887 0.83547926671599271 0 0 0 0 21.471809841973748 1.0259678754898029 0 1.0259678754898029 2.6082743251987752 0 0 0 0 16.371950190261103 0.36628478075259352 0 0.36628478075259352 10.640235780473944 0 0 0 0 23.089329255793928 6.3961692195971409 0 6.3961692195971409 30.647092129940575 0 0 0 0 9.0672101032641876 -7.8791819907528406 0 -7.8791819907528406 31.276939726972614 0 0 0 0 16.05604649153284 -5.8183012457690637 0 -5.8183012457690637 2.8785519760754434 0 0 0 0 -2.2482683586181338 -10.669879274939035 0 -10.669879274939035 47.11765660608944 0 0 0 0 52.504651180202359 2.3701663248984914 0 2.3701663248984914 -14.888537696036735 0 0 0 0 18.701535615312878 -37.516878553364904 0 -37.516878553364904 52.725572916921919 0 0 0 0 5.0304636004142971 0.79797483038921868 0 0.79797483038921868 -0.93302730758492558 0 0 0 0 12.857503566170891 -13.966283911109429 0 -13.966283911109429 36.49869134036453 0 0 0 0 40.644813338793483 6.9594588807185573 0 6.9594588807185573 18.769437623474005 0 0 0 0 100.71988417478565 -18.911863277998236 0 -18.911863277998236 29.91020167816032 0 0 0 0 46.385835076221326 10.322211054750824 0 10.322211054750824 -20.435184347757968 0 0 0 0 35.510551835485785 -15.410923721402924 0 -15.410923721402924 0.79887732918859911 0 0 0 0 42.379710063535185 -4.1380966495873395 0 -4.1380966495873395 7.898529096727998 0 0 0 0 5.8535375141131007 1.0899395249509558 0 1.0899395249509558 -0.89903007188705164 0 0 0 0 26.056801572797667 -4.3742513822655837 0 -4.3742513822655837 10.161642883836748 0 0 0 0 43.079624040326962 -5.9737747282824216 0 -5.9737747282824216 4.8560576861681284 0 0 0 0 42.059269330748066 -3.8813992928336347 0 -3.8813992928336347 3.2037519892205637 0 0 0 0 27.107510527577514 -13.158909368740392 0 -13.158909368740392 7.237810825355087 0 0 0 0 1.8216946538623233 -40.599582044758336 0 -40.599582044758336 -4.1720672722112795 0 0 0 0 26.034566604712381 -22.812334773729617 0 -22.812334773729617 -17.461271226808805 0 0 0 0 77.735777647843861 -9.8251080697864381 0 -9.8251080697864381 -18.84275890089566 0 0 0 0 161.66592123050941 218.25693349470748 0 218.25693349470748 195.79461922888368 0 0 0 0 14.81830416817694 -0.53769061580535027 0 -0.53769061580535027 1.9296445004121185 0 0 0 0 94.70235136044721 -39.372025976709892 0 -39.372025976709892 -7.1620212640158343 0 0 0 0 28.504623300584626 -4.1313544641180897 0 -4.1313544641180897 4.1892308435103587 0 0 0 0 -490.91172814486026 -320.18889396966324 0 -320.18889396966324 455.36488963090778 0 0 0 0 44.552957928465275 36.879167276725298 0 36.879167276725298 27.94029839784514 0 0 0 0 -97.03103951166122 -108.65626833416172 0 -108.65626833416172 -25.898079436686572 0 0 0 0 -8.8534735727498628 14.300347502676686 0 14.300347502676686 134.54805923506137 0 0 0 0 -120.66299223354326 -36.905239259593827 0 -36.905239259593827 157.38486607429149 0 0 0 0 0.75182595233575356 -1.6954873351612667 0 -1.6954873351612667 2.4351562381000402 0 0 0 0 62.929181350814133 37.658890383000823 0 37.658890383000823 11.334381429898713 0 0 0 0 -129.9963606672427 -31.996397875232105 0 -31.996397875232105 167.86249296108417 0 0 0 0 33.27856542565678 13.232641174494574 0 13.232641174494574 13.799229010216095 0 0 0 0 17.539653825391269 -2.7975832315972866 0 -2.7975832315972866 0.44022131957717647 0 0 0 0 29.97990679843133 -2.0010533891263549 0 -2.0010533891263549 -0.274600250460594 0 0 0 0 4.4831238221904703 -4.4031343318922458 0 -4.4031343318922458 3.1181174075356761 0 0 0 0 40.615636228442781 -119.92475476003847 0 -119.92475476003847 -105.19023515507843 0 0 0 0 -39.007142949173272 -12.461899526715115 0 -12.461899526715115 -15.781306805645727 0 0 0 0 2.4514760528637423 1.6826148722404133 0 1.6826148722404133 1.8212381973088743 0 0 0 0 7.0376457513411879 -20.360313692200634 0 -20.360313692200634 117.24504373904938 0 0 0 0 96.175830960031817 -62.167936691953742 0 -62.167936691953742 47.821415205496578 0 0 0 0 211.4563350943863 -62.098881938711656 0 -62.098881938711656 -132.64306313871225 0 0 0 0 78.086625458548042 59.699428079180052 0 59.699428079180052 14.623552396380546 0 0 0 0 67.907116595895332 -69.428480362853406 0 -69.428480362853406 82.407959242652396 0 0 0 0 32.867573246611755 -39.61242239099056 0 -39.61242239099056 60.052841926983092 0 0 0 0 94.748431668403555 -58.123402658580517 0 -58.123402658580517 44.823850867346209 0 0 0 0 1.5051473052777951 0.72363343762560017 0 0.72363343762560017 1.0034542189423545 0 0 0 0 65.460962972016432 -38.725048257444087 0 -38.725048257444087 38.678915267706543 0 0 0 0 80.809946732179924 -50.737780438787468 0 -50.737780438787468 47.474975722780528 0 0 0 0 81.482656071219026 -50.545916347741468 0 -50.545916347741468 42.024168969139282 0 0 0 0 13.647746980356485 5.7166782483719096 0 5.7166782483719096 5.3721751114928411 0 0 0 0 33.92829081407649 0.63037848818174735 0 0.63037848818174735 -1.4408778591882376 0 0 0 0 -155.74353676673456 7.6636757621835159 0 7.6636757621835159 102.86670316146387 0 0 0 0 38.004944521262587 -3.5875941452168263 0 -3.5875941452168263 -4.8488570218362952 0 0 0 0 34.561395521512168 19.150491268079122 0 19.150491268079122 -10.967684506023488 0 0 0 0 14.902031282297582 7.6862976594213333 0 7.6862976594213333 1.3630773189675907 0 0 0 0 40.891740636977374 3.3552660276495772 0 3.3552660276495772 -18.141770336258901 0 0 0 0 35.709625211116418 1.4864793619934744 0 1.4864793619934744 -3.1468334342804383 0 0 0 0 25.176339695435672 -6.2942734190501142 0 -6.2942734190501142 8.4463747959254718 0 0 0 0 29.23723201921166 2.8627784564605463 0 2.8627784564605463 7.3421588176474302 0 0 0 0 -3.8358166377762757 6.3582301219153781 0 6.3582301219153781 9.8488215325633064 0 0 0 0 0.5949525060752201 3.0146526082479372 0 3.0146526082479372 1.3057004006151509 0 0 0 0 19.682549868502274 1.5236022347131248 0 1.5236022347131248 -1.6893652817809346 0 0 0 0 12.351305516147349 3.6886737603218607 0 3.6886737603218607 0.64567217877880023 0 0 0 0 17.995012238932759 -2.8533282163793956 0 -2.8533282163793956 -31.453765380071339 0 0 0 0 14.864193022014456 -1.5225735619393523 0 -1.5225735619393523 11.640673587504807 0 0 0 0 15.368670267258949 5.0177596277788155 0 5.0177596277788155 10.900082207759993 0 0 0 0 24.808436471075538 -10.584789152861276 0 -10.584789152861276 5.7719499523890008 0 0 0 0 23.631753833585663 -3.021759901277381 0 -3.021759901277381 3.850574793702549 0 0 0 0 23.386988475283943 3.1427252278419928 0 3.1427252278419928 7.5391790443591162 0 0 0 0 37.203486309736945 0.60540279818340537 0 0.60540279818340537 4.3675403173339191 0 0 0 0 34.870264782374761 -4.980160905941716 0 -4.980160905941716 2.5957483184960211 0 0 0 0 28.769921000007571 -6.9821528746065553 0 -6.9821528746065553 9.0365690533289751 0 0 0 0 26.944366281892982 1.3689641398225123 0 1.3689641398225123 -0.99060227589774608 0 0 0 0 28.435056372654458 -1.6474554215065389 0 -1.6474554215065389 0.26091938980185714 0 0 0 0 64.469325483838475 60.039165368671092 0 60.039165368671092 -52.299493207609657 0 0 0 0 28.270501857723669 2.1938077626953119 0 2.1938077626953119 -0.22184739665203168 0 0 0 0 27.44787071817791 3.105738488431939 0 3.105738488431939 7.1771849290068985 0 0 0 0 27.06900464144303 0.58371088200853904 0 0.58371088200853904 5.2278406686855305 0 0 0 0 25.562602979494841 0.064013443459771224 0 0.064013443459771224 -19.598727270325611 0 0 0 0 126.94280262476241 -86.416562604354795 0 -86.416562604354795 -225.72019250495788 0 0 0 0 -5.5177109679571004 -17.485626626536487 0 -17.485626626536487 8.5319254624489531 0 0 0 0 15.377839573752084 2.0276386518608649 0 2.0276386518608649 0.10758531141508265 0 0 0 0 24.22094538555757 -0.66665964263233946 0 -0.66665964263233946 -2.9818052168411668 0 0 0 0 26.233375425971644 24.041281122600253 0 24.041281122600253 -9.2496219475081034 0 0 0 0 22.273177441893608 6.0989736632385831 0 6.0989736632385831 1.3824428648237617 0 0 0 0 18.51709210666013 5.566544758447435 0 5.566544758447435 -1.0944816930857542 0 0 0 0 24.204263757338985 3.2286855276644113 0 3.2286855276644113 0.62568484608441532 0 0 0 0 30.729205231723427 0.24212619761851784 0 0.24212619761851784 1.7819560562393235 0 0 0 0 31.820017610405557 1.658206681106094 0 1.658206681106094 3.147665255825018 0 0 0 0 25.542588589339829 2.2157998264662506 0 2.2157998264662506 -4.812513409316125 0 0 0 0 24.175012455045216 -2.320831734057291 0 -2.320831734057291 -0.088238783122232711 0 0 0 0 42.000644543844402 2.2421009664783149 0 2.2421009664783149 4.0394297591101349 0 0 0 0 41.92093315576858 1.7916687194151564 0 1.7916687194151564 1.8807053265086324 0 0 0 0 8.5542191143684825 -3.9208928929355071 0 -3.9208928929355071 2.8487767080141606 0 0 0 0 42.845367388261366 1.5315360827162294 0 1.5315360827162294 8.5458532846218986 0 0 0 0 40.038815519863419 1.2151105968928277 0 1.2151105968928277 8.5674387227833506 0 0 0 0 36.938689326498206 1.0751817345908421 0 1.0751817345908421 6.9441786955981115 0 0 0 0 40.625663314315716 3.7773819191240818 0 3.7773819191240818 8.8744299061227139 0 0 0 0 42.459811872038699 4.1480950858685901 0 4.1480950858685901 8.9051171421482991 0 0 0 0 40.454829151631202 4.5692775973332118 0 4.5692775973332118 9.3577863652049018 0 0 0 0 43.698201999070989 5.8077517380716017 0 5.8077517380716017 7.3152616508837127 0 0 0 0 15.919947633926652 3.9580633830854186 0 3.9580633830854186 4.0887854637752836 0 0 0 0 48.0614527486523 2.8880070531840829 0 2.8880070531840829 6.8342597704136097 0 0 0 0 22.904048444834189 5.8409484512862946 0 5.8409484512862946 3.3970916654880057 0 0 0 0 31.396209572815607 3.4319993287867732 0 3.4319993287867732 0.12409271268895417 0 0 0 0 28.096065888482691 6.6643544029840758 0 6.6643544029840758 1.1660058408221379 0 0 0 0 23.611567279935116 4.8350899324254897 0 4.8350899324254897 0.95608127346417859 0 0 0 0 12.160633544528537 13.793377054829307 0 13.793377054829307 31.357521760342934 0 0 0 0 23.429720002750464 7.4306172666436758 0 7.4306172666436758 3.3264347624389288 0 0 0 0 30.972630408574332 13.892371676248331 0 13.892371676248331 35.208554455539343 0 0 0 0 25.829380931412082 6.2993165016587866 0 6.2993165016587866 9.4123464191882391 0 0 0 0 30.511176273408637 6.8413914376615139 0 6.8413914376615139 4.535233499570495 0 0 0 0 24.805085794592742 5.3072839616743295 0 5.3072839616743295 6.9566520447106086 0 0 0 0 20.176910954096179 5.9719599081408132 0 5.9719599081408132 6.4083587295378557 0 0 0 0 28.285742624444538 7.0347986844817569 0 7.0347986844817569 5.3237866409479011 0 0 0 0 -280.07591779403816 54.64072909107545 0 54.64072909107545 39.99802168037877 0 0 0 0 14.038392200949508 5.5314459168817507 0 5.5314459168817507 7.8969788682702102 0 0 0 0 28.75306350387109 1.9514355734663695 0 1.9514355734663695 6.484011505583112 0 0 0 0 17.078403030879912 -2.1449634480888697 0 -2.1449634480888697 2.8722634000429839 0 0 0 0 -12.77540668178699 -4.3618704462126061 0 -4.3618704462126061 -8.6651143925832912 0 0 0 0 42.993154909723671 7.2550283701914395 0 7.2550283701914395 -167.80051995372446 0 0 0 0 -0.92140804467271664 6.3105765729160339 0 6.3105765729160339 -50.089843729478162 0 0 0 0 6.639776400097972 -3.2177426702046787 0 -3.2177426702046787 -1.4147886500892242 0 0 0 0 15.425937938169568 -1.9091956907732293 0 -1.9091956907732293 -0.74680354613929012 0 0 0 0 10.336711081661633 -11.882441889592428 0 -11.882441889592428 -15.438233737999326 0 0 0 0 24.204463666571986 -4.5564132194659734 0 -4.5564132194659734 -6.7819440570682392 0 0 0 0 -20.018359582150879 -4.6626391640766087 0 -4.6626391640766087 -17.142151434329207 0 0 0 0 22.022463835291383 -3.5286083345168819 0 -3.5286083345168819 -6.8244225643060705 0 0 0 0 28.090713562563508 2.454604932360839 0 2.454604932360839 -0.74131007891810441 0 0 0 0 23.950427884359669 6.2088644354071221 0 6.2088644354071221 4.0640300602074149 0 0 0 0 19.33710966335466 -0.25865139222584332 0 -0.25865139222584332 0.38100673343294389 0 0 0 0 -14.592308857289026 -26.05717116994731 0 -26.05717116994731 84.288398814164111 0 0 0 0 0.54130798344414188 0.15952850710428201 0 0.15952850710428201 1.5142311674667852 0 0 0 0 37.187406122469838 -75.681910916342304 0 -75.681910916342304 -60.389369499852819 0 0 0 0 14.75834607516299 10.854172082353671 0 10.854172082353671 16.614033753264266 0 0 0 0 0.83005726686587877 -6.3200759897416106 0 -6.3200759897416106 22.43791409539358 0 0 0 0 -2.6439319251003326 -21.264677688240226 0 -21.264677688240226 0.66782622891039978 0 0 0 0 18.948066251497067 -7.6748374237557826 0 -7.6748374237557826 -3.0467077222484544 0 0 0 0 13.024600840728638 -12.736634181108261 0 -12.736634181108261 -3.6766804321165107 0 0 0 0 184.86735851287085 -26.041011082171508 0 -26.041011082171508 4.9598108098426223 0 0 0 0 144.9231625564571 193.059928237127 0 193.059928237127 -275.68187803927611 0 0 0 0 10.959559001844809 216.19426772564086 0 216.19426772564086 187.34703407099232 0 0 0 0 -244.95042070322961 102.98060136216895 0 102.98060136216895 106.15942005683075 0 0 0 0 15.533714771823725 176.7413444850572 0 176.7413444850572 -27.105992149110079 0 0 0 0 -188.46846736677981 33.782600351337805 0 33.782600351337805 -91.950592849828354 0 0 0 0 285.1909905211287 360.40340448355141 0 360.40340448355141 -97.313709748122619 0 0 0 0 -72.311641995449463 -166.87915154322064 0 -166.87915154322064 270.42672691260663 0 0 0 0 409.36810954899556 -214.31706747576038 0 -214.31706747576038 150.90325447016318 0 0 0 0 5.2304970935032458 -0.44943031771054354 0 -0.44943031771054354 0.19527764052516228 0 0 0 0 -9.4986801403283607 12.406504858374433 0 12.406504858374433 124.76152302821669 0 0 0 0 118.53213268445688 -321.33583641712926 0 -321.33583641712926 10.370279594207545 0 0 0 0 -22.738690360805776 47.825019027639428 0 47.825019027639428 98.27583750664644 0 0 0 0 29.771534390754823 -100.46044698879155 0 -100.46044698879155 39.383687154286349 0 0 0 0 150.50123858387087 25.405492210475927 0 25.405492210475927 -105.54303829849732 0 0 0 0 29.575093113926414 23.497659460342334 0 23.497659460342334 54.349379679186882 0 0 0 0 86.348285969572316 63.661465062484467 0 63.661465062484467 12.684812378846573 0 0 0 0 31.542883657544735 -1.4292270625633137 0 -1.4292270625633137 -55.683223481848472 0 0 0 0 23.463689567033725 31.263803225266315 0 31.263803225266315 45.068677217658205 0 0 0 0 28.313462360922131 22.550936118391519 0 22.550936118391519 11.358646812539178 0 0 0 0 20.59868351410114 15.438555183274616 0 15.438555183274616 35.685277911707828 0 0 0 0 28.581474040583998 2.9306805145740782 0 2.9306805145740782 52.736640419159187 0 0 0 0 -32.290529797512136 24.075344024402 0 24.075344024402 68.534678059316207 0 0 0 0 -8.7441901467500429 -46.629217988972187 0 -46.629217988972187 54.625116492755751 0 0 0 0 54.369559850201767 22.909073102975526 0 22.909073102975526 23.336917118828978 0 0 0 0 11.658611405007832 27.371527994092048 0 27.371527994092048 32.368222920201333 0 0 0 0 33.818121359170618 22.601274507291009 0 22.601274507291009 24.678166282315033 0 0 0 0 53.464493051564205 34.733295468900906 0 34.733295468900906 15.924396445081584 0 0 0 0 4.6849289797857701 4.34492269726735 0 4.34492269726735 1.0700517939793706 0 0 0 0 -24.477714671125668 35.83275798711216 0 35.83275798711216 28.529290240051974 0 0 0 0 -3.8188853162873784 16.695446793768951 0 16.695446793768951 32.111683308170541 0 0 0 0 3.4111026655546084 35.864533496351896 0 35.864533496351896 17.52849062855239 0 0 0 0 15.68009728143079 49.900906667509616 0 49.900906667509616 24.42273191870936 0 0 0 0 5.643857237621198 21.893862982639213 0 21.893862982639213 25.010253036345183 0 0 0 0 6.5363287872933142 13.382879377886638 0 13.382879377886638 32.602888050749243 0 0 0 0 -12.617192765220352 7.5994878920637348 0 7.5994878920637348 46.633777412581026 0 0 0 0 45.91548952633093 16.504567145742385 0 16.504567145742385 10.478751922973061 0 0 0 0 48.735333676107075 29.984668414610155 0 29.984668414610155 25.198507709267233 0 0 0 0 18.000163183684577 19.127287377040282 0 19.127287377040282 24.97882074236313 0 0 0 0 9.8459955001453636 10.220345683902451 0 10.220345683902451 31.648690239258258 0 0 0 0 39.793195163672863 11.564017036306268 0 11.564017036306268 12.287410835718219 0 0 0 0 22.589738456129503 -7.1107972176512497 0 -7.1107972176512497 -2.6070954027889037 0 0 0 0 41.360872169463619 3.4017763435824691 0 3.4017763435824691 13.254228609660117 0 0 0 0 36.833163520506702 5.9668794234090932 0 5.9668794234090932 10.354112010377321 0 0 0 0 52.525956872877146 10.45096157205203 0 10.45096157205203 5.807683608842126 0 0 0 0 10.999229546921296 -7.614598281943227 0 -7.614598281943227 3.8399867877360467 0 0 0 0 40.848628173215275 6.186924064966405 0 6.186924064966405 9.256012752148763 0 0 0 0 65.502988152391481 30.97846093651242 0 30.97846093651242 32.343492817802144 0 0 0 0 20.578884759995105 -11.830734708316484 0 -11.830734708316484 -2.5830266771902917 0 0 0 0 42.465386593295989 0.64923734128569777 0 0.64923734128569777 16.552295455954663 0 0 0 0 52.379537682583759 7.3776786236576299 0 7.3776786236576299 9.5707885063075082 0 0 0 0 63.854973826797504 -0.060224142753213528 0 -0.060224142753213528 14.320180061427891 0 0 0 0 37.962286304595182 9.8045155685540522 0 9.8045155685540522 49.614109487094538 0 0 0 0 -0.10153184452639152 0.16441432806275103 0 0.16441432806275103 3.0998753521744993 0 0 0 0 57.38948019331292 16.243580944747919 0 16.243580944747919 20.458091754658881 0 0 0 0 69.053868156363023 19.890719741335033 0 19.890719741335033 17.223938342149722 0 0 0 0 51.282957295134111 -172.44524178210429 0 -172.44524178210429 55.122492020354457 0 0 0 0 260.31402255738794 185.38835341536372 0 185.38835341536372 -47.000123480516777 0 0 0 0 57.409080571116647 9.3427119270272669 0 9.3427119270272669 33.34009109233557 0 0 0 0 50.506371582597637 5.5613824096453168 0 5.5613824096453168 -9.0070908688115807 0 0 0 0 73.652003815688659 -107.675675004406 0 -107.675675004406 -109.88582581295566 0 0 0 0 40.355258308933116 -6.0355819498254277 0 -6.0355819498254277 19.232157511994046 0 0 0 0 52.976161607126414 35.596206538039041 0 35.596206538039041 -11.666391567652681 0 0 0 0 31.005383231102002 5.9527033374759366 0 5.9527033374759366 2.0459753567167027 0 0 0 0 5.9182227581786151 0.10706851064609424 0 0.10706851064609424 -3.5498718344912277 0 0 0 0 78.082747546432074 27.313039905347978 0 27.313039905347978 31.613289458856343 0 0 0 0 114.5605770796974 150.46727849394222 0 150.46727849394222 67.903442542637947 0 0 0 0 3.1630067990387687 0.36144460481013851 0 0.36144460481013851 -0.24508354939625754 0 0 0 0 4.0538807517041278 -34.642315842514336 0 -34.642315842514336 131.46278489322913 0 0 0 0 18.815156566648511 -20.975285110976074 0 -20.975285110976074 -31.87880820909686 0 0 0 0 174.22965794795891 -29.835066868770866 0 -29.835066868770866 47.426107325265207 0 0 0 0 49.050731667812215 140.08328876561154 0 140.08328876561154 174.79703802808262 0 0 0 0 -109.56734671161746 -1.0035359416608571 0 -1.0035359416608571 18.282906885910052 0 0 0 0 -15.562179733709645 51.150984516020849 0 51.150984516020849 33.233203593149909 0 0 0 0 63.225203508700375 10.670348707618894 0 10.670348707618894 -6.5987242975228444 0 0 0 0 7.9000249902019277 64.786983122657489 0 64.786983122657489 42.265176171352778 0 0 0 0 162.41433990892256 67.276659109902994 0 67.276659109902994 -145.95258491593358 0 0 0 0 -50.83463141954644 -12.435979825428149 0 -12.435979825428149 -3.0491009781217144 0 0 0 0 -49.06522939127035 53.003458061504261 0 53.003458061504261 17.545768104734634 0 0 0 0 -1.5099555650793484 6.1942894525245933 0 6.1942894525245933 11.931239422675425 0 0 0 0 -6.3579913055209545 13.892883272049403 0 13.892883272049403 -11.157708194807356 0 0 0 0 -77.45430440702421 -14.707162627775688 0 -14.707162627775688 4.5057805276878753 0 0 0 0 67.210152548580254 221.5203146036406 0 221.5203146036406 80.889481170041108 0 0 0 0 -28.601649143631676 81.187354156041692 0 81.187354156041692 35.496319508552006 0 0 0 0 -14.102370095295484 52.413642554586609 0 52.413642554586609 30.782786690881309 0 0 0 0 -209.15489346029131 35.3384815268887 0 35.3384815268887 176.96939502767509 0 0 0 0 57.420133176754462 15.10996629976448 0 15.10996629976448 52.977486342990233 0 0 0 0 236.07869986911646 122.69279333223672 0 122.69279333223672 -21.35599515875424 0 0 0 0 260.23710480687441 44.975214907722972 0 44.975214907722972 -4.4083392216307402 0 0 0 0 115.80760726600784 80.133576058292334 0 80.133576058292334 -2.9886287558779259 0 0 0 0 135.11116124325781 98.213666603209504 0 98.213666603209504 -30.119207913716764 0 0 0 0 14.203243211410154 12.5357780575346 0 12.5357780575346 -15.874236334834791 0 0 0 0 132.07927202532301 108.41269111199655 0 108.41269111199655 -5.7644149733214363 0 0 0 0 163.43240315456933 84.178430127151159 0 84.178430127151159 3.9566492247270162 0 0 0 0 134.48496714362409 79.518432370696445 0 79.518432370696445 4.56138723016565 0 0 0 0 159.57045936678333 94.443793801096376 0 94.443793801096376 1.2884369614744173 0 0 0 0 147.75383929098462 85.601119454039576 0 85.601119454039576 10.012510139700908 0 0 0 0 189.69621477580222 53.412526947225615 0 53.412526947225615 -32.894429409324403 0 0 0 0 154.59419284312025 102.93612958577472 0 102.93612958577472 9.4628647759569731 0 0 0 0 64.394876320835465 87.125805046787605 0 87.125805046787605 16.46415263802453 0 0 0 0 144.77979009419869 140.51888883825649 0 140.51888883825649 18.473472754064687 0 0 0 0 234.59198096952605 94.40782683153418 0 94.40782683153418 -24.899085248357096 0 0 0 0 232.31043822068386 86.176009395761923 0 86.176009395761923 -44.946111045042471 0 0 0 0 215.10269253199021 86.228316588206667 0 86.228316588206667 -21.978589425022165 0 0 0 0 237.290289493822 179.79623457532847 0 179.79623457532847 35.143502813703435 0 0 0 0 24.74705524482124 13.21504381351906 0 13.21504381351906 78.381639854290938 0 0 0 0 117.9487480016669 87.028170766119729 0 87.028170766119729 12.994852472209459 0 0 0 0 119.49234056662772 147.84788429895798 0 147.84788429895798 23.358001817834293 0 0 0 0 175.66943904765321 118.68052572247097 0 118.68052572247097 -13.244121626259584 0 0 0 0 238.64827460806828 217.77462936760685 0 217.77462936760685 99.221702551993076 0 0 0 0 302.47519886791633 95.842182254904401 0 95.842182254904401 25.773309265975968 0 0 0 0 244.46320058597257 214.21197372507504 0 214.21197372507504 -17.235392868617964 0 0 0 0 155.21429761183572 187.448559680068 0 187.448559680068 -25.211903233250268 0 0 0 0 -16.733409964030585 53.37076949648403 0 53.37076949648403 24.957527493350323 0 0 0 0 -107.08767686103062 117.83354910397509 0 117.83354910397509 87.046871090753484 0 0 0 0 39.936403606773638 -15.184605721219768 0 -15.184605721219768 -6.0521413172786538 0 0 0 0 -9.3143192487768829 -3.1391086586772872 0 -3.1391086586772872 -0.029811940068270815 0 0 0 0 32.335199153741996 27.588804028033451 0 27.588804028033451 -1.5657948163792383 0 0 0 0 3.5739389426598791 9.2342016919110392 0 9.2342016919110392 -28.825388157059933 0 0 0 0 3.5739389426889829 9.2342016919169509 0 9.2342016919169509 -28.825388157054931 0 0 0 0 42.917119060824916 28.947420155487862 0 28.947420155487862 -34.422524655332381 0 0 0 0 3.5739389426889829 9.2342016919283196 0 9.2342016919283196 -28.82538815704811 0 0 0 0 13.831348432562663 -18.092506195564511 0 -18.092506195564511 -49.049477898483019 0 0 0 0 23.121784936454787 -2.6661321775307556 0 -2.6661321775307556 26.162187253626357 0 0 0 0 106.33985853097329 -33.48902788563953 0 -33.48902788563953 -139.3477989015305 0 0 0 0 41.263548206549217 -2.7499262414802264 0 -2.7499262414802264 -1.5744345651800571 0 0 0 0 41.199621925832616 -20.247205632069296 0 -20.247205632069296 -13.216516739336043 0 0 0 0 17.688390566967428 -48.154939572272013 0 -48.154939572272013 -38.111819130918121 0 0 0 0 32.577952049323358 -18.97982749023231 0 -18.97982749023231 -12.754951537749918 0 0 0 0 -222.56965340854367 49.249243082416115 0 49.249243082416115 -42.499459592259427 0 0 0 0 3.0372887558969097 -1.1984519770733328 0 -1.1984519770733328 0.20145141365017594 0 0 0 0 34.352737358325612 -46.573064251628089 0 -46.573064251628089 -40.233144110708452 0 0 0 0 36.767881340958411 -13.431937555635358 0 -13.431937555635358 3.9504453359213016 0 0 0 0 43.997101728629787 -8.8092800270451335 0 -8.8092800270451335 2.8548951823681818 0 0 0 0 41.131898490658585 -5.3819428681626444 0 -5.3819428681626444 -2.6443951870711406 0 0 0 0 61.405111840678728 -4.0549450620197831 0 -4.0549450620197831 4.8796964469379418 0 0 0 0 34.760780035459902 -1.2291164111285298 0 -1.2291164111285298 17.462102116208257 0 0 0 0 7.9167361552543909 -1.0597234642321069 0 -1.0597234642321069 -2.8232452367982157 0 0 0 0 57.813075098281843 -21.320668369778105 0 -21.320668369778105 -19.678225090665819 0 0 0 0 67.176646459942276 -19.158393975523353 0 -19.158393975523353 -25.365664795276189 0 0 0 0 40.715736850557732 -512.12942633430646 0 -512.12942633430646 159.95693883441402 0 0 0 0 72.698921151437389 -11.994609155387806 0 -11.994609155387806 -18.838174247638221 0 0 0 0 -284.01822708758846 -173.69346912992384 0 -173.69346912992384 149.64775265482695 0 0 0 0 5.1688707798349922 -1.048593998934507 0 -1.048593998934507 -2.2320417866704805 0 0 0 0 -104.1519013694342 23.294627279684391 0 23.294627279684391 -49.258165482321601 0 0 0 0 87.799539908985025 -37.449447557889698 0 -37.449447557889698 -124.4186494498681 0 0 0 0 98.760527826889302 54.882330500325054 0 54.882330500325054 -88.670190483786371 0 0 0 0 -11.015211940553854 -121.28765189671469 0 -121.28765189671469 -38.232699542389696 0 0 0 0 108.57304075007778 22.417190962457973 0 22.417190962457973 -24.780272332752929 0 0 0 0 346.13162994162121 -91.083646908276194 0 -91.083646908276194 -36.997888132160512 0 0 0 0 275.62598533139681 80.916778758404348 0 80.916778758404348 -5.1256811558199331 0 0 0 0 205.83428524668125 -47.913581894564231 0 -47.913581894564231 -195.07956784383919 0 0 0 0 160.66119549925861 72.789305431266683 0 72.789305431266683 74.475363426325316 0 0 0 0 196.08801226723881 24.384748166044801 0 24.384748166044801 35.562559338061988 0 0 0 0 174.68005948270729 -25.053058506952766 0 -25.053058506952766 -73.386755420849568 0 0 0 0 280.35081973052002 60.517155052083353 0 60.517155052083353 -111.11784859463739 0 0 0 0 199.18698026885613 2.7401039295674536 0 2.7401039295674536 -80.108600853969619 0 0 0 0 419.92939012846182 22.788939368120623 0 22.788939368120623 -80.827962580563963 0 0 0 0 804.84517015454912 149.12923749337142 0 149.12923749337142 29.603960626893439 0 0 0 0 259.28336213516741 134.68477547652242 0 134.68477547652242 29.401370283018423 0 0 0 0 128.45227256014914 -43.664967070595139 0 -43.664967070595139 134.09398603543616 0 0 0 0 95.651741323490569 -156.61675032268226 0 -156.61675032268226 145.90722263124275 0 0 0 0 153.87839629838709 56.792153825791502 0 56.792153825791502 -144.58289123103634 0 0 0 0 -64.677609949338148 -171.82230653047679 0 -171.82230653047679 -67.843493801825389 0 0 0 0 6.784945414859834 -3.7252278144463205 0 -3.7252278144463205 1.7124010249550454 0 0 0 0 32.578558000459452 -44.364259430442758 0 -44.364259430442758 -39.94135095235265 0 0 0 0 -80.486919123119151 -32.148242731955634 0 -32.148242731955634 99.696816870710791 0 0 0 0 -93.528995866232435 10.266939616152285 0 10.266939616152285 75.364181571600966 0 0 0 0 -26.036239830675186 1.4601618485432937 0 1.4601618485432937 42.301411985821915 0 0 0 0 -76.435529115315148 -60.422794749360946 0 -60.422794749360946 -11.568347751550164 0 0 0 0 8.7272333872387549 -5.2616446512115971 0 -5.2616446512115971 3.0071606903663843 0 0 0 0 20.972980816019117 -20.360204369862316 0 -20.360204369862316 -52.939734516854969 0 0 0 0 1.7959487023272231 9.7284536453880719 0 9.7284536453880719 -0.52506993917495492 0 0 0 0 -0.31511811853852123 19.625368169354942 0 19.625368169354942 -21.490931568480619 0 0 0 0 -67.853677079838235 38.051183344846322 0 38.051183344846322 10.323914153340411 0 0 0 0 -65.737304514936113 52.647941805262917 0 52.647941805262917 110.87787223291139 0 0 0 0 -132.2873747511585 162.5247508459197 0 162.5247508459197 -46.097660931703103 0 0 0 0 35.375807429052657 34.42339926367822 0 34.42339926367822 -101.38750318978157 0 0 0 0 -0.29989895982550507 0.78080666802463838 0 0.78080666802463838 -1.7396395372436633 0 0 0 0 -204.11096142917449 65.450670645750279 0 65.450670645750279 30.009002297696952 0 0 0 0 72.519216406697524 248.31827314246948 0 248.31827314246948 -50.604222638263366 0 0 0 0 385.30879265665135 30.131971725827952 0 30.131971725827952 -88.347884031061767 0 0 0 0 139.82306883145793 -20.890148753297353 0 -20.890148753297353 -40.182661580136937 0 0 0 0 -170.21799233174715 53.824570235826343 0 53.824570235826343 228.31626341914944 0 0 0 0 -30.112342045609694 -106.01224633258084 0 -106.01224633258084 232.26699443012785 0 0 0 0 860.88932728912187 66.471731493360721 0 66.471731493360721 -109.81254882119993 0 0 0 0 274.55667899131731 -249.6856467146556 0 -249.6856467146556 424.52860213664417 0 0 0 0 308.53727574477671 270.80170060039291 0 270.80170060039291 433.28529157970911 0 0 0 0 368.79515284115769 6.3403118453647949 0 6.3403118453647949 -117.00153465807216 0 0 0 0 343.62557113404546 -120.6067079935475 0 -120.6067079935475 -57.996739101713047 0 0 0 0 19.352615688989317 -42.603366614313018 0 -42.603366614313018 -51.176703846942019 0 0 0 0 140.46390480608534 -0.53341672493115766 0 -0.53341672493115766 -133.28380147856339 0 0 0 0 27.663264511379936 4.5438388539396835 0 4.5438388539396835 0.86772813189280584 0 0 0 0 1.6676785566742183 36.437265415206639 0 36.437265415206639 -32.797729922385315 0 0 0 0 66.238389111094875 55.762094348099254 0 55.762094348099254 -32.847139159197013 0 0 0 0 109.52015711457352 77.012263039190884 0 77.012263039190884 -91.963424956748895 0 0 0 0 16.522286743078439 74.697761034249197 0 74.697761034249197 22.655728371108921 0 0 0 0 5.0683444719106774 53.411222368709332 0 53.411222368709332 -16.443493218533149 0 0 0 0 3.2884313148354352 3.2118498764642709 0 3.2118498764642709 -4.8968528739477986 0 0 0 0 45.102990626605475 6.195723906894564 0 6.195723906894564 -3.3972667618696391 0 0 0 0 112.31364097182814 102.82434289643743 0 102.82434289643743 115.67674463855761 0 0 0 0 27.072747111116769 62.447428892015751 0 62.447428892015751 -38.350560321286139 0 0 0 0 62.884132963896263 15.135701770743253 0 15.135701770743253 -70.21491647251969 0 0 0 0 -9.9435768690891564 18.039196590116717 0 18.039196590116717 -2.4693657751358842 0 0 0 0 18.768529091164609 13.979852556907431 0 13.979852556907431 -4.9711807197151057 0 0 0 0 57.196479402453406 23.849300712668992 0 23.849300712668992 -1.3020793418454559 0 0 0 0 -2.9004693433136737 0.74182266895223847 0 0.74182266895223847 0.8457192808232179 0 0 0 0 13.63411615313089 0.826018645014301 0 0.826018645014301 -0.55202986222957406 0 0 0 0 30.25669682303851 5.5502046946667178 0 5.5502046946667178 -15.777178401726701 0 0 0 0 17.707852460614959 1.8977306004258025 0 1.8977306004258025 -1.3348019582208508 0 0 0 0 15.13146386865597 -0.33302821831787455 0 -0.33302821831787455 -0.60451237615827214 0 0 0 0 8.2112324337502116 6.8303452353626213 0 6.8303452353626213 -0.023693868512365768 0 0 0 0 13.065104865920148 2.4961600787837597 0 2.4961600787837597 -0.91719002279273809 0 0 0 0 12.505645591603752 13.642188602545502 0 13.642188602545502 0.01683926170653649 0 0 0 0 107.01701498310493 53.368861269590752 0 53.368861269590752 13.007535162414666 0 0 0 0 156.24893057981535 48.463783105927291 0 48.463783105927291 -88.617028993598979 0 0 0 0 107.88938145807379 113.02546656063168 0 113.02546656063168 -21.863583243319226 0 0 0 0 131.8147070056657 44.799422052868977 0 44.799422052868977 -74.246154924998336 0 0 0 0 99.672876118487352 36.408770619355813 0 36.408770619355813 12.126702525801754 0 0 0 0 118.15417824117463 43.709381312722712 0 43.709381312722712 -67.835705116325698 0 0 0 0 224.95788327409355 75.420025995401375 0 75.420025995401375 -59.350805215433866 0 0 0 0 127.18830844332433 118.6439671861317 0 118.6439671861317 -12.8090565083603 0 0 0 0 76.5675114526382 118.8540209759858 0 118.8540209759858 11.832725159996698 0 0 0 0 -0.19632078024615396 57.848317658519761 0 57.848317658519761 16.918524853029542 0 0 0 0 123.87475756440631 112.89084247522919 0 112.89084247522919 -22.569244395037458 0 0 0 0 -12.367407987825572 50.461420184926965 0 50.461420184926965 41.00695270673441 0 0 0 0 9.0369210090253489 14.28026857875428 0 14.28026857875428 2.9464441590676005 0 0 0 0 6.8394102125747906 0.50970803847587298 0 0.50970803847587298 0.042995284324701899 0 0 0 0 511.55409611752839 -318.09692529349559 0 -318.09692529349559 138.76590423637435 0 0 0 0 104.09010203005892 261.59207110389411 0 261.59207110389411 361.85511100436088 0 0 0 0 497.82607584175275 -33.756270455538242 0 -33.756270455538242 -192.9366672279948 0 0 0 0 135.72700054541929 -100.3374499224476 0 -100.3374499224476 28.712530174705535 0 0 0 0 117.72188899613275 29.8985418110436 0 29.8985418110436 -20.36382042588275 0 0 0 0 -10.625186148845387 100.97052502307986 0 100.97052502307986 -57.79420491526821 0 0 0 0 14.732446727691432 7.4281922946551902 0 7.4281922946551902 -18.787645662821653 0 0 0 0 336.33839762845309 110.45549504617793 0 110.45549504617793 -347.95090000853406 0 0 0 0 499.78472045229137 -87.119949565837032 0 -87.119949565837032 -190.88991931532999 0 0 0 0 9.351312694446392 2.1766794827769971 0 2.1766794827769971 0.83715012758523832 0 0 0 0 328.738509166531 -339.94638426932329 0 -339.94638426932329 226.62271466633501 0 0 0 0 1006.8469299702338 -136.68736777732647 0 -136.68736777732647 -354.14402120085083 0 0 0 0 28.346387591776875 29.037121430146954 0 29.037121430146954 740.14144354035125 0 0 0 0 -290.77370300541224 -357.40004764759783 0 -357.40004764759783 1102.1851504201727 0 0 0 0 -2.035144479009297 -2.1318061837860824 0 -2.1318061837860824 -4.1040939342581773 0 0 0 0 59.95709525692655 272.85951611246537 0 272.85951611246537 193.68228626128985 0 0 0 0 207.98239253606516 242.75376958413523 0 242.75376958413523 -43.066911964116116 0 0 0 0 365.97208272909484 375.86705639262289 0 375.86705639262289 22.199715689932418 0 0 0 0 555.8852114941983 202.7929535413698 0 202.7929535413698 -218.20900728066408 0 0 0 0 102.85141433578883 -21.155123003061277 0 -21.155123003061277 -173.20217553942143 0 0 0 0 350.67446045562247 50.330840759520925 0 50.330840759520925 -290.0417423178227 0 0 0 0 84.191238951483683 118.13782017918334 0 118.13782017918334 -36.677721223364642 0 0 0 0 133.95935754445236 158.02635554528251 0 158.02635554528251 -88.512953640615478 0 0 0 0 92.373834844227531 105.86836809684883 0 105.86836809684883 -94.465293001150144 0 0 0 0 43.279196727028648 169.32866507796618 0 169.32866507796618 50.984910727390798 0 0 0 0 -41.907727832214732 139.6663527781111 0 139.6663527781111 65.136619903918472 0 0 0 0 -11.327173470494017 104.50361104728245 0 104.50361104728245 69.64619401957134 0 0 0 0 5.8816108833962062 53.667085133634828 0 53.667085133634828 46.402286670953799 0 0 0 0 -19.179499240155565 83.947344444652344 0 83.947344444652344 25.286661321839574 0 0 0 0 2.5811849523815908 42.345855648454744 0 42.345855648454744 12.800576216712216 0 0 0 0 41.76614430189511 19.49786560952316 0 19.49786560952316 25.639070385629566 0 0 0 0 37.172080004991585 31.19334709044475 0 31.19334709044475 9.9304147480369735 0 0 0 0 35.376660923913732 26.727597583871173 0 26.727597583871173 0.5807144475536461 0 0 0 0 40.07260900698202 15.799916517966722 0 15.799916517966722 -0.0090252310413916348 0 0 0 0 45.89518232505371 14.188503319589948 0 14.188503319589948 5.1694015871149963 0 0 0 0 55.83696639034315 30.184934813075415 0 30.184934813075415 -10.949880051985076 0 0 0 0 20.569181202593398 15.67374450997006 0 15.67374450997006 0.10376715716331031 0 0 0 0 63.607345387114037 57.165719229718263 0 57.165719229718263 -96.308395292981686 0 0 0 0 35.827211271621309 124.73243121327266 0 124.73243121327266 -10.492975180168514 0 0 0 0 193.95583111779342 150.36545464538904 0 150.36545464538904 129.32836202015187 0 0 0 0 2.0496779553072955 -1.782566895475604 0 -1.782566895475604 0.8282821057585199 0 0 0 0 178.39939597781631 130.32793350003431 0 130.32793350003431 130.15502180444764 0 0 0 0 34.044278807421378 11.649806707265343 0 11.649806707265343 -0.90872448821033913 0 0 0 0 45.789189988514408 -62.902157709997937 0 -62.902157709997937 -18.594146179453674 0 0 0 0 6.4801184343882881 3.1613637741992164 0 3.1613637741992164 -2.9402818654493608 0 0 0 0 38.546679035938723 42.068190742551906 0 42.068190742551906 19.727147754795567 0 0 0 0 35.349278173314815 26.38402282477557 0 26.38402282477557 17.551310756355747 0 0 0 0 26.035400103316427 9.3444435275440441 0 9.3444435275440441 6.5495054236014916 0 0 0 0 20.080485604023124 10.607143378883393 0 10.607143378883393 -4.7117130000237921 0 0 0 0 47.97480142497534 20.8091646728858 0 20.8091646728858 0.64334357533152797 0 0 0 0 26.357068913050298 16.285598629529005 0 16.285598629529005 7.831847706808885 0 0 0 0 28.92329186834364 20.16105852576818 0 20.16105852576818 11.194798557634408 0 0 0 0 11.080925930407894 2.2467382501826698 0 2.2467382501826698 3.1523718640517497 0 0 0 0 45.185396919688174 21.185857355819735 0 21.185857355819735 -10.287648079963219 0 0 0 0 42.443177687354819 10.04570456453007 0 10.04570456453007 -9.2002886250666052 0 0 0 0 42.950403276814541 13.350789180576612 0 13.350789180576612 10.873508284473246 0 0 0 0 31.060753159874984 12.834429399341023 0 12.834429399341023 4.1255453208442496 0 0 0 0 50.639519534568535 25.791679079889946 0 25.791679079889946 13.351193112361216 0 0 0 0 48.297195319494449 21.910372493943441 0 21.910372493943441 -10.993492540234001 0 0 0 0 45.925912766847432 18.513649641685788 0 18.513649641685788 -1.398892260653156 0 0 0 0 50.662028639160326 31.711385531851988 0 31.711385531851988 2.725650202262841 0 0 0 0 45.32408836491004 24.617331063081451 0 24.617331063081451 9.5277464515829706 0 0 0 0 49.857379142880973 32.684485548646876 0 32.684485548646876 13.703386494496954 0 0 0 0 2.5972486321280179 1.4926642517282787 0 1.4926642517282787 0.57102236533137685 0 0 0 0 -6.447071355778462 52.892514428336654 0 52.892514428336654 -94.847466171573615 0 0 0 0 6.7804915963997701 6.1693264769719462 0 6.1693264769719462 -100.09592762518673 0 0 0 0 47.06507114305532 105.74707990485422 0 105.74707990485422 63.670913157285213 0 0 0 0 35.164464157445764 30.740147358519152 0 30.740147358519152 50.907900243348195 0 0 0 0 36.015955922359353 53.945137814681402 0 53.945137814681402 3.7664598005048902 0 0 0 0 93.598375071642067 -2.2014815558627561 0 -2.2014815558627561 -24.881267265700444 0 0 0 0 37.583241402637213 27.263979260537099 0 27.263979260537099 8.7329965279622002 0 0 0 0 46.893171868435061 7.5384902933306854 0 7.5384902933306854 -3.9574696439795201 0 0 0 0 4.6351090780447066 44.660642198233063 0 44.660642198233063 -164.01330543060794 0 0 0 0 3.9142380444254243 -0.75588097513508057 0 -0.75588097513508057 -4.0786784570711276 0 0 0 0 12.708580012798848 -86.958177087682998 0 -86.958177087682998 -43.415934438702607 0 0 0 0 152.40407765454802 -27.155579001296246 0 -27.155579001296246 -35.127328271669739 0 0 0 0 154.81940861111389 -16.905861245224514 0 -16.905861245224514 -148.17995496202275 0 0 0 0 563.02755009303928 113.37836366767806 0 113.37836366767806 -136.63374402908983 0 0 0 0 -116.3276894594128 -39.699256742122088 0 -39.699256742122088 -225.60053247232554 0 0 0 0 223.65471687331319 247.40469558002223 0 247.40469558002223 -141.2452847570903 0 0 0 0 430.82578557684337 -235.12757459178829 0 -235.12757459178829 -348.5199998308708 0 0 0 0 3.6012557672744983 -0.35268779513423354 0 -0.35268779513423354 -0.28682938120588153 0 0 0 0 321.39049192496077 197.38443009947332 0 197.38443009947332 -127.97831666903039 0 0 0 0 243.28256461021692 236.82545850362931 0 236.82545850362931 -48.191114610483055 0 0 0 0 211.40026002721561 272.32405449746693 0 272.32405449746693 35.947799930508154 0 0 0 0 241.33881255012147 272.34787469654111 0 272.34787469654111 -83.257524262610787 0 0 0 0 231.17355953628112 -3.0849161679789177 0 -3.0849161679789177 -14.648899983057163 0 0 0 0 297.00137364398688 293.44846270711787 0 293.44846270711787 -80.583550963847756 0 0 0 0 235.27116700939345 206.66607628446712 0 206.66607628446712 -130.19124141272914 0 0 0 0 -25.611329951835899 -108.90722738588732 0 -108.90722738588732 -245.72562201449728 0 0 0 0 -2.4270213483550833 -29.635772733289741 0 -29.635772733289741 -235.98428872148997 0 0 0 0 16.045629611676304 217.32294305133109 0 217.32294305133109 -93.596747666023475 0 0 0 0 32.064098012876457 -86.973760245753965 0 -86.973760245753965 -249.96507210686832 0 0 0 0 8.4193699000778182 -1.351192749521271 0 -1.351192749521271 -0.61909804882668329 0 0 0 0 169.54734958070549 -31.569028375709422 0 -31.569028375709422 -549.58423258714402 0 0 0 0 6.1439821722856323 -33.595503782858259 0 -33.595503782858259 -331.57042321104745 0 0 0 0 -0.60698166063366088 -0.29251109254651908 0 -0.29251109254651908 0.16499612516016882 0 0 0 0 -54.488719970952275 -182.45508006102273 0 -182.45508006102273 -193.90252343140128 0 0 0 0 56.255713374229344 -68.997758145087573 0 -68.997758145087573 -128.64784919262365 0 0 0 0 -33.878763004630628 90.127693444155824 0 90.127693444155824 -280.87797201726789 0 0 0 0 128.96809470623566 -207.05963119040553 0 -207.05963119040553 -30.190247435814854 0 0 0 0 123.20401531339621 123.56943360005516 0 123.56943360005516 -139.16025171147203 0 0 0 0 123.52857387752692 -90.839836833251866 0 -90.839836833251866 -148.64631229906627 0 0 0 0 130.58453589058854 28.472811911590725 0 28.472811911590725 -25.849434957321137 0 0 0 0 294.16875496575824 -60.277326159998665 0 -60.277326159998665 22.100971785046568 0 0 0 0 220.45239115677464 152.54452958862169 0 152.54452958862169 106.54492080565069 0 0 0 0 49.769133635169055 -172.36713191088438 0 -172.36713191088438 69.939764281349198 0 0 0 0 372.4428836645111 -226.56434376319294 0 -226.56434376319294 78.07357361162758 0 0 0 0 144.00512032109918 -103.41499052142444 0 -103.41499052142444 137.1958856485162 0 0 0 0 491.91817660776132 -67.638954858116449 0 -67.638954858116449 127.28641820036319 0 0 0 0 427.52180137099003 4.1407913276834734 0 4.1407913276834734 47.442308276132465 0 0 0 0 454.42717532789965 293.70240373312686 0 293.70240373312686 314.38188256927788 0 0 0 0 367.57929953635585 356.21368742459481 0 356.21368742459481 269.7989479403318 0 0 0 0 2.2094326493584613 2.4063387052662075 0 2.4063387052662075 4.1494258694084145 0 0 0 0 -7.6946295246610816 -44.696555568311851 0 -44.696555568311851 269.31436583691993 0 0 0 0 90.620052768952519 312.09866221741959 0 312.09866221741959 416.856824888848 0 0 0 0 581.24115173851965 317.98786349903912 0 317.98786349903912 35.627388984337813 0 0 0 0 254.0695460128195 20.556902683390035 0 20.556902683390035 282.53826550445842 0 0 0 0 227.3884534234312 -238.39871887739446 0 -238.39871887739446 102.05921067039344 0 0 0 0 318.53947012540357 -108.87359582044428 0 -108.87359582044428 197.40163435667455 0 0 0 0 205.09843436669325 -15.157575140281097 0 -15.157575140281097 220.38521615513855 0 0 0 0 95.651401451708807 -158.54630106990862 0 -158.54630106990862 188.96438378636844 0 0 0 0 151.50071239939916 -85.862044102874279 0 -85.862044102874279 212.56076503113218 0 0 0 0 148.80532735159522 -190.56281407834467 0 -190.56281407834467 190.82480652322192 0 0 0 0 111.80032316228812 -297.45754660968032 0 -297.45754660968032 201.07399175063256 0 0 0 0 135.90166085863621 -298.9720962581614 0 -298.9720962581614 158.87694300650446 0 0 0 0 401.66191264010411 -351.98168287173905 0 -351.98168287173905 165.18686961699132 0 0 0 0 253.47837079146666 -290.73982601043735 0 -290.73982601043735 184.18871133525272 0 0 0 0 99.518343445348364 -326.85163854413076 0 -326.85163854413076 161.00598884725241 0 0 0 0 204.32207572781226 -355.65425590042332 0 -355.65425590042332 141.99558551705468 0 0 0 0 378.99389005767807 -370.4199731429926 0 -370.4199731429926 95.077107908171456 0 0 0 0 54.395136975363357 -308.05179510641722 0 -308.05179510641722 267.26433808350703 0 0 0 0 192.741208557557 -234.25480355098352 0 -234.25480355098352 14.437316802795976 0 0 0 0 23.221875395809548 -204.18058880974422 0 -204.18058880974422 29.161198040186264 0 0 0 0 8.9490624783629755 2.7898063498569172 0 2.7898063498569172 -162.77598728131034 0 0 0 0 8.6209267987575711 -2.1976156787679315 0 -2.1976156787679315 -0.37709566528326244 0 0 0 0 51.477468339944608 0.36116034397855401 0 0.36116034397855401 -323.3584547349501 0 0 0 0 133.39836974495302 -137.30565644639137 0 -137.30565644639137 -406.81066578160335 0 0 0 0 -34.363231811275341 -79.01181129756776 0 -79.01181129756776 -237.70365338616466 0 0 0 0 3.7424190254451695 -1.6086406129939625 0 -1.6086406129939625 0.23404109426949038 0 0 0 0 193.32779808137093 97.046370510664019 0 97.046370510664019 -58.099438242275937 0 0 0 0 -58.137041631889474 82.676503211367162 0 82.676503211367162 14.98428009775489 0 0 0 0 717.03986171795623 -48.285212495543419 0 -48.285212495543419 -168.84306686211039 0 0 0 0 660.18590639623199 -86.852439827048784 0 -86.852439827048784 185.11077231969784 0 0 0 0 571.1703052363996 -135.88830734603016 0 -135.88830734603016 132.62272128624318 0 0 0 0 362.6336284301974 -7.0378972889943725 0 -7.0378972889943725 226.84904337337412 0 0 0 0 352.22266176995345 -17.672487139783698 0 -17.672487139783698 219.56706244317877 0 0 0 0 458.29913922925789 43.006113394418662 0 43.006113394418662 167.53274175716069 0 0 0 0 181.73514127196358 -173.09525663148179 0 -173.09525663148179 -42.147106588130555 0 0 0 0 32.944726455980344 -173.66219871228623 0 -173.66219871228623 -41.79270867907195 0 0 0 0 2.4075207186036067 -0.91230979311108129 0 -0.91230979311108129 0.51944213114855664 0 0 0 0 798.20062773881637 309.05211322685909 0 309.05211322685909 51.517285464936776 0 0 0 0 733.76814953457506 -0.8734267134482252 0 -0.8734267134482252 62.647439271546773 0 0 0 0 524.62226593488049 118.48431820467977 0 118.48431820467977 17.7425725456078 0 0 0 0 63.830941247259943 74.742686371869695 0 74.742686371869695 -53.695612723675367 0 0 0 0 1.5020474302837101 59.839044471579655 0 59.839044471579655 9.7209999767310364 0 0 0 0 23.208362668296104 38.576455313818769 0 38.576455313818769 4.6848798995952166 0 0 0 0 85.943983216493507 146.17030728565624 0 146.17030728565624 -15.225490167798398 0 0 0 0 262.13014213540373 22.312337705898244 0 22.312337705898244 -48.321706013939547 0 0 0 0 -18.795494682301069 19.98956060718865 0 19.98956060718865 -47.900482709638311 0 0 0 0 39.754980036062079 60.34628751947912 0 60.34628751947912 -53.971297774824052 0 0 0 0 4.3262678291507015 -2.6947767581317414 0 -2.6947767581317414 1.0181625406736359 0 0 0 0 29.8470408995654 21.467967670344478 0 21.467967670344478 -4.9249989112504409 0 0 0 0 19.653997120918575 -16.253583861031075 0 -16.253583861031075 -78.978080480629615 0 0 0 0 -7.5327825309268519 19.71205651184755 0 19.71205651184755 1.6394682482678036 0 0 0 0 -5.4133739057961066 -0.098944487111566559 0 -0.098944487111566559 81.842139967211551 0 0 0 0 260.36877238183388 -105.519485856541 0 -105.519485856541 50.743800599640053 0 0 0 0 155.14115371612388 38.175880235549812 0 38.175880235549812 27.836501670940379 0 0 0 0 8.3371721644203944 5.0254397889990932 0 5.0254397889990932 3.1987779626930166 0 0 0 0 38.492680107575325 -14.191776883839793 0 -14.191776883839793 67.7644707617319 0 0 0 0 615.87568216428008 -108.45854204359193 0 -108.45854204359193 -31.671799007481695 0 0 0 0 -99.563744165025128 -15.558097338309381 0 -15.558097338309381 40.110298473170587 0 0 0 0 29.550233877878249 12.294895317253109 0 12.294895317253109 4.9942627974187941 0 0 0 0 -1.7098607581701799 64.565056415035542 0 64.565056415035542 -9.3793697806740965 0 0 0 0 -20.064814368670341 68.378703216816575 0 68.378703216816575 57.045287401850601 0 0 0 0 420.2975177804401 488.51718771001288 0 488.51718771001288 -241.07537571114995 0 0 0 0 651.76437811209416 164.41339613195692 0 164.41339613195692 31.931159480512179 0 0 0 0 649.87818826952662 150.4999110671597 0 150.4999110671597 -57.492179300261796 0 0 0 0 424.19549797227592 207.17165736012657 0 207.17165736012657 34.701572355061217 0 0 0 0 842.14183760367632 339.46088373142129 0 339.46088373142129 68.126451920720228 0 0 0 0 395.13241858463334 159.32504742573929 0 159.32504742573929 285.34757617308424 0 0 0 0 456.97428515598745 30.278084926954541 0 30.278084926954541 74.266539762628781 0 0 0 0 458.0696678696695 82.570326151797133 0 82.570326151797133 755.68787206160323 0 0 0 0 1137.4340544907482 -110.92642739264647 0 -110.92642739264647 -118.95891277488681 0 0 0 0 417.17719447330546 179.80125721172612 0 179.80125721172612 -212.22523596473729 0 0 0 0 613.40541972021674 6.5055532389549171 0 6.5055532389549171 -225.73155757702898 0 0 0 0 360.38689695904031 -123.47197446420228 0 -123.47197446420228 53.18921111059899 0 0 0 0 401.36378150137898 90.853142352410032 0 90.853142352410032 -230.80355245962801 0 0 0 0 358.01189778501066 79.698808093671232 0 79.698808093671232 -165.48842154243175 0 0 0 0 368.1915885422186 134.16525944443219 0 134.16525944443219 -284.51990247332833 0 0 0 0 395.66523297338063 85.241366152672526 0 85.241366152672526 -233.5512013341704 0 0 0 0 505.62948982354646 300.12592464081558 0 300.12592464081558 -179.9784082223332 0 0 0 0 544.59664036585309 156.89363018428139 0 156.89363018428139 -235.66850408744548 0 0 0 0 398.13823737841449 21.614994738644782 0 21.614994738644782 -166.73299343426152 0 0 0 0 39.798520192555721 35.78177758684194 0 35.78177758684194 -3.4638758355447719 0 0 0 0 127.89526229857802 59.980472928208656 0 59.980472928208656 -136.54831798069335 0 0 0 0 98.06725015484335 -12.658758809649953 0 -12.658758809649953 -36.238724006651637 0 0 0 0 237.3114484559228 19.406051983964971 0 19.406051983964971 -158.75019978004275 0 0 0 0 242.9147292249645 34.898757799794794 0 34.898757799794794 -182.85023033439029 0 0 0 0 350.69164396582164 208.85570431474753 0 208.85570431474753 18.147877982342834 0 0 0 0 123.23389880614982 23.877577364390341 0 23.877577364390341 -1.7974745214670822 0 0 0 0 307.33710119478201 -10.479062365578102 0 -10.479062365578102 -172.81821042467527 0 0 0 0 40.278584506759216 176.06728421260868 0 176.06728421260868 -111.73773664143664 0 0 0 0 49.849177150587565 -1.1178293555641297 0 -1.1178293555641297 -28.615963007506238 0 0 0 0 148.17875800590446 199.30495621980435 0 199.30495621980435 -218.29975761946844 0 0 0 0 120.35130078160364 -10.205867541979387 0 -10.205867541979387 -9.3099449345118046 0 0 0 0 317.94493782649079 -99.54183963711148 0 -99.54183963711148 -6.0559107690205565 0 0 0 0 419.90621090372588 -116.20190629990793 0 -116.20190629990793 119.08656523944683 0 0 0 0 502.42667944699861 -37.868556027776322 0 -37.868556027776322 -22.641952238457634 0 0 0 0 243.31158864858844 61.198511317380962 0 61.198511317380962 -218.06842938950922 0 0 0 0 -3.9078747437137586 -0.22944105335128029 0 -0.22944105335128029 -9.7492566709337076 0 0 0 0 -304.53501311167747 600.90625892415574 0 600.90625892415574 -180.10784964946106 0 0 0 0 -519.7984063128024 -57.748220285898242 0 -57.748220285898242 941.95204734614117 0 0 0 0 -229.8044731833179 -30.26654167376455 0 -30.26654167376455 -238.29653906866776 0 0 0 0 386.88226934886188 680.25009976982051 0 680.25009976982051 557.90686567444209 0 0 0 0 0.26364443569834251 -0.022620773969304508 0 -0.022620773969304508 -1.8393938171799924 0 0 0 0 1037.8634219719752 -72.836977508707832 0 -72.836977508707832 -113.18588355811698 0 0 0 0 -1270.469334999736 528.06012965765899 0 528.06012965765899 573.92012553757286 0 0 0 0 572.82263553523808 362.15962444010074 0 362.15962444010074 122.45116996073958 0 0 0 0 371.19865252980526 35.155351268487266 0 35.155351268487266 -39.269866848326274 0 0 0 0 24.105206632306363 72.115769727668976 0 72.115769727668976 89.443466500538307 0 0 0 0 203.10046044032424 119.48855861656921 0 119.48855861656921 178.31388231289293 0 0 0 0 194.90161545665251 25.614719181764485 0 25.614719181764485 26.599166616404545 0 0 0 0 54.190388542163419 8.3450343848743387 0 8.3450343848743387 18.396679132275494 0 0 0 0 71.35223899848279 109.607791543026 0 109.607791543026 -46.918369478144996 0 0 0 0 100.55020317476374 58.846441064541978 0 58.846441064541978 -6.690022579894503 0 0 0 0 462.8017619878683 102.48106528436915 0 102.48106528436915 -0.56029813717032084 0 0 0 0 250.77900070027681 16.251594576777279 0 16.251594576777279 38.505881755024802 0 0 0 0 168.59012467282082 141.37048325917613 0 141.37048325917613 67.401544321406618 0 0 0 0 -29.55707562702446 74.235528097517999 0 74.235528097517999 -16.594894336460129 0 0 0 0 -18.550687807928625 43.958234298541356 0 43.958234298541356 -168.61714828967524 0 0 0 0 -59.032149175254744 35.420538819785634 0 35.420538819785634 41.930648551947343 0 0 0 0 -5.3444997613978558 54.12638246548272 0 54.12638246548272 -73.826662274948831 0 0 0 0 -23.93440490971625 54.490051799017237 0 54.490051799017237 52.74608286006378 0 0 0 0 3.1440610793127632 1.0249366988324908 0 1.0249366988324908 -3.3639210222501941 0 0 0 0 5.8828063609653327 11.178088497726094 0 11.178088497726094 43.333918127017569 0 0 0 0 -0.03043803914442833 45.16640275717009 0 45.16640275717009 -98.686448886042854 0 0 0 0 -102.57132430763158 110.56012244391241 0 110.56012244391241 -50.979121883797688 0 0 0 0 -45.093449092171795 155.94827232369062 0 155.94827232369062 -141.00670219758649 0 0 0 0 226.17926645644911 -403.85473792768698 0 -403.85473792768698 137.16240528883463 0 0 0 0 11.97644099123282 12.86105188729498 0 12.86105188729498 10.806641770650049 0 0 0 0 54.50405103761841 100.16691588468893 0 100.16691588468893 196.93260165833453 0 0 0 0 239.61074404879582 -160.77762571286314 0 -160.77762571286314 -105.64182539843023 0 0 0 0 62.092560953326029 150.20551327487465 0 150.20551327487465 -112.7876357072264 0 0 0 0 46.730327182853131 12.732967889213814 0 12.732967889213814 9.9124426762869788 0 0 0 0 255.50508742265811 20.853168595515967 0 20.853168595515967 -17.551872599552041 0 0 0 0 153.25355604772525 27.270375887459899 0 27.270375887459899 5.0229642432185857 0 0 0 0 193.84357150716096 -16.731632803808452 0 -16.731632803808452 24.224074745406597 0 0 0 0 196.13458229185926 -27.926191521595115 0 -27.926191521595115 -13.678094653518201 0 0 0 0 258.38495962203888 118.70990358326708 0 118.70990358326708 -18.240327673456704 0 0 0 0 168.05442963922678 54.97521270883027 0 54.97521270883027 -58.392209201581863 0 0 0 0 159.28948533644939 157.61146173927267 0 157.61146173927267 -67.177697613455166 0 0 0 0 52.916888480915077 108.82657475858377 0 108.82657475858377 -84.973537092315382 0 0 0 0 228.87318026271532 63.47106959080196 0 63.47106959080196 -77.829220211196287 0 0 0 0 118.04007360376136 26.630048098204938 0 26.630048098204938 -4.5496056533767533 0 0 0 0 172.94924536398321 129.05012166945653 0 129.05012166945653 -205.67562962214288 0 0 0 0 141.52752514333406 52.435667978372294 0 52.435667978372294 -84.785325561359286 0 0 0 0 147.30186532719381 161.73816992728734 0 161.73816992728734 -106.33426085135034 0 0 0 0 107.6363249498512 40.416462860247094 0 40.416462860247094 10.967722021155202 0 0 0 0 106.02702219464055 45.19111434119074 0 45.19111434119074 8.0269239437000248 0 0 0 0 90.986612157985292 118.37031246191464 0 118.37031246191464 11.404851856638516 0 0 0 0 124.68821217660297 -22.349174001272786 0 -22.349174001272786 -0.36020699207711004 0 0 0 0 302.2165651802643 43.730121030880184 0 43.730121030880184 -72.871627128187356 0 0 0 0 94.441910019828356 92.583873253533284 0 92.583873253533284 80.634844061678905 0 0 0 0 336.6532101448538 324.71014556408556 0 324.71014556408556 219.65832547236187 0 0 0 0 -3.7739175293342555 -0.53708998873967317 0 -0.53708998873967317 1.1264440567984231 0 0 0 0 202.26053334801691 -1034.4839265874216 0 -1034.4839265874216 -1079.4530056054105 0 0 0 0 -12.203477469956852 168.05515287182607 0 168.05515287182607 -773.00183197578826 0 0 0 0 145.27255744933245 -162.58800999724161 0 -162.58800999724161 -382.16989838165682 0 0 0 0 4.9368221185078482 17.645944385000419 0 17.645944385000419 -1.1667282250786553 0 0 0 0 158.5263126315258 -344.43486131503232 0 -344.43486131503232 -1085.7990140999009 0 0 0 0 184.57553674498922 -32.097532351762069 0 -32.097532351762069 -13.821104932824444 0 0 0 0 126.8796875977132 -9.8594909611379151 0 -9.8594909611379151 -103.82594471802084 0 0 0 0 162.52593993979099 -81.937206277224789 0 -81.937206277224789 -102.01953086824345 0 0 0 0 288.31227480714733 -4.3666736155257695 0 -4.3666736155257695 -97.72242458250048 0 0 0 0 219.47160063436604 -37.194902356520146 0 -37.194902356520146 -80.517866273783852 0 0 0 0 267.19005627332808 11.627774961791033 0 11.627774961791033 -94.801751748782408 0 0 0 0 311.16995080971901 -100.20606309459652 0 -100.20606309459652 -58.871839371819988 0 0 0 0 451.32142124568054 169.08160209930031 0 169.08160209930031 -198.33672292760866 0 0 0 0 338.60057030423195 -39.708549625864634 0 -39.708549625864634 -375.80816158883908 0 0 0 0 127.24912218432291 13.761625488509708 0 13.761625488509708 -119.77223389256483 0 0 0 0 220.04225337621756 -59.844108215288088 0 -59.844108215288088 -133.66116133677178 0 0 0 0 43.070223708127742 -24.573781192030538 0 -24.573781192030538 -32.273368012316496 0 0 0 0 142.24924398677831 57.073715964759231 0 57.073715964759231 -222.39282543877721 0 0 0 0 281.66019714798313 -247.85068731388856 0 -247.85068731388856 -1.8904360433959937 0 0 0 0 38.506337828559708 7.6892999027545699 0 7.6892999027545699 1.5663021632853784 0 0 0 0 383.66379932787095 -257.28069595410852 0 -257.28069595410852 -263.00111314604828 0 0 0 0 0.3174281567989965 26.529889959372667 0 26.529889959372667 45.783743465439329 0 0 0 0 76.234355774911819 -0.059333107030852261 0 -0.059333107030852261 -14.604240423401734 0 0 0 0 184.04757385284756 2.1693780077321208 0 2.1693780077321208 -15.651145810653929 0 0 0 0 268.14126978334389 601.64080598526903 0 601.64080598526903 926.4327848488756 0 0 0 0 1170.0706123646232 398.53498684775923 0 398.53498684775923 -204.82039706394085 0 0 0 0 13.035540689769164 1.8481809767803128 0 1.8481809767803128 0.69153372600593244 0 0 0 0 296.53352830352378 -820.24387086102888 0 -820.24387086102888 629.62999036435031 0 0 0 0 17.228907344739127 160.01342275559159 0 160.01342275559159 -176.81946646805773 0 0 0 0 255.62068901503153 422.87944782034651 0 422.87944782034651 212.41242927991789 0 0 0 0 938.94500872766366 252.89757117113936 0 252.89757117113936 33.452185111434119 0 0 0 0 603.15577891828434 -189.88694038787617 0 -189.88694038787617 806.11372354036564 0 0 0 0 419.89845881714427 148.40503973338309 0 148.40503973338309 196.56436661416137 0 0 0 0 286.92120078860899 145.86183212958201 0 145.86183212958201 471.18204469409102 0 0 0 0 300.42408756547229 524.75157681608994 0 524.75157681608994 232.90866972218555 0 0 0 0 284.90452465579438 470.09162055964225 0 470.09162055964225 460.42075527983786 0 0 0 0 73.446490458096378 410.05682722063739 0 410.05682722063739 215.82058577242776 0 0 0 0 177.43794429145782 -115.92044627049904 0 -115.92044627049904 -132.22649135293887 0 0 0 0 6.7836096156059682 4.127871699461835 0 4.127871699461835 1.9082633977629389 0 0 0 0 1055.0958646346116 428.26206572891169 0 428.26206572891169 160.46637163523883 0 0 0 0 573.09030198960681 446.52697542303213 0 446.52697542303213 170.5369515913435 0 0 0 0 469.4439426868048 363.44005273607218 0 363.44005273607218 205.32682428158751 0 0 0 0 321.96554581321107 477.19609672090519 0 477.19609672090519 183.06713010255771 0 0 0 0 92.406499901553616 138.31237385063991 0 138.31237385063991 156.67575807258663 0 0 0 0 317.85532838319341 116.53576820492981 0 116.53576820492981 89.288151442652634 0 0 0 0 -14.247712765602046 -98.931343727455669 0 -98.931343727455669 -10.105751628159055 0 0 0 0 33.20980976797 23.758049958985566 0 23.758049958985566 5.499591106265143 0 0 0 0 -101.35339778351772 -27.901097772909907 0 -27.901097772909907 1.0413033909644582 0 0 0 0 42.949717747934699 -14.942535797839014 0 -14.942535797839014 -17.744886357585372 0 0 0 0 52.769089875670034 40.614646059302686 0 40.614646059302686 47.548964588575473 0 0 0 0 131.38500237229891 47.083049193931856 0 47.083049193931856 19.979431085970191 0 0 0 0 53.194118227345825 37.828777296217098 0 37.828777296217098 21.255929742416811 0 0 0 0 34.923049625926069 117.75633161287533 0 117.75633161287533 95.898141017563603 0 0 0 0 15.454634965024212 13.692241555624065 0 13.692241555624065 17.814045049667708 0 0 0 0 5.9860142587557448 3.9370801526247732 0 3.9370801526247732 -5.2293294392026732 0 0 0 0 63.212148796534166 1.6621597626199218 0 1.6621597626199218 7.2574744797107087 0 0 0 0 -21.443526829061739 247.16178349839583 0 247.16178349839583 462.4061267924817 0 0 0 0 174.32679140521213 502.41231720948781 0 502.41231720948781 434.96658527825934 0 0 0 0 102.95210593834054 1325.51039064223 0 1325.51039064223 820.64900709506219 0 0 0 0 65.631484754274425 -35.443636875952279 0 -35.443636875952279 1369.9093077548659 0 0 0 0 133.50716856501094 15.975135872050487 0 15.975135872050487 8.9224585253764417 0 0 0 0 59.879696331171544 42.785182190108856 0 42.785182190108856 31.311292896332816 0 0 0 0 253.94859162257308 -35.764730552033143 0 -35.764730552033143 -268.23780598022586 0 0 0 0 208.75901315206619 46.949442441252089 0 46.949442441252089 9.0342073214830361 0 0 0 0 43.515844735519352 17.585020414712545 0 17.585020414712545 2.6537679167574719 0 0 0 0 240.75472990792332 237.27645215887378 0 237.27645215887378 -8.541532034827469 0 0 0 0 237.4838789038028 51.894525297397053 0 51.894525297397053 -2.9401096232231101 0 0 0 0 339.30567490990506 -1.3227049275919853 0 -1.3227049275919853 -238.43410357291214 0 0 0 0 259.55526126020413 775.49895539158933 0 775.49895539158933 -618.46988407522622 0 0 0 0 461.95256781477656 68.349705680722764 0 68.349705680722764 -653.11377320539941 0 0 0 0 201.95936322413036 127.87510330355872 0 127.87510330355872 -0.6410624422624096 0 0 0 0 382.21168556893826 112.89861284323524 0 112.89861284323524 -339.98563053821272 0 0 0 0 91.605836370681786 11.329054451057175 0 11.329054451057175 -23.805696620173457 0 0 0 0 469.94916465974529 -70.346571667618264 0 -70.346571667618264 -406.99337010205636 0 0 0 0 1572.3230966516421 -427.60272693590741 0 -427.60272693590741 -759.51362912808486 0 0 0 0 -15.981470477388939 747.45159131232822 0 747.45159131232822 -1059.8431113723564 0 0 0 0 361.92940001079114 -185.86687634238365 0 -185.86687634238365 -518.35549002963853 0 0 0 0 353.0555462219636 -209.15109170034793 0 -209.15109170034793 -454.83261133949691 0 0 0 0 124.36610140565608 71.039044475538503 0 71.039044475538503 -23.286924384084614 0 0 0 0 129.8719240135041 13.435034886269726 0 13.435034886269726 -15.753285118024834 0 0 0 0 -468.9603540697135 -422.08394628913993 0 -422.08394628913993 -462.65484472957803 0 0 0 0 22.450482419684306 -5.660107198849218 0 -5.660107198849218 -21.264937113308736 0 0 0 0 -51.026171976001933 507.85270900183514 0 507.85270900183514 -258.6847621905672 0 0 0 0 467.93786569777876 -56.209566823392151 0 -56.209566823392151 -817.42117015527037 0 0 0 0 490.77017140289536 -235.26030859586626 0 -235.26030859586626 86.062898667471018 0 0 0 0 -347.42808025030536 -210.54884507847601 0 -210.54884507847601 -548.71113850765505 0 0 0 0 -7.7793802696542116 -40.870031836759608 0 -40.870031836759608 -1178.6839233253304 0 0 0 0 298.66399839321821 475.68181605628286 0 475.68181605628286 -202.16485007753363 0 0 0 0 334.93844430951867 688.36969680909533 0 688.36969680909533 74.043591345109235 0 0 0 0 244.28441800322616 215.10525082642653 0 215.10525082642653 28.092244535673672 0 0 0 0 963.03292752156267 800.43568709945293 0 800.43568709945293 255.81759882811093 0 0 0 0 608.45638317574048 303.98249181161827 0 303.98249181161827 243.52942714350408 0 0 0 0 -2.0752031396887105 3.4305712654835645 0 3.4305712654835645 9.549309933664734 0 0 0 0 1701.1535470434756 539.91360119626825 0 539.91360119626825 164.93348631799199 0 0 0 0 759.37382342679484 -713.31322606716321 0 -713.31322606716321 987.11631957540521 0 0 0 0 1002.0499440736749 877.30494846298961 0 877.30494846298961 1061.3282277014732 0 0 0 0 774.57521114434348 -264.99587067156699 0 -264.99587067156699 -514.56757879691122 0 0 0 0 481.71729174825305 464.90738587193982 0 464.90738587193982 90.067474450392183 0 0 0 0 91.942920714671345 -33.235825657704538 0 -33.235825657704538 5.6548801030696723 0 0 0 0 3.82855006549552 5.6392013302091044 0 5.6392013302091044 1.3766824013521877 0 0 0 0 67.236102827955619 -32.917058908020863 0 -32.917058908020863 23.1821682759429 0 0 0 0 80.828875815437641 -8.0072356212201612 0 -8.0072356212201612 9.3449664574427516 0 0 0 0 47.731031499919482 -29.83412999074153 0 -29.83412999074153 15.229327162630398 0 0 0 0 37.83234472796903 -18.906858108709002 0 -18.906858108709002 18.930482744341134 0 0 0 0 615.29717171962693 -52.494364325731226 0 -52.494364325731226 -94.359412114911947 0 0 0 0 293.14888606983368 5.7365137405043924 0 5.7365137405043924 69.948512229669404 0 0 0 0 237.69143622957927 -180.14930453151783 0 -180.14930453151783 -134.30861080023806 0 0 0 0 261.48748067875931 -360.51434193241516 0 -360.51434193241516 56.668637612159728 0 0 0 0 11.536077366959987 3.5251065169912152 0 3.5251065169912152 5.528234559076413 0 0 0 0 63.833704365802987 -22.789008707424273 0 -22.789008707424273 6.3366504569580684 0 0 0 0 851.40659170022991 1150.4149481558115 0 1150.4149481558115 1925.2192972204575 0 0 0 0 36.064879384364758 -6.4636417923152294 0 -6.4636417923152294 23.406293226827984 0 0 0 0 2634.1723549522503 645.60530576361634 0 645.60530576361634 -2173.8452819650147 0 0 0 0 -207.97003587931977 -577.80492792133145 0 -577.80492792133145 -735.38739423942297 0 0 0 0 11.569732106821036 -14.108794336546509 0 -14.108794336546509 9.639641316887289 0 0 0 0 49.423650862514478 -32.039840491902282 0 -32.039840491902282 13.01620338745397 0 0 0 0 373.17018982925583 163.90227421974248 0 163.90227421974248 -89.681519297825162 0 0 0 0 18.506674551495053 -6.3116775176632416 0 -6.3116775176632416 -4.3286265551313328 0 0 0 0 7.4374845376587473 -4.2729146706531083 0 -4.2729146706531083 3.0036155755360596 0 0 0 0 15.050735619734041 9.9730815833809174 0 9.9730815833809174 27.87484786760001 0 0 0 0 94.707594451796467 32.899407437449781 0 32.899407437449781 -37.122289393033498 0 0 0 0 136.69762865598022 252.5680422487826 0 252.5680422487826 79.32727072488251 0 0 0 0 206.22238358282266 725.08894062586569 0 725.08894062586569 702.38311661536136 0 0 0 0 57.406033361992741 244.15101852850057 0 244.15101852850057 81.827880264818532 0 0 0 0 19.31975004328163 3.9188791242117107 0 3.9188791242117107 1.1479150006191059 0 0 0 0 120.00180969137 214.44744844165507 0 214.44744844165507 -350.13644628594466 0 0 0 0 22.374685601040255 180.89672288611018 0 180.89672288611018 96.380300693934259 0 0 0 0 90.592606552665529 183.21567208224349 0 183.21567208224349 89.44231610807492 0 0 0 0 -4.1471884408529149 153.80614867870918 0 153.80614867870918 401.53561568997179 0 0 0 0 45.12384336289324 158.06501556059197 0 158.06501556059197 76.13062150153155 0 0 0 0 128.32359805194938 157.05438817248387 0 157.05438817248387 102.12012953686826 0 0 0 0 -7.4397388031538867 276.05867127951342 0 276.05867127951342 95.242847638093281 0 0 0 0 119.56377010106371 62.705723453586643 0 62.705723453586643 -123.81413854220591 0 0 0 0 55.5990177037271 10.036512370753796 0 10.036512370753796 1.3599292670224186 0 0 0 0 178.45365245558241 136.2062395188147 0 136.2062395188147 -32.187903008029025 0 0 0 0 418.72637161471357 76.536673998989613 0 76.536673998989613 -49.440345238951835 0 0 0 0 58.999832268973478 126.3749005002845 0 126.3749005002845 28.264840195150782 0 0 0 0 113.68302535552357 -19.328522258688906 0 -19.328522258688906 -21.741684922391414 0 0 0 0 86.636188581649208 13.164824712281112 0 13.164824712281112 1.3052030796678271 0 0 0 0 -1.6063422089791857 103.10275061584753 0 103.10275061584753 85.044397959134585 0 0 0 0 249.84708666187362 206.66613555641925 0 206.66613555641925 -697.62230886505949 0 0 0 0 19.208215855887829 42.216385523799772 0 42.216385523799772 48.444151601930571 0 0 0 0 211.12607736120117 -43.225374389080571 0 -43.225374389080571 -383.6320873993136 0 0 0 0 107.51895474778576 352.89716660044814 0 352.89716660044814 920.9103057178304 0 0 0 0 715.95704256368117 120.27616783178451 0 120.27616783178451 30.043548136604841 0 0 0 0 292.53942372975507 -107.03465430484675 0 -107.03465430484675 -173.66608215894667 0 0 0 0 -89.87536397009535 28.931835309982034 0 28.931835309982034 -167.07350213138216 0 0 0 0 204.66740113825387 -376.06673507626812 0 -376.06673507626812 386.84398806847457 0 0 0 0 193.93914223157481 33.091485945881232 0 33.091485945881232 205.95804437444622 0 0 0 0 4.0956122061311078 3.4680049474926022 0 3.4680049474926022 4.4614515783888749 0 0 0 0 494.78677298718594 -473.63157084991258 0 -473.63157084991258 341.52609303697045 0 0 0 0 662.67544237276888 -84.975103926678457 0 -84.975103926678457 176.50207527039402 0 0 0 0 -98.805405583028914 12.300206328344757 0 12.300206328344757 3.7106368099794054 0 0 0 0 -78.518066378106596 140.42391848392072 0 140.42391848392072 157.91630414882479 0 0 0 0 -73.147517174092172 87.063362867610522 0 87.063362867610522 91.083253137846441 0 0 0 0 365.5008484442078 -42.935500013627461 0 -42.935500013627461 -18.963488362885528 0 0 0 0 -32.360412227040797 -106.36277112007679 0 -106.36277112007679 -15.906654459941819 0 0 0 0 320.74009209162614 -44.521397906558377 0 -44.521397906558377 -444.31317598197938 0 0 0 0 355.00553792231949 89.872727622680031 0 89.872727622680031 -640.95015728470662 0 0 0 0 112.99857986041781 15.18539292551611 0 15.18539292551611 1.4991382051850017 0 0 0 0 171.43444615241606 36.44381203209673 0 36.44381203209673 7.1149632469209791 0 0 0 0 29.301533304722398 8.6691041705030329 0 8.6691041705030329 218.15928444711966 0 0 0 0 126.78205918517779 -98.732996944405613 0 -98.732996944405613 40.755409067823166 0 0 0 0 90.619695244771719 -42.842894110686984 0 -42.842894110686984 178.29712350712771 0 0 0 0 137.27575457284658 13.718400173170906 0 13.718400173170906 0.57128809080518206 0 0 0 0 -63.42752350390947 4.3778058082912139 0 4.3778058082912139 -115.05596479653474 0 0 0 0 73.399966998200398 -14.500008355716247 0 -14.500008355716247 26.227659041057461 0 0 0 0 92.573420194530627 -57.573720439857091 0 -57.573720439857091 -118.36263785395502 0 0 0 0 49.614804544158687 -29.235417291425581 0 -29.235417291425581 -154.7337676455418 0 0 0 0 20.898201582764159 28.566239451691693 0 28.566239451691693 10.248453967242282 0 0 0 0 37.179853685389389 112.47454913805996 0 112.47454913805996 -209.54095661438527 0 0 0 0 13.494031087859184 -31.224216415081059 0 -31.224216415081059 -356.16121702956525 0 0 0 0 58.683418598935532 -102.42334429325058 0 -102.42334429325058 34.740062387570617 0 0 0 0 2.7290083466346573 -10.290583747862009 0 -10.290583747862009 -4.2337589880620055 0 0 0 0 98.585765603173058 61.453659497506806 0 61.453659497506806 -284.40617417352041 0 0 0 0 65.638684491989693 10.182093088535709 0 10.182093088535709 -2.1600443815655943 0 0 0 0 109.43362105329288 -72.676623260062115 0 -72.676623260062115 -223.10286942879929 0 0 0 0 135.01664912873002 64.218191472161934 0 64.218191472161934 -241.74678382705224 0 0 0 0 10.589172583189793 91.109802561278684 0 91.109802561278684 -119.46029212673238 0 0 0 0 11.174149889437757 4.6302909477954444 0 4.6302909477954444 -3.0423355860224337 0 0 0 0 85.57672528931289 -58.285950049350504 0 -58.285950049350504 -80.87992277873127 0 0 0 0 99.134184083304717 -11.502141572641904 0 -11.502141572641904 -130.2208837212886 0 0 0 0 88.252398392774921 -53.694755504034219 0 -53.694755504034219 -14.785557348693146 0 0 0 0 127.21321680600522 -36.150041670508926 0 -36.150041670508926 -72.97758083708618 0 0 0 0 92.576338982042216 -44.692048232378738 0 -44.692048232378738 -54.891599862870862 0 0 0 0 54.062021456302318 -65.364569239203547 0 -65.364569239203547 -6.7944511458499619 0 0 0 0 117.31211851735134 -47.082840021788343 0 -47.082840021788343 -14.210214653990306 0 0 0 0 88.362157074796414 -34.265510445051291 0 -34.265510445051291 -52.72555986583393 0 0 0 0 64.802617000205657 -21.084383229107715 0 -21.084383229107715 -9.1089604043066217 0 0 0 0 72.725539497565478 -10.151551133957582 0 -10.151551133957582 -29.454172834993642 0 0 0 0 112.66468621298554 -64.356459372024005 0 -64.356459372024005 -65.942726816658677 0 0 0 0 60.541905921985744 -92.439869482382619 0 -92.439869482382619 -22.094207453239505 0 0 0 0 60.257957933853334 -37.197914339799453 0 -37.197914339799453 -2.6831565600937139 0 0 0 0 -109.86810756209888 -91.231648225314984 0 -91.231648225314984 -19.435198650798156 0 0 0 0 -297.95656621971284 -14.492412441493798 0 -14.492412441493798 5.2705476790131911 0 0 0 0 70.822406633757055 4.3591705691934948 0 4.3591705691934948 -75.8169784470183 0 0 0 0 15.651137510689892 -5.630866292300837 0 -5.630866292300837 -5.7981483336983874 0 0 0 0 107.78109473617224 -46.857044689762915 0 -46.857044689762915 -114.31028779422374 0 0 0 0 -310.68835370251327 -168.23997658324998 0 -168.23997658324998 256.16399427967087 0 0 0 0 -0.32147571772176775 -1.6663993645805704 0 -1.6663993645805704 -1.1781826277050556 0 0 0 0 -40.199786392971873 -10.796212710747909 0 -10.796212710747909 -161.61043139337926 0 0 0 0 64.058870006963843 108.66777109048093 0 108.66777109048093 -57.124574080690316 0 0 0 0 50.682644781925774 110.4513579263899 0 110.4513579263899 -267.26108314388284 0 0 0 0 24.443267559327069 196.02764859101234 0 196.02764859101234 70.777650254628725 0 0 0 0 -85.991621563538502 19.632160348712688 0 19.632160348712688 -15.184031663358052 0 0 0 0 302.70123771467479 149.27156200314568 0 149.27156200314568 -19.672586161365246 0 0 0 0 303.8259766953488 178.01111448552928 0 178.01111448552928 152.5419463333302 0 0 0 0 520.35470613349753 46.380897784570607 0 46.380897784570607 107.28839397232491 0 0 0 0 654.26781847258098 215.73712632075421 0 215.73712632075421 216.05508554839525 0 0 0 0 542.8805963434861 -14.70356020784152 0 -14.70356020784152 370.71901932494347 0 0 0 0 798.12027503235731 254.7103919383685 0 254.7103919383685 223.40916783194916 0 0 0 0 261.14848141574475 170.54473684728123 0 170.54473684728123 202.96375324237169 0 0 0 0 328.38429542802623 -78.979854576319667 0 -78.979854576319667 118.61948149692944 0 0 0 0 -114.35945864777023 133.33850396613326 0 133.33850396613326 49.358022985044045 0 0 0 0 93.715575632697437 -17.63127579297975 0 -17.63127579297975 78.02422787201283 0 0 0 0 -117.15024233183067 -299.40353764609699 0 -299.40353764609699 33.166270263744764 0 0 0 0 113.77742914238479 -127.91133026678995 0 -127.91133026678995 -153.7601856582146 0 0 0 0 -295.62027875707486 -154.79646023013015 0 -154.79646023013015 73.417176857718914 0 0 0 0 117.20785508166591 -133.7316103611256 0 -133.7316103611256 -22.229249759196136 0 0 0 0 94.155064744831179 -232.16133291101073 0 -232.16133291101073 -14.791611940334406 0 0 0 0 -16.538940995022131 -154.74028032434194 0 -154.74028032434194 -36.273864195343776 0 0 0 0 -27.790267760748975 -186.75119459952339 0 -186.75119459952339 -15.237670143377727 0 0 0 0 209.8593633959681 -121.39889603092661 0 -121.39889603092661 -78.077518759235858 0 0 0 0 231.81996465371049 -149.35475626178004 0 -149.35475626178004 -42.773198285984108 0 0 0 0 433.30640515671985 -117.95151087948761 0 -117.95151087948761 -47.278247091088815 0 0 0 0 592.31204704802076 -29.586845617206336 0 -29.586845617206336 119.80302728632614 0 0 0 0 162.45641465953668 -207.58338729802017 0 -207.58338729802017 89.998739932456374 0 0 0 0 353.91318593366304 -121.23424667733025 0 -121.23424667733025 30.121587334298965 0 0 0 0 109.56461074622075 -61.280388097980691 0 -61.280388097980691 242.15243137608559 0 0 0 0 440.01874574834073 96.015845086037643 0 96.015845086037643 316.16974716209006 0 0 0 0 398.2167391816547 -226.37764402499738 0 -226.37764402499738 276.59006065624635 0 0 0 0 739.38811631675344 288.01307857586107 0 288.01307857586107 779.65642415340403 0 0 0 0 747.08673395848018 -264.71409733072915 0 -264.71409733072915 476.9281547500575 0 0 0 0 1059.5682561235735 131.2930516077688 0 131.2930516077688 64.738574828866149 0 0 0 0 529.75727640044352 437.37257555908764 0 437.37257555908764 332.42683817963007 0 0 0 0 442.95558443749906 131.46741130271494 0 131.46741130271494 66.867804679440269 0 0 0 0 491.57132134518179 261.07418363584407 0 261.07418363584407 83.017759990122613 0 0 0 0 452.5174334901676 -163.01730423812114 0 -163.01730423812114 49.074227581411833 0 0 0 0 324.90419653162826 11.850943461150564 0 11.850943461150564 -57.997943852799381 0 0 0 0 597.81765352938964 65.475015130385145 0 65.475015130385145 -47.511031992501557 0 0 0 0 387.54658106668649 67.917030023306552 0 67.917030023306552 -88.408240246852074 0 0 0 0 285.66815618948749 168.88535436615689 0 168.88535436615689 14.296998800686197 0 0 0 0 403.79658425968955 -43.564102530873924 0 -43.564102530873924 -105.61361137508266 0 0 0 0 143.11756842280738 123.46211148674456 0 123.46211148674456 2.3596831850967135 0 0 0 0 166.60449767770479 159.50491855751329 0 159.50491855751329 46.5043150662068 0 0 0 0 253.60264006478246 125.96416849873231 0 125.96416849873231 -40.252891495561101 0 0 0 0 246.78727031618473 147.74006729957 0 147.74006729957 32.627362093796364 0 0 0 0 248.0140884234861 188.43533302586548 0 188.43533302586548 55.772629981968066 0 0 0 0 90.971448490221519 153.17552514783816 0 153.17552514783816 163.45462773831696 0 0 0 0 143.33048858724942 205.92638956791598 0 205.92638956791598 250.12672348951355 0 0 0 0 155.80385022009432 155.14477578382457 0 155.14477578382457 146.93992876413358 0 0 0 0 20.835964223108022 104.92099801548557 0 104.92099801548557 249.31307866451107 0 0 0 0 8.8380332780943718 1.153114146829239 0 1.153114146829239 0.044308346618208816 0 0 0 0 8.1825628191204203 2.4800035124537558 0 2.4800035124537558 1.7664518966392839 0 0 0 0 63.329460184068012 22.266406876869951 0 22.266406876869951 -73.989967936010544 0 0 0 0 27.138076178205665 -75.566828588883936 0 -75.566828588883936 93.35749973267275 0 0 0 0 933.49835021418403 -220.91000809654474 0 -220.91000809654474 62.164070984351838 0 0 0 0 5.1151575823396058 2.6225981253457462 0 2.6225981253457462 1.0984130059284505 0 0 0 0 8.4183824856590945 161.64414558211729 0 161.64414558211729 423.1833468752742 0 0 0 0 170.74879365872766 55.26702425629378 0 55.26702425629378 -69.04649988435267 0 0 0 0 1274.2602537448656 453.38836252500022 0 453.38836252500022 49.652527256008398 0 0 0 0 1265.6955028916564 262.58637480191442 0 262.58637480191442 224.04128995978408 0 0 0 0 940.28550952317892 69.376896397600376 0 69.376896397600376 146.27189862575278 0 0 0 0 720.8050308576494 59.810711314972195 0 59.810711314972195 147.97466621996136 0 0 0 0 -0.66892526754912751 0.22266150340326618 0 0.22266150340326618 1.3186032156245564 0 0 0 0 734.14489202678305 -110.80698314769774 0 -110.80698314769774 38.311498995986767 0 0 0 0 2.7890457821256405 2.6458615334951503 0 2.6458615334951503 -0.65673822941770554 0 0 0 0 1063.6599622092472 -14.533143704693941 0 -14.533143704693941 -57.538931788546961 0 0 0 0 94.24639146712434 -82.163652570072884 0 -82.163652570072884 53.434916011780075 0 0 0 0 69.248484104904492 -25.053791028632226 0 -25.053791028632226 22.800231768437641 0 0 0 0 35.175269788509468 -23.371909626806911 0 -23.371909626806911 26.843287931121338 0 0 0 0 5.2601631563130695 2.3948120318852943 0 2.3948120318852943 0.69030636584973126 0 0 0 0 9.535447704154933 -1.8925330051028411 0 -1.8925330051028411 0.092018471598061424 0 0 0 0 115.49595747239073 -306.71613536964907 0 -306.71613536964907 190.61698139220584 0 0 0 0 811.79265443075565 -448.3802228857071 0 -448.3802228857071 -515.52034688189565 0 0 0 0 33.271134967217222 -159.71365288155795 0 -159.71365288155795 -47.452176135494142 0 0 0 0 1.8116713916169829 -49.053761759487287 0 -49.053761759487287 -60.55641102175673 0 0 0 0 33.109784963511629 -53.773894642167136 0 -53.773894642167136 -178.53279562946886 0 0 0 0 126.3081851760362 53.262998806314044 0 53.262998806314044 -90.726878850001867 0 0 0 0 113.80349765751453 230.48740926136134 0 230.48740926136134 185.07316212389742 0 0 0 0 128.87327928954619 36.948024746769534 0 36.948024746769534 -70.109975889765337 0 0 0 0 115.04497186654953 -14.894293096961974 0 -14.894293096961974 -142.00404271337629 0 0 0 0 149.73364886652416 77.903649700415372 0 77.903649700415372 -68.189631240583367 0 0 0 0 188.45260643129586 62.025567353309498 0 62.025567353309498 -123.7174814224818 0 0 0 0 191.50727949320571 112.53073195980187 0 112.53073195980187 -41.021365894660335 0 0 0 0 145.56589464146236 124.53208821411226 0 124.53208821411226 2.2966077215441487 0 0 0 0 191.97078229193721 107.08945395620299 0 107.08945395620299 -63.502045390740932 0 0 0 0 276.13974913684069 -16.161466582480216 0 -16.161466582480216 -141.23997050903472 0 0 0 0 205.37275021347159 -66.910473931810429 0 -66.910473931810429 -103.88469516175229 0 0 0 0 253.38804065406293 70.753224213337262 0 70.753224213337262 -108.7908798470171 0 0 0 0 223.61104206135496 48.971496870358806 0 48.971496870358806 -83.713718520459565 0 0 0 0 155.94194583740318 32.916095614013557 0 32.916095614013557 -116.08366447975857 0 0 0 0 136.83122701277898 -27.114789060880867 0 -27.114789060880867 -132.88983685070434 0 0 0 0 90.006144967890577 3.0573384398148846 0 3.0573384398148846 -165.78878652009075 0 0 0 0 158.33115368706058 -14.299898558143695 0 -14.299898558143695 -233.80576216472764 0 0 0 0 101.20320926740067 -8.8970307442042476 0 -8.8970307442042476 -0.81166044706458118 0 0 0 0 64.240687515637546 -94.337557176406392 0 -94.337557176406392 -173.12217456696999 0 0 0 0 195.65480330167338 3.2846074931912881 0 3.2846074931912881 -170.58146493591448 0 0 0 0 82.184489098225697 -8.5297906515971249 0 -8.5297906515971249 -3.6073293488026574 0 0 0 0 113.23136847002752 -104.24081515180501 0 -104.24081515180501 -232.63905242816236 0 0 0 0 102.74977022176608 -28.585816772698308 0 -28.585816772698308 101.04285364954603 0 0 0 0 -215.54506792969187 -111.9985092218476 0 -111.9985092218476 664.26533387108611 0 0 0 0 18.399511070885325 4.1601318927234558 0 4.1601318927234558 -6.9380056652030611 0 0 0 0 38.279984676060849 -72.568342675892382 0 -72.568342675892382 -178.06066301880583 0 0 0 0 116.40172804579197 -98.778790590818517 0 -98.778790590818517 -133.94983079238136 0 0 0 0 175.79297297267476 -61.376296643905334 0 -61.376296643905334 -174.32224155655561 0 0 0 0 27.930347105546389 -142.05752562877842 0 -142.05752562877842 -101.99691644368863 0 0 0 0 126.44733524136973 -107.15782819199376 0 -107.15782819199376 -165.62730693318554 0 0 0 0 134.02434592253121 -160.70380380005417 0 -160.70380380005417 -80.091652349006154 0 0 0 0 108.91989602323156 -133.64852012690653 0 -133.64852012690653 -103.41510075985843 0 0 0 0 227.30109184364846 -83.303111525502118 0 -83.303111525502118 -137.60596428886129 0 0 0 0 -107.47271456292947 -149.67084300066335 0 -149.67084300066335 -23.691667782161858 0 0 0 0 41.993252218067937 -157.99272319930799 0 -157.99272319930799 -117.15228052396469 0 0 0 0 -27.031119396720896 -124.6742959986509 0 -124.6742959986509 -99.309611031580971 0 0 0 0 52.707508814637549 -192.88192107485338 0 -192.88192107485338 -48.663655317433268 0 0 0 0 -43.115520520615974 -66.52731065948592 0 -66.52731065948592 16.097021814283153 0 0 0 0 16.585606948006898 131.23450188716197 0 131.23450188716197 248.12120195566831 0 0 0 0 6.4265646945848403 -7.6996196688900671 0 -7.6996196688900671 1.1002938334097569 0 0 0 0 -9.4106751948602323 -147.92910741112394 0 -147.92910741112394 -118.46473384100227 0 0 0 0 37.018838679360613 -12.447636311686423 0 -12.447636311686423 3.874433382669797 0 0 0 0 178.67040035413811 -134.45701057703991 0 -134.45701057703991 -214.65271188579027 0 0 0 0 50.762496116118996 -16.136097712530415 0 -16.136097712530415 -3.4970754610592696 0 0 0 0 14.628941149145248 -237.7830896964515 0 -237.7830896964515 22.955714268035308 0 0 0 0 35.439249024551827 -92.304039528218709 0 -92.304039528218709 -151.94861858388549 0 0 0 0 46.403146888362244 -78.143418692958221 0 -78.143418692958221 -163.1759038276864 0 0 0 0 42.127466488222126 -78.991832211448127 0 -78.991832211448127 -176.52668670808202 0 0 0 0 40.60581041459227 -66.135277422947297 0 -66.135277422947297 -145.81738947545 0 0 0 0 43.543669272708939 -58.957658142787182 0 -58.957658142787182 -117.07316659624848 0 0 0 0 44.435268728178926 -47.939978083243204 0 -47.939978083243204 -154.11439257222844 0 0 0 0 20.654067608178593 -36.805256537639707 0 -36.805256537639707 -111.92256813348536 0 0 0 0 24.836050567304483 -61.532269803575446 0 -61.532269803575446 -140.194366966443 0 0 0 0 38.45587330753915 -61.333796502043811 0 -61.333796502043811 -148.7418028662446 0 0 0 0 6.8401111700659385 -35.676721939236472 0 -35.676721939236472 -173.71995104936332 0 0 0 0 26.767737623478752 -49.905925994853078 0 -49.905925994853078 -182.90029078385305 0 0 0 0 42.729667163162958 -62.496605074218223 0 -62.496605074218223 -173.81307536991881 0 0 0 0 13.545757935615256 -46.984538488141425 0 -46.984538488141425 -156.8364100501617 0 0 0 0 127.54742571355746 49.463178883242563 0 49.463178883242563 -79.402819934633044 0 0 0 0 29.233643743849825 -107.79887085964424 0 -107.79887085964424 -186.43767130854019 0 0 0 0 12.499942313355859 347.92686276699351 0 347.92686276699351 171.4528405915637 0 0 0 0 25.657190827851252 -7.9380846056518948 0 -7.9380846056518948 1.8335749740024057 0 0 0 0 -41.121475849213311 -89.890618404425368 0 -89.890618404425368 -128.2022377313051 0 0 0 0 -7.9609695148828905 -88.537864204942707 0 -88.537864204942707 -132.39964677318869 0 0 0 0 -41.966586327296682 -51.587788865571156 0 -51.587788865571156 -136.43831603715489 0 0 0 0 38.487643303167715 -46.922415842091652 0 -46.922415842091652 -109.63551626132335 0 0 0 0 17.085876352299238 -63.638672669033156 0 -63.638672669033156 -57.760825347759919 0 0 0 0 44.19795601934311 -35.178257463032651 0 -35.178257463032651 -82.317274011874872 0 0 0 0 13.777782667551946 -47.424961272284463 0 -47.424961272284463 -40.429828027705526 0 0 0 0 38.832830267638201 -19.679172696461137 0 -19.679172696461137 -42.11946280634163 0 0 0 0 45.344347867227043 -36.586213493681726 0 -36.586213493681726 -112.88179566909048 0 0 0 0 30.663250470017374 -56.550475398557069 0 -56.550475398557069 -90.612765394712369 0 0 0 0 51.667435222276254 -58.104783751974082 0 -58.104783751974082 -33.395886106469902 0 0 0 0 47.904746662708931 -53.854537969166358 0 -53.854537969166358 -76.314513856205167 0 0 0 0 56.357640597299905 -42.469803011246313 0 -42.469803011246313 -102.03002030215521 0 0 0 0 38.878662868301035 -39.14938589510956 0 -39.14938589510956 -12.735646118349678 0 0 0 0 61.189851045113755 -28.67876420639584 0 -28.67876420639584 -47.610174294883166 0 0 0 0 47.346317721894593 -19.826192531021491 0 -19.826192531021491 16.785406969576286 0 0 0 0 66.371297033852898 -69.721859723541115 0 -69.721859723541115 -33.810185371204057 0 0 0 0 61.176075620873235 13.640329404726561 0 13.640329404726561 -172.99122535180322 0 0 0 0 96.959104286575894 -51.414187770883302 0 -51.414187770883302 -160.16198984061248 0 0 0 0 61.697853712248616 -32.059682568048402 0 -32.059682568048402 -120.12251501065612 0 0 0 0 59.772321295342408 -38.865297529222971 0 -38.865297529222971 -131.85190678872095 0 0 0 0 58.604980282230827 -47.626230191050809 0 -47.626230191050809 -130.52628723673206 0 0 0 0 66.677339417510666 -40.638724199672424 0 -40.638724199672424 -132.76575537344138 0 0 0 0 68.876128896372393 -55.727035356058764 0 -55.727035356058764 -117.50055153715448 0 0 0 0 70.432909693146939 -49.298452573885413 0 -49.298452573885413 -131.36884833643035 0 0 0 0 50.201942684827372 -55.35200619231864 0 -55.35200619231864 -99.407546893902008 0 0 0 0 50.335993345135648 -46.789110779823545 0 -46.789110779823545 -130.28444203167055 0 0 0 0 40.481233120081015 -68.48397977258719 0 -68.48397977258719 -135.91415611612399 0 0 0 0 52.449700302095152 -47.421733447473343 0 -47.421733447473343 -123.97968738926829 0 0 0 0 40.59251132310601 -70.384068560907963 0 -70.384068560907963 -133.03025406701545 0 0 0 0 -31.04229530224984 -8.1420198159453321 0 -8.1420198159453321 165.37909092156406 0 0 0 0 203.83402632083744 495.04395077162371 0 495.04395077162371 -304.94775851183863 0 0 0 0 24.244212246994721 -88.712224084546506 0 -88.712224084546506 -141.58981473900735 0 0 0 0 2.3054154443459538 0.50642493558497748 0 0.50642493558497748 -0.15283323036821983 0 0 0 0 -299.82901866617613 -285.80971045420984 0 -285.80971045420984 320.69774780592616 0 0 0 0 20.189755873347167 -66.337008946413334 0 -66.337008946413334 -118.94067377927001 0 0 0 0 39.457815133791883 -48.015423095812594 0 -48.015423095812594 -101.54149975048358 0 0 0 0 28.488667776378861 -123.45278555489017 0 -123.45278555489017 41.24334275383444 0 0 0 0 41.795891751564341 -128.26751003504432 0 -128.26751003504432 -76.239042823524869 0 0 0 0 -5.086115414291271 32.757297029966594 0 32.757297029966594 30.649172964091122 0 0 0 0 37.94001424333959 -22.884570435058308 0 -22.884570435058308 -3.4184747907539812 0 0 0 0 46.743713239149656 -61.674191827109098 0 -61.674191827109098 18.724782241870344 0 0 0 0 186.16922065165272 264.19939528966438 0 264.19939528966438 -145.57981587609902 0 0 0 0 -2.0493397829505682 -23.582910115117159 0 -23.582910115117159 3.7386907690233731 0 0 0 0 46.26782044591755 -108.05460140802481 0 -108.05460140802481 94.753328378652441 0 0 0 0 -3.6472571691298867 -3.6592394161181403 0 -3.6592394161181403 4.6584426948983744 0 0 0 0 26.477116234833375 0.32205790152170266 0 0.32205790152170266 -83.80350689933698 0 0 0 0 443.81524392752908 -191.60532261064509 0 -191.60532261064509 -46.866574352872703 0 0 0 0 36.16995410216748 -18.188881211259172 0 -18.188881211259172 4.2013087524913129 0 0 0 0 -6.4603640822388115 41.032434860238709 0 41.032434860238709 -130.92727187884543 0 0 0 0 52.311723287246423 -64.07705634375759 0 -64.07705634375759 27.082562919912789 0 0 0 0 84.89647240609338 -157.06791143252053 0 -157.06791143252053 -50.500912579045462 0 0 0 0 2.0710821665022081 -4.2847373948610823 0 -4.2847373948610823 0.43705800481244239 0 0 0 0 162.60791210480966 -57.179308330669301 0 -57.179308330669301 9.9817483067918147 0 0 0 0 79.865926243379363 -74.338526106472727 0 -74.338526106472727 76.731996862743472 0 0 0 0 109.25547895423369 -41.397716059635059 0 -41.397716059635059 32.72972441975071 0 0 0 0 87.632562469691038 -58.584073091028586 0 -58.584073091028586 25.171990107679449 0 0 0 0 125.08055230177706 -65.0302838673515 0 -65.0302838673515 5.947131983417421 0 0 0 0 102.30715995645733 -82.785584349730925 0 -82.785584349730925 -2.1773412815082338 0 0 0 0 90.469391181191895 -50.699686775051305 0 -50.699686775051305 21.626763040092555 0 0 0 0 165.98448038003698 -43.69760651802153 0 -43.69760651802153 21.931040593613034 0 0 0 0 218.53785463327586 -4.0508641464302286 0 -4.0508641464302286 28.335873745122171 0 0 0 0 87.849144309449912 -88.77066143377931 0 -88.77066143377931 27.255547202141315 0 0 0 0 195.00300445160246 -83.710976134524117 0 -83.710976134524117 -2.1381514750555652 0 0 0 0 319.53372044091157 81.724183782194132 0 81.724183782194132 35.996731320165964 0 0 0 0 296.27700841319165 -13.539433900190261 0 -13.539433900190261 -203.20382999050116 0 0 0 0 45.635382883032435 -66.185085623413983 0 -66.185085623413983 17.234700583169115 0 0 0 0 152.29979372455273 158.36149622040568 0 158.36149622040568 33.307766744389994 0 0 0 0 332.65401678791386 69.567799454302076 0 69.567799454302076 16.345315403194718 0 0 0 0 429.27470655654906 197.73707854236523 0 197.73707854236523 79.545550252286944 0 0 0 0 259.0988234211618 -9.4420363922434376 0 -9.4420363922434376 38.81446439500769 0 0 0 0 162.86324637907092 54.179477749217796 0 54.179477749217796 55.954363389690741 0 0 0 0 547.32686869423196 75.769575104024412 0 75.769575104024412 47.796087095601834 0 0 0 0 241.17990033928072 -89.553452370718475 0 -89.553452370718475 92.980597113339542 0 0 0 0 524.28742091676941 201.62577412411559 0 201.62577412411559 88.260652670490629 0 0 0 0 597.36458606749511 112.92685715462244 0 112.92685715462244 193.56051894643753 0 0 0 0 1069.7830174598494 67.911451040488643 0 67.911451040488643 0.57089779826139597 0 0 0 0 499.01157256269653 285.26047635880644 0 285.26047635880644 41.50486870640313 0 0 0 0 1.829489881717052 -0.10345079993656725 0 -0.10345079993656725 -0.00068311825488551192 0 0 0 0 1.3595301982713863 -56.227464487723523 0 -56.227464487723523 117.44200898260267 0 0 0 0 87.114806725992821 78.540390056617298 0 78.540390056617298 35.629971420883251 0 0 0 0 58.421982149477117 16.330814883325814 0 16.330814883325814 2.9244846623762726 0 0 0 0 52.687122240087774 52.130677119572766 0 52.130677119572766 86.112512821077416 0 0 0 0 2.8683083074610636 -0.46391756827338781 0 -0.46391756827338781 -0.065623286541526341 0 0 0 0 119.82325507120549 -50.154719600769937 0 -50.154719600769937 0.13543453209841724 0 0 0 0 43.076227333149291 10.420423670831898 0 10.420423670831898 -30.875259137012968 0 0 0 0 1.3687573738675383 -0.0060220412796354594 0 -0.0060220412796354594 -0.072396576732298545 0 0 0 0 -13.466189675316855 -28.749172543756579 0 -28.749172543756579 -0.057455087360035559 0 0 0 0 44.347984795058437 61.148960589976099 0 61.148960589976099 63.151214488419328 0 0 0 0 53.301825603994075 53.291232126497505 0 53.291232126497505 57.024950198394549 0 0 0 0 114.25382151755912 72.830911136621239 0 72.830911136621239 53.114177855959696 0 0 0 0 61.893705314832914 30.324425088953063 0 30.324425088953063 55.890077995245292 0 0 0 0 84.558995689672884 42.011830265024059 0 42.011830265024059 60.065337062279639 0 0 0 0 64.67397159486427 50.104726335688866 0 50.104726335688866 107.21005142557124 0 0 0 0 51.487507491750875 31.72567486918706 0 31.72567486918706 82.564951872296291 0 0 0 0 67.160686663330125 -33.882618280500026 0 -33.882618280500026 111.73639529458961 0 0 0 0 66.99114064983587 -12.2092543587151 0 -12.2092543587151 7.7995334853146687 0 0 0 0 39.814750845805975 -9.7618541537462136 0 -9.7618541537462136 66.552507648738469 0 0 0 0 60.944086976975086 -2.5054933151213845 0 -2.5054933151213845 -0.35624433430207603 0 0 0 0 42.395321521777078 -31.741710769030391 0 -31.741710769030391 12.074194365775952 0 0 0 0 56.676670052482223 -27.293234041648532 0 -27.293234041648532 -35.225652351274221 0 0 0 0 55.984778652287787 -46.540977138639391 0 -46.540977138639391 -52.733219778569193 0 0 0 0 33.482405571339768 -38.606831659250332 0 -38.606831659250332 13.656273957563712 0 0 0 0 69.786385768209584 -50.70642988892979 0 -50.70642988892979 16.929030091477259 0 0 0 0 84.050121893014875 -38.732117091652043 0 -38.732117091652043 26.954106877319418 0 0 0 0 76.810158926833537 -4.7104813627030637 0 -4.7104813627030637 29.393647567125868 0 0 0 0 73.642909880669322 -4.6657198706112126 0 -4.6657198706112126 32.382323845111472 0 0 0 0 111.27175931698002 -22.089512337854764 0 -22.089512337854764 14.608208151229562 0 0 0 0 144.74365174063132 5.5400597137369516 0 5.5400597137369516 32.649487556347161 0 0 0 0 312.88429715906386 -17.447274124388336 0 -17.447274124388336 2.2389185257947872 0 0 0 0 176.85828195635258 141.26402012150197 0 141.26402012150197 103.01166846428664 0 0 0 0 159.28211965900846 -103.84417621917574 0 -103.84417621917574 0.43965037834046267 0 0 0 0 142.5929506583052 -51.382492800537094 0 -51.382492800537094 29.15776594649077 0 0 0 0 129.30633578405832 -74.25420945323134 0 -74.25420945323134 35.901091679882938 0 0 0 0 116.04451519681606 -79.32992213340917 0 -79.32992213340917 44.551412631164112 0 0 0 0 132.63239935155434 37.755294521194557 0 37.755294521194557 32.149239735341048 0 0 0 0 75.210578675512807 -78.398431694770281 0 -78.398431694770281 48.138022230711428 0 0 0 0 0.019854888836363216 -0.37804404865804031 0 -0.37804404865804031 -0.53609806667000293 0 0 0 0 74.958640056527656 -117.43447303245321 0 -117.43447303245321 29.365699478237431 0 0 0 0 -5.9857400222681463 8.4284281491077291 0 8.4284281491077291 -2.9322387949566568 0 0 0 0 -21.894936747732572 14.578918362075292 0 14.578918362075292 6.1078058570483185 0 0 0 0 0.53845855512054186 0.24134890115908547 0 0.24134890115908547 -0.0076954199553520009 0 0 0 0 102.4473231441807 -9.7454429512423637 0 -9.7454429512423637 -0.090452613319642355 0 0 0 0 -21.61162794745178 -5.5558559356930655 0 -5.5558559356930655 12.412473021395252 0 0 0 0 54.295482211105991 15.451785683497405 0 15.451785683497405 37.851685968271411 0 0 0 0 112.21554999111686 -92.066427112250608 0 -92.066427112250608 33.409089082510377 0 0 0 0 0.2953253714692039 -0.72572716424966188 0 -0.72572716424966188 -2.556823919796841 0 0 0 0 65.20330480748089 -65.563372307621989 0 -65.563372307621989 20.55310354847569 0 0 0 0 149.61662732915283 -101.60879373642008 0 -101.60879373642008 19.173434220886293 0 0 0 0 90.288461711277705 -88.180238465612689 0 -88.180238465612689 32.700190783640551 0 0 0 0 115.81929074309301 -76.738660411751937 0 -76.738660411751937 0.55442364989437465 0 0 0 0 31.009343881614768 -101.75784041496966 0 -101.75784041496966 5.6558297606859469 0 0 0 0 -2.0383809682791423 -1.4242585045412852 0 -1.4242585045412852 -3.9015961156767749 0 0 0 0 180.55419205078215 48.675128200715307 0 48.675128200715307 -360.08137792809049 0 0 0 0 216.36116285265598 -108.14823923598298 0 -108.14823923598298 -50.503112571564088 0 0 0 0 42.100870535199647 -6.3328889340650676 0 -6.3328889340650676 -34.517110960278842 0 0 0 0 48.137117830716306 15.405012997955055 0 15.405012997955055 -16.524345480598186 0 0 0 0 14.415037656387511 -4.4667400284803591 0 -4.4667400284803591 -11.531201632036016 0 0 0 0 66.427858891605865 -13.302866351853027 0 -13.302866351853027 -9.5765265372101567 0 0 0 0 26.790766810561763 -9.0467145080497176 0 -9.0467145080497176 -28.395516685159464 0 0 0 0 27.4625452350665 -7.2538770042392571 0 -7.2538770042392571 -23.91878770100675 0 0 0 0 31.558276366034988 -26.176948169355455 0 -26.176948169355455 -53.105363954357017 0 0 0 0 32.427216527692508 -22.258813175702926 0 -22.258813175702926 -87.375777347399662 0 0 0 0 11.893437777049257 -51.024670569306181 0 -51.024670569306181 -76.86926470930257 0 0 0 0 24.229228479991434 -3.5061064308206369 0 -3.5061064308206369 -32.742646038838757 0 0 0 0 14.522653371053821 5.3467582323165459 0 5.3467582323165459 -54.642348807037706 0 0 0 0 36.224124082858907 1.3723113820133221 0 1.3723113820133221 -54.509998975803683 0 0 0 0 22.460882050036162 11.710070964469764 0 11.710070964469764 2.4734616279943111 0 0 0 0 18.148111026072002 2.2641292920409342 0 2.2641292920409342 13.420894422620222 0 0 0 0 55.409828986295906 20.620985033052648 0 20.620985033052648 -0.32952218245782205 0 0 0 0 21.341372045739263 -3.9171686196498285 0 -3.9171686196498285 24.803135755978474 0 0 0 0 17.321574868808966 36.399800932364087 0 36.399800932364087 18.316354681275698 0 0 0 0 -0.63642876568238194 -0.05990070322138763 0 -0.05990070322138763 1.8364258409050507 0 0 0 0 13.92110467298167 1.1633529571582244 0 1.1633529571582244 -0.87560914269338497 0 0 0 0 50.000768953250372 16.5175153486623 0 16.5175153486623 10.002671400428881 0 0 0 0 21.801904635287883 -5.9268999118873182 0 -5.9268999118873182 -2.2495511800491048 0 0 0 0 332.05335629514593 76.655257012577067 0 76.655257012577067 -28.486910331239869 0 0 0 0 16.444448216474598 -7.6157755351804042 0 -7.6157755351804042 -8.111774514373602 0 0 0 0 18.516893160325708 -36.587286077930912 0 -36.587286077930912 13.355356907317855 0 0 0 0 381.96411917470687 119.39195951734746 0 119.39195951734746 -31.284614211147982 0 0 0 0 314.23955735467462 42.41396117461818 0 42.41396117461818 216.121729377478 0 0 0 0 616.19657484412164 222.25821293811737 0 222.25821293811737 -29.662954874972456 0 0 0 0 466.16989003437629 340.14867926001239 0 340.14867926001239 50.188924755131893 0 0 0 0 393.37783107512223 252.94803902779529 0 252.94803902779529 -11.363926289662231 0 0 0 0 507.00429732417979 284.76186751210798 0 284.76186751210798 -2.6355945010994901 0 0 0 0 322.40440064042923 209.72833371220918 0 209.72833371220918 -19.617091944629294 0 0 0 0 457.11538350731644 267.02904415469879 0 267.02904415469879 -14.699338888186048 0 0 0 0 160.04885631601792 -42.038103512947146 0 -42.038103512947146 25.277706152614428 0 0 0 0 232.60110919094586 -20.250720393077245 0 -20.250720393077245 -14.788421582369665 0 0 0 0 357.34542675684497 252.56123984478018 0 252.56123984478018 113.83662498767342 0 0 0 0 186.73966680686135 103.21703632847777 0 103.21703632847777 38.0452514545741 0 0 0 0 518.98468961619074 131.96431823748151 0 131.96431823748151 -1.8075046197028541 0 0 0 0 351.92112440946221 84.589646645836126 0 84.589646645836126 66.524396440046985 0 0 0 0 377.46174801231246 -10.191272038538841 0 -10.191272038538841 -61.331249767294366 0 0 0 0 539.03652689822775 164.03688689523295 0 164.03688689523295 25.73024650337436 0 0 0 0 648.80308563674043 462.61051716699467 0 462.61051716699467 334.44259146739756 0 0 0 0 632.79228157910984 -9.8379485747038018 0 -9.8379485747038018 340.99712359820865 0 0 0 0 425.43228076428932 258.35397219144227 0 258.35397219144227 199.55679166127086 0 0 0 0 429.71970579848858 21.555782914082613 0 21.555782914082613 53.286316564012623 0 0 0 0 191.89042269976926 246.37279812511747 0 246.37279812511747 170.78264695843598 0 0 0 0 839.3800010005798 372.99708812393646 0 372.99708812393646 7.97650781168457 0 0 0 0 459.67754642821092 295.38579202164073 0 295.38579202164073 7.9456013942715344 0 0 0 0 174.47272760555643 319.16785624632473 0 319.16785624632473 444.41906203606629 0 0 0 0 6.5230030726164046 2.2235647685960345 0 2.2235647685960345 -0.32300155878711134 0 0 0 0 14.441486112062506 -0.24247649886662259 0 -0.24247649886662259 -17.146490263696144 0 0 0 0 83.770576721886755 18.951484076554834 0 18.951484076554834 36.694052208120581 0 0 0 0 20.264710281397129 -13.061084056974689 0 -13.061084056974689 -6.1083070742823082 0 0 0 0 13.55619545315119 -5.327048982463694 0 -5.327048982463694 -11.869572530179649 0 0 0 0 368.6143323580618 -133.07633117615023 0 -133.07633117615023 25.039706964294329 0 0 0 0 744.8194754847209 -57.459343852307029 0 -57.459343852307029 -15.605497564366431 0 0 0 0 11.689023876188287 -5.9540463616839361 0 -5.9540463616839361 -0.7930092798767383 0 0 0 0 13.186876005784143 -4.4558113652344682 0 -4.4558113652344682 -2.9540115343206601 0 0 0 0 20.344955422508065 -12.48645900172124 0 -12.48645900172124 -3.0718337532206164 0 0 0 0 650.54747244222381 321.43801578696502 0 321.43801578696502 64.36993912975079 0 0 0 0 531.33662423653004 265.7326264669889 0 265.7326264669889 47.686319905727771 0 0 0 0 403.05644792455405 243.78064368735232 0 243.78064368735232 47.278758475193854 0 0 0 0 914.92459898667585 317.15874124538607 0 317.15874124538607 12.326802464842444 0 0 0 0 657.61045196904161 301.0023067222329 0 301.0023067222329 66.121239797261808 0 0 0 0 604.6260355819104 351.47195459239549 0 351.47195459239549 59.394703776914184 0 0 0 0 548.06525992311799 160.64702153801466 0 160.64702153801466 42.545594741645914 0 0 0 0 698.4034124701393 401.88788262825028 0 401.88788262825028 273.44844118514766 0 0 0 0 866.56438476534095 131.0938483675132 0 131.0938483675132 80.310817318570471 0 0 0 0 7.3282676981310431 -3.8222335899234849 0 -3.8222335899234849 -0.2911433365269499 0 0 0 0 0.24770849270134931 -6.8618997418773331 0 -6.8618997418773331 -0.0034025743475706257 0 0 0 0 1193.8500449709827 623.28635413259281 0 623.28635413259281 218.97406741744024 0 0 0 0 3.8785897754718803 -0.81809142552737057 0 -0.81809142552737057 -0.53092428117400614 0 0 0 0 14.546953544831922 -8.8348662301922758 0 -8.8348662301922758 9.9839902883827634 0 0 0 0 27.856272585137049 -4.3697552871300633 0 -4.3697552871300633 -1.2709779941686419 0 0 0 0 5.870129860653833 -9.801428035145241 0 -9.801428035145241 -1.3037169508352502 0 0 0 0 6.4783706528542098 -2.6903154946493562 0 -2.6903154946493562 -0.98886666358970932 0 0 0 0 13.487801853741985 -7.5841946776934757 0 -7.5841946776934757 0.00089165735266825974 0 0 0 0 16.990983626979869 -5.8346449680690169 0 -5.8346449680690169 -1.4490048188311135 0 0 0 0 19.098543278490979 -8.4790724349109574 0 -8.4790724349109574 -0.014294462921997072 0 0 0 0 9.8900250547158066 -10.66506682758367 0 -10.66506682758367 1.2852779871094135 0 0 0 0 9.1978560362822464 -4.9089592534646069 0 -4.9089592534646069 -3.9685734483342294 0 0 0 0 6.6621342530415859 -14.583987485050635 0 -14.583987485050635 2.1291755581382752 0 0 0 0 26.009758512547705 -16.171722393856509 0 -16.171722393856509 1.3181284807327742 0 0 0 0 21.877723046505707 -17.480561074033645 0 -17.480561074033645 0.15365322448826646 0 0 0 0 7.5603936394472839 -9.9161090548067534 0 -9.9161090548067534 14.210204343660106 0 0 0 0 28.317441221704939 4.3006711207555028 0 4.3006711207555028 -10.124779415543948 0 0 0 0 11.705248541353626 -4.8567165911764789 0 -4.8567165911764789 -6.3792212823364771 0 0 0 0 2.577145557477138 0.68166382582691654 0 0.68166382582691654 -2.6024616687649287 0 0 0 0 8.3221847272361629 -13.090511444124203 0 -13.090511444124203 10.52419460801066 0 0 0 0 11.823787978264193 -12.377730981659624 0 -12.377730981659624 7.4546688437965631 0 0 0 0 1.2494974244423247 -1.7446422749688821 0 -1.7446422749688821 1.313583578285878 0 0 0 0 9.1912466104549821 -16.061289294899666 0 -16.061289294899666 10.575375432282344 0 0 0 0 21.519519094887073 -28.894407023263739 0 -28.894407023263739 10.396423594097541 0 0 0 0 18.682231178645452 -18.524134998352338 0 -18.524134998352338 -20.398561669001538 0 0 0 0 34.029285292243003 -16.696332982468107 0 -16.696332982468107 -21.052129399726255 0 0 0 0 1.9915418031233116 -5.2206597954531659 0 -5.2206597954531659 3.5002624634844981 0 0 0 0 15.621532197692432 -3.2906309395120843 0 -3.2906309395120843 -24.129783206517629 0 0 0 0 21.725448389675876 -12.101653690193643 0 -12.101653690193643 -12.160964153179521 0 0 0 0 -15.151753451667901 -48.224503929196089 0 -48.224503929196089 22.039177072526172 0 0 0 0 -6.0869752787488096 -5.087484796982622 0 -5.087484796982622 2.5202807720003584 0 0 0 0 18.290664338707188 -12.043979064604926 0 -12.043979064604926 6.8139080982875928 0 0 0 0 8.3460311381786596 -16.490746136069447 0 -16.490746136069447 -48.41720146282205 0 0 0 0 5.8485357910903986 -8.740090216107685 0 -8.740090216107685 6.3733857979512436 0 0 0 0 12.79822665679967 -13.308724192570097 0 -13.308724192570097 5.7545964195316675 0 0 0 0 -6.7886264867265709 -8.9788312155484533 0 -8.9788312155484533 9.7845556674246907 0 0 0 0 3.4145037460257299 -9.6849479399197946 0 -9.6849479399197946 7.4420467806597941 0 0 0 0 -6.4436500231895479 -26.421181954511368 0 -26.421181954511368 -7.6182977440064406 0 0 0 0 -1.736949216137873 -14.23329845577457 0 -14.23329845577457 23.868970648878076 0 0 0 0 -0.25386419500637203 0.078913742693515587 0 0.078913742693515587 -0.066040642790445747 0 0 0 0 6.7258167979016434 -11.590833996512947 0 -11.590833996512947 -24.328924494254494 0 0 0 0 -14.899306784485816 -22.117269871427403 0 -22.117269871427403 -0.0061293282318968627 0 0 0 0 -14.856959204662417 -23.697753118877579 0 -23.697753118877579 -14.741954202005843 0 0 0 0 -14.730485096319171 -29.838533723151336 0 -29.838533723151336 -0.0095145264933203071 0 0 0 0 -14.738819091369805 -46.885758667731551 0 -46.885758667731551 -37.873684249022247 0 0 0 0 -10.766590568600805 -36.550659359857768 0 -36.550659359857768 -12.284930857273238 0 0 0 0 -4.988782298649312 -18.575001357177825 0 -18.575001357177825 -34.836621346734901 0 0 0 0 -5.0972409654787043 -26.70099732051019 0 -26.70099732051019 -26.633261393406954 0 0 0 0 -4.4106780605216045 -23.897079668600487 0 -23.897079668600487 -15.462848948883938 0 0 0 0 -6.9342132765887072 -17.463210520299192 0 -17.463210520299192 -14.749867237656041 0 0 0 0 -3.3989356134552509 -70.116938888006473 0 -70.116938888006473 -64.479860416714772 0 0 0 0 -21.230972231045598 -54.87125903967204 0 -54.87125903967204 -0.058647612840743449 0 0 0 0 -15.022575891489396 -25.743052025279212 0 -25.743052025279212 -60.13544115003279 0 0 0 0 50.010551267077972 -13.116510648866083 0 -13.116510648866083 -232.27431142488618 0 0 0 0 157.80621194047126 -136.24128232421162 0 -136.24128232421162 123.92868331874035 0 0 0 0 0.1064190452962066 -29.234034267405079 0 -29.234034267405079 -82.48311693991414 0 0 0 0 -1.9505153113327083 -1.4094808992440306 0 -1.4094808992440306 -0.44711819114457152 0 0 0 0 28.104732018284267 0.22054245474691925 0 0.22054245474691925 49.175175283854969 0 0 0 0 32.868023499919218 6.3006759683797782 0 6.3006759683797782 42.385580816269794 0 0 0 0 5.5625125288206618 -7.2995427969958655 0 -7.2995427969958655 78.479160389644676 0 0 0 0 81.713881593968836 -59.00867286983123 0 -59.00867286983123 82.51773183647181 0 0 0 0 -4.7608351923744863 -1.7064083055487274 0 -1.7064083055487274 -0.95284713996070169 0 0 0 0 -8.431238460696477 -15.646268928946604 0 -15.646268928946604 -16.409893213554511 0 0 0 0 -22.845769945080974 2.6848899049086867 0 2.6848899049086867 68.556161613118206 0 0 0 0 -24.978272821826977 -27.867799452448139 0 -27.867799452448139 60.437624959125969 0 0 0 0 -5.7952164437783722 -1.0225357162582043 0 -1.0225357162582043 13.701788676928572 0 0 0 0 -48.567877561799833 -83.422167350228847 0 -83.422167350228847 -14.564276965036356 0 0 0 0 154.35922127960657 -46.687239581664016 0 -46.687239581664016 -152.43245305402107 0 0 0 0 -3.1452179492853247 -138.37629925670862 0 -138.37629925670862 -153.05297583231459 0 0 0 0 17.026348263377145 -11.005232330841537 0 -11.005232330841537 6.608571235760083 0 0 0 0 -22.169934057921637 -4.8605017905322825 0 -4.8605017905322825 -41.197507062286604 0 0 0 0 2.8295827066758648 -64.69961432853006 0 -64.69961432853006 70.720704188341529 0 0 0 0 196.21511553232267 0.70273649472437683 0 0.70273649472437683 70.030586110382501 0 0 0 0 228.42186091653275 -94.96847502574326 0 -94.96847502574326 58.063633753061367 0 0 0 0 110.67477259600128 9.5726116896717031 0 9.5726116896717031 5.2097697203812459 0 0 0 0 -21.257505189656513 -79.465152465347501 0 -79.465152465347501 31.727658507661715 0 0 0 0 20.092048519072705 -148.15882724771427 0 -148.15882724771427 -84.208552970150834 0 0 0 0 13.201220945140449 -8.8920064747251644 0 -8.8920064747251644 5.2348929676118621 0 0 0 0 500.00204129501071 -46.362495867510688 0 -46.362495867510688 -105.03382128838916 0 0 0 0 275.14567340935173 24.001749457812025 0 24.001749457812025 -101.25236311657454 0 0 0 0 5.42406242250388 -3.5535371893795116 0 -3.5535371893795116 2.118807861298988 0 0 0 0 -60.769680832458107 -281.84997029800911 0 -281.84997029800911 205.0229965644985 0 0 0 0 125.36807799985399 -510.00755165024384 0 -510.00755165024384 186.21498870270847 0 0 0 0 31.446603786709602 2.6132909395250863 0 2.6132909395250863 -151.8896556066702 0 0 0 0 -136.28296078558924 -133.11437077860569 0 -133.11437077860569 49.151602217788422 0 0 0 0 68.219590477921884 77.527181890082829 0 77.527181890082829 -34.148900748864435 0 0 0 0 40.415701512421947 -38.544700531006129 0 -38.544700531006129 -72.470441014448625 0 0 0 0 161.50073761143722 -16.433220937089118 0 -16.433220937089118 -20.346491092479766 0 0 0 0 69.029099271690939 73.475414715743227 0 73.475414715743227 -26.659168189818956 0 0 0 0 36.433693396305898 30.558259719297439 0 30.558259719297439 -24.908931835954888 0 0 0 0 116.35952603377518 57.36324421788504 0 57.36324421788504 -81.61276422667197 0 0 0 0 -70.473031680405256 -16.640343074357133 0 -16.640343074357133 8.1135793699540955 0 0 0 0 -49.517392448557075 -178.5674455482208 0 -178.5674455482208 -206.89898923214469 0 0 0 0 343.56420149691985 -150.06580189444367 0 -150.06580189444367 20.618474055092975 0 0 0 0 198.28798254980939 -331.01539556938815 0 -331.01539556938815 -138.19174304678427 0 0 0 0 293.4124526414671 45.521198974045092 0 45.521198974045092 25.379606239293309 0 0 0 0 1.961964705188791 0.17853147355295107 0 0.17853147355295107 -1.3516729133249941 0 0 0 0 -118.6064229926269 -43.510164874683596 0 -43.510164874683596 -164.65555434741145 0 0 0 0 2.4370262312731938 6.7838284109732285 0 6.7838284109732285 -19.71451643000546 0 0 0 0 62.519559725842555 60.240580321087918 0 60.240580321087918 27.817145723216072 0 0 0 0 233.35301298597187 -10.948661255342358 0 -10.948661255342358 -50.36723613538561 0 0 0 0 444.93959912542778 -145.4850633307135 0 -145.4850633307135 -8.493209181502607 0 0 0 0 263.17262263844896 -79.209034311354571 0 -79.209034311354571 -28.675380047609906 0 0 0 0 250.95884051115718 -120.15564385773359 0 -120.15564385773359 104.29896295465278 0 0 0 0 191.9634982982534 -90.214149841561607 0 -90.214149841561607 53.041652794861875 0 0 0 0 -0.17777778112206022 -2.875198752457095 0 -2.875198752457095 1.9076758377691814 0 0 0 0 473.25196568042156 -207.2106728464895 0 -207.2106728464895 20.680256441631172 0 0 0 0 244.60608965456777 -170.41864804752822 0 -170.41864804752822 666.23330605564661 0 0 0 0 180.35482720680011 -90.246094368254489 0 -90.246094368254489 60.892716409881928 0 0 0 0 314.78276916204777 -134.8076284362287 0 -134.8076284362287 16.289098832836089 0 0 0 0 319.72329197256477 -105.37370872972929 0 -105.37370872972929 46.114925818819756 0 0 0 0 246.26029420056148 -118.32753294656709 0 -118.32753294656709 -17.350717169702307 0 0 0 0 227.02981720406387 -158.21270722059683 0 -158.21270722059683 69.191438285329241 0 0 0 0 -0.22977712662798666 -2.9760438359400325 0 -2.9760438359400325 0.93104708687737059 0 0 0 0 543.77878042939847 -128.70756396702927 0 -128.70756396702927 -68.634751043124652 0 0 0 0 616.31588683795417 -99.680362724710164 0 -99.680362724710164 -17.849644618613638 0 0 0 0 277.29417835750792 -28.021816290873119 0 -28.021816290873119 66.90211731297768 0 0 0 0 -65.195447608915856 -148.64964868332288 0 -148.64964868332288 19.96527191535796 0 0 0 0 186.40165623903158 -123.10405857075216 0 -123.10405857075216 -13.874039317300912 0 0 0 0 0.013302723783951365 -1.4718414172309053 0 -1.4718414172309053 0.19576935801241113 0 0 0 0 180.54846554292089 -201.3706625105564 0 -201.3706625105564 -12.12138785684283 0 0 0 0 303.61532174221065 -220.54306016540045 0 -220.54306016540045 -33.753098580670212 0 0 0 0 233.693300735722 -151.33134728443281 0 -151.33134728443281 -102.11589825655119 0 0 0 0 250.54497075673135 -289.45207074347553 0 -289.45207074347553 65.692624278257426 0 0 0 0 1.509826797963342 0.61920151680010349 0 0.61920151680010349 0.32057316838781613 0 0 0 0 -40.465399101900402 3.0498723922014506 0 3.0498723922014506 -194.27808313165542 0 0 0 0 213.12809649233532 -218.19396380041246 0 -218.19396380041246 37.784904962048813 0 0 0 0 249.93132213497302 -200.58636385381919 0 -200.58636385381919 -47.816255519134756 0 0 0 0 265.99010354513302 -234.65256810244068 0 -234.65256810244068 18.205983640437353 0 0 0 0 205.51975719955226 -176.48466124530364 0 -176.48466124530364 -37.252183038819368 0 0 0 0 185.99220846818207 -233.32437069626602 0 -233.32437069626602 -14.141105268513456 0 0 0 0 221.86165752384113 -179.29420082531911 0 -179.29420082531911 -17.34612355248413 0 0 0 0 215.69929400544788 -144.11050497814412 0 -144.11050497814412 63.127079612090832 0 0 0 0 319.22217783067754 -185.60383681797026 0 -185.60383681797026 53.417140412728827 0 0 0 0 188.28884834272321 -184.16186855625074 0 -184.16186855625074 7.1446265764101327 0 0 0 0 203.57678075339936 -194.24665151990089 0 -194.24665151990089 -24.074997751152722 0 0 0 0 169.83632252396637 -203.55576494432819 0 -203.55576494432819 -5.1752909553537165 0 0 0 0 -0.35285239926383838 -0.38168063811950503 0 -0.38168063811950503 -0.17859849382919918 0 0 0 0 141.21605454925157 -172.36495910128485 0 -172.36495910128485 53.594347028242858 0 0 0 0 113.13959561678348 -114.52761221326642 0 -114.52761221326642 -107.03663219643178 0 0 0 0 121.48868321463669 -79.551702318287624 0 -79.551702318287624 39.121743116533708 0 0 0 0 3.7204341426840983 -91.551617887028968 0 -91.551617887028968 0.044228156185662622 0 0 0 0 295.52947883392335 -207.89863298316163 0 -207.89863298316163 113.82460227023893 0 0 0 0 215.82046032328799 -126.921471212787 0 -126.921471212787 -0.079612154603274532 0 0 0 0 287.47286882153276 -5.9085758309659493 0 -5.9085758309659493 159.55273429764429 0 0 0 0 449.89246610624105 -21.480867734590781 0 -21.480867734590781 0.46306725885126665 0 0 0 0 522.91429641356808 -181.47893394467832 0 -181.47893394467832 314.76030533588096 0 0 0 0 620.41373550804565 269.65553274899793 0 269.65553274899793 427.13952992165486 0 0 0 0 928.49414599781448 232.66620065456473 0 232.66620065456473 -0.44829160000110879 0 0 0 0 410.97886143322103 -159.08420532274101 0 -159.08420532274101 -162.79590577610523 0 0 0 0 -2.6663014751538867 116.78267003910501 0 116.78267003910501 0.35080575888301951 0 0 0 0 326.68839425875922 517.58654035865641 0 517.58654035865641 747.07175816696304 0 0 0 0 8.2846894163890852 1.8270506498197978 0 1.8270506498197978 0.27849625361452179 0 0 0 0 841.08592617340037 384.36809370042818 0 384.36809370042818 178.08755076729187 0 0 0 0 83.116911332101154 171.42941386535477 0 171.42941386535477 258.21115262273076 0 0 0 0 419.53351752604067 294.05271831930349 0 294.05271831930349 204.25936204460157 0 0 0 0 90.483453178072523 175.71142492106605 0 175.71142492106605 126.12049318462493 0 0 0 0 346.63274476586594 423.71639414073786 0 423.71639414073786 -12.865909102382375 0 0 0 0 313.30310995988111 -131.86758392719508 0 -131.86758392719508 -116.87580215642788 0 0 0 0 288.87688892727965 -159.01969900460159 0 -159.01969900460159 -34.700743648477783 0 0 0 0 195.62687714841013 -156.88318699726079 0 -156.88318699726079 106.07351900443575 0 0 0 0 417.62480489553491 -32.492712496288796 0 -32.492712496288796 104.20532496882606 0 0 0 0 95.608339310820156 -24.494304054537711 0 -24.494304054537711 -0.063673117240467994 0 0 0 0 124.47071424750902 -9.4196173340142977 0 -9.4196173340142977 -29.840423874659137 0 0 0 0 63.901767229661345 -12.19688832125437 0 -12.19688832125437 2.7854788710638729 0 0 0 0 59.032398409613961 7.3874939193235161 0 7.3874939193235161 -17.708880899446747 0 0 0 0 -0.35328626242113614 -2.17725673726693 0 -2.17725673726693 -0.27605636102847714 0 0 0 0 2.2065719436303368 0.88549243440968439 0 0.88549243440968439 -0.354318216435342 0 0 0 0 9.8299615344803897 -17.901162583888311 0 -17.901162583888311 0.025573079240593086 0 0 0 0 -49.773492677297327 65.350223057226899 0 65.350223057226899 -52.710215994111586 0 0 0 0 21.129653169040864 0.75656425105205471 0 0.75656425105205471 -1.4068250316309154 0 0 0 0 183.85521501464245 132.91738285460093 0 132.91738285460093 124.3569271170569 0 0 0 0 185.51352109193977 201.23273836719665 0 201.23273836719665 222.40368338954022 0 0 0 0 222.82926147879334 184.50399367248588 0 184.50399367248588 116.84699006018565 0 0 0 0 74.978056633270171 53.129673987636522 0 53.129673987636522 144.10542924769797 0 0 0 0 15.998725602329046 -11.079172847592758 0 -11.079172847592758 -2.5283670103570062 0 0 0 0 95.348207809445739 51.450052493180166 0 51.450052493180166 -28.915832361063906 0 0 0 0 18.524034753776505 -30.784616353052684 0 -30.784616353052684 13.999639721016836 0 0 0 0 -43.76426794953295 39.988432182334577 0 39.988432182334577 198.98026220721067 0 0 0 0 14.991644345876722 -15.098659474439586 0 -15.098659474439586 0.87548471194638111 0 0 0 0 202.39442488601708 164.7876192776024 0 164.7876192776024 104.52344750053362 0 0 0 0 276.30963626861922 -66.449308835424176 0 -66.449308835424176 -3.9872647765642029 0 0 0 0 1.6702601380627016 1.0584604284394317 0 1.0584604284394317 0.63624035485476904 0 0 0 0 259.86796305118423 -195.57551971839862 0 -195.57551971839862 95.945862240033563 0 0 0 0 130.51731746338191 -78.02878349268866 0 -78.02878349268866 80.657375256361462 0 0 0 0 163.05862810038525 -47.080630444726246 0 -47.080630444726246 0.9707798541275281 0 0 0 0 407.20048460548151 -7.9439977437949665 0 -7.9439977437949665 16.197078022830283 0 0 0 0 19.958499680149345 -14.335290913515081 0 -14.335290913515081 3.6771158425117099 0 0 0 0 186.41174408132792 -43.785727312423319 0 -43.785727312423319 -116.7924681338219 0 0 0 0 300.81268714657199 223.05179352334824 0 223.05179352334824 98.123686497161543 0 0 0 0 383.35671858023852 309.56093280181608 0 309.56093280181608 173.91176570562175 0 0 0 0 209.38825976796261 199.91032161772404 0 199.91032161772404 77.420313774910028 0 0 0 0 213.07871406374034 253.02088993640189 0 253.02088993640189 180.41120203076463 0 0 0 0 282.88782190025086 280.11079657353525 0 280.11079657353525 163.59660644739313 0 0 0 0 168.53648465556034 153.4383213699798 0 153.4383213699798 132.62404052592319 0 0 0 0 232.34937577509845 80.393911041690217 0 80.393911041690217 -36.017985024269365 0 0 0 0 107.57891359404312 2.6181779753703722 0 2.6181779753703722 -35.417710588470982 0 0 0 0 143.87565167492721 -40.84730509990959 0 -40.84730509990959 -218.37275753034464 0 0 0 0 55.860381001111818 -9.7966061059855747 0 -9.7966061059855747 -62.104793187254472 0 0 0 0 161.44525595106825 77.788768910524595 0 77.788768910524595 -35.757861335198868 0 0 0 0 131.98502080220351 47.349177965982562 0 47.349177965982562 -173.85590973639773 0 0 0 0 217.72080668143462 51.763050625892447 0 51.763050625892447 -13.645320448480561 0 0 0 0 74.639343773880682 80.808805599523794 0 80.808805599523794 -16.123446267674808 0 0 0 0 138.8361702682887 69.135168941600568 0 69.135168941600568 -0.92759860404567007 0 0 0 0 143.08320439935915 151.19471646627721 0 151.19471646627721 154.69389991203116 0 0 0 0 207.01073784762411 145.46781544118994 0 145.46781544118994 123.42274548411979 0 0 0 0 241.75685807051195 242.64950099991825 0 242.64950099991825 204.32585087759344 0 0 0 0 320.2959587143414 124.74359210139914 0 124.74359210139914 372.46991280928978 0 0 0 0 463.69717355116154 54.071791921835029 0 54.071791921835029 154.71431876744396 0 0 0 0 207.21331279904007 175.42355631660411 0 175.42355631660411 99.945900200633332 0 0 0 0 190.10893942031544 18.688962404708036 0 18.688962404708036 -144.6568857095499 0 0 0 0 164.25599834590685 139.57447820848211 0 139.57447820848211 -76.504983305885617 0 0 0 0 313.31794807057304 59.790310326769941 0 59.790310326769941 -34.200059119611979 0 0 0 0 343.15761519365697 209.81471651968945 0 209.81471651968945 78.417204739280351 0 0 0 0 426.2328395647346 193.75820705867773 0 193.75820705867773 74.263200138807406 0 0 0 0 359.29890518059256 81.463729670286739 0 81.463729670286739 -84.156737753879042 0 0 0 0 380.67226282439515 195.41045828916015 0 195.41045828916015 183.60413338247781 0 0 0 0 401.20661945544816 295.37587342854994 0 295.37587342854994 233.23827926507056 0 0 0 0 270.26735157132498 268.98421739893229 0 268.98421739893229 284.4276045174156 0 0 0 0 316.31514547206461 231.45317411042788 0 231.45317411042788 184.86991346452578 0 0 0 0 771.05466547998367 237.18320556194203 0 237.18320556194203 161.43140400294556 0 0 0 0 362.00146480891271 423.0593298524775 0 423.0593298524775 541.98651132537498 0 0 0 0 2.9235798921381502 -3.9158380094327043 0 -3.9158380094327043 4.5300088172645934 0 0 0 0 42.838178171652544 30.932485964185844 0 30.932485964185844 -100.32725459647986 0 0 0 0 0.24938983215906774 44.01585686139839 0 44.01585686139839 -172.36618014418036 0 0 0 0 112.11639125627698 -125.99698816028535 0 -125.99698816028535 -18.834667931524962 0 0 0 0 3.9301113405614956 1.6609870309871297 0 1.6609870309871297 0.38823950183222689 0 0 0 0 195.18154699938532 45.540435327403486 0 45.540435327403486 -267.0494076986065 0 0 0 0 1.8541336100199146 1.5050957419185806 0 1.5050957419185806 0.78446098472483961 0 0 0 0 306.53175181268307 -113.11972795696113 0 -113.11972795696113 -54.974038929871426 0 0 0 0 453.98680018448067 153.12097401824815 0 153.12097401824815 -30.255171523811896 0 0 0 0 176.27802844188409 17.505944761066985 0 17.505944761066985 -49.078377522077233 0 0 0 0 37.342247236068943 -9.150923737420726 0 -9.150923737420726 5.6405218741947465 0 0 0 0 168.76546497539493 -49.77807179138415 0 -49.77807179138415 -120.43007642973726 0 0 0 0 181.6108038482198 19.947892578006531 0 19.947892578006531 -66.094001855581155 0 0 0 0 132.50277362170164 20.340044389404738 0 20.340044389404738 -110.08819623216914 0 0 0 0 120.85832246948848 -44.726089700302339 0 -44.726089700302339 -116.24241990582141 0 0 0 0 116.71097340687265 -44.551999390050241 0 -44.551999390050241 -104.87853127016615 0 0 0 0 143.90989136557619 -40.489027023406834 0 -40.489027023406834 -157.67403812512771 0 0 0 0 86.810465862818091 6.6697602461265433 0 6.6697602461265433 -64.894299004542518 0 0 0 0 35.085652238398325 -60.41164428436764 0 -60.41164428436764 -108.33325371149391 0 0 0 0 -1.9542598510161042 45.676475179563113 0 45.676475179563113 -93.558668863669936 0 0 0 0 -86.164402236434398 7.0567827164463779 0 7.0567827164463779 -124.35233914325045 0 0 0 0 2.9953278874270381 0.49769508412995833 0 0.49769508412995833 -2.3377496540617901 0 0 0 0 14.190302368071571 -15.013892953420054 0 -15.013892953420054 -173.94923455917728 0 0 0 0 5.7256628262839513 32.868259572135685 0 32.868259572135685 -125.26055089096644 0 0 0 0 2.1350465145806083 -38.970668193104757 0 -38.970668193104757 -168.42000820447356 0 0 0 0 55.972882865928113 85.112866493883303 0 85.112866493883303 -292.88622263099569 0 0 0 0 290.86658779838035 351.6147339989725 0 351.6147339989725 -275.60783788031176 0 0 0 0 84.869310102738382 25.781757704045845 0 25.781757704045845 -369.06170001101236 0 0 0 0 87.619465228744957 21.705148195052288 0 21.705148195052288 -391.64118986718222 0 0 0 0 235.66755806701258 287.51725987460304 0 287.51725987460304 -227.16950708271838 0 0 0 0 95.135085949698521 7.0921167765574999 0 7.0921167765574999 0.028356267909423361 0 0 0 0 39.544820155802881 -25.323985509835438 0 -25.323985509835438 -437.53391885929796 0 0 0 0 -13.231955692084739 -313.25434178570777 0 -313.25434178570777 -152.35927487869901 0 0 0 0 -3.4027136510994751 -101.54130525881055 0 -101.54130525881055 -356.89663764906891 0 0 0 0 1.7974005079603899 0.56504458775650335 0 0.56504458775650335 -1.9365177778048519 0 0 0 0 29.756934000150068 -122.37537016109468 0 -122.37537016109468 -492.44285638707697 0 0 0 0 171.62095663737273 112.5937058822924 0 112.5937058822924 -49.74058952944489 0 0 0 0 217.47955274788546 75.908208612366252 0 75.908208612366252 -266.56926910065977 0 0 0 0 128.29402189524262 33.325843371852898 0 33.325843371852898 -155.62228931108234 0 0 0 0 150.22980356727203 4.9458638463770512 0 4.9458638463770512 -382.84638111841559 0 0 0 0 136.6441759987938 -12.708855690703786 0 -12.708855690703786 -244.5809616041206 0 0 0 0 209.01498678824282 18.807949133110924 0 18.807949133110924 -421.93960727951162 0 0 0 0 87.374903530524733 -11.668060412573062 0 -11.668060412573062 -3.5493222796087922 0 0 0 0 34.872281964810099 -34.815840193386066 0 -34.815840193386066 -116.16601157206196 0 0 0 0 92.4836008383582 16.980281917412785 0 16.980281917412785 -1.0763948504145118 0 0 0 0 187.23877724568592 37.319619582072846 0 37.319619582072846 -526.38873229042565 0 0 0 0 10.358919560625509 -219.44881415149354 0 -219.44881415149354 -264.04745146824735 0 0 0 0 87.197537800762802 -7.8072960052741109 0 -7.8072960052741109 -480.86445991692074 0 0 0 0 118.20658671113779 76.585120583627941 0 76.585120583627941 -406.71494012325775 0 0 0 0 97.885231064261461 57.853723799699765 0 57.853723799699765 -358.33811594528015 0 0 0 0 7.6025485561549431 32.933128416232648 0 32.933128416232648 -217.7871901128492 0 0 0 0 13.916326755996124 13.981353983835106 0 13.981353983835106 -161.06285798070348 0 0 0 0 36.712414422614529 -35.334081089150231 0 -35.334081089150231 -179.45447710355438 0 0 0 0 33.663872788631124 -21.406055181349075 0 -21.406055181349075 -233.11614151393997 0 0 0 0 64.348695627399138 -67.856594898828916 0 -67.856594898828916 -180.22948945655298 0 0 0 0 40.863830793809029 -46.351849969637442 0 -46.351849969637442 -190.85591534741116 0 0 0 0 74.146715424278227 -57.01958895966618 0 -57.01958895966618 -151.31417372019496 0 0 0 0 53.257087913516443 -26.612161745442791 0 -26.612161745442791 -183.39678270567674 0 0 0 0 39.213010815292364 137.91617028720066 0 137.91617028720066 -164.22057359891323 0 0 0 0 11.904142949679681 0.11890343214586352 0 0.11890343214586352 -0.42916718721060843 0 0 0 0 45.349138352110458 -30.876300825889302 0 -30.876300825889302 -211.68041187973995 0 0 0 0 38.889699363988257 -35.647981701748677 0 -35.647981701748677 -176.95597914281188 0 0 0 0 4.4018895113397321 -0.12052263954623754 0 -0.12052263954623754 -0.037233971462157678 0 0 0 0 123.04029467583314 -198.28796368852545 0 -198.28796368852545 75.742614846438983 0 0 0 0 415.99178498834772 -155.09452285387687 0 -155.09452285387687 -273.1291529488899 0 0 0 0 115.43854792531783 -42.829164911060616 0 -42.829164911060616 201.53086617440567 0 0 0 0 362.82205566952007 277.12562545783896 0 277.12562545783896 -58.970275655962723 0 0 0 0 166.70177304002573 61.722109803013154 0 61.722109803013154 -209.56748686499077 0 0 0 0 222.84097054645099 -167.13973164670324 0 -167.13973164670324 -392.68576347612179 0 0 0 0 -68.91670749392506 224.59291768211233 0 224.59291768211233 -256.70369229721564 0 0 0 0 93.228274296099698 3.9550848736730728 0 3.9550848736730728 -2.0968248536239846 0 0 0 0 270.17050952438149 -131.72703313744023 0 -131.72703313744023 -455.3233525227206 0 0 0 0 251.51075920430594 -19.268424687106744 0 -19.268424687106744 -494.99233646435596 0 0 0 0 233.56319355740561 -81.983245007204459 0 -81.983245007204459 -351.37027576208089 0 0 0 0 227.18680937662793 -46.631933610957844 0 -46.631933610957844 -374.08124991044679 0 0 0 0 198.55396936830948 -130.48835223680726 0 -130.48835223680726 -261.55399547015668 0 0 0 0 130.89519832441147 -202.99930522733916 0 -202.99930522733916 -76.54311069321011 0 0 0 0 44.308524106367258 89.812383714006501 0 89.812383714006501 -282.36483773994132 0 0 0 0 -1771.7319595437148 191.27111430369405 0 191.27111430369405 688.47985300224263 0 0 0 0 -240.32239530456718 -183.85319927172623 0 -183.85319927172623 -25.452707502376143 0 0 0 0 617.84329482653993 -660.92604505190502 0 -660.92604505190502 151.38521289306209 0 0 0 0 330.75827857392869 -59.300811984444181 0 -59.300811984444181 -15.470645632693049 0 0 0 0 361.67543669228326 -17.04947975221603 0 -17.04947975221603 -39.795423994957673 0 0 0 0 364.59401742406772 73.216842955245738 0 73.216842955245738 -328.58872485330176 0 0 0 0 502.88659935729811 -58.594475801321096 0 -58.594475801321096 -284.39482878107447 0 0 0 0 710.250488430931 -139.94789148915879 0 -139.94789148915879 -626.70343847289405 0 0 0 0 777.02070236504369 -224.88263462047325 0 -224.88263462047325 -530.79674906575019 0 0 0 0 595.9856527520169 13.741268903899254 0 13.741268903899254 -792.62205463415012 0 0 0 0 333.00630220049607 65.198693706490133 0 65.198693706490133 -433.4072623173015 0 0 0 0 340.66546925215516 138.32197678424382 0 138.32197678424382 -523.37058166131101 0 0 0 0 325.04785529999208 10.985810464592305 0 10.985810464592305 -209.83094393321335 0 0 0 0 151.50374420173466 168.74288240367059 0 168.74288240367059 -339.63688174582239 0 0 0 0 161.47644475167726 37.155557793164803 0 37.155557793164803 -313.47270018272138 0 0 0 0 141.86168466770323 190.30474139348189 0 190.30474139348189 -498.69251852817069 0 0 0 0 182.34550505236257 149.96438490825904 0 149.96438490825904 -531.73185104876757 0 0 0 0 261.26631365237699 83.615365571802158 0 83.615365571802158 -522.59361184942463 0 0 0 0 350.76130381663097 239.7351569353832 0 239.7351569353832 -885.01454262271 0 0 0 0 -70.333093608787749 320.76420075289752 0 320.76420075289752 -671.59285806123989 0 0 0 0 12.334603429297431 4.1767999482672735 0 4.1767999482672735 -0.056189382439855606 0 0 0 0 356.31944082466362 60.728197718700358 0 60.728197718700358 -524.82064604863081 0 0 0 0 396.49072133297159 5.2690949013576756 0 5.2690949013576756 -491.42328104708304 0 0 0 0 139.9821017628218 -2.0381412529961302 0 -2.0381412529961302 -1.6403619027738956 0 0 0 0 -931.19464498833986 353.43499425091068 0 353.43499425091068 87.881432165479055 0 0 0 0 1489.651420322698 -877.36172472655471 0 -877.36172472655471 -851.79985073603439 0 0 0 0 401.48474294762127 207.91485033563731 0 207.91485033563731 -881.00098648834683 0 0 0 0 124.48885988892863 5.431157607671441 0 5.431157607671441 -2.7490494341986098 0 0 0 0 109.61298858607188 -23.024476029803736 0 -23.024476029803736 -697.11779828116414 0 0 0 0 742.36729752628162 -293.58426486253984 0 -293.58426486253984 -487.63186303060411 0 0 0 0 46.917033130324512 -10.693859416809932 0 -10.693859416809932 -2.5175780310926177 0 0 0 0 79.643428068287903 134.91686199519791 0 134.91686199519791 -208.04699217376515 0 0 0 0 57.989431018213509 158.08258768654559 0 158.08258768654559 -171.08256900505512 0 0 0 0 40.99384155554435 144.28358116764957 0 144.28358116764957 -151.94418506816874 0 0 0 0 -259.07197967551474 -25.03737563498089 0 -25.03737563498089 -447.79640220718284 0 0 0 0 -73.873281095380662 136.32155456148303 0 136.32155456148303 -351.72824657370802 0 0 0 0 65.427512982787448 -32.070738115196264 0 -32.070738115196264 -447.71456299706006 0 0 0 0 23.792975869087968 89.536714245688927 0 89.536714245688927 -174.73345535905719 0 0 0 0 94.675407850692864 -47.331551013997341 0 -47.331551013997341 -235.14284314058568 0 0 0 0 6.8792924565495923 42.443690857321144 0 42.443690857321144 -293.23981170009756 0 0 0 0 66.187916165799834 -4.224066505112205 0 -4.224066505112205 -227.39184736685115 0 0 0 0 110.40767669272464 -74.662030021893543 0 -74.662030021893543 -425.02804948095036 0 0 0 0 85.58974784714519 -8.3241149313889764 0 -8.3241149313889764 -385.04458976813476 0 0 0 0 82.606842134468025 81.345777688368798 0 81.345777688368798 -494.22955208596659 0 0 0 0 163.13640904398198 -5.9843502621451989 0 -5.9843502621451989 -196.52330153629373 0 0 0 0 112.45091632793992 112.08122511772422 0 112.08122511772422 -193.60183409931233 0 0 0 0 54.332492187357275 80.942307700872334 0 80.942307700872334 -176.15853679780912 0 0 0 0 2.3712051503334806 31.020460954857754 0 31.020460954857754 -204.79433004154998 0 0 0 0 72.192068571741402 45.702658949322085 0 45.702658949322085 -258.66655773533876 0 0 0 0 777.59712666994892 245.66274828827864 0 245.66274828827864 -425.30526055254472 0 0 0 0 14.407122345308295 -0.53885055228884582 0 -0.53885055228884582 -0.70709323225117071 0 0 0 0 -88.408745285560144 -394.26017536100244 0 -394.26017536100244 301.46208219618802 0 0 0 0 -288.17442393630336 -179.46849659648979 0 -179.46849659648979 602.10331274632517 0 0 0 0 28.875407948951761 105.26678972183981 0 105.26678972183981 -62.92638714360146 0 0 0 0 46.03853506676387 143.54676249658769 0 143.54676249658769 -89.089561962094194 0 0 0 0 12.308633386230213 25.393164252350289 0 25.393164252350289 -183.8060264242049 0 0 0 0 1.0728579597926 59.282493163909749 0 59.282493163909749 -135.44586304125914 0 0 0 0 43.600378973213083 120.25016779798216 0 120.25016779798216 -149.84039570642562 0 0 0 0 58.740202778448293 129.59573350576056 0 129.59573350576056 -149.93154837741167 0 0 0 0 562.77980844546255 106.70819001126256 0 106.70819001126256 -288.00562920739321 0 0 0 0 431.85618026816519 52.139780269091716 0 52.139780269091716 -279.53590090482294 0 0 0 0 132.70727633463684 206.36473351041877 0 206.36473351041877 -70.869666973540006 0 0 0 0 128.22875360243415 -11.256439545950798 0 -11.256439545950798 -267.01657057151351 0 0 0 0 262.35849483259517 268.83507739549304 0 268.83507739549304 49.487733515969012 0 0 0 0 7.0340130394295102 -1.6616346699156459 0 -1.6616346699156459 -0.18432754986621203 0 0 0 0 339.26711831150897 -477.66956420697852 0 -477.66956420697852 235.99702756558997 0 0 0 0 605.3122871610758 -125.02807975103315 0 -125.02807975103315 110.50828713618284 0 0 0 0 202.35991565327276 61.653235379258376 0 61.653235379258376 390.55101534639834 0 0 0 0 579.12797018231004 -244.47408943266183 0 -244.47408943266183 -116.71902706380934 0 0 0 0 143.53831497483043 -261.60440927961963 0 -261.60440927961963 333.90989711716065 0 0 0 0 187.90792224340839 -52.266611571822978 0 -52.266611571822978 -158.04814486188661 0 0 0 0 145.97099820888616 -150.42994655576126 0 -150.42994655576126 92.491968064573484 0 0 0 0 226.71455447297922 -109.95738430492679 0 -109.95738430492679 -30.749393385723124 0 0 0 0 358.12454568035537 -218.24010164668687 0 -218.24010164668687 112.22643298090952 0 0 0 0 246.91913023283996 -83.298511295462504 0 -83.298511295462504 108.48335918650048 0 0 0 0 261.31155849334027 -298.30170819054069 0 -298.30170819054069 319.44822800542443 0 0 0 0 276.07025743596023 -133.22440879876035 0 -133.22440879876035 51.750148593738231 0 0 0 0 217.01481564021378 -146.08911129230296 0 -146.08911129230296 61.630293880270415 0 0 0 0 312.58272491236858 -120.58195719268949 0 -120.58195719268949 50.996953153466158 0 0 0 0 269.49539301272944 -152.51198942005908 0 -152.51198942005908 183.65444049066355 0 0 0 0 274.1252996328767 -80.904371738696227 0 -80.904371738696227 57.020618086359207 0 0 0 0 55.077770306415914 -132.06068030188089 0 -132.06068030188089 191.26090114645967 0 0 0 0 160.54657170402425 44.518917809193226 0 44.518917809193226 482.01896982250946 0 0 0 0 318.126061068524 -371.39414595513335 0 -371.39414595513335 241.66141962810616 0 0 0 0 3.4333747538525046 3.7665535089650959 0 3.7665535089650959 5.2868657293364123 0 0 0 0 -270.69178038984683 -173.12570393383339 0 -173.12570393383339 371.40416132147629 0 0 0 0 249.17934661012259 39.916413745603279 0 39.916413745603279 118.70156611141988 0 0 0 0 240.45052014019893 -119.71991117020164 0 -119.71991117020164 23.984989020970215 0 0 0 0 274.99184456456987 -81.940447714328485 0 -81.940447714328485 6.8285880600010387 0 0 0 0 259.77476999047212 -31.995335642390003 0 -31.995335642390003 39.92996430553319 0 0 0 0 230.12959363839036 -91.572271202717161 0 -91.572271202717161 72.418470387259731 0 0 0 0 268.98421675791178 -73.219243520302371 0 -73.219243520302371 144.8843436452803 0 0 0 0 449.67926142048964 -53.558441701186439 0 -53.558441701186439 69.365423230026408 0 0 0 0 348.62091252464597 -222.25255760196308 0 -222.25255760196308 137.47007790642965 0 0 0 0 282.82117424265016 -159.77894099786192 0 -159.77894099786192 80.801757864500814 0 0 0 0 310.8836569122941 -161.02783496731678 0 -161.02783496731678 77.29202687037332 0 0 0 0 338.11731668771972 -134.25791337098349 0 -134.25791337098349 35.973637372249016 0 0 0 0 270.28042953716067 -90.905417872336955 0 -90.905417872336955 44.11520334161645 0 0 0 0 304.98966266206116 -115.71903656431645 0 -115.71903656431645 79.86419407860393 0 0 0 0 310.89694312580468 -118.17170105706373 0 -118.17170105706373 5.8448093387355584 0 0 0 0 40.5268355691951 -184.64065685780361 0 -184.64065685780361 159.56896450870863 0 0 0 0 0.86739801840720077 0.55724685634375959 0 0.55724685634375959 1.1612287803671602 0 0 0 0 312.46249679398898 -170.24855763957612 0 -170.24855763957612 103.11375263349373 0 0 0 0 398.93189558759332 -137.33113146142307 0 -137.33113146142307 44.257225723873489 0 0 0 0 9.5435222012329461 5.2328986796592005 0 5.2328986796592005 -0.2202802416338514 0 0 0 0 294.20016790884983 -98.773613864537765 0 -98.773613864537765 38.901871332027213 0 0 0 0 14.779929519724874 -11.554844172085041 0 -11.554844172085041 -4.0833535895744717 0 0 0 0 16.952478496474214 20.147585113760215 0 20.147585113760215 -48.511116781842247 0 0 0 0 5.3247125055796687 -3.2392299461881748 0 -3.2392299461881748 -1.7929918071276285 0 0 0 0 33.977562221763947 -10.467741796356222 0 -10.467741796356222 -2.6216310014694102 0 0 0 0 42.010966693138471 -0.64580287623590493 0 -0.64580287623590493 -3.6767238989573343 0 0 0 0 3.7742022476147667 -1.6035499386428995 0 -1.6035499386428995 -3.9432235302561196 0 0 0 0 85.699372791124915 0.14974602406152826 0 0.14974602406152826 17.334092580647564 0 0 0 0 201.56819453550997 0.27330279989610062 0 0.27330279989610062 92.313671577241394 0 0 0 0 220.41240242868844 -20.80121706471391 0 -20.80121706471391 22.798135677944629 0 0 0 0 205.95139571765685 -33.960211103073107 0 -33.960211103073107 13.379894531131868 0 0 0 0 192.29921020186885 -28.751745947946802 0 -28.751745947946802 13.981691301258252 0 0 0 0 320.74035739705505 -100.87287988388286 0 -100.87287988388286 42.000847392844662 0 0 0 0 297.3044218976429 140.91872674922524 0 140.91872674922524 -2.3881743796846422 0 0 0 0 52.996986483522051 -50.434304787130259 0 -50.434304787130259 87.994554836910083 0 0 0 0 37.976420746686927 54.548266548147694 0 54.548266548147694 77.261359395186446 0 0 0 0 33.658703485019942 -23.983218312054078 0 -23.983218312054078 150.19411230249989 0 0 0 0 151.35615188394513 -122.96418372880635 0 -122.96418372880635 173.50059920494289 0 0 0 0 132.90413558520049 -34.695893937553819 0 -34.695893937553819 77.907238261665043 0 0 0 0 114.44964069081288 -62.173070558932977 0 -62.173070558932977 106.19181073213804 0 0 0 0 69.046927298888477 -16.703744892581398 0 -16.703744892581398 66.976205155199636 0 0 0 0 6.8384372857482987 10.569859043546735 0 10.569859043546735 17.814266564069619 0 0 0 0 108.54970387805588 -97.116061261464665 0 -97.116061261464665 128.32784584023011 0 0 0 0 69.190283215011732 -37.730521627840062 0 -37.730521627840062 116.28297565747516 0 0 0 0 10.405849543954858 17.155985473071979 0 17.155985473071979 29.336874943854092 0 0 0 0 130.519744184312 -85.656768792360253 0 -85.656768792360253 103.473658546438 0 0 0 0 141.70446802924562 -113.44979760279693 0 -113.44979760279693 55.643800948848366 0 0 0 0 219.62992778698026 -80.924865403864715 0 -80.924865403864715 68.637183752101009 0 0 0 0 250.28855541211669 -45.891295172621994 0 -45.891295172621994 27.126306762256149 0 0 0 0 214.79479796326996 -9.552897075030387 0 -9.552897075030387 9.4397313265826597 0 0 0 0 280.47083182026472 -84.571938133150525 0 -84.571938133150525 -44.243879828948593 0 0 0 0 345.17825561446807 -25.66385686782678 0 -25.66385686782678 9.3824517765551718 0 0 0 0 233.60917446039093 59.914190859524751 0 59.914190859524751 7.3620859055290566 0 0 0 0 165.18855240613993 82.789401073037652 0 82.789401073037652 79.132837879547878 0 0 0 0 190.2159866726397 57.33049277540772 0 57.33049277540772 50.013439999794173 0 0 0 0 157.48893264234721 54.433458333911631 0 54.433458333911631 71.168756043927715 0 0 0 0 151.28594921776676 43.917468475236092 0 43.917468475236092 55.302061709489635 0 0 0 0 213.56388865645931 -0.080815063924774222 0 -0.080815063924774222 36.814945951331538 0 0 0 0 158.2817708038674 3.1970285596016765 0 3.1970285596016765 37.409968057620972 0 0 0 0 128.63120178156896 -9.4615266546502426 0 -9.4615266546502426 36.572526534510416 0 0 0 0 88.647053647415305 58.44202877173052 0 58.44202877173052 39.518532719244831 0 0 0 0 110.9672933182228 32.418000662732993 0 32.418000662732993 65.383540057782739 0 0 0 0 107.77657455313602 15.223092864365753 0 15.223092864365753 -38.545910499701677 0 0 0 0 67.516355638508685 37.200407293074022 0 37.200407293074022 9.0710389318282978 0 0 0 0 148.6903460048743 -55.921390054825451 0 -55.921390054825451 52.777861096742527 0 0 0 0 148.75662363814627 42.397596509836148 0 42.397596509836148 -78.054419543551376 0 0 0 0 133.13026862565312 81.560879719546847 0 81.560879719546847 33.500411830375015 0 0 0 0 221.28216807044737 114.01402930611675 0 114.01402930611675 11.526422737279972 0 0 0 0 51.310639250528766 81.238572249758363 0 81.238572249758363 -45.221210117094415 0 0 0 0 114.5539820360209 35.30981485434404 0 35.30981485434404 -21.781839892626977 0 0 0 0 81.267302146359725 40.07774952181893 0 40.07774952181893 39.677023134023329 0 0 0 0 88.009128591591434 86.047238944906894 0 86.047238944906894 36.611652849571328 0 0 0 0 117.89447754480352 55.992691074807226 0 55.992691074807226 88.567395700518318 0 0 0 0 121.04351779090939 71.309254129879264 0 71.309254129879264 27.763241989784092 0 0 0 0 142.01673719412793 90.968712994177167 0 90.968712994177167 96.764442707752096 0 0 0 0 150.16100814854872 87.312330224487141 0 87.312330224487141 34.536525969652985 0 0 0 0 180.74131150128233 83.807660153712277 0 83.807660153712277 150.01775035308674 0 0 0 0 193.25627325091773 73.302122335204331 0 73.302122335204331 96.112958793526559 0 0 0 0 176.93279908062686 78.94210416390797 0 78.94210416390797 82.420447533738297 0 0 0 0 201.92457620237474 153.40122900560596 0 153.40122900560596 151.51329396846631 0 0 0 0 210.92876891902415 140.36387220714823 0 140.36387220714823 99.475363091135279 0 0 0 0 67.813746374919788 -22.619191680326999 0 -22.619191680326999 -33.377265718085113 0 0 0 0 134.87372053886793 68.577169333711026 0 68.577169333711026 72.517856270430457 0 0 0 0 145.15405542076769 97.484961718793329 0 97.484961718793329 95.499990362604422 0 0 0 0 153.64217113874474 92.029505447919291 0 92.029505447919291 84.799272016462169 0 0 0 0 155.31537315114838 97.179302307431044 0 97.179302307431044 67.193364623779871 0 0 0 0 61.887751917284838 -24.065062908252514 0 -24.065062908252514 -38.319589460522188 0 0 0 0 50.981282973290945 -89.853961303410415 0 -89.853961303410415 -126.87943426403396 0 0 0 0 10.414610367510249 -34.487964827612814 0 -34.487964827612814 16.257172971120326 0 0 0 0 45.930406180330465 -127.22314382519608 0 -127.22314382519608 -51.664315233605521 0 0 0 0 30.020635450699046 -86.784143024770628 0 -86.784143024770628 -140.1097246297968 0 0 0 0 -83.935281235104412 -173.52131047601279 0 -173.52131047601279 -123.03237694301879 0 0 0 0 180.74131150124595 83.807660153728648 0 83.807660153728648 150.0177503530814 0 0 0 0 369.19849615314888 61.165386637453139 0 61.165386637453139 88.919084141650274 0 0 0 0 262.58230719480161 -63.066807873724429 0 -63.066807873724429 17.975859734229061 0 0 0 0 155.25624747278198 -52.962549633526805 0 -52.962549633526805 -120.98491594207553 0 0 0 0 142.25875954502862 -46.567071188245905 0 -46.567071188245905 41.194600524130692 0 0 0 0 313.49161858150728 -20.638932554752046 0 -20.638932554752046 -138.59977000127014 0 0 0 0 344.29374912254104 -58.200835879021497 0 -58.200835879021497 -183.23251850306588 0 0 0 0 199.70317908078141 -86.182084922579634 0 -86.182084922579634 -123.13305789461333 0 0 0 0 104.66018142429948 -41.053887886779194 0 -41.053887886779194 -108.14236911334137 0 0 0 0 110.2392597628276 -150.42971367755169 0 -150.42971367755169 -252.04948746591344 0 0 0 0 77.813012484223123 -12.597588118345602 0 -12.597588118345602 -25.420510485524794 0 0 0 0 133.46522458815889 32.789210126397961 0 32.789210126397961 39.200394338878993 0 0 0 0 39.37263137031227 8.1360634796616011 0 8.1360634796616011 -14.267769681681422 0 0 0 0 113.38885351790306 -3.3060734536303187 0 -3.3060734536303187 -9.8737447307920547 0 0 0 0 212.28726262751115 -47.436167321972789 0 -47.436167321972789 -204.02666831717715 0 0 0 0 207.2360052698732 -3.4174658924034702 0 -3.4174658924034702 -181.98315841379372 0 0 0 0 28.285619818252471 -7.8364274321068237 0 -7.8364274321068237 1.9251587248851472 0 0 0 0 239.99829615631461 85.129289420008718 0 85.129289420008718 56.015451854221283 0 0 0 0 56.641824715682716 -8.4596168511032168 0 -8.4596168511032168 -34.421021998598164 0 0 0 0 229.49896872194222 199.261907740266 0 199.261907740266 83.548206002376901 0 0 0 0 180.74131150130415 83.807660153739562 0 83.807660153739562 150.01775035307219 0 0 0 0 99.736781418469036 36.832063072776691 0 36.832063072776691 93.72581388674007 0 0 0 0 -10.595688607914781 -88.373400385948116 0 -88.373400385948116 -79.475290831403981 0 0 0 0 -20.297194757458783 -208.15048098439001 0 -208.15048098439001 -211.84369149400436 0 0 0 0 113.85684510925785 93.663501897708556 0 93.663501897708556 8.6636305043521133 0 0 0 0 140.22360200726689 73.681729182014351 0 73.681729182014351 55.738240412877531 0 0 0 0 161.73180568520547 23.251946505057049 0 23.251946505057049 -143.7260173964678 0 0 0 0 166.53868126271331 14.744286428958436 0 14.744286428958436 -0.70671521237362001 0 0 0 0 206.71320021133033 116.0353308304849 0 116.0353308304849 -71.948838484910539 0 0 0 0 729.33293494768441 476.88632430615189 0 476.88632430615189 -435.78867792250412 0 0 0 0 17.125681404786633 2.4287249542377651 0 2.4287249542377651 0.54709424239366544 0 0 0 0 -54.418258419837002 65.875796464804182 0 65.875796464804182 320.69935175133742 0 0 0 0 9.2992507784238114 164.50128565900428 0 164.50128565900428 -68.312344789022518 0 0 0 0 130.72028021046572 19.332852750436928 0 19.332852750436928 13.643670402755788 0 0 0 0 133.17785883348552 15.731616656296865 0 15.731616656296865 10.157299708033406 0 0 0 0 99.289600708416714 11.436243105163047 0 11.436243105163047 2.8282803595206754 0 0 0 0 84.2705304068527 -24.453309426884047 0 -24.453309426884047 -0.63200696454631355 0 0 0 0 27.05239658276696 -1043.9116319989466 0 -1043.9116319989466 -20.463517354018222 0 0 0 0 47.140635756501183 -28.301435820196986 0 -28.301435820196986 -8.0242476127943956 0 0 0 0 -414.98084009699232 -208.05023010663513 0 -208.05023010663513 18.694413678902492 0 0 0 0 823.86816563874891 211.97024690592775 0 211.97024690592775 -92.399331932966561 0 0 0 0 -125.5990117352776 506.59804988843507 0 506.59804988843507 548.46808744516011 0 0 0 0 124.13321342578274 110.68714069500265 0 110.68714069500265 -86.371165480190712 0 0 0 0 310.10744100646116 -2.5893991666077909 0 -2.5893991666077909 -74.746482516199649 0 0 0 0 -22.001763245862094 115.32897131536311 0 115.32897131536311 106.64979423808779 0 0 0 0 106.84785909895436 88.173799018527006 0 88.173799018527006 -22.54408977305502 0 0 0 0 119.93669736903394 -394.90667413031269 0 -394.90667413031269 15.254468510573247 0 0 0 0 1.8627808179880958 -249.45595960961532 0 -249.45595960961532 -133.0476167332522 0 0 0 0 -94.545079725619871 45.516384381166404 0 45.516384381166404 -384.94622422119573 0 0 0 0 -33.006367759622663 -161.18476491768479 0 -161.18476491768479 82.200282990917003 0 0 0 0 685.53027710732567 -356.12665313727518 0 -356.12665313727518 -48.026131035528124 0 0 0 0 227.33152532955864 -355.32869027967899 0 -355.32869027967899 224.60860021664831 0 0 0 0 291.34336989725125 -228.94109495462135 0 -228.94109495462135 -50.589320532351849 0 0 0 0 147.37546184145322 -241.36667817117404 0 -241.36667817117404 -48.658099970607509 0 0 0 0 80.427931971047656 -252.63020880375188 0 -252.63020880375188 35.162629955571447 0 0 0 0 67.795684705559324 -360.61039572097479 0 -360.61039572097479 2.7954262239454692 0 0 0 0 17.602291544302716 -232.49987387787019 0 -232.49987387787019 -114.78772768801991 0 0 0 0 164.32233329291921 -375.51432145558647 0 -375.51432145558647 -47.968166127311633 0 0 0 0 695.53029606380005 -128.6875098072419 0 -128.6875098072419 -361.03510413307504 0 0 0 0 819.36663417567615 -468.38037253979746 0 -468.38037253979746 -362.79900768446259 0 0 0 0 0.31960897650274944 -0.55314136702034489 0 -0.55314136702034489 0.88852205888013813 0 0 0 0 127.10711660699417 -108.65589669254047 0 -108.65589669254047 -309.72843287895375 0 0 0 0 -122.67689117183909 -120.94756943491734 0 -120.94756943491734 -121.22055416519515 0 0 0 0 398.27536066114408 106.50350881750978 0 106.50350881750978 92.332435843796702 0 0 0 0 324.03058574959869 -219.5282001437472 0 -219.5282001437472 186.36429343989403 0 0 0 0 300.73971592090675 -37.572668049872391 0 -37.572668049872391 -525.80671935909095 0 0 0 0 475.62234132027152 -306.76556722498435 0 -306.76556722498435 -428.30260832674503 0 0 0 0 192.75494109513238 -336.54934600084653 0 -336.54934600084653 -380.61538104917827 0 0 0 0 9.2691707779013086 257.62916393818614 0 257.62916393818614 -501.15715746620617 0 0 0 0 -181.63396361170453 -2.0770736589156513 0 -2.0770736589156513 -282.96510436025625 0 0 0 0 239.56422745343298 -71.681975864669766 0 -71.681975864669766 -287.05468521873587 0 0 0 0 33.715951846563257 75.47916220781326 0 75.47916220781326 -185.17714643821091 0 0 0 0 346.24450019863434 46.796502686691383 0 46.796502686691383 -179.04617666563354 0 0 0 0 158.92653750861064 87.430602117644867 0 87.430602117644867 -417.15788089106809 0 0 0 0 141.17537913724664 85.141231592514032 0 85.141231592514032 -86.524394290419878 0 0 0 0 231.75629261761787 -87.200432213734075 0 -87.200432213734075 -131.36242518843164 0 0 0 0 267.01915676161298 -11.803214182046759 0 -11.803214182046759 -182.17000376767766 0 0 0 0 129.30880805061315 -60.329792678147896 0 -60.329792678147896 28.907773296451523 0 0 0 0 157.66572968650144 26.297689660412289 0 26.297689660412289 -144.71281136855032 0 0 0 0 67.048456640855875 9.0139488510703814 0 9.0139488510703814 -33.652527514338317 0 0 0 0 94.604812630175729 43.970383020608097 0 43.970383020608097 -269.26571638999121 0 0 0 0 169.53656948945718 39.926262986211441 0 39.926262986211441 -280.59352400692796 0 0 0 0 59.823245923791546 50.75130742278634 0 50.75130742278634 -129.62044955128658 0 0 0 0 92.733094931030791 37.352093178485916 0 37.352093178485916 -178.38043931068205 0 0 0 0 35.725059408388915 98.394338924708109 0 98.394338924708109 -187.79829268682624 0 0 0 0 31.485446674894774 51.668173490060326 0 51.668173490060326 -252.80824823464263 0 0 0 0 89.62122828850832 9.2862674703571244 0 9.2862674703571244 -0.056950185697086875 0 0 0 0 89.431133178222808 77.19660888789258 0 77.19660888789258 -421.51252652182575 0 0 0 0 66.49044606085954 78.63164053495052 0 78.63164053495052 -351.8355743561624 0 0 0 0 -41.885125657194294 31.725604082316295 0 31.725604082316295 -378.59017020599458 0 0 0 0 19.199221280112397 107.83979115658167 0 107.83979115658167 -353.24940476790533 0 0 0 0 191.18164975519176 124.40169645766855 0 124.40169645766855 -673.94452940171232 0 0 0 0 75.680332812330107 7.8414867792941205 0 7.8414867792941205 -0.34876303992262414 0 0 0 0 94.301591995405033 89.670530695136222 0 89.670530695136222 -278.85834128449858 0 0 0 0 129.92290737916483 94.570258742965052 0 94.570258742965052 -467.84442107506311 0 0 0 0 24.52801730792271 62.943789830907008 0 62.943789830907008 -268.82099914102662 0 0 0 0 70.960434470442124 88.86461579537081 0 88.86461579537081 -371.29299452614941 0 0 0 0 85.077087662430131 -32.046773787659731 0 -32.046773787659731 -547.47333256136153 0 0 0 0 122.8238394627042 104.6595076028625 0 104.6595076028625 -305.97993379831678 0 0 0 0 269.86095655800091 325.8837551525387 0 325.8837551525387 -295.22591592649815 0 0 0 0 209.85626010916894 183.71086415483842 0 183.71086415483842 -503.14911150342914 0 0 0 0 134.57173414241697 45.857220714580762 0 45.857220714580762 -426.32954842691743 0 0 0 0 107.22230641747282 5.9490780625952553 0 5.9490780625952553 -1.3212510106708937 0 0 0 0 -29.732776815304533 -312.15505420945192 0 -312.15505420945192 -22.211844419327008 0 0 0 0 17.420970677863806 5.339228523456768 0 5.339228523456768 -260.08603957783453 0 0 0 0 100.83318843854067 29.301402127744495 0 29.301402127744495 -105.54810083842131 0 0 0 0 17.563678721431643 114.79329289887391 0 114.79329289887391 -106.10077133302457 0 0 0 0 159.39310821796698 209.26601532365129 0 209.26601532365129 -295.29188669393807 0 0 0 0 68.564065881408169 73.465237801321564 0 73.465237801321564 7.1125050149410072 0 0 0 0 20.569861658055743 110.83622773443471 0 110.83622773443471 -87.104521614744954 0 0 0 0 85.279005207470618 49.021368357078245 0 49.021368357078245 -160.46073557316822 0 0 0 0 3.5110333647535299 119.58734511783814 0 119.58734511783814 -201.00271106080709 0 0 0 0 127.96621454730484 29.630238667483809 0 29.630238667483809 -266.89469234208809 0 0 0 0 101.1930087563087 28.469045638331409 0 28.469045638331409 -109.88168960966686 0 0 0 0 87.976810657815349 100.6439712040825 0 100.6439712040825 -172.78351687886789 0 0 0 0 83.145713423524285 27.757651511106815 0 27.757651511106815 -170.69014447192035 0 0 0 0 133.66534472356943 70.412574923883767 0 70.412574923883767 -159.39872140174339 0 0 0 0 106.88952145335861 95.905720972327799 0 95.905720972327799 -119.16765955654228 0 0 0 0 178.96608327362628 79.392683651523384 0 79.392683651523384 -213.63485156724391 0 0 0 0 85.465814583309111 63.365168142598122 0 63.365168142598122 -131.74253960890633 0 0 0 0 144.78872661687598 17.241517214336142 0 17.241517214336142 1.4601833969721456 0 0 0 0 50.254932516243343 5.373749397523671 0 5.373749397523671 -0.15003987103830108 0 0 0 0 150.46345118335739 213.12519988930489 0 213.12519988930489 -139.78364399293031 0 0 0 0 -25.586752334667835 -160.14707619489536 0 -160.14707619489536 35.451609143772657 0 0 0 0 123.84078346615846 11.484848727837765 0 11.484848727837765 0.16087421395217927 0 0 0 0 518.25151362401084 192.42036789501469 0 192.42036789501469 248.82959990648567 0 0 0 0 459.67967171143391 -1588.8324018752537 0 -1588.8324018752537 811.17987950964914 0 0 0 0 3491.5897447132083 -829.14820362312264 0 -829.14820362312264 -340.34379719929922 0 0 0 0 9.0841151405510487 1.3338762187260471 0 1.3338762187260471 1.3402573407403549 0 0 0 0 1178.7706894327639 -308.15724986796653 0 -308.15724986796653 553.98867738860156 0 0 0 0 49.824219787857146 -11.78257201297356 0 -11.78257201297356 335.56378163730534 0 0 0 0 94.752051847863186 -63.547958268745631 0 -63.547958268745631 49.803595411223682 0 0 0 0 93.612181052769301 -20.98155156575109 0 -20.98155156575109 66.345469482380224 0 0 0 0 39.998676135739515 105.95905100163776 0 105.95905100163776 254.2631157483595 0 0 0 0 38.264002238276589 120.72199220767254 0 120.72199220767254 390.36458247022961 0 0 0 0 300.41183178364008 220.76504994882896 0 220.76504994882896 121.78390153716168 0 0 0 0 64.489470937667647 -16.846493314023604 0 -16.846493314023604 162.56874461734787 0 0 0 0 158.32897960657283 -98.145807927107114 0 -98.145807927107114 -222.30558535492423 0 0 0 0 375.74239254249551 512.28721870293225 0 512.28721870293225 -463.5599227085882 0 0 0 0 72.806309502812212 4.9889264976419376 0 4.9889264976419376 -0.43398430329793813 0 0 0 0 33.737280820438173 173.27651590421192 0 173.27651590421192 -623.6935257752466 0 0 0 0 168.78257522426429 15.752423966231618 0 15.752423966231618 -373.92071123023629 0 0 0 0 16.885677039204182 3.8392228909746109 0 3.8392228909746109 -8.0214136408591337 0 0 0 0 292.36920884741994 652.80026996032404 0 652.80026996032404 1310.516502533261 0 0 0 0 25.559470796366895 -8.4285973970117283 0 -8.4285973970117283 6.336397434197429 0 0 0 0 90.134141676709987 -710.64312189596228 0 -710.64312189596228 616.26486150281517 0 0 0 0 112.27239502906741 66.229621041909297 0 66.229621041909297 -68.641628541833541 0 0 0 0 327.05876914182591 -123.60454808507407 0 -123.60454808507407 -232.23475438635023 0 0 0 0 -5.8326288026764814 -287.1838365949273 0 -287.1838365949273 -259.69773030427086 0 0 0 0 9.3151132125497895 -6.1040470283393802 0 -6.1040470283393802 3.72755349015676 0 0 0 0 3497.1465863976337 845.98909519777965 0 845.98909519777965 -353.52264047964286 0 0 0 0 1343.808480863052 703.01699581058551 0 703.01699581058551 -358.07943235424261 0 0 0 0 3493.0127305036303 -25.973091228904298 0 -25.973091228904298 -391.56159638912459 0 0 0 0 18.925201380509975 2.1172806831823401 0 2.1172806831823401 2.9447170573119434 0 0 0 0 1209.546529745101 -652.49961395997957 0 -652.49961395997957 415.56346991431582 0 0 0 0 3479.7602751215672 1227.3103402389609 0 1227.3103402389609 -56.343315462195001 0 0 0 0 800.26078917303676 75.296935210140276 0 75.296935210140276 0.80614643888196202 0 0 0 0 -301.7008112858166 486.28969805502771 0 486.28969805502771 913.18384765653661 0 0 0 0 -70.803015039738966 861.71288426385195 0 861.71288426385195 702.47634634337749 0 0 0 0 931.79190971608841 -216.85381055874529 0 -216.85381055874529 -822.45976995391629 0 0 0 0 8.1592566128797444 3.190732901200831 0 3.190732901200831 -0.81704139638363049 0 0 0 0 3486.2052339141446 1797.5379829423284 0 1797.5379829423284 -42.00936830420644 0 0 0 0 1233.7603202213031 85.172125180640819 0 85.172125180640819 -80.690867882563509 0 0 0 0 875.20608371053822 314.39734078028482 0 314.39734078028482 -209.02316940939269 0 0 0 0 786.12833078527729 -142.36119225076695 0 -142.36119225076695 177.04789922432866 0 0 0 0 660.27591396385105 389.42930200395131 0 389.42930200395131 571.9576536887912 0 0 0 0 -47.63025869167177 851.0310166186473 0 851.0310166186473 654.06316479105851 0 0 0 0 8.0752030813721376 2.666714798997126 0 2.666714798997126 0.12158509903993477 0 0 0 0 -77.109041357689421 220.39792265752067 0 220.39792265752067 -34.434888693515063 0 0 0 0 -101.24901685727673 -96.347364108687387 0 -96.347364108687387 -139.92207795544186 0 0 0 0 679.16854640288511 841.87345322468377 0 841.87345322468377 265.31357244809567 0 0 0 0 484.27098720453796 153.37811885522012 0 153.37811885522012 -99.937950314106047 0 0 0 0 94.023241753340699 -144.8196855177307 0 -144.8196855177307 210.67292730898336 0 0 0 0 329.37487219002651 -266.14069505154987 0 -266.14069505154987 -92.263027919883427 0 0 0 0 -31.703972534596687 -44.619186646005801 0 -44.619186646005801 -148.93307272596394 0 0 0 0 404.2251197461992 -86.689555194505402 0 -86.689555194505402 -155.90792373643166 0 0 0 0 365.78712659961093 -142.64668562048533 0 -142.64668562048533 -3.2761857477790954 0 0 0 0 437.77613509513321 85.999520772615881 0 85.999520772615881 286.20744215572341 0 0 0 0 313.04587251157864 75.718878295550383 0 75.718878295550383 334.08684794754669 0 0 0 0 330.22935781339766 -6.2221153695224487 0 -6.2221153695224487 222.71264865730137 0 0 0 0 312.3967316589551 61.025017939272736 0 61.025017939272736 222.13064060292587 0 0 0 0 206.01604554686492 200.19005472677208 0 200.19005472677208 47.199552596935568 0 0 0 0 1.4798035994329553 0.078808062973012127 0 0.078808062973012127 0.058746124548172185 0 0 0 0 -14.888303445011843 89.066170910471257 0 89.066170910471257 35.99076756332127 0 0 0 0 83.673756468688225 -27.888509004444 0 -27.888509004444 -56.212905675984203 0 0 0 0 4.1703150409539376 -0.55842792599906232 0 -0.55842792599906232 0.054770768332573029 0 0 0 0 -70.877876388916775 -91.073637138359615 0 -91.073637138359615 47.210771346780916 0 0 0 0 11.060751858953154 -96.046029939565983 0 -96.046029939565983 21.909702915294588 0 0 0 0 45.177205426982255 -107.66677251884798 0 -107.66677251884798 -17.657430233295884 0 0 0 0 3.1761114218911075 -2.3263986544727873 0 -2.3263986544727873 0.044165189990558948 0 0 0 0 1.4809240958450687 -0.99432470997053723 0 -0.99432470997053723 0.19465320438815339 0 0 0 0 7.7336772731650854 -187.18007129959128 0 -187.18007129959128 387.99157637635022 0 0 0 0 49.689107830767171 -71.00137954764773 0 -71.00137954764773 18.917303710989245 0 0 0 0 11.732729203387862 -138.33974692079357 0 -138.33974692079357 40.622353766457508 0 0 0 0 34.360824615869205 -107.24901615413384 0 -107.24901615413384 -16.352247633479635 0 0 0 0 37.960744080584846 -150.67138265759468 0 -150.67138265759468 -80.726494819505746 0 0 0 0 50.500406965911679 -64.278902582130058 0 -64.278902582130058 -131.45496290141421 0 0 0 0 50.445249193573545 -76.713242262880428 0 -76.713242262880428 -46.984573030358149 0 0 0 0 43.30493693531389 34.860904873443502 0 34.860904873443502 -33.240477494056563 0 0 0 0 64.874540794779023 108.69657420114095 0 108.69657420114095 -169.52455084421675 0 0 0 0 125.99010241086216 -229.73501988090629 0 -229.73501988090629 -228.97754338660002 0 0 0 0 79.849569714659594 3.4472819991382799 0 3.4472819991382799 -0.8427509246150573 0 0 0 0 155.61549953349459 -78.366002466046211 0 -78.366002466046211 -424.83285000566264 0 0 0 0 217.69311451348767 99.463662440358632 0 99.463662440358632 -287.16666714839084 0 0 0 0 389.56719826034532 15.33714930357786 0 15.33714930357786 -813.45857710880171 0 0 0 0 81.626788281556458 5.3242833059880788 0 5.3242833059880788 -0.9775049058621641 0 0 0 0 27.861596918486612 150.48629513867775 0 150.48629513867775 126.40921051668806 0 0 0 0 16.141659900567902 -45.126920661877989 0 -45.126920661877989 228.05628507923092 0 0 0 0 199.93525778486946 -42.908267330282229 0 -42.908267330282229 49.848788008067856 0 0 0 0 152.34757391849416 90.230279857814651 0 90.230279857814651 241.49361356623945 0 0 0 0 2.1209287235465126 1.3242330946903849 0 1.3242330946903849 1.3256378737695123 0 0 0 0 21.000175294735527 -15.991651654155703 0 -15.991651654155703 75.641751125408291 0 0 0 0 20.460246686085156 -9.5493011625912345 0 -9.5493011625912345 40.640433424638559 0 0 0 0 40.870135863370706 24.881633532522649 0 24.881633532522649 38.621392133866266 0 0 0 0 -9.1311548866069643 22.120315338767568 0 22.120315338767568 49.135816138653809 0 0 0 0 53.411637497585616 10.345375957533861 0 10.345375957533861 18.05534626568506 0 0 0 0 55.476995403761975 2.7081260700928738 0 2.7081260700928738 18.232683854171313 0 0 0 0 41.498274102639698 11.052705637670215 0 11.052705637670215 20.036261046226002 0 0 0 0 61.256140212393802 -7.6240860262695946 0 -7.6240860262695946 31.338501462181284 0 0 0 0 30.571391981282403 -25.758556650878958 0 -25.758556650878958 2.0296407924447504 0 0 0 0 69.523155310889706 12.748811215531759 0 12.748811215531759 16.612980603687276 0 0 0 0 -114.67862252960185 -639.84097073420412 0 -639.84097073420412 -477.26443412958361 0 0 0 0 244.75547563763394 164.89342709303617 0 164.89342709303617 -111.11590030771245 0 0 0 0 154.03710677367872 58.806563328720529 0 58.806563328720529 -201.23561526479364 0 0 0 0 97.704150367455441 -37.725379776740283 0 -37.725379776740283 -151.67945930793326 0 0 0 0 42.498441420803317 -9.8944109694647295 0 -9.8944109694647295 -11.250344475877663 0 0 0 0 67.318261588227983 -0.6286555807217411 0 -0.6286555807217411 -0.71086274530016325 0 0 0 0 74.502560648070357 17.132092474656019 0 17.132092474656019 -21.648848883539927 0 0 0 0 39.636254608827585 -13.606060587670562 0 -13.606060587670562 68.03266644599249 0 0 0 0 131.72131747776439 14.554761337405409 0 14.554761337405409 -5.3863262041465987 0 0 0 0 87.650567355413472 16.648848807884328 0 16.648848807884328 0.10529225189944702 0 0 0 0 113.38169563217525 14.665343991147211 0 14.665343991147211 -44.554577299898483 0 0 0 0 24.886220771492162 4.8430680217088877 0 4.8430680217088877 2.6346644254251981 0 0 0 0 0.044130703967255158 0.074085098268511729 0 0.074085098268511729 2.6257831316197189 0 0 0 0 117.31681850688619 46.809710796960744 0 46.809710796960744 57.331496920752087 0 0 0 0 10.938138072786387 5.6223179919281279 0 5.6223179919281279 53.302493062918529 0 0 0 0 52.477489375072764 -29.752315348006135 0 -29.752315348006135 -16.588893842307357 0 0 0 0 30.341830659119296 5.416061247947539 0 5.416061247947539 50.297989615416725 0 0 0 0 80.447194137348561 -47.448363053565984 0 -47.448363053565984 -42.411341803702527 0 0 0 0 73.227208029000678 3.1123131288089443 0 3.1123131288089443 -0.38796769424190664 0 0 0 0 50.362690034366096 -73.001804875266743 0 -73.001804875266743 -51.860308315513976 0 0 0 0 35.482656651322031 -96.329323265817095 0 -96.329323265817095 -64.501368173323215 0 0 0 0 5.837149680704897 -18.202959816432259 0 -18.202959816432259 -0.17853240531676676 0 0 0 0 22.495269098220888 -64.712065327511709 0 -64.712065327511709 -27.625460650465072 0 0 0 0 35.866408000907541 -109.30022024158987 0 -109.30022024158987 -51.090617788300278 0 0 0 0 14.49708704900695 -95.111624818320081 0 -95.111624818320081 -65.109490268089729 0 0 0 0 2.9896275516701962 -2.161996680621499 0 -2.161996680621499 -0.13532786816176393 0 0 0 0 41.625246849231189 -67.799580512929509 0 -67.799580512929509 -218.22649311524071 0 0 0 0 -9.9242962012358475 -20.036285204722049 0 -20.036285204722049 -99.103832512891017 0 0 0 0 -0.46120380992942955 -66.441809985646614 0 -66.441809985646614 -16.329844532107302 0 0 0 0 37.900501340773189 -7.0120808341107193 0 -7.0120808341107193 -94.68875623079667 0 0 0 0 9.3139105443988228 -3.8254733689771503 0 -3.8254733689771503 -16.232462371515599 0 0 0 0 -6.5836956895509502 -32.160214109931566 0 -32.160214109931566 -19.239969505017285 0 0 0 0 -14.139710384784848 -35.314034758180348 0 -35.314034758180348 -8.6425767431508405 0 0 0 0 6.9352065222900023 -0.97684597466466805 0 -0.97684597466466805 0.058500405626563771 0 0 0 0 9.4315519875490281 -10.7510861952921 0 -10.7510861952921 9.7520112716340552 0 0 0 0 12.209810897955322 -7.587779022174014 0 -7.587779022174014 -11.486011199568626 0 0 0 0 9.6579396048869057 -1.0807493344093562 0 -1.0807493344093562 -0.0096976078228021012 0 0 0 0 59.231076007417869 -30.189220117990004 0 -30.189220117990004 -112.84352544788422 0 0 0 0 -67.106121339456877 -37.15673463878894 0 -37.15673463878894 98.290481601678778 0 0 0 0 1.2956332542505606 -0.80499465883256383 0 -0.80499465883256383 -0.16741306044125548 0 0 0 0 -5.9763392611785093 55.342573877494061 0 55.342573877494061 -137.93911208914253 0 0 0 0 224.78894013201352 -32.021192096711395 0 -32.021192096711395 -342.98538193400964 0 0 0 0 -57.743135448821704 -99.487044857888719 0 -99.487044857888719 -80.890872977100742 0 0 0 0 -2.7290515255917853 -16.177127315351719 0 -16.177127315351719 -19.585542775072383 0 0 0 0 136.28887635000865 -124.11325913773589 0 -124.11325913773589 23.692923392334819 0 0 0 0 88.603076685503765 82.520940132987732 0 82.520940132987732 104.62338189723368 0 0 0 0 301.37095052226505 73.356083399964774 0 73.356083399964774 -118.64213033110767 0 0 0 0 51.942718887017691 4.0350874272058377 0 4.0350874272058377 166.19652122377522 0 0 0 0 48.05986589686654 51.026350711733699 0 51.026350711733699 -46.638248362882905 0 0 0 0 42.461952998088236 96.57060105295534 0 96.57060105295534 -180.47330014903665 0 0 0 0 -59.001940491216374 31.268581653852408 0 31.268581653852408 -29.969900096310056 0 0 0 0 55.521238051980617 -21.615225004686522 0 -21.615225004686522 -130.26065106480192 0 0 0 0 71.963806952175219 14.281967367032951 0 14.281967367032951 -55.701258045022456 0 0 0 0 215.90594344775309 -60.262267949796751 0 -60.262267949796751 -211.96943385526842 0 0 0 0 11.249897411139216 -0.29128367478353745 0 -0.29128367478353745 -0.30201394175646934 0 0 0 0 11.436583744478412 1.3764683489076504 0 1.3764683489076504 5.9698061963027289 0 0 0 0 95.001711408840492 -63.157712845482862 0 -63.157712845482862 -198.35358752945947 0 0 0 0 37.722303479873517 -10.838166316159526 0 -10.838166316159526 0.085859420523649782 0 0 0 0 1.7690473910387823 -0.49304937592853548 0 -0.49304937592853548 -1.1703328591145905 0 0 0 0 -105.67631650487601 71.000197653801749 0 71.000197653801749 -107.26988688467144 0 0 0 0 81.922364150472276 123.17486447236351 0 123.17486447236351 -115.90649172738705 0 0 0 0 8.0244654832656863 3.5709278022173834 0 3.5709278022173834 0.50559480823534908 0 0 0 0 68.62906349284458 -30.767317783492707 0 -30.767317783492707 17.561014883079825 0 0 0 0 -48.216443839679414 188.0659692952193 0 188.0659692952193 -147.7202100077248 0 0 0 0 58.61537528745248 -32.661559844622438 0 -32.661559844622438 29.032678132775313 0 0 0 0 8.0373046306194738 -0.30933912719169143 0 -0.30933912719169143 19.762893117718029 0 0 0 0 0.41835878889253308 2.714479321309927 0 2.714479321309927 -0.040094012986281152 0 0 0 0 67.752324122193386 -28.042388807858803 0 -28.042388807858803 9.9251421654997039 0 0 0 0 105.79137960349908 -27.962469725373332 0 -27.962469725373332 -8.2502141050242059 0 0 0 0 79.835997569505707 -37.377081284151224 0 -37.377081284151224 17.131337522602223 0 0 0 0 83.188553479631082 -44.91693067533955 0 -44.91693067533955 19.169238980365719 0 0 0 0 72.750023263230105 -40.485955616405469 0 -40.485955616405469 23.73064392768574 0 0 0 0 127.14745815228798 -50.767959659529041 0 -50.767959659529041 11.120816563201657 0 0 0 0 115.04158940823254 -47.513003493866997 0 -47.513003493866997 26.331681250915622 0 0 0 0 114.42063853544096 -73.709788962638171 0 -73.709788962638171 48.597851971898692 0 0 0 0 5.2287020227153107 2.8719702643315799 0 2.8719702643315799 0.71004715415172504 0 0 0 0 -72.779493087662559 161.99088059165925 0 161.99088059165925 -169.58068230650565 0 0 0 0 -38.130504073313205 17.556558669987851 0 17.556558669987851 -54.576280722033061 0 0 0 0 -105.00711891959509 194.66840564667268 0 194.66840564667268 -92.555610381879603 0 0 0 0 111.25423597645567 71.550065067837721 0 71.550065067837721 -43.907335179207394 0 0 0 0 44.526129289679716 12.161163598493115 0 12.161163598493115 4.3947038480411562 0 0 0 0 -9.328985119216668 32.942925263355505 0 32.942925263355505 85.819237395324308 0 0 0 0 71.431609710416524 -9.7266483035297142 0 -9.7266483035297142 20.565060381694138 0 0 0 0 -26.217063393763965 55.428211704026808 0 55.428211704026808 2.8696507829516804 0 0 0 0 14.279083905312291 -33.456902785648779 0 -33.456902785648779 53.695171909722148 0 0 0 0 106.06626189024246 -29.775973055985332 0 -29.775973055985332 35.850349248069733 0 0 0 0 298.8241312793034 0.91136018545157071 0 0.91136018545157071 14.498453595848332 0 0 0 0 91.930232435377548 9.0326798736248293 0 9.0326798736248293 16.513140097423019 0 0 0 0 37.420103900571121 -27.911632630751285 0 -27.911632630751285 63.535648673412652 0 0 0 0 65.231406000410743 17.169919814711328 0 17.169919814711328 3.1624078331550409 0 0 0 0 66.573148855146428 42.620894845630346 0 42.620894845630346 -15.722140948172552 0 0 0 0 40.807951531198341 36.480140527863796 0 36.480140527863796 17.299659423559206 0 0 0 0 75.024666661665833 51.13605005490399 0 51.13605005490399 -77.966438460768245 0 0 0 0 79.76155380003911 117.7597556167434 0 117.7597556167434 -56.105236486585 0 0 0 0 140.56922050194953 96.458422497578653 0 96.458422497578653 -48.648484829562449 0 0 0 0 -38.469935695131426 80.390162165243055 0 80.390162165243055 24.620403149731032 0 0 0 0 52.639082652080106 138.72029880242553 0 138.72029880242553 -3.2409330947230046 0 0 0 0 2.644238525077526 11.831702617876772 0 11.831702617876772 137.37376284600305 0 0 0 0 31.931322425763938 2.0663920284951018 0 2.0663920284951018 21.411362844719065 0 0 0 0 3.0602161682253666 -2.8294270549563691 0 -2.8294270549563691 1.7778048856346658 0 0 0 0 600.47370484775456 559.77098502959598 0 559.77098502959598 227.09818297558013 0 0 0 0 412.13114981383842 195.2956457213686 0 195.2956457213686 164.38560874786799 0 0 0 0 32.141537159928703 14.876328142456941 0 14.876328142456941 19.239407431360149 0 0 0 0 10.061577230234718 -4.0989867185053868 0 -4.0989867185053868 10.496736563663601 0 0 0 0 40.705597737549425 19.464309771069921 0 19.464309771069921 19.004626940980415 0 0 0 0 91.038427577928815 -70.00175663715163 0 -70.00175663715163 49.579367015282855 0 0 0 0 96.575798700031612 4.1283847319847915 0 4.1283847319847915 -0.33316528581816041 0 0 0 0 124.59570561514556 649.50987185927761 0 649.50987185927761 -1246.1158609091208 0 0 0 0 176.46301070245681 -111.70533620986953 0 -111.70533620986953 -262.72988350215553 0 0 0 0 128.83060906794657 3.6117367420741644 0 3.6117367420741644 -1.4347188306809615 0 0 0 0 84.139440006215409 -36.784627123918654 0 -36.784627123918654 -35.201013966368919 0 0 0 0 170.21421165351057 -256.64583562481903 0 -256.64583562481903 -168.45897454869555 0 0 0 0 339.81461969963857 87.728428991013061 0 87.728428991013061 -931.98810051719283 0 0 0 0 29.266785634012194 -24.789684445051535 0 -24.789684445051535 138.27160059482571 0 0 0 0 124.65194669778975 439.9746771351297 0 439.9746771351297 381.37493178842487 0 0 0 0 11.913582873057749 405.88668114123993 0 405.88668114123993 91.009021512561048 0 0 0 0 20.735936270299135 136.01930262813676 0 136.01930262813676 -2.7538175494473762 0 0 0 0 91.917891170734947 204.38043313968728 0 204.38043313968728 -461.70195197703379 0 0 0 0 71.568361573772563 173.36259353982086 0 173.36259353982086 4.7563717232815179 0 0 0 0 59.507584726757045 3.2956087252676909 0 3.2956087252676909 0.46455397564391676 0 0 0 0 87.514493584010779 -75.907386709586717 0 -75.907386709586717 194.66619818490199 0 0 0 0 79.002803161009069 -69.470556469783332 0 -69.470556469783332 56.720656512174173 0 0 0 0 76.628478248854663 -54.584276786462169 0 -54.584276786462169 153.81099934252779 0 0 0 0 111.58202028663118 -120.65756574158581 0 -120.65756574158581 181.99794504239162 0 0 0 0 110.87535506863787 -111.27665298667898 0 -111.27665298667898 92.329961031400217 0 0 0 0 77.50602495676867 -87.160062629889126 0 -87.160062629889126 75.96297449358326 0 0 0 0 76.557795654283836 -86.202304210914463 0 -86.202304210914463 135.84908468984577 0 0 0 0 51.302679839427583 -111.5634820326577 0 -111.5634820326577 112.67051833143523 0 0 0 0 99.827443796093576 -183.37502968911576 0 -183.37502968911576 36.303589795192238 0 0 0 0 115.19411676131131 -124.32388346648213 0 -124.32388346648213 -21.242650190174118 0 0 0 0 58.913865080394316 -55.412525847870711 0 -55.412525847870711 152.7444603308212 0 0 0 0 51.187418924065696 -108.43427807447497 0 -108.43427807447497 182.9245285466468 0 0 0 0 87.876620759798243 58.628529652754992 0 58.628529652754992 111.13310940454039 0 0 0 0 84.48625080931015 -97.02515948279131 0 -97.02515948279131 189.2483140522404 0 0 0 0 68.760576023905742 -59.898404172131677 0 -59.898404172131677 83.622747493131101 0 0 0 0 89.846464149661188 -32.775937680939478 0 -32.775937680939478 98.171930920370812 0 0 0 0 1.9135072357509131 0.11818870707422491 0 0.11818870707422491 -2.2275191378321031 0 0 0 0 108.74457626239018 -18.219843835776715 0 -18.219843835776715 3.0855227444444608 0 0 0 0 93.604478202600149 -34.260307393680364 0 -34.260307393680364 0.86577389312365938 0 0 0 0 44.614075833022071 -9.9561765102527673 0 -9.9561765102527673 -6.3236411804500676 0 0 0 0 107.92548512524445 -9.0745802467460805 0 -9.0745802467460805 -23.607479726899214 0 0 0 0 105.38028098034556 -4.2812868715457171 0 -4.2812868715457171 -23.335531182899828 0 0 0 0 98.319263056258933 -1.8404655017465075 0 -1.8404655017465075 -5.3778770359317605 0 0 0 0 86.639410775453143 -16.06791150908316 0 -16.06791150908316 -7.4735890643896141 0 0 0 0 45.202251911628991 9.7015267614301592 0 9.7015267614301592 -1.1655317598483634 0 0 0 0 107.73387656554405 -0.69227177209563706 0 -0.69227177209563706 -28.502546808257421 0 0 0 0 108.91632299506455 -22.737949876097673 0 -22.737949876097673 10.03313340938098 0 0 0 0 119.52027184037433 -13.417556611525356 0 -13.417556611525356 -46.797160254381538 0 0 0 0 98.793370913440413 32.18616894087301 0 32.18616894087301 -86.293176591279718 0 0 0 0 89.094779358703818 4.3004600482817068 0 4.3004600482817068 -26.444786000944987 0 0 0 0 100.33449846047733 -11.448625439622901 0 -11.448625439622901 -19.186684457361935 0 0 0 0 98.894033770928218 -41.52929686622565 0 -41.52929686622565 2.795763341915972 0 0 0 0 113.52343231519626 -78.653264758609112 0 -78.653264758609112 77.835308041436065 0 0 0 0 145.57902304568051 -54.658789644707781 0 -54.658789644707781 -25.915089355551572 0 0 0 0 127.30477125551988 -44.30908975195689 0 -44.30908975195689 -0.21115097791863491 0 0 0 0 174.88562319973244 -34.5179596053257 0 -34.5179596053257 -68.606472541999665 0 0 0 0 137.29172269113769 45.774451637879338 0 45.774451637879338 -50.939674991095217 0 0 0 0 136.62981533007769 48.525299265461797 0 48.525299265461797 -53.878418937498282 0 0 0 0 92.385256380686769 2.9063207159747435 0 2.9063207159747435 -96.835821641516759 0 0 0 0 111.08294167765052 78.193037284405875 0 78.193037284405875 -166.65825180681941 0 0 0 0 70.506272561913647 29.077014621814854 0 29.077014621814854 -68.510662391895352 0 0 0 0 112.77876892420682 -12.162810852298147 0 -12.162810852298147 -66.952514765215511 0 0 0 0 104.46107810947433 -57.953640395061484 0 -57.953640395061484 137.7104618584608 0 0 0 0 81.110582777714654 13.850957368548777 0 13.850957368548777 -15.622262232913071 0 0 0 0 94.299553420711163 -44.930179275013757 0 -44.930179275013757 130.63635594292191 0 0 0 0 83.833900314788607 13.526180627213691 0 13.526180627213691 -15.907372627834766 0 0 0 0 131.41498112713816 -100.59256042224547 0 -100.59256042224547 142.22594813369847 0 0 0 0 58.298236445087241 -18.118855287374572 0 -18.118855287374572 129.90439083019919 0 0 0 0 69.649151736768545 -18.878890872618967 0 -18.878890872618967 129.67087477775124 0 0 0 0 97.919888717566209 -23.933948351000708 0 -23.933948351000708 83.157655972612702 0 0 0 0 90.88482147634204 -32.003367664434336 0 -32.003367664434336 108.04368706864443 0 0 0 0 97.060207399670617 -29.663723862380721 0 -29.663723862380721 94.708928031688629 0 0 0 0 88.472534034131968 -20.555829842495768 0 -20.555829842495768 101.40540297518874 0 0 0 0 78.554651804053719 -2.2223149977485264 0 -2.2223149977485264 73.104345301715512 0 0 0 0 94.796501106269716 -25.56335085972114 0 -25.56335085972114 83.449715152578847 0 0 0 0 99.381476716283942 -19.920057662758609 0 -19.920057662758609 75.395305850817749 0 0 0 0 81.897793686553115 9.3926325747460666 0 9.3926325747460666 -13.269493347171677 0 0 0 0 26.848426119604483 157.85172854857774 0 157.85172854857774 16.292617472456186 0 0 0 0 81.156833577806538 63.287625233883318 0 63.287625233883318 -172.98698637887037 0 0 0 0 1.3967771988166646 7.0665197445715879 0 7.0665197445715879 -2.799653632406029 0 0 0 0 155.20377360959537 153.13176269898122 0 153.13176269898122 -90.922361818712488 0 0 0 0 -0.62229386788385455 30.92578328118725 0 30.92578328118725 -41.386946752129006 0 0 0 0 -0.81136345492700457 36.880140260959138 0 36.880140260959138 7.6457526822168802 0 0 0 0 -27.307365400534763 71.796786211866674 0 71.796786211866674 80.269370535364033 0 0 0 0 1.9077842399274232 97.12518978380831 0 97.12518978380831 -11.294369194203682 0 0 0 0 -224.17845272490376 50.608249386039233 0 50.608249386039233 81.037167101716477 0 0 0 0 -78.475347025971132 -8.3634187076105491 0 -8.3634187076105491 20.74695390776651 0 0 0 0 -72.102841262814763 230.52155381436251 0 230.52155381436251 172.00497686766175 0 0 0 0 -684.66383016464533 174.76701310926819 0 174.76701310926819 168.01330915174185 0 0 0 0 39.864693988922227 623.48998626066441 0 623.48998626066441 -13.787628808722729 0 0 0 0 563.18298245241749 137.71903045597082 0 137.71903045597082 -93.334015193204323 0 0 0 0 103.37005460620639 143.48155107674143 0 143.48155107674143 -13.900961524519516 0 0 0 0 11.197903425963887 111.43619807120695 0 111.43619807120695 -25.039430913757315 0 0 0 0 174.73253178226878 203.89070725633701 0 203.89070725633701 -49.501978331813007 0 0 0 0 213.62995205514017 -67.7784496019583 0 -67.7784496019583 12.310028993119886 0 0 0 0 349.09809409467562 12.854365111416882 0 12.854365111416882 -83.172807999286306 0 0 0 0 249.7210407167513 -111.87514729373424 0 -111.87514729373424 14.258307856640613 0 0 0 0 112.76766539561504 -80.971177653875657 0 -80.971177653875657 157.4529323046313 0 0 0 0 623.00044002912182 -218.79029433967389 0 -218.79029433967389 42.971528269403962 0 0 0 0 424.98407320718979 60.695420795013888 0 60.695420795013888 -12.03565078909196 0 0 0 0 1512.4156611109211 -246.63393474812437 0 -246.63393474812437 4.5677244186491635 0 0 0 0 20.304956225914651 1.6312516855316872 0 1.6312516855316872 0.98043235305299126 0 0 0 0 517.76781803883932 -555.37251298326737 0 -555.37251298326737 752.90740175657174 0 0 0 0 108.99351587951969 -184.34139172343657 0 -184.34139172343657 426.3376794650585 0 0 0 0 154.99019528022473 155.89830862431972 0 155.89830862431972 -40.24616207789586 0 0 0 0 150.46751093325292 107.30938520654718 0 107.30938520654718 -71.38574942614423 0 0 0 0 479.07242244631198 562.28785966476698 0 562.28785966476698 501.17594902207748 0 0 0 0 1048.7409133691617 -298.77557742381305 0 -298.77557742381305 -595.42521526248925 0 0 0 0 -881.16996633900999 -603.57433071577043 0 -603.57433071577043 1235.2142117877538 0 0 0 0 -878.2841709317363 -710.1587822798474 0 -710.1587822798474 323.04431841482074 0 0 0 0 49.569044866366312 -1.3491724370894644 0 -1.3491724370894644 30.112411984458561 0 0 0 0 31.565161313321966 -28.176824633883783 0 -28.176824633883783 13.697078246832969 0 0 0 0 -181.26871631403992 -289.68405039576169 0 -289.68405039576169 -67.924453100546089 0 0 0 0 9.3019445165278682 -10.632251532447668 0 -10.632251532447668 2.9931756803301521 0 0 0 0 -1090.7778732889419 489.64802022255572 0 489.64802022255572 -230.29501696029547 0 0 0 0 -352.19725522902445 -155.942797268498 0 -155.942797268498 -148.66335022223279 0 0 0 0 621.98113710778125 814.87162695736015 0 814.87162695736015 769.81504677710836 0 0 0 0 51.712002720974851 -25.946900522798586 0 -25.946900522798586 31.555343603750124 0 0 0 0 33.186938389524585 -19.443999310980416 0 -19.443999310980416 33.1011933152827 0 0 0 0 22.304294361601933 -24.012893124708356 0 -24.012893124708356 36.110739809393451 0 0 0 0 32.104274479017477 -23.195083391668447 0 -23.195083391668447 35.356235538896627 0 0 0 0 14.398136490615286 1.6383219154243989 0 1.6383219154243989 9.3942880630697498 0 0 0 0 46.820393478084952 -14.859365563307421 0 -14.859365563307421 41.618777641364886 0 0 0 0 4.7518010249498559 4.8276902982499195 0 4.8276902982499195 3.3807771824049131 0 0 0 0 50.395028082130011 -34.667025374953056 0 -34.667025374953056 44.462179818934487 0 0 0 0 51.190649001924612 -32.150131005493591 0 -32.150131005493591 43.75730002308967 0 0 0 0 58.512421808769432 -48.13192974248247 0 -48.13192974248247 68.251948087295659 0 0 0 0 117.50660569682077 -63.45056292805387 0 -63.45056292805387 28.526538982840236 0 0 0 0 76.755313487214153 -34.933606560113049 0 -34.933606560113049 16.826242336827605 0 0 0 0 120.1906021380928 -14.39573146140161 0 -14.39573146140161 -28.324532964428897 0 0 0 0 95.416997783060651 -34.686556693674945 0 -34.686556693674945 12.441095903296855 0 0 0 0 75.336309344158508 -31.21984909232927 0 -31.21984909232927 19.362154620920649 0 0 0 0 75.541366479810677 -22.101637288265799 0 -22.101637288265799 4.4788072216259529 0 0 0 0 71.303706581165898 -26.73948731464715 0 -26.73948731464715 20.298996928614905 0 0 0 0 57.767425794285373 -18.128384566811157 0 -18.128384566811157 17.602377894375039 0 0 0 0 50.418440670637949 6.8440473185132333 0 6.8440473185132333 -9.9505463110934027 0 0 0 0 67.694855239460594 -11.465242801316066 0 -11.465242801316066 9.5998012532454311 0 0 0 0 64.977403322001919 -17.995032802298152 0 -17.995032802298152 17.10702062315147 0 0 0 0 33.255580698649283 5.9086384663835361 0 5.9086384663835361 6.1059462326279572 0 0 0 0 73.445287407816977 6.6586205515527093 0 6.6586205515527093 -20.249505111874015 0 0 0 0 18.988196699504314 -3.6933324264397811 0 -3.6933324264397811 0.43662492921287732 0 0 0 0 90.936862740447395 -14.581652787109974 0 -14.581652787109974 8.1519292641043961 0 0 0 0 14.320954092156477 -1.6407680010167098 0 -1.6407680010167098 13.367456014630685 0 0 0 0 24.47795358860003 4.224861338433044 0 4.224861338433044 27.128500234194235 0 0 0 0 28.901406590346596 -2.0650936474220316 0 -2.0650936474220316 11.206909320745353 0 0 0 0 62.34266211205977 -15.452316557716131 0 -15.452316557716131 27.554386856731526 0 0 0 0 61.839450920953823 -6.7045635463837243 0 -6.7045635463837243 16.558323785359789 0 0 0 0 72.988397386740871 -15.536097931990582 0 -15.536097931990582 23.55021496506015 0 0 0 0 51.344177015285823 -15.170857687318524 0 -15.170857687318524 23.06776050764671 0 0 0 0 49.52990018964698 7.3493387660266478 0 7.3493387660266478 -10.307918552513623 0 0 0 0 31.602271054500306 -10.553601219832913 0 -10.553601219832913 22.808509477992686 0 0 0 0 49.799282533664154 -19.938897822128617 0 -19.938897822128617 20.728565021003362 0 0 0 0 18.129226747381395 -20.37599121841086 0 -20.37599121841086 25.660351553141723 0 0 0 0 -58.95983345026616 -64.954539875445789 0 -64.954539875445789 28.968436421672777 0 0 0 0 11.068991508989711 -15.822677624195876 0 -15.822677624195876 20.920589752174919 0 0 0 0 20.091367630317222 -16.688912751250555 0 -16.688912751250555 20.111070494463227 0 0 0 0 17.667902485634841 3.8605344329243962 0 3.8605344329243962 9.8775008426191562 0 0 0 0 -34.186561623799207 37.864518182159827 0 37.864518182159827 11.45544184920891 0 0 0 0 50.946447276059189 -9.7759531614788102 0 -9.7759531614788102 -15.673980513354309 0 0 0 0 59.243542601644947 -7.450796937517147 0 -7.450796937517147 -2.5495683164915297 0 0 0 0 32.655679335654384 1.5772740398994358 0 1.5772740398994358 3.5213406574391026 0 0 0 0 30.795297624008214 -0.26523853779909246 0 -0.26523853779909246 -1.0585025460085671 0 0 0 0 70.339174319087761 -6.7743085707884347 0 -6.7743085707884347 -19.467881538501388 0 0 0 0 58.297924714819601 3.1983128353785446 0 3.1983128353785446 -3.3101282971929322 0 0 0 0 53.699206603108905 -28.027044863043102 0 -28.027044863043102 13.97924533514697 0 0 0 0 57.141387969102652 -1.370626471464675 0 -1.370626471464675 14.820476738012076 0 0 0 0 45.485449930456525 4.0251884689196231 0 4.0251884689196231 75.261137179475554 0 0 0 0 82.076308208255796 6.7536497764040178 0 6.7536497764040178 34.581978302341781 0 0 0 0 56.837726486388419 15.091192596502424 0 15.091192596502424 116.05567137025309 0 0 0 0 74.957377965143678 62.182082013617674 0 62.182082013617674 134.28007216349306 0 0 0 0 57.986648165169754 23.438926281825843 0 23.438926281825843 68.030066922684796 0 0 0 0 15.796121226514515 40.600727104255384 0 40.600727104255384 142.80684353201133 0 0 0 0 -8.7315455559291877 6.6539502620571511 0 6.6539502620571511 151.40199845599807 0 0 0 0 49.152158848384715 -4.7055148429529936 0 -4.7055148429529936 133.80733270626206 0 0 0 0 90.719918045560917 -51.254277454022485 0 -51.254277454022485 182.70577848675634 0 0 0 0 -0.53847769171620108 3.0091878174532383 0 3.0091878174532383 2.2739461227990656 0 0 0 0 45.913825429779536 109.35281191131617 0 109.35281191131617 299.48852224800748 0 0 0 0 182.72851944917784 122.02340314283038 0 122.02340314283038 106.40130559760291 0 0 0 0 102.32025967999652 16.17481371460326 0 16.17481371460326 2.5532317422230335 0 0 0 0 45.796188308624551 -12.351157495781536 0 -12.351157495781536 38.13761301219165 0 0 0 0 131.52609120088164 4.7855971006492837 0 4.7855971006492837 -16.225734805639149 0 0 0 0 66.068897345794539 -21.298603932840251 0 -21.298603932840251 -25.010317161723833 0 0 0 0 56.884674574335804 -5.7034122419167943 0 -5.7034122419167943 4.627755044371952 0 0 0 0 38.511808890120221 -16.052157837313686 0 -16.052157837313686 8.3298490907122247 0 0 0 0 76.21959765979409 -12.30858367853034 0 -12.30858367853034 -18.290443297874845 0 0 0 0 9.9458343203039323 -0.12734648243564095 0 -0.12734648243564095 7.1311478733453555 0 0 0 0 46.28758779486634 -15.700746506492123 0 -15.700746506492123 19.908613482053624 0 0 0 0 42.380305652478256 -3.6474322256749376 0 -3.6474322256749376 5.6512520924311218 0 0 0 0 63.826523430412635 -22.968017491497449 0 -22.968017491497449 -18.434700157896259 0 0 0 0 69.418151145351658 -12.311165301572828 0 -12.311165301572828 16.500360321485459 0 0 0 0 47.041296044930561 -15.206980765436029 0 -15.206980765436029 4.2709977803343895 0 0 0 0 3.7312015767632261 8.4258754687898687 0 8.4258754687898687 -4.4146445341839353 0 0 0 0 61.105728190283116 -12.154344270657475 0 -12.154344270657475 11.25770661282786 0 0 0 0 67.146611243661027 -13.663897188584997 0 -13.663897188584997 -8.8542441774552572 0 0 0 0 67.69379594057682 -16.883930181630603 0 -16.883930181630603 9.9843838388053427 0 0 0 0 68.133172929636203 1.4793928703800248 0 1.4793928703800248 1.7204647823346022 0 0 0 0 33.852979777220753 -18.309103593150077 0 -18.309103593150077 29.806953060006435 0 0 0 0 35.943886840308551 -23.252317672771483 0 -23.252317672771483 20.613354929242064 0 0 0 0 10.135748794153434 -2.8012693746151598 0 -2.8012693746151598 13.637179131925514 0 0 0 0 35.323578149836976 -2.220851950396991 0 -2.220851950396991 54.466223966562211 0 0 0 0 49.774505978290108 -34.900429117465023 0 -34.900429117465023 36.22054145521156 0 0 0 0 32.5510750663816 -14.230935813961196 0 -14.230935813961196 17.714468661475621 0 0 0 0 61.018125322298147 -56.451996821226658 0 -56.451996821226658 89.639274338114092 0 0 0 0 0.78297568329203671 0.70548125246047277 0 0.70548125246047277 0.94550393127764876 0 0 0 0 58.568260721653132 -11.622500474908492 0 -11.622500474908492 7.4740785027304355 0 0 0 0 25.762229965512859 -7.8578818522304719 0 -7.8578818522304719 5.0420491740036972 0 0 0 0 -180.24356177435766 -85.925622985059974 0 -85.925622985059974 164.00581546333524 0 0 0 0 9.8557929923247727 -3.2915586989801966 0 -3.2915586989801966 3.9707294793309242 0 0 0 0 37.699841724679573 -11.414521107345763 0 -11.414521107345763 10.147353476861326 0 0 0 0 33.570131590557537 -14.427943773885264 0 -14.427943773885264 6.7242273329218687 0 0 0 0 38.418676563087502 -27.373732555886818 0 -27.373732555886818 11.510191729916642 0 0 0 0 50.781687835573393 -19.982929442271711 0 -19.982929442271711 2.1594801081935202 0 0 0 0 39.808196841113386 -18.503877389687659 0 -18.503877389687659 -4.6514679208203233 0 0 0 0 -9.7172961333490093 -43.001299819792393 0 -43.001299819792393 12.072836571371681 0 0 0 0 6.2644000687827557 -0.21111919227290343 0 -0.21111919227290343 12.797967348600997 0 0 0 0 303.74660217185738 -260.92013684575767 0 -260.92013684575767 -40.176743215452461 0 0 0 0 68.788814548235678 -10.793083964400665 0 -10.793083964400665 493.69788148283828 0 0 0 0 676.10724378746818 -393.34670794715691 0 -393.34670794715691 -96.280579486479951 0 0 0 0 524.32038107606058 -445.53776446080639 0 -445.53776446080639 586.7949133260247 0 0 0 0 -42.342750076059019 99.280319207895559 0 99.280319207895559 208.21683541148059 0 0 0 0 0.24759131683086366 1.3161720028505073 0 1.3161720028505073 4.8894886398777784 0 0 0 0 782.33828879563589 -666.29275279914009 0 -666.29275279914009 600.3010207437444 0 0 0 0 96.336287169346178 -74.771682986855353 0 -74.771682986855353 -40.359540452592228 0 0 0 0 2058.5110220881907 -606.06303312826856 0 -606.06303312826856 86.161273716061928 0 0 0 0 1705.7974178110344 -97.819709889270996 0 -97.819709889270996 500.13709152250647 0 0 0 0 692.40022177733044 -846.21558910580666 0 -846.21558910580666 882.08865281232352 0 0 0 0 307.94785343244439 -48.757978277055372 0 -48.757978277055372 472.69994030604937 0 0 0 0 1360.5883492437169 -1713.687831359508 0 -1713.687831359508 1463.9876783162504 0 0 0 0 3622.8135886518066 -609.49038782368757 0 -609.49038782368757 48.923709737304677 0 0 0 0 3500.3796309170721 -762.75634240166437 0 -762.75634240166437 1327.1252808054355 0 0 0 0 3694.7169599110057 -1114.115849010449 0 -1114.115849010449 157.58251973244506 0 0 0 0 3263.7450245500659 -387.52847354847893 0 -387.52847354847893 -231.60278644076786 0 0 0 0 -52.403856396995252 -6.4528836697739393 0 -6.4528836697739393 743.26370597317418 0 0 0 0 1880.3255534152486 719.27894524094961 0 719.27894524094961 -148.09999245592638 0 0 0 0 -25.270952293321898 -147.15847314883089 0 -147.15847314883089 -59.326676888848965 0 0 0 0 11.646968575338065 -3.5760116761931027 0 -3.5760116761931027 1.4744893965158894 0 0 0 0 115.95897365795827 270.25477519078095 0 270.25477519078095 46.5094576292623 0 0 0 0 183.33216547743359 170.31518339518414 0 170.31518339518414 51.445967258919154 0 0 0 0 520.73080753370596 389.20378204558074 0 389.20378204558074 101.62465110710616 0 0 0 0 3501.9871679855933 -850.39687301660842 0 -850.39687301660842 642.29020075620383 0 0 0 0 -307.88714628591697 -280.77593892780089 0 -280.77593892780089 149.28144558868257 0 0 0 0 6.543279920165574 -5.5329172862264926 0 -5.5329172862264926 2.7250286018673302 0 0 0 0 1035.8139508710774 -717.81256301261328 0 -717.81256301261328 198.1458796864477 0 0 0 0 4480.9414998044631 773.02537562753548 0 773.02537562753548 322.41824426004712 0 0 0 0 3275.0156831618078 1018.195344016531 0 1018.195344016531 341.84402280967896 0 0 0 0 12.988563538305456 -16.172573361017513 0 -16.172573361017513 6.2798156277126447 0 0 0 0 3125.3092744828973 747.6582221558366 0 747.6582221558366 171.74240590419166 0 0 0 0 3318.0169755367533 725.55344503066749 0 725.55344503066749 18.775689585178473 0 0 0 0 3499.4008414117343 865.36111985960747 0 865.36111985960747 70.108275805792559 0 0 0 0 -32.898095373151591 -129.38858665418672 0 -129.38858665418672 -49.2466715409887 0 0 0 0 71.145723743276903 -12.576107646059995 0 -12.576107646059995 -19.475736048789713 0 0 0 0 131.21313822613592 -33.806404912236871 0 -33.806404912236871 26.148180663711173 0 0 0 0 170.83044520462863 -62.82526681293848 0 -62.82526681293848 -200.27370768988794 0 0 0 0 170.7321941973496 111.76434250113039 0 111.76434250113039 -82.400040746564628 0 0 0 0 134.77839188027428 151.41761431505086 0 151.41761431505086 94.758705000121154 0 0 0 0 126.09096998877067 95.44238241814287 0 95.44238241814287 83.391361730909011 0 0 0 0 211.03534142746503 23.607697972734172 0 23.607697972734172 -59.401230224327264 0 0 0 0 48.912976359148161 29.992856944804771 0 29.992856944804771 168.73385721030866 0 0 0 0 30.415238579746074 -9.2386181119817934 0 -9.2386181119817934 45.177202593074526 0 0 0 0 40.922248970209694 -5.0457479988434102 0 -5.0457479988434102 54.836369803972048 0 0 0 0 41.487899079729686 24.951104501525379 0 24.951104501525379 75.434120521853288 0 0 0 0 41.130100578520796 19.64858489193125 0 19.64858489193125 20.141036324652987 0 0 0 0 50.137070322707586 24.041094462883621 0 24.041094462883621 2.3253243518689715 0 0 0 0 50.405737502287025 11.899971031261963 0 11.899971031261963 -3.037069124129073 0 0 0 0 58.187394431210123 38.724986631385718 0 38.724986631385718 -8.270764256365112 0 0 0 0 98.628840226025204 49.661373958740114 0 49.661373958740114 10.178249525999718 0 0 0 0 97.576302889541694 -2.6116190639958177 0 -2.6116190639958177 -22.355113149236331 0 0 0 0 79.403647015249589 -20.800899850088172 0 -20.800899850088172 -26.424355161641643 0 0 0 0 50.854520524745709 11.016648355692809 0 11.016648355692809 -3.9067161258451857 0 0 0 0 76.035734173063247 -7.1885900034073984 0 -7.1885900034073984 -19.556864266579851 0 0 0 0 122.08259713136749 9.0324178355683067 0 9.0324178355683067 53.213936254763667 0 0 0 0 60.260895037041337 -40.718716026105454 0 -40.718716026105454 16.820518033245861 0 0 0 0 82.278158179255115 74.963321087233425 0 74.963321087233425 -14.927640706310001 0 0 0 0 781.3487949744158 286.21034255422296 0 286.21034255422296 120.18125292129298 0 0 0 0 1940.7409526314732 321.05794991672633 0 321.05794991672633 -353.5835799798499 0 0 0 0 4.6003730785226367 -3.2751236182640042 0 -3.2751236182640042 -2.2014226329945767 0 0 0 0 2507.1327558400226 229.78843396264358 0 229.78843396264358 -455.53725250789336 0 0 0 0 1536.0165615009901 247.71118200550069 0 247.71118200550069 416.10510876250339 0 0 0 0 2178.573019318701 -202.31716008950693 0 -202.31716008950693 -455.54000947443279 0 0 0 0 2855.8695772428182 -212.88197063002568 0 -212.88197063002568 -474.8842664735443 0 0 0 0 2599.0753565498162 393.95022002448547 0 393.95022002448547 -166.45407544238094 0 0 0 0 2421.411247131382 248.04855971298173 0 248.04855971298173 -45.059438904292847 0 0 0 0 3501.2467986916017 241.36124631223771 0 241.36124631223771 -497.29411037424308 0 0 0 0 2787.0923449299953 553.7662775638845 0 553.7662775638845 8.9035148791724108 0 0 0 0 2427.6289811387396 331.68397696913996 0 331.68397696913996 -47.939278546908781 0 0 0 0 69.525394676209544 -16.3727802182907 0 -16.3727802182907 -17.926381209872261 0 0 0 0 20.486574976499718 -23.325961197339353 0 -23.325961197339353 9.0110739870520185 0 0 0 0 95.770249676621461 211.07831989175475 0 211.07831989175475 -364.87104694614231 0 0 0 0 119.72345336095168 -81.85006257676514 0 -81.85006257676514 -113.25389131755492 0 0 0 0 22.739333113809494 18.756991025025691 0 18.756991025025691 7.2981991989180246 0 0 0 0 1204.525108198628 -661.97470704087937 0 -661.97470704087937 407.74963772528031 0 0 0 0 -0.2490639728526105 12.766635399114266 0 12.766635399114266 -0.086743838815984228 0 0 0 0 3499.1223572184754 -1702.465641712309 0 -1702.465641712309 557.76553630663591 0 0 0 0 1877.1219748501608 -630.85534849333089 0 -630.85534849333089 -52.60321117043906 0 0 0 0 1778.1889895502609 -332.57809246745251 0 -332.57809246745251 -94.456036731594637 0 0 0 0 3491.376460141928 -131.27843827887182 0 -131.27843827887182 -650.17211720614171 0 0 0 0 2161.1201657448692 510.96850657187446 0 510.96850657187446 -30.852527025156824 0 0 0 0 644.16137598636487 41.564463656052226 0 41.564463656052226 348.27831860877262 0 0 0 0 2167.1706772648904 -429.83364006000414 0 -429.83364006000414 -119.96823354244962 0 0 0 0 2235.6159125741251 -737.94870857374349 0 -737.94870857374349 -66.563171546432329 0 0 0 0 518.17686672270065 -510.74402918300098 0 -510.74402918300098 240.47376558106177 0 0 0 0 454.51237537397174 -159.25820432223975 0 -159.25820432223975 117.85946627415234 0 0 0 0 8.3211039325833553 35.534353259426325 0 35.534353259426325 -21.616564185870075 0 0 0 0 26.782107684928334 8.3935014547654063 0 8.3935014547654063 -10.005576529316174 0 0 0 0 8.394135428367008 4.9336527428874888 0 4.9336527428874888 -16.212352183956227 0 0 0 0 19.123956297186851 19.035099706512256 0 19.035099706512256 1.2815047241574575 0 0 0 0 -830.56518043758115 452.00442442217081 0 452.00442442217081 -251.98336115296115 0 0 0 0 -1327.604577255217 77.389213412451227 0 77.389213412451227 135.17968732988084 0 0 0 0 -361.81165631701879 564.18745776932974 0 564.18745776932974 -380.17997606810786 0 0 0 0 77.696613518870436 -7.6676660787652509 0 -7.6676660787652509 -73.809206050213788 0 0 0 0 3.2736965814130272 -0.96292241648212951 0 -0.96292241648212951 -2.2777327459242702 0 0 0 0 47.261713382817106 -22.363269934823165 0 -22.363269934823165 -79.789740996097407 0 0 0 0 8.1765304348591172 -5.3590334642746456 0 -5.3590334642746456 -24.646265979066136 0 0 0 0 29.526999512416651 10.953957898315934 0 10.953957898315934 -6.3935443176853646 0 0 0 0 41.866810037354298 27.513155594123418 0 27.513155594123418 -13.835077157445767 0 0 0 0 12.909657068770414 17.303260465894276 0 17.303260465894276 2.024476914011101 0 0 0 0 88.830712428054539 -21.840879548542034 0 -21.840879548542034 -200.6179450900315 0 0 0 0 -29.248083451282582 -16.979953737058622 0 -16.979953737058622 -40.54350846452553 0 0 0 0 -28.432244768175224 -18.587317119825912 0 -18.587317119825912 -70.440016915606975 0 0 0 0 44.312452187710733 -54.265073118915893 0 -54.265073118915893 -55.500144912949906 0 0 0 0 -79.540893290773965 -139.80060493882809 0 -139.80060493882809 -106.23909526638113 0 0 0 0 140.71526218466624 -63.783198929366151 0 -63.783198929366151 -158.18698536923785 0 0 0 0 114.92545404403063 33.242765323651554 0 33.242765323651554 -193.21590770025821 0 0 0 0 -2.3181759888755096 -2.5889445258499535 0 -2.5889445258499535 -7.0946122164228349 0 0 0 0 -478.58299357413489 1352.0271284241946 0 1352.0271284241946 -1027.0285994211918 0 0 0 0 -107.21743842860451 -168.21390344850795 0 -168.21390344850795 -125.64381075821291 0 0 0 0 -1.0647387876961147 566.22806544319201 0 566.22806544319201 -612.7265068287611 0 0 0 0 -78.084849698914411 -18.284031453999408 0 -18.284031453999408 33.297494390151314 0 0 0 0 157.65689222162473 390.21097006977448 0 390.21097006977448 -629.81038024737563 0 0 0 0 361.41754734324059 519.10994584473156 0 519.10994584473156 -951.24311099334636 0 0 0 0 -920.96342983523209 961.42634545131148 0 961.42634545131148 -720.61889209104879 0 0 0 0 195.35009146233733 530.9242711539855 0 530.9242711539855 -94.434860466866667 0 0 0 0 201.9018889548388 544.06340859215686 0 544.06340859215686 -919.76673357239133 0 0 0 0 49.711496338502911 -214.85150578202797 0 -214.85150578202797 -673.20352177278949 0 0 0 0 1266.010183744198 907.50596941439335 0 907.50596941439335 -142.43015703076551 0 0 0 0 1008.0309232002728 279.14700645677124 0 279.14700645677124 -542.34474560872491 0 0 0 0 1093.4427681057277 520.22483087573028 0 520.22483087573028 -271.90243509025152 0 0 0 0 301.65464055612665 371.93234137767467 0 371.93234137767467 634.20318591535579 0 0 0 0 371.96040350051771 65.870497036540769 0 65.870497036540769 -153.72518589968558 0 0 0 0 34.893233042586871 -32.557461672736736 0 -32.557461672736736 -2.3260324282682632 0 0 0 0 9.9841532377010225 5.1754015437524501 0 5.1754015437524501 5.8211566304986082 0 0 0 0 287.11959268454666 -60.444122641199954 0 -60.444122641199954 -126.74781518794032 0 0 0 0 -183.3225655985807 895.96444188158375 0 895.96444188158375 1386.387633139333 0 0 0 0 1599.1608518645298 1923.6282242191828 0 1923.6282242191828 906.39604604693295 0 0 0 0 3493.9099172913134 1364.2370096127459 0 1364.2370096127459 -602.47790166017523 0 0 0 0 1840.0055454807552 461.1741749018226 0 461.1741749018226 -913.11775187899525 0 0 0 0 3501.1673967949973 317.75772129890578 0 317.75772129890578 -1053.2929195330137 0 0 0 0 817.51247590814774 649.49439203948941 0 649.49439203948941 -663.88347603208172 0 0 0 0 1039.5962307021655 -384.74455525864499 0 -384.74455525864499 -480.06053665564122 0 0 0 0 3493.2605785514206 -1157.00052807934 0 -1157.00052807934 -240.94448452741045 0 0 0 0 1249.6019864959126 1040.8554633974504 0 1040.8554633974504 -110.59800537816601 0 0 0 0 12.923767113203098 3.3751755402633492 0 3.3751755402633492 0.07281841794736274 0 0 0 0 269.88146151346155 -289.03688420513311 0 -289.03688420513311 476.68212475928374 0 0 0 0 3492.8928486663062 96.801217073974513 0 96.801217073974513 -329.94338658319134 0 0 0 0 474.40101017517009 -591.15383252227025 0 -591.15383252227025 909.08758584570762 0 0 0 0 489.61352061665821 -520.78793464958676 0 -520.78793464958676 621.97768841297875 0 0 0 0 506.32485828319841 -670.93491047123882 0 -670.93491047123882 266.63151850003567 0 0 0 0 876.84458700489631 -460.12195473287073 0 -460.12195473287073 242.90771657158257 0 0 0 0 772.46685487046489 -397.21515271639009 0 -397.21515271639009 249.96985329295336 0 0 0 0 767.97896120486985 -504.75310213644923 0 -504.75310213644923 534.52968082757047 0 0 0 0 535.36926866834983 -516.75981767053099 0 -516.75981767053099 269.04754938599081 0 0 0 0 482.44617035083502 -73.810032679887968 0 -73.810032679887968 -159.69753892352091 0 0 0 0 20.158145629378822 7.6432681261424733 0 7.6432681261424733 -0.12621625291304261 0 0 0 0 9.633060380241659 256.27541497186951 0 256.27541497186951 -319.536193503714 0 0 0 0 -536.16203673244672 683.36082325086193 0 683.36082325086193 -236.69716775570419 0 0 0 0 -645.2073134971879 323.04069973409912 0 323.04069973409912 -399.34864490208611 0 0 0 0 884.90065352092643 -632.51254848905819 0 -632.51254848905819 302.89330379913156 0 0 0 0 8.787134048386946 3.1354140743825596 0 3.1354140743825596 0.061534682943527041 0 0 0 0 978.32782945282815 -419.29118600356765 0 -419.29118600356765 137.84508458738105 0 0 0 0 718.11796190691166 -357.53647280136215 0 -357.53647280136215 396.95122417685377 0 0 0 0 620.6861074186163 -513.12062811166629 0 -513.12062811166629 183.02689279732886 0 0 0 0 642.26057089629467 -243.76103138086063 0 -243.76103138086063 85.499906085191384 0 0 0 0 9.8446559235744644 30.89664740224714 0 30.89664740224714 -33.824745302861174 0 0 0 0 4.2110155612866151 0.23121967572438962 0 0.23121967572438962 -5.8828803196526653 0 0 0 0 704.4618732714589 -458.01446474763895 0 -458.01446474763895 208.08052126381799 0 0 0 0 748.9302087567994 -417.37049088160006 0 -417.37049088160006 268.84174341868788 0 0 0 0 781.33087271584236 -483.13247705736796 0 -483.13247705736796 213.83134700452334 0 0 0 0 -12.859873048970854 111.02724385906915 0 111.02724385906915 165.05878756180755 0 0 0 0 3.0146707493033347 0.42176365516630199 0 0.42176365516630199 -2.6230820585523063 0 0 0 0 51.324176491660182 -22.766843406941177 0 -22.766843406941177 -53.43444748245804 0 0 0 0 -12.22584420646308 -83.536910883874498 0 -83.536910883874498 106.40408975362379 0 0 0 0 15.911725732388732 -47.480172467830698 0 -47.480172467830698 276.83136210137491 0 0 0 0 171.26582633483486 -25.00352090201045 0 -25.00352090201045 122.42870718572556 0 0 0 0 142.92944782793347 103.76855240402995 0 103.76855240402995 331.31472629543191 0 0 0 0 50.772935938621231 -109.74175861218009 0 -109.74175861218009 667.53338689276325 0 0 0 0 190.89093394384599 182.25844620649812 0 182.25844620649812 189.17919122673493 0 0 0 0 9.8163199374757824 37.88878035280743 0 37.88878035280743 171.03833151441995 0 0 0 0 1.5762605213385541 -21.984140485004872 0 -21.984140485004872 146.59489793882918 0 0 0 0 21.049117817838123 -5.4186224954633104 0 -5.4186224954633104 100.27193528100639 0 0 0 0 36.702471737291489 -58.296314161695932 0 -58.296314161695932 62.20950126688399 0 0 0 0 5.3966898556500382 8.6447550527710746 0 8.6447550527710746 61.024728421091936 0 0 0 0 3.0277605693017904 -8.7841440973847149 0 -8.7841440973847149 -1.5968126253737296 0 0 0 0 0.70239467674764455 -12.448436993107862 0 -12.448436993107862 -9.5105326942325519 0 0 0 0 23.625340043567121 -32.853256172753163 0 -32.853256172753163 -0.25599468975906348 0 0 0 0 34.687921606315285 -8.4453993171331376 0 -8.4453993171331376 -9.6212756213562898 0 0 0 0 22.442838252842193 -15.764965025808976 0 -15.764965025808976 -13.698520298459869 0 0 0 0 16.365074490444385 -10.133598125721164 0 -10.133598125721164 -14.931703005685335 0 0 0 0 4.8326607631643128 -3.0517606249746052 0 -3.0517606249746052 -9.1873594370584666 0 0 0 0 332.42065701637148 71.492804716250873 0 71.492804716250873 3.3150937013651856 0 0 0 0 15.734300847721897 -10.281173700581121 0 -10.281173700581121 -7.5610013486711978 0 0 0 0 10.679428671381174 -15.456486901343055 0 -15.456486901343055 -9.9278658881853517 0 0 0 0 8.2375524350063642 -12.245777186489704 0 -12.245777186489704 -3.680859628527287 0 0 0 0 23.320017447253122 -11.075440940709655 0 -11.075440940709655 -6.2848583074546696 0 0 0 0 32.255193822784349 -4.7664544585240947 0 -4.7664544585240947 -9.6906313081053668 0 0 0 0 10.937197748462495 -6.7206352251682802 0 -6.7206352251682802 1.8577726791354507 0 0 0 0 10.847745129020041 -14.142940684588496 0 -14.142940684588496 -4.2840105827499428 0 0 0 0 3.9551597863871848 -2.4212355564046533 0 -2.4212355564046533 -7.9867517029000874 0 0 0 0 17.925233001978995 4.4983166718008079 0 4.4983166718008079 -14.19303673605009 0 0 0 0 9.8303014283659707 -5.1031466648332184 0 -5.1031466648332184 -4.194903090893904 0 0 0 0 0.034586226553059873 -0.011227354881941487 0 -0.011227354881941487 -1.3036187675538 0 0 0 0 43.951061310595833 -7.0881297779524175 0 -7.0881297779524175 -15.871214852564663 0 0 0 0 267.66345417812408 -109.77268768388558 0 -109.77268768388558 -9.3608100487621044 0 0 0 0 336.04217805817461 -249.86187481610534 0 -249.86187481610534 -6.0087924914688955 0 0 0 0 19.031603795045157 4.6261476458967081 0 4.6261476458967081 23.438340294727823 0 0 0 0 623.85501926545476 -222.99556699366781 0 -222.99556699366781 -192.17344342622027 0 0 0 0 4.6075168735817442 -1.7158468418844413 0 -1.7158468418844413 -3.1273951814013192 0 0 0 0 486.45716678849931 -625.57559780057341 0 -625.57559780057341 652.55365947882888 0 0 0 0 358.34154013572697 -365.36622788463961 0 -365.36622788463961 279.90801623245693 0 0 0 0 805.01652465264488 -524.46195085682643 0 -524.46195085682643 132.15430082083139 0 0 0 0 694.26780546216469 -120.59759247444549 0 -120.59759247444549 -150.59078748770253 0 0 0 0 478.2868764129671 -304.10591305888556 0 -304.10591305888556 389.92044826261656 0 0 0 0 928.59586851806307 -232.20220250603745 0 -232.20220250603745 -563.13436048923404 0 0 0 0 158.38248500725604 395.38958851981215 0 395.38958851981215 -613.47292460518588 0 0 0 0 492.97499909896578 213.30333649565728 0 213.30333649565728 -590.26241896155079 0 0 0 0 -125.83998000150314 269.51151064428905 0 269.51151064428905 -383.80928078293709 0 0 0 0 364.54193554577068 -258.72061846675979 0 -258.72061846675979 -172.66911967852275 0 0 0 0 399.93971609305027 -109.15762631031271 0 -109.15762631031271 -121.97455447023822 0 0 0 0 494.27481994825212 5.1791829252088064 0 5.1791829252088064 -437.28573987721938 0 0 0 0 305.00635976927515 -264.02748426663061 0 -264.02748426663061 -513.28978848133102 0 0 0 0 36.045113266576664 79.050112726548377 0 79.050112726548377 -323.78402776758639 0 0 0 0 3.5001898929941149 1.3483494368574824 0 1.3483494368574824 -3.9568787427921679 0 0 0 0 224.54548033367246 233.31068570985894 0 233.31068570985894 -520.83237009185177 0 0 0 0 -153.71655528419797 126.86265451674899 0 126.86265451674899 -462.63254577397765 0 0 0 0 33.576511615163582 9.8626615431811615 0 9.8626615431811615 -36.890071079264267 0 0 0 0 155.22075142692483 -58.584705836138028 0 -58.584705836138028 22.686464899126854 0 0 0 0 8.1427579851392906 0.74030253983021765 0 0.74030253983021765 -1.5740354079711061 0 0 0 0 16.413242350658926 9.2060488922904113 0 9.2060488922904113 -18.138992923169241 0 0 0 0 -19.425832338092732 5.1224215219754115 0 5.1224215219754115 -18.855669497123628 0 0 0 0 175.8771804349235 -57.055805823250012 0 -57.055805823250012 -38.769441785403615 0 0 0 0 29.722553746647463 2.3411396358378624 0 2.3411396358378624 -25.52661064403037 0 0 0 0 -10.068199064175133 -28.595000762082691 0 -28.595000762082691 80.25239816345038 0 0 0 0 289.3068150522231 232.03210749153254 0 232.03210749153254 88.765321427560593 0 0 0 0 695.86956774609644 49.969043934278034 0 49.969043934278034 -55.490435681720555 0 0 0 0 0.39794151754750828 -1.7214599884666839 0 -1.7214599884666839 1.7902481053304555 0 0 0 0 714.91269231086335 231.07376237052813 0 231.07376237052813 1.0885741067422714 0 0 0 0 219.67023164439161 67.742277751906613 0 67.742277751906613 -21.419924716252353 0 0 0 0 545.08182481553376 -111.8147435470496 0 -111.8147435470496 -434.66396846480347 0 0 0 0 567.79078456219577 12.667858830663135 0 12.667858830663135 -67.291213863128178 0 0 0 0 2.0252206855658699 -1.9464453375651285 0 -1.9464453375651285 -0.094198502843331589 0 0 0 0 14.333605629662998 2.9553845911543704 0 2.9553845911543704 0.77429038395803218 0 0 0 0 7.956527146092526 -5.6651096624190131 0 -5.6651096624190131 1.8468792290383558 0 0 0 0 -107.23231383041275 -294.38256728191845 0 -294.38256728191845 -411.20347045478616 0 0 0 0 -267.11245562831755 -281.54145130746747 0 -281.54145130746747 -275.89728636599193 0 0 0 0 4.9290706188944569 -1.0449877054008638 0 -1.0449877054008638 -7.9386113126933324 0 0 0 0 168.69654786431693 -35.043215828263669 0 -35.043215828263669 -18.464251381234135 0 0 0 0 2.2816420133749489 -27.58435257916608 0 -27.58435257916608 -17.532043688021076 0 0 0 0 196.48066715148889 35.221329117402888 0 35.221329117402888 26.229914485448717 0 0 0 0 22.642972690451643 -7.7637888313913663 0 -7.7637888313913663 -11.563923699322913 0 0 0 0 -42.855365113577136 -229.59466782662912 0 -229.59466782662912 -660.93684368846334 0 0 0 0 -33.577807126661355 -145.21280835899415 0 -145.21280835899415 -379.41224396246889 0 0 0 0 4.2728081373010838 -0.40994473779144158 0 -0.40994473779144158 -2.6877945443871667 0 0 0 0 3.9204849697417359 -2.4388835665976245 0 -2.4388835665976245 0.55956367466045975 0 0 0 0 -61.470011117111426 -237.50794477356612 0 -237.50794477356612 -435.25651830361494 0 0 0 0 -313.19830816470494 -234.76168686527126 0 -234.76168686527126 -282.69876727443989 0 0 0 0 -161.82203898356966 -225.48420138745132 0 -225.48420138745132 -293.06658838829935 0 0 0 0 -113.50620604970754 -77.728811448983834 0 -77.728811448983834 -313.85509667837232 0 0 0 0 -125.08447715534567 -145.02590635125489 0 -145.02590635125489 -115.69901708490397 0 0 0 0 -219.29551323894157 -84.904009458870632 0 -84.904009458870632 -296.33678944268286 0 0 0 0 6.1762331630457084 -175.79834315262053 0 -175.79834315262053 -56.08977624812178 0 0 0 0 -20.147425498806115 -89.880548016011744 0 -89.880548016011744 -252.44614896532812 0 0 0 0 10.031181615875539 -149.37352384571932 0 -149.37352384571932 111.93681148448559 0 0 0 0 443.59120347741555 -202.7612452502035 0 -202.7612452502035 -232.73176571299814 0 0 0 0 9.7153814729854275 -157.1289503260432 0 -157.1289503260432 -233.39144475912963 0 0 0 0 -148.13759486270283 -240.17365946153632 0 -240.17365946153632 -178.63071508474195 0 0 0 0 46.543877389600311 -209.14345755988279 0 -209.14345755988279 -405.87675546585069 0 0 0 0 10.420446494441421 -9.4345210025435335 0 -9.4345210025435335 -18.404557853436927 0 0 0 0 -1.2262259548006114 -1.560397939700124 0 -1.560397939700124 -20.611710182514798 0 0 0 0 7.6988194542968387 -3.7821722459389946 0 -3.7821722459389946 1.214717176565248 0 0 0 0 7.8911727595695993 -5.6315049129602812 0 -5.6315049129602812 -24.10365046511015 0 0 0 0 8.6636656967311865 -2.4561662364685617 0 -2.4561662364685617 -18.466940148005364 0 0 0 0 4.3679788278968772 0.85035792937878796 0 0.85035792937878796 -20.958462441936717 0 0 0 0 -31.862578790794942 10.269210329217458 0 10.269210329217458 -25.021342457120454 0 0 0 0 -21.086960074804665 -27.612044631386198 0 -27.612044631386198 33.513424363144168 0 0 0 0 39.917149137594606 -5.7517087510171905 0 -5.7517087510171905 -35.272996464146672 0 0 0 0 23.312546883156756 5.1639469230958639 0 5.1639469230958639 15.844715520882346 0 0 0 0 1.0319092347139076 -1.9142759812956571 0 -1.9142759812956571 -0.78410188966279915 0 0 0 0 1.223765160277253 0.14358369908131863 0 0.14358369908131863 -20.876979555572916 0 0 0 0 4.720312175636721 -5.842213429753814 0 -5.842213429753814 -0.11814525244454538 0 0 0 0 3.9794412531337002 2.680876514218653 0 2.680876514218653 -18.5415381185976 0 0 0 0 2.744425588822196 -6.1931905714109234 0 -6.1931905714109234 -6.3198822507072236 0 0 0 0 -4.793611810906441 -16.214138894535495 0 -16.214138894535495 25.776075801483785 0 0 0 0 2.5514755007097847 -2.7326605321628143 0 -2.7326605321628143 0.13702393871554497 0 0 0 0 12.470634851386421 9.7027157894522134 0 9.7027157894522134 -27.539925202051322 0 0 0 0 5.7350972291512221 -5.3331924017144221 0 -5.3331924017144221 -0.4584563879940905 0 0 0 0 6.5403325385705102 -2.1131410006873921 0 -2.1131410006873921 -12.836637692571458 0 0 0 0 10.289261223428184 -5.514938936244107 0 -5.514938936244107 -12.793061143078376 0 0 0 0 7.1650786304671783 -5.5992287783183201 0 -5.5992287783183201 0.99646933305393759 0 0 0 0 8.7458789546071785 -6.2831554554632021 0 -6.2831554554632021 -13.057763103255184 0 0 0 0 11.024414650615654 -8.6091575222599204 0 -8.6091575222599204 -11.440695558168954 0 0 0 0 3.5113868753833231 -13.099361487329588 0 -13.099361487329588 -12.609197839772605 0 0 0 0 16.264982596017944 -8.8590679730941702 0 -8.8590679730941702 -13.22194722511631 0 0 0 0 7.9713740955048706 -11.434905200057528 0 -11.434905200057528 -7.638045497578787 0 0 0 0 1.3110876095701283 1.299694467412202 0 1.299694467412202 0.04776931078413682 0 0 0 0 -8.4250442844931968 -18.455378640668187 0 -18.455378640668187 -7.9807045596082844 0 0 0 0 6.9428454877779586 -16.475493254253706 0 -16.475493254253706 -14.812771259098554 0 0 0 0 -0.33270317611459177 -9.0318973742837443 0 -9.0318973742837443 -8.6574604579118386 0 0 0 0 -3.529448529574438 -10.533545562152767 0 -10.533545562152767 -7.4595534542227142 0 0 0 0 17.4858774153181 -1.5369472066076924 0 -1.5369472066076924 0.95676901867864217 0 0 0 0 8.878969799165759 -5.8677581111921704 0 -5.8677581111921704 -1.1902040998228085 0 0 0 0 -3.1558534638206766 -14.562692411338276 0 -14.562692411338276 -1.8877992487741722 0 0 0 0 2.2138550869544122 0.99442256269863805 0 0.99442256269863805 0.78375646254099607 0 0 0 0 -0.68151180692802882 3.3391081571637642 0 3.3391081571637642 -7.5899237597279807 0 0 0 0 -1.288610119241639 15.422429542654982 0 15.422429542654982 15.879821375006486 0 0 0 0 9.9113156920248002 19.14510743314213 0 19.14510743314213 -7.4793260351455046 0 0 0 0 1.4392049702109944 -14.995194428847469 0 -14.995194428847469 28.547179147269745 0 0 0 0 -0.57203522768041992 2.3744909307620574 0 2.3744909307620574 1.5262369807222327 0 0 0 0 -46.490830507780629 -24.716494788447029 0 -24.716494788447029 23.518508624715409 0 0 0 0 39.686062534814482 -48.16603789015997 0 -48.16603789015997 98.242595494548368 0 0 0 0 64.182884394889697 -15.354973307727505 0 -15.354973307727505 -2.8509217844302839 0 0 0 0 60.402896501855139 -57.127696130077425 0 -57.127696130077425 129.26771693083083 0 0 0 0 59.308562528709899 -31.660838597525853 0 -31.660838597525853 178.19518542766309 0 0 0 0 -0.33831234425233525 1.9895047854975942 0 1.9895047854975942 0.97783165335834177 0 0 0 0 -61.609890438576258 30.286960713264762 0 30.286960713264762 148.09719548763906 0 0 0 0 75.463693229146884 -85.77311421690024 0 -85.77311421690024 88.420164471232738 0 0 0 0 24.784526967341662 -32.308022293006843 0 -32.308022293006843 172.52273391993367 0 0 0 0 100.48918009064073 -68.004776333386076 0 -68.004776333386076 130.05578204591035 0 0 0 0 76.521315313999366 -43.750314307045983 0 -43.750314307045983 98.416514551432783 0 0 0 0 90.916086875630754 -82.870625263394516 0 -82.870625263394516 109.21446072781418 0 0 0 0 60.225179776927689 -67.348983614469205 0 -67.348983614469205 68.139821889568623 0 0 0 0 95.910161440000593 -92.812687560969465 0 -92.812687560969465 86.610443325989991 0 0 0 0 51.643904350945377 -60.450528508405711 0 -60.450528508405711 103.49768709390723 0 0 0 0 37.000253298209373 -71.975152867244319 0 -71.975152867244319 93.679572193340391 0 0 0 0 68.833594525676745 -62.246308239799475 0 -62.246308239799475 54.819286808068938 0 0 0 0 43.127126077572029 -22.104629652105359 0 -22.104629652105359 25.87105020214517 0 0 0 0 15.95943826927919 -25.770670987248224 0 -25.770670987248224 26.691557054835812 0 0 0 0 20.134143773226242 9.0765820632275336 0 9.0765820632275336 -38.804560854104167 0 0 0 0 2.6168866952730241 -50.712301518557297 0 -50.712301518557297 64.256229092129161 0 0 0 0 -25.6621190140213 -72.841854522157519 0 -72.841854522157519 147.93009654044999 0 0 0 0 52.372093768062769 -12.643321190375445 0 -12.643321190375445 -29.20579905426257 0 0 0 0 171.12572262466347 -110.66509213395238 0 -110.66509213395238 96.52725489612817 0 0 0 0 161.05869664628335 -180.1619264214643 0 -180.1619264214643 103.3273952882364 0 0 0 0 49.852812830682524 -101.90524243908146 0 -101.90524243908146 140.65380576708492 0 0 0 0 153.71587445422847 -140.79208881936336 0 -140.79208881936336 102.39983452131543 0 0 0 0 85.765057529115438 -101.36276197155013 0 -101.36276197155013 97.262614685503195 0 0 0 0 175.07085684132653 -115.95631959981228 0 -115.95631959981228 84.676125470680063 0 0 0 0 171.01328203263984 -120.24757543641766 0 -120.24757543641766 82.023389660286114 0 0 0 0 85.35361693044193 14.186741803751513 0 14.186741803751513 -15.849577671180839 0 0 0 0 153.82354567365292 -112.31841662617313 0 -112.31841662617313 79.602550716874703 0 0 0 0 158.85231020637366 -100.24988192479333 0 -100.24988192479333 95.172237623693945 0 0 0 0 95.2668212538847 -16.482605237841653 0 -16.482605237841653 6.2446647922129159 0 0 0 0 26.281776593991793 -2.2555576961774619 0 -2.2555576961774619 -5.2338820999419422 0 0 0 0 100.05413542372662 0.65262923537324014 0 0.65262923537324014 -5.1855419720181999 0 0 0 0 87.832447347736547 14.193264369676314 0 14.193264369676314 -16.147705577199591 0 0 0 0 193.63298744909685 16.531521213171466 0 16.531521213171466 -15.03596008420709 0 0 0 0 381.24539713050035 -48.975927219019127 0 -48.975927219019127 3.4896756285766628 0 0 0 0 130.54861202216898 106.6295940011249 0 106.6295940011249 89.967332613533699 0 0 0 0 20.204565332960271 2.9109879708250936 0 2.9109879708250936 -2.024814527809653 0 0 0 0 142.076251635066 -99.493996769964269 0 -99.493996769964269 181.47480154985169 0 0 0 0 130.48767842141206 27.162028214584666 0 27.162028214584666 -215.94297650338103 0 0 0 0 220.18538013407669 -168.72804702402283 0 -168.72804702402283 141.26715626618125 0 0 0 0 420.17686148916619 -35.063529484142236 0 -35.063529484142236 144.04642309572637 0 0 0 0 527.36876209476395 -108.74705157173366 0 -108.74705157173366 -21.079650254931039 0 0 0 0 496.9493260516374 -167.08600727302326 0 -167.08600727302326 -27.814405794636968 0 0 0 0 457.0032985609796 -263.76583282787351 0 -263.76583282787351 123.63152108921076 0 0 0 0 174.86097584418894 -124.47991722390543 0 -124.47991722390543 10.671357011668533 0 0 0 0 66.729048112303644 -317.11102092109411 0 -317.11102092109411 -114.81130930829113 0 0 0 0 6.3294724108964147 -92.673973518554192 0 -92.673973518554192 -1.7982641793187213 0 0 0 0 54.742653284183689 -226.15851807786169 0 -226.15851807786169 193.87064328710858 0 0 0 0 144.3280176426415 -66.02042868125136 0 -66.02042868125136 -168.84356045850154 0 0 0 0 176.65692876281173 -126.00214687586686 0 -126.00214687586686 -154.85182150390756 0 0 0 0 366.67935224235282 -0.59397640750912117 0 -0.59397640750912117 -260.89956145154065 0 0 0 0 370.91418329182488 -302.80221725725914 0 -302.80221725725914 -14.213859857054558 0 0 0 0 111.87006813527114 -181.91312306742793 0 -181.91312306742793 314.77868751485084 0 0 0 0 96.673172103495745 11.201970204562713 0 11.201970204562713 -94.668570323177562 0 0 0 0 5.0229518800439337 -3.1976388486263865 0 -3.1976388486263865 -0.88632225479621918 0 0 0 0 -1.1771414127118049 -0.28319840229803361 0 -0.28319840229803361 0.3490249350829 0 0 0 0 2.7315778620621103 -6.5950574619960198 0 -6.5950574619960198 -0.60122816184611017 0 0 0 0 6.7081716805441687 -1.4696859141361038 0 -1.4696859141361038 -1.2868088511060076 0 0 0 0 27.455556548578897 -38.392859458297153 0 -38.392859458297153 -0.23999318656206015 0 0 0 0 167.94000625234185 -60.48677283433517 0 -60.48677283433517 -369.00438792771365 0 0 0 0 -32.116118196277966 24.80565839476867 0 24.80565839476867 -291.82908201908094 0 0 0 0 -73.04071745013789 -68.037204904782357 0 -68.037204904782357 -118.48661573479785 0 0 0 0 189.39518314035013 -101.45987366434929 0 -101.45987366434929 -300.47723083467463 0 0 0 0 14.95424182460556 157.5301611018358 0 157.5301611018358 -282.3370963847637 0 0 0 0 -0.13529072726369762 0.35164402053481325 0 0.35164402053481325 -2.9424793625958898 0 0 0 0 11.432392785003685 10.854150477344774 0 10.854150477344774 -152.40625985548832 0 0 0 0 341.17597639788073 305.14018979087587 0 305.14018979087587 27.494013408855608 0 0 0 0 35.460479937104537 35.667273647929505 0 35.667273647929505 -146.15671661056058 0 0 0 0 9.0287926185339771 -2.3203015093840449 0 -2.3203015093840449 -8.3295342162495132 0 0 0 0 -183.50664982401031 199.19421604894796 0 199.19421604894796 283.23987691956427 0 0 0 0 82.906474799921853 23.69340842784186 0 23.69340842784186 -45.074070633500014 0 0 0 0 121.65493926991985 3.8911522134294501 0 3.8911522134294501 -96.417743863891474 0 0 0 0 132.02991671009113 -16.371555873560737 0 -16.371555873560737 -70.152490784892507 0 0 0 0 114.17121419300383 -30.06068809266344 0 -30.06068809266344 -76.968567290032297 0 0 0 0 126.53160696555824 -13.499369707285496 0 -13.499369707285496 -37.097149019093195 0 0 0 0 131.03730639990317 -29.822021880478133 0 -29.822021880478133 -45.038273915895843 0 0 0 0 145.08369308210786 -19.945239780948668 0 -19.945239780948668 -105.83223247163369 0 0 0 0 153.59510285674151 -2.2857316746135439 0 -2.2857316746135439 -98.154929801555227 0 0 0 0 123.62148245303979 -10.508950911679676 0 -10.508950911679676 -2.8683794613352802 0 0 0 0 28.740634158943916 18.472243531908241 0 18.472243531908241 -4.759914420577779 0 0 0 0 56.544617960984368 -6.5568278348171134 0 -6.5568278348171134 -4.6771329598489615 0 0 0 0 6.1423096684786316 3.7234411468066995 0 3.7234411468066995 1.7569711649955018 0 0 0 0 44.380732434216952 73.185080555526838 0 73.185080555526838 67.194524561768048 0 0 0 0 50.939464784529264 6.6108001156208047 0 6.6108001156208047 -2.1785808464173897 0 0 0 0 72.650132386720543 9.6967572375911431 0 9.6967572375911431 2.1702335463810485 0 0 0 0 12.903879090006527 0.62833883934378676 0 0.62833883934378676 -2.0177581235027873 0 0 0 0 59.297427249182874 -45.348896763342054 0 -45.348896763342054 93.445491904472874 0 0 0 0 18.35054114201921 17.196261598349793 0 17.196261598349793 31.13539534904703 0 0 0 0 126.31263080998724 -40.007743985899651 0 -40.007743985899651 -50.853085982485936 0 0 0 0 104.18746579875733 -14.681885246871389 0 -14.681885246871389 -36.608570268295807 0 0 0 0 114.39180753235269 -40.771881549590944 0 -40.771881549590944 15.33086937373082 0 0 0 0 100.77780891920338 -11.817730846645645 0 -11.817730846645645 2.2957126179753686 0 0 0 0 121.07435998355686 -6.1414728696113343 0 -6.1414728696113343 3.8530088605402852 0 0 0 0 119.707781858423 -14.194295377199978 0 -14.194295377199978 1.0504050605668453 0 0 0 0 106.02394333261691 -19.228425414466074 0 -19.228425414466074 -0.79976322884249385 0 0 0 0 32.469554012165261 -19.756875878370934 0 -19.756875878370934 -9.6498823353968533 0 0 0 0 -37.701417177109761 -171.55813022662642 0 -171.55813022662642 -117.34936043119887 0 0 0 0 -34.434439144963108 -213.83642404965485 0 -213.83642404965485 427.92388091729026 0 0 0 0 394.95515959007025 -29.92047687340164 0 -29.92047687340164 -228.80530767180062 0 0 0 0 529.86674944311653 215.83516939979654 0 215.83516939979654 -92.282620882751871 0 0 0 0 67.666998344223884 8.4985814950362055 0 8.4985814950362055 4.4018240557543322 0 0 0 0 196.10314452043212 136.79956053184469 0 136.79956053184469 -78.597451937122969 0 0 0 0 63.887946139107953 -9.7463149636387243 0 -9.7463149636387243 -1.2906326301172157 0 0 0 0 21.467054224776803 -171.76003642442947 0 -171.76003642442947 -88.347634574562107 0 0 0 0 49.160142440098141 -17.511611249056802 0 -17.511611249056802 -4.653954331429631 0 0 0 0 53.004918465517875 -10.086060892959161 0 -10.086060892959161 -2.546837477861267 0 0 0 0 69.7541672968988 2.8308335326785254 0 2.8308335326785254 0.30875322998872434 0 0 0 0 63.206638102707075 157.64875800023401 0 157.64875800023401 -54.422899444556606 0 0 0 0 54.66814051842448 -207.91231801676076 0 -207.91231801676076 -265.77661180118957 0 0 0 0 7.7678868815680211 4.1999980710457292 0 4.1999980710457292 -0.65550356477608673 0 0 0 0 128.15722879713576 -173.582862918518 0 -173.582862918518 -270.29710146641264 0 0 0 0 66.923771412682981 -177.54469092009458 0 -177.54469092009458 -249.82634195563878 0 0 0 0 -37.028120148423113 -131.38834582391883 0 -131.38834582391883 -187.69775369751733 0 0 0 0 160.79570342755687 -56.407438513213492 0 -56.407438513213492 -199.51627645635472 0 0 0 0 71.916232989073251 -131.33240410084909 0 -131.33240410084909 -260.09080983041713 0 0 0 0 136.81552201750128 -7.5784629458976269 0 -7.5784629458976269 -298.77000588939336 0 0 0 0 116.25638193321356 44.158154396371174 0 44.158154396371174 -277.9256051841694 0 0 0 0 225.46518620699499 83.579335400327182 0 83.579335400327182 -269.84360562095162 0 0 0 0 102.67231936181815 50.745421218721276 0 50.745421218721276 -225.17001329155391 0 0 0 0 73.369528541210457 -32.722276111897372 0 -32.722276111897372 -236.84428178485177 0 0 0 0 208.40088193731935 -20.258041278024393 0 -20.258041278024393 -359.62985712394766 0 0 0 0 59.674682577034794 -6.2715354492285709 0 -6.2715354492285709 -5.9090819513962849 0 0 0 0 88.940935430811805 -0.81338964837777894 0 -0.81338964837777894 4.0528366439975798 0 0 0 0 8.362802871060989 3.6904003013948188 0 3.6904003013948188 -1.3986173128884545 0 0 0 0 58.008757068972045 -107.36599458954697 0 -107.36599458954697 -293.00653144860007 0 0 0 0 101.32346618588235 -12.769452230195384 0 -12.769452230195384 -233.19398152524809 0 0 0 0 -39.279135686494556 -48.327592012938112 0 -48.327592012938112 -135.68461909833059 0 0 0 0 -59.992488467527437 85.491268742887769 0 85.491268742887769 60.832033158338163 0 0 0 0 52.463327588218817 8.0970078893133177 0 8.0970078893133177 -2.6427616172013586 0 0 0 0 8.6318907173718031 1.7764809998781743 0 1.7764809998781743 -2.3341633786744254 0 0 0 0 54.980888409912211 12.270556210684409 0 12.270556210684409 4.1912875082358312 0 0 0 0 77.547557936121166 41.205515449242284 0 41.205515449242284 35.661558548072207 0 0 0 0 61.672226794526068 44.312730229473345 0 44.312730229473345 -66.179751738782215 0 0 0 0 19.247607143970129 3.4791449060443327 0 3.4791449060443327 1.3352937859848808 0 0 0 0 49.644101445074035 -8.7464409319750924 0 -8.7464409319750924 -7.2934825119419564 0 0 0 0 87.315887754193682 2.4079412221144594 0 2.4079412221144594 2.239110886301205 0 0 0 0 99.828955539749586 -7.7567029645197181 0 -7.7567029645197181 -153.02161478275229 0 0 0 0 98.850772540537946 102.93253274112794 0 102.93253274112794 -200.12631453060931 0 0 0 0 92.560875505612785 50.060835098982352 0 50.060835098982352 -145.99523256997418 0 0 0 0 -119.33275717492506 371.08663656462704 0 371.08663656462704 -250.2705426208031 0 0 0 0 134.99741546833411 116.79134080191443 0 116.79134080191443 -275.34673388888586 0 0 0 0 343.12344880154706 119.90736727576495 0 119.90736727576495 -293.3187676565376 0 0 0 0 481.47962306311001 -4.7274639748984555 0 -4.7274639748984555 -212.84037106034339 0 0 0 0 469.42431127276723 100.65135297369306 0 100.65135297369306 -59.050593617639606 0 0 0 0 154.83752962345443 284.18615597250346 0 284.18615597250346 30.321987856868873 0 0 0 0 73.592627251917293 112.74678365915656 0 112.74678365915656 -259.51935807837253 0 0 0 0 331.91586051613376 328.21107820794168 0 328.21107820794168 492.05404827773418 0 0 0 0 742.85049705775054 455.44281224666429 0 455.44281224666429 73.421586159586695 0 0 0 0 1376.6251322802991 314.03427926174163 0 314.03427926174163 117.90272062267013 0 0 0 0 662.89909575281899 5.040123831822541 0 5.040123831822541 -12.496849236198614 0 0 0 0 646.50180650454422 676.64530434012704 0 676.64530434012704 835.01158182832842 0 0 0 0 539.31501936802488 70.894613308754742 0 70.894613308754742 1033.3271115951186 0 0 0 0 50.068983141367426 35.378832980471998 0 35.378832980471998 103.0700978649802 0 0 0 0 46.114852632848851 61.981303543437207 0 61.981303543437207 213.80074054094257 0 0 0 0 1.7851998350124632 -81.38253638763581 0 -81.38253638763581 371.58610023883466 0 0 0 0 809.17979607650886 -447.10830764191633 0 -447.10830764191633 291.39831702573383 0 0 0 0 147.33677581929078 -174.30632393709584 0 -174.30632393709584 625.43977762850591 0 0 0 0 280.8290403415831 -118.26512652010388 0 -118.26512652010388 129.67948507686651 0 0 0 0 185.85862411912331 -254.61178099618292 0 -254.61178099618292 154.14688849013692 0 0 0 0 35.195611409948469 -142.9513103930658 0 -142.9513103930658 73.014054831279282 0 0 0 0 172.25292047343919 -129.16130032443471 0 -129.16130032443471 -87.396454156680193 0 0 0 0 83.562078312160338 -256.56626815538539 0 -256.56626815538539 -35.438536835838022 0 0 0 0 279.4814367652798 -263.18447475300491 0 -263.18447475300491 79.842505491855718 0 0 0 0 580.8459810873519 -157.26474293334195 0 -157.26474293334195 -156.66077501758809 0 0 0 0 253.15107019102106 -101.21456372071771 0 -101.21456372071771 -165.154160234134 0 0 0 0 364.52553188420086 -113.18942960494257 0 -113.18942960494257 -277.08599985488217 0 0 0 0 182.72433037390147 -75.577891029252896 0 -75.577891029252896 -282.10315665455346 0 0 0 0 221.08943602196814 -109.05554366602155 0 -109.05554366602155 -260.45840812554093 0 0 0 0 262.70736679902984 -47.83159681311372 0 -47.83159681311372 -287.7918293042303 0 0 0 0 61.548496046532819 -148.84596519279967 0 -148.84596519279967 -218.96586068514625 0 0 0 0 233.17294849296559 -234.58389494201401 0 -234.58389494201401 -187.36819134711914 0 0 0 0 136.56396900312393 -196.48064851227264 0 -196.48064851227264 -256.44283631493818 0 0 0 0 -245.06523541681963 -202.47134589159941 0 -202.47134589159941 -113.06887930629637 0 0 0 0 -259.42633372987257 -442.41018225206426 0 -442.41018225206426 -170.80303220910901 0 0 0 0 58.092366012943558 -126.40922634177866 0 -126.40922634177866 -293.52040484147801 0 0 0 0 455.56571039073242 212.94726773219463 0 212.94726773219463 24.61042831996383 0 0 0 0 1.2708997398840438 -176.02530069420754 0 -176.02530069420754 70.255988584794977 0 0 0 0 26.308290683800323 -2.5884524732844003 0 -2.5884524732844003 4.6537026642590291 0 0 0 0 0.72343482085193855 -2.284276948173467 0 -2.284276948173467 0.64174302762239677 0 0 0 0 74.204414988347708 82.29896765112062 0 82.29896765112062 128.45973655279522 0 0 0 0 509.84078494185678 -241.25351091878093 0 -241.25351091878093 -230.07768201016006 0 0 0 0 -288.93645616419599 50.802403325474188 0 50.802403325474188 48.634205054439008 0 0 0 0 166.19585803273003 -135.47259540155392 0 -135.47259540155392 -82.231540356597179 0 0 0 0 -1.7803434474917594 -305.46711823666101 0 -305.46711823666101 -173.81714469620374 0 0 0 0 40.621153466705437 -190.54720806792648 0 -190.54720806792648 -135.01504202265369 0 0 0 0 -108.15674557961574 -242.40520943117554 0 -242.40520943117554 -3.4368350910754089 0 0 0 0 -29.362116961236097 -142.6152073159592 0 -142.6152073159592 109.18761758154142 0 0 0 0 13.383319222317823 -219.46530313705944 0 -219.46530313705944 -24.585007802277687 0 0 0 0 -132.49688456778495 -149.23245945938834 0 -149.23245945938834 -14.531097596496693 0 0 0 0 -28.884298454158852 -147.03186776137954 0 -147.03186776137954 -98.956417352221251 0 0 0 0 -185.81608784571654 -196.39627333994304 0 -196.39627333994304 -80.806114459035598 0 0 0 0 -139.08998650212015 -140.83802628214107 0 -140.83802628214107 -69.425295438334615 0 0 0 0 -158.98904480705824 -96.381431440093365 0 -96.381431440093365 -119.1542433231225 0 0 0 0 -58.495083200488807 -32.546077754139787 0 -32.546077754139787 -8.4776707810069638 0 0 0 0 -181.00369856312682 -72.520600448434379 0 -72.520600448434379 43.585902967682955 0 0 0 0 9.1541021999682926 -102.47334565031065 0 -102.47334565031065 60.370964284196816 0 0 0 0 -47.40181558833865 -58.851607942404371 0 -58.851607942404371 52.497365074133995 0 0 0 0 -10.085332859620394 7.2235409594804878 0 7.2235409594804878 162.60014684656835 0 0 0 0 832.950446199211 -360.07125438751609 0 -360.07125438751609 -366.44539815602911 0 0 0 0 2.7020403531938832 -3.1686674954286964 0 -3.1686674954286964 2.1488076863802306 0 0 0 0 361.90758252689068 42.733314029003566 0 42.733314029003566 8.5251033709719195 0 0 0 0 364.07255999138215 -3.7961582502694 0 -3.7961582502694 8.6029977412617882 0 0 0 0 868.39127616281985 120.75037476275611 0 120.75037476275611 -203.57268509055939 0 0 0 0 -449.64708802623818 -257.92283936051103 0 -257.92283936051103 65.239355256246199 0 0 0 0 -251.69834626135707 -91.975700417030566 0 -91.975700417030566 48.416084365302595 0 0 0 0 -175.95267982707446 -136.41989821532388 0 -136.41989821532388 -12.264500568478979 0 0 0 0 -361.86289220349681 -26.95183297325093 0 -26.95183297325093 -51.27168120785791 0 0 0 0 222.25587773448206 18.365697989012006 0 18.365697989012006 168.32984641047369 0 0 0 0 -160.32526849640999 -107.39246619940423 0 -107.39246619940423 -208.75280773109989 0 0 0 0 -183.01239478207572 -191.90164044799167 0 -191.90164044799167 -163.2572188133563 0 0 0 0 341.09559347878894 151.97383779883967 0 151.97383779883967 117.02315585488213 0 0 0 0 565.9637713519262 6.2635339792345803 0 6.2635339792345803 40.676708144492295 0 0 0 0 543.44187103825061 110.3268630222301 0 110.3268630222301 66.187006708460103 0 0 0 0 94.26608902022781 -83.975617010762107 0 -83.975617010762107 4.6058927032208885 0 0 0 0 540.32970483994598 33.389939120425879 0 33.389939120425879 -106.85980671467405 0 0 0 0 201.26525048614531 203.70606867005154 0 203.70606867005154 68.126263849877432 0 0 0 0 4.1514558171944849 -2.2488029048766052 0 -2.2488029048766052 2.1195669986478833 0 0 0 0 570.92629457861403 -41.766666910983986 0 -41.766666910983986 82.266299187314871 0 0 0 0 0.32059763998405977 -3.932811132021703 0 -3.932811132021703 7.2253257601357319 0 0 0 0 508.27637392760516 18.545732855280221 0 18.545732855280221 74.649172926532401 0 0 0 0 698.49064339697179 -0.25833742285249173 0 -0.25833742285249173 -88.220265003114037 0 0 0 0 22.797840368639299 -76.582967411394748 0 -76.582967411394748 58.223245938439504 0 0 0 0 443.35921250750562 -59.707207499985088 0 -59.707207499985088 -26.416986336145783 0 0 0 0 475.43739409087721 65.657961885952318 0 65.657961885952318 48.565729650820913 0 0 0 0 628.02825377026966 30.960573864536855 0 30.960573864536855 -30.143551719651441 0 0 0 0 -407.98384941319273 -174.71199922807045 0 -174.71199922807045 38.009199856700434 0 0 0 0 215.66912827674264 -93.757257386029153 0 -93.757257386029153 84.05529073013895 0 0 0 0 2.0084040972993353 -8.0325660780063668 0 -8.0325660780063668 5.5652756189165444 0 0 0 0 339.62430306329406 -24.77857505130487 0 -24.77857505130487 -71.741682495341593 0 0 0 0 336.65098137247151 -55.628115751933365 0 -55.628115751933365 31.207364316287567 0 0 0 0 12.990744746998644 103.40113173935788 0 103.40113173935788 -35.731815001106952 0 0 0 0 -43.038363442701666 71.478697748772902 0 71.478697748772902 141.73055060079787 0 0 0 0 72.341292283954317 -312.80874626459627 0 -312.80874626459627 214.40613079568357 0 0 0 0 -6.1737499019263851 71.955746278703373 0 71.955746278703373 11.580143488194153 0 0 0 0 -254.11229624436533 -109.04381582645544 0 -109.04381582645544 17.388221099914517 0 0 0 0 681.9697490546223 -177.56615531819989 0 -177.56615531819989 -64.584454884354273 0 0 0 0 431.95307819760274 -117.98178769279548 0 -117.98178769279548 -35.4012729646347 0 0 0 0 -232.97581071075547 222.563864257143 0 222.563864257143 43.032584284308541 0 0 0 0 -567.40476403833236 187.27743956115592 0 187.27743956115592 151.39418276556535 0 0 0 0 -10.095445245785186 -19.672290685418155 0 -19.672290685418155 11.144085375772441 0 0 0 0 101.56877573151723 -70.899451722492813 0 -70.899451722492813 -150.88299210232799 0 0 0 0 63.132246555030861 -77.456702083870397 0 -77.456702083870397 13.935727408268576 0 0 0 0 89.315073112474778 -13.393614806672785 0 -13.393614806672785 0.48970679602222766 0 0 0 0 81.251960878042155 -22.103167931290955 0 -22.103167931290955 -63.362655248085503 0 0 0 0 46.88074201789459 -76.121066758155848 0 -76.121066758155848 17.368619613484043 0 0 0 0 37.936144291097904 -20.18690691893076 0 -20.18690691893076 20.053797771516354 0 0 0 0 1138.9596566966884 -225.3621330602964 0 -225.3621330602964 -397.2192258708983 0 0 0 0 -29.417828740879486 -65.822429214180374 0 -65.822429214180374 13.176637516489791 0 0 0 0 26.503383486491657 -58.030300146095215 0 -58.030300146095215 8.9727158375972067 0 0 0 0 9.9779684614950384 -29.01705102037522 0 -29.01705102037522 -4.5117468282442132 0 0 0 0 99.9376218295466 -1.9426176770019339 0 -1.9426176770019339 -5.2726102642121475 0 0 0 0 130.36695361834973 -11.399640023707889 0 -11.399640023707889 18.829600501263485 0 0 0 0 143.33895952764578 0.17540414307222818 0 0.17540414307222818 -15.784311365570829 0 0 0 0 104.68715302431519 41.28517162724529 0 41.28517162724529 48.525786472584514 0 0 0 0 80.054261645806037 102.51114633959969 0 102.51114633959969 49.306920039722172 0 0 0 0 34.108498765489351 5.0971870017957528 0 5.0971870017957528 -1.3732917555048125 0 0 0 0 84.224616808405699 -21.491929243008599 0 -21.491929243008599 35.012759943147103 0 0 0 0 -13.571887526641603 -341.52852311863933 0 -341.52852311863933 -31.501677060092334 0 0 0 0 109.41803118863595 -6.5926010469959735 0 -6.5926010469959735 -5.6676178488954836 0 0 0 0 154.58001371051068 1.962864376786456 0 1.962864376786456 -91.780893318548806 0 0 0 0 26.336723680432915 1.9918963817031683 0 1.9918963817031683 1.11902141007387 0 0 0 0 175.28582966530303 63.327696235706753 0 63.327696235706753 -100.45843194160261 0 0 0 0 174.84809544260679 15.105985265326126 0 15.105985265326126 -34.68186891480218 0 0 0 0 61.466822677082291 -198.39481548744607 0 -198.39481548744607 -303.02744890358917 0 0 0 0 242.92457329270837 19.433480967069045 0 19.433480967069045 -14.334268523692117 0 0 0 0 238.92273327931434 63.654166507730679 0 63.654166507730679 -79.993932378672071 0 0 0 0 15.091206939107437 -14.123386379735258 0 -14.123386379735258 11.743964655113537 0 0 0 0 143.56505167764044 152.66077681679462 0 152.66077681679462 149.35747304433607 0 0 0 0 201.8945856693972 136.71227444266606 0 136.71227444266606 11.126235719974829 0 0 0 0 -16.102913324233668 20.696878105369251 0 20.696878105369251 19.060152389090945 0 0 0 0 -58.634825999681198 -0.21225745352421654 0 -0.21225745352421654 26.960267730768464 0 0 0 0 167.34090873286732 125.38132541877121 0 125.38132541877121 251.12384675773137 0 0 0 0 415.64310586316424 408.31358343013721 0 408.31358343013721 199.31586881455223 0 0 0 0 29.032189893368923 13.768805727654581 0 13.768805727654581 89.696927734836208 0 0 0 0 5.4407279852300761 -3.7837873544394256 0 -3.7837873544394256 3.817088531199623 0 0 0 0 -52.296018108772842 -65.290135378185823 0 -65.290135378185823 -39.187643494464282 0 0 0 0 34.266532411294065 9.4013614793132092 0 9.4013614793132092 -51.155630781837317 0 0 0 0 -65.177312112689833 -19.664466527770855 0 -19.664466527770855 -104.0361567553191 0 0 0 0 -150.34633861913244 -68.929416318757831 0 -68.929416318757831 -46.549771109303038 0 0 0 0 -117.903552757336 -106.6829756470197 0 -106.6829756470197 -170.28878151773279 0 0 0 0 -134.55255543300882 -145.04682183205227 0 -145.04682183205227 -132.22616966380519 0 0 0 0 -106.65400965961453 -164.42757433455108 0 -164.42757433455108 -121.93991598076173 0 0 0 0 -77.308173061392154 -131.67291134642801 0 -131.67291134642801 -157.08209181878283 0 0 0 0 -83.590138945379294 -103.95624687084091 0 -103.95624687084091 -22.151931659893307 0 0 0 0 -2.5519700674703927 -108.59318422153137 0 -108.59318422153137 -93.889841689293462 0 0 0 0 13.701322678257895 -140.16618246433987 0 -140.16618246433987 -35.980086831346853 0 0 0 0 13.262353427536368 -63.169225339835791 0 -63.169225339835791 -6.4465047322883038 0 0 0 0 -84.926357703508984 -51.671486627315971 0 -51.671486627315971 5.1466917328398267 0 0 0 0 -54.586848716564418 -62.513295549117174 0 -62.513295549117174 -62.351921628117452 0 0 0 0 266.8126875477501 -32.477022654306893 0 -32.477022654306893 -59.636523849201694 0 0 0 0 255.13777421266968 -71.144303749286792 0 -71.144303749286792 -166.45056951957486 0 0 0 0 66.631419927030947 -242.82894331930765 0 -242.82894331930765 -147.67778917111173 0 0 0 0 277.64195865673901 -113.33668084175451 0 -113.33668084175451 -97.526920989235805 0 0 0 0 -20.391433425145806 -115.3179379856374 0 -115.3179379856374 -44.919806427734329 0 0 0 0 368.0182286591953 -201.31184056996062 0 -201.31184056996062 -240.88813719607424 0 0 0 0 -95.902749345176744 -369.64077409753713 0 -369.64077409753713 -300.42137130989977 0 0 0 0 248.75173474519397 59.102102076818483 0 59.102102076818483 23.781171526053186 0 0 0 0 472.92418418999478 36.263343675839678 0 36.263343675839678 -127.56348743299168 0 0 0 0 90.935292872614809 62.901893160526015 0 62.901893160526015 -30.676780748382953 0 0 0 0 12.088880987922522 8.3893142854833016 0 8.3893142854833016 -21.587520356650909 0 0 0 0 253.55735720260873 76.349793791376726 0 76.349793791376726 -46.207794353267673 0 0 0 0 163.41619171916318 -67.81285003392054 0 -67.81285003392054 89.136739621549168 0 0 0 0 -0.92252158094197512 11.899994626958687 0 11.899994626958687 -1.9069947998864336 0 0 0 0 0.32901213071497182 1.2512047307195218 0 1.2512047307195218 -1.1113741830127246 0 0 0 0 -13.876045601469741 34.126946318150203 0 34.126946318150203 -40.045825099261492 0 0 0 0 168.70184527293168 -89.294367696030349 0 -89.294367696030349 12.027031155554141 0 0 0 0 11.338586125445445 7.2494831391174159 0 7.2494831391174159 -26.957283705984636 0 0 0 0 241.76950646896876 -71.940731282300476 0 -71.940731282300476 -76.355484093058749 0 0 0 0 140.81349602510545 10.990005753413357 0 10.990005753413357 -68.476823827695625 0 0 0 0 23.518591694235511 -35.375088783015599 0 -35.375088783015599 -10.609570541779249 0 0 0 0 21.181565493477272 1.8559364869715544 0 1.8559364869715544 -17.306098520830481 0 0 0 0 24.556167202050005 22.598989806856778 0 22.598989806856778 -55.001638728218495 0 0 0 0 163.34585026821151 -88.180960625078157 0 -88.180960625078157 -27.196960488254547 0 0 0 0 46.655048343302042 30.924595665797256 0 30.924595665797256 22.403753742888284 0 0 0 0 139.03074695069881 8.731525126946849 0 8.731525126946849 -18.12137072651592 0 0 0 0 17.915118102980117 1.7740143102824248 0 1.7740143102824248 -24.494813890919154 0 0 0 0 43.516447001726192 -1.8392228098550731 0 -1.8392228098550731 -11.38559388652402 0 0 0 0 17.883301705783595 -1.5692796039440111 0 -1.5692796039440111 -26.19000168722382 0 0 0 0 127.54935917840339 -147.51650377663009 0 -147.51650377663009 6.6343636013448304 0 0 0 0 207.94814778698492 -65.891613764741123 0 -65.891613764741123 -1.4247268236504169 0 0 0 0 191.41056366491466 -98.091500950321006 0 -98.091500950321006 -41.235459714600438 0 0 0 0 105.37717179136234 -88.457343704945743 0 -88.457343704945743 31.468812357534262 0 0 0 0 111.44807510429382 -97.210889422502078 0 -97.210889422502078 -23.511494083220896 0 0 0 0 125.06899841647828 -141.25540228741556 0 -141.25540228741556 -68.373172455606436 0 0 0 0 84.064024080827949 -118.89944571224714 0 -118.89944571224714 -8.7599926403636346 0 0 0 0 230.71852906337881 -140.69809243135023 0 -140.69809243135023 -22.849744737875881 0 0 0 0 18.992001124143933 -3.6043673433164329 0 -3.6043673433164329 0.66630704470151869 0 0 0 0 63.587333673061039 -71.033643963376221 0 -71.033643963376221 11.832544225515448 0 0 0 0 289.40605788359244 -84.751986194506571 0 -84.751986194506571 -35.667382506795548 0 0 0 0 148.64216109724657 -138.14144121522259 0 -138.14144121522259 35.690155211867477 0 0 0 0 197.91581829507049 -74.781225369402819 0 -74.781225369402819 -43.196475776727311 0 0 0 0 173.5519522120012 -99.034219955512526 0 -99.034219955512526 5.793999310790241 0 0 0 0 82.181416914449073 -27.307024346933758 0 -27.307024346933758 -35.012768948537996 0 0 0 0 96.028762136818841 -67.683996399457101 0 -67.683996399457101 -26.636415480214055 0 0 0 0 241.08830796637631 -83.400249827071093 0 -83.400249827071093 -76.842852298039361 0 0 0 0 151.45867259733495 -116.58483364588028 0 -116.58483364588028 74.366685188775591 0 0 0 0 38.124778638361022 -39.230306009674678 0 -39.230306009674678 -16.887399003753671 0 0 0 0 100.58384347362613 -54.36803339099383 0 -54.36803339099383 19.596074255507702 0 0 0 0 148.08381867568824 -121.668876615302 0 -121.668876615302 42.570664819708327 0 0 0 0 -553.72623687457781 -281.83468711384808 0 -281.83468711384808 -34.053157693630055 0 0 0 0 32.699705534315399 -0.38192309445651063 0 -0.38192309445651063 -14.981819143503103 0 0 0 0 225.721299844241 -140.35473282318435 0 -140.35473282318435 7.6995098436163971 0 0 0 0 208.20692331109603 16.201082864276032 0 16.201082864276032 20.789593108012923 0 0 0 0 38.164432229208977 -33.449416613599496 0 -33.449416613599496 4.3951550824048624 0 0 0 0 23.756882916597533 -13.837415852496633 0 -13.837415852496633 -8.4025983722385718 0 0 0 0 -5.3033497414000976 -127.56606169218389 0 -127.56606169218389 0.69558358869107906 0 0 0 0 66.587134165377321 -30.411381257916965 0 -30.411381257916965 -1.6807364641248412 0 0 0 0 114.19011189239976 -64.710785677834764 0 -64.710785677834764 -0.013689597719785951 0 0 0 0 -82.926379339969571 -170.79334067343734 0 -170.79334067343734 -98.172819030132814 0 0 0 0 -6.6191900439443998 -45.708903790589829 0 -45.708903790589829 30.800795587609173 0 0 0 0 -33.590043644708203 -155.81173649074481 0 -155.81173649074481 45.13581860848717 0 0 0 0 -2.5431603604192787 -102.61684722829523 0 -102.61684722829523 -40.809804245840496 0 0 0 0 75.458464980593817 -45.90901827554012 0 -45.90901827554012 30.43515437944734 0 0 0 0 60.363982425486029 -17.084204024034989 0 -17.084204024034989 -14.229941337740456 0 0 0 0 104.06071982648064 -11.335731309319158 0 -11.335731309319158 -60.594161760494444 0 0 0 0 45.091138158851955 4.608738119038513 0 4.608738119038513 -35.782779794149462 0 0 0 0 31.737479807193509 -16.230689055231828 0 -16.230689055231828 -28.493640963255753 0 0 0 0 92.239453626862087 4.5100793053674124 0 4.5100793053674124 -78.797449539564695 0 0 0 0 29.974874502478997 -8.2773258047313902 0 -8.2773258047313902 -13.766721184604648 0 0 0 0 67.558556595027767 13.206474897691805 0 13.206474897691805 -41.455277409957489 0 0 0 0 24.749553228188127 -13.354366761376777 0 -13.354366761376777 -6.7715824435347649 0 0 0 0 48.476139387655621 -19.823753586081921 0 -19.823753586081921 -4.9302780665557293 0 0 0 0 42.213855091444202 6.3940018916171084 0 6.3940018916171084 -2.4274767200265615 0 0 0 0 26.466424561559563 -2.3910877105343076 0 -2.3910877105343076 -11.380523837365079 0 0 0 0 35.388838567953698 2.8852757161725862 0 2.8852757161725862 -8.0771369365813275 0 0 0 0 51.775151824757359 -0.40524562473319747 0 -0.40524562473319747 -18.585124297407674 0 0 0 0 30.530346012033988 -1.5095828949615679 0 -1.5095828949615679 -44.940137042400238 0 0 0 0 15.580641260632547 -11.43728021141942 0 -11.43728021141942 -20.152026532196032 0 0 0 0 21.664005841775296 -18.30920391859987 0 -18.30920391859987 -23.811252190003643 0 0 0 0 71.88956658347719 -13.49458076072119 0 -13.49458076072119 -16.520875230367249 0 0 0 0 38.022027640545275 -3.3183272045680496 0 -3.3183272045680496 -36.381667467823718 0 0 0 0 28.546711050149341 -2.2052261159034039 0 -2.2052261159034039 -18.039417785126457 0 0 0 0 38.685407867422327 -10.552435056750255 0 -10.552435056750255 -18.958131801664649 0 0 0 0 -41.504731606692076 -101.07741878847082 0 -101.07741878847082 136.8818093678492 0 0 0 0 -0.52080531180416045 -17.434178741572662 0 -17.434178741572662 -1.0327379886404502 0 0 0 0 28.387545098257306 -67.636048948771077 0 -67.636048948771077 -5.4949088168650633 0 0 0 0 12.378796664408583 -74.104074581769964 0 -74.104074581769964 -30.146343738932046 0 0 0 0 47.954377816087799 -8.763649536689627 0 -8.763649536689627 -3.8416376301120181 0 0 0 0 49.554925207925407 -35.641295260793413 0 -35.641295260793413 -2.3070557155222673 0 0 0 0 33.936315475156078 -53.899315504474373 0 -53.899315504474373 -8.3456863060222872 0 0 0 0 44.297988580314268 -32.278861995582702 0 -32.278861995582702 -23.552231367153581 0 0 0 0 39.935499315136134 -35.529945287970676 0 -35.529945287970676 -32.486630533964878 0 0 0 0 53.740116389065491 -8.7536079176497239 0 -8.7536079176497239 -35.358459826242864 0 0 0 0 62.951816772751044 -12.454662026968435 0 -12.454662026968435 -35.660153835196979 0 0 0 0 72.486647411518788 -23.115473377649323 0 -23.115473377649323 -38.252646492648637 0 0 0 0 61.273984926810954 -22.962471606257168 0 -22.962471606257168 -36.600947151637229 0 0 0 0 60.084332555773912 -19.791812757465937 0 -19.791812757465937 -19.491657078533386 0 0 0 0 54.516010073275538 -19.100202651909058 0 -19.100202651909058 -25.881843321236374 0 0 0 0 26.613945105485975 -17.746926963697351 0 -17.746926963697351 -26.934900052688871 0 0 0 0 12.76681858064509 -8.9498784045646715 0 -8.9498784045646715 -10.438990819048477 0 0 0 0 15.159772220271407 -14.062522211308533 0 -14.062522211308533 -25.065337626534074 0 0 0 0 72.612522433537535 -16.448861793702068 0 -16.448861793702068 -13.5457668781977 0 0 0 0 23.042139404730268 -15.208970586928476 0 -15.208970586928476 -3.6041945647302001 0 0 0 0 32.287033569174838 2.0597350953653319 0 2.0597350953653319 -7.1624820278339065 0 0 0 0 6.083247789766979 -19.217923727487442 0 -19.217923727487442 -8.1344750896517688 0 0 0 0 43.195088932430735 -23.554187770039789 0 -23.554187770039789 -2.2708108436891052 0 0 0 0 15.046829184122988 -3.998857472139635 0 -3.998857472139635 -8.3971740215604136 0 0 0 0 66.415281340056026 -14.286822507539 0 -14.286822507539 -5.665280642304424 0 0 0 0 7.284019024721065 -16.491759062017664 0 -16.491759062017664 0.187485540853082 0 0 0 0 40.266101965733469 -26.121502946991313 0 -26.121502946991313 -2.8985975103228157 0 0 0 0 5.7775335862372206 -8.8046611041251914 0 -8.8046611041251914 -5.3302079991552382 0 0 0 0 26.619596046435163 -1.9379981551528545 0 -1.9379981551528545 -7.5470012755461084 0 0 0 0 67.625683540244609 -20.261703895564665 0 -20.261703895564665 -15.086036032182164 0 0 0 0 28.554259356050352 -4.5826403517648941 0 -4.5826403517648941 -10.975518267601615 0 0 0 0 7.1358213398527948 -2.810477257886852 0 -2.810477257886852 -2.6533844696656033 0 0 0 0 40.402669921566485 -13.590126346859051 0 -13.590126346859051 -1.72302586994374 0 0 0 0 68.56878571950574 -16.325864758147418 0 -16.325864758147418 -14.981448907738013 0 0 0 0 6.5897415006836129 -14.997248237382964 0 -14.997248237382964 -2.0222669137193385 0 0 0 0 51.020778113560482 -14.527522204848538 0 -14.527522204848538 -4.7494978023132717 0 0 0 0 8.7777801791835302 -5.2776478581215223 0 -5.2776478581215223 -9.0814058303955569 0 0 0 0 24.825430864814226 -9.0907701747690854 0 -9.0907701747690854 -0.6793919938175681 0 0 0 0 29.542557408864013 -1.965343403408724 0 -1.965343403408724 1.7283149051771716 0 0 0 0 41.903445552217136 -28.113267208443318 0 -28.113267208443318 -5.2818853795654377 0 0 0 0 33.541011859615537 -3.8159510360300999 0 -3.8159510360300999 -16.368286449701145 0 0 0 0 19.927244375483269 -20.337188620792745 0 -20.337188620792745 -15.896293934001733 0 0 0 0 19.225166857908615 -7.7121094832672457 0 -7.7121094832672457 -15.37795040921119 0 0 0 0 37.169969058245897 6.2855179704496891 0 6.2855179704496891 -7.3808108097162304 0 0 0 0 23.363087523677638 3.1187060545859167 0 3.1187060545859167 -8.3231844527083432 0 0 0 0 27.954957059014575 -5.0095377209482326 0 -5.0095377209482326 -10.970204420136644 0 0 0 0 19.355115508464223 -5.8806251304804391 0 -5.8806251304804391 4.0738710600680861 0 0 0 0 43.216805365409527 -1.2390710971826593 0 -1.2390710971826593 -7.6414014711858727 0 0 0 0 34.240035527619057 1.6434100783672818 0 1.6434100783672818 -0.22493741911051757 0 0 0 0 25.714750629921067 -1.3348265556277781 0 -1.3348265556277781 1.3678753721676618 0 0 0 0 18.481152146213265 -5.1962687934596428 0 -5.1962687934596428 -4.1264292084168597 0 0 0 0 34.713433519972114 -6.5328597731642351 0 -6.5328597731642351 -5.7955621497926586 0 0 0 0 35.039940720104255 7.399272733556943 0 7.399272733556943 -6.6044767702758236 0 0 0 0 26.168810130243088 -1.6119783608884348 0 -1.6119783608884348 -1.4305292335097182 0 0 0 0 25.494013488782187 -3.8987421713516284 0 -3.8987421713516284 -7.5740097015424812 0 0 0 0 41.748256276721804 4.8592995088515636 0 4.8592995088515636 -10.955381657363887 0 0 0 0 71.97651928103005 -6.2459125342271022 0 -6.2459125342271022 -59.966208374913094 0 0 0 0 35.563512578362861 -62.884227515240354 0 -62.884227515240354 -16.261929909973787 0 0 0 0 45.563235366746085 34.564652883707367 0 34.564652883707367 -53.961402888362954 0 0 0 0 9.2761142566099082 3.3365231662360628 0 3.3365231662360628 -0.91291867124689929 0 0 0 0 -6.3363308973239327 -85.639583130783876 0 -85.639583130783876 -99.665021161054938 0 0 0 0 65.19144269406388 -79.22920038837978 0 -79.22920038837978 -45.898232130081851 0 0 0 0 66.080201801640214 -40.147050432302763 0 -40.147050432302763 -154.71884860108827 0 0 0 0 170.00677892319982 108.33424915219723 0 108.33424915219723 -123.65178353723832 0 0 0 0 2.6918573967394366 0.96007546023994905 0 0.96007546023994905 0.41647902542168347 0 0 0 0 0.49212600408645812 34.127407627208413 0 34.127407627208413 55.448252699405373 0 0 0 0 21.530285115877632 21.873565702442534 0 21.873565702442534 -70.626787762558138 0 0 0 0 38.89153531361444 140.70730020610347 0 140.70730020610347 70.302815828122675 0 0 0 0 43.988618064169714 -13.601864901726316 0 -13.601864901726316 -57.056879811255612 0 0 0 0 4.0019663721067564 1.3129746981936918 0 1.3129746981936918 -1.2004232345473604 0 0 0 0 52.010033658900284 -2.1728360986049466 0 -2.1728360986049466 -0.81891956123512433 0 0 0 0 52.620337090307302 -0.245255844153212 0 -0.245255844153212 -3.4433806602993964 0 0 0 0 65.451906160451472 3.1142980903541684 0 3.1142980903541684 -0.65350928830548582 0 0 0 0 28.002129899305565 8.4034671269658361 0 8.4034671269658361 -4.1197840089158726 0 0 0 0 73.577966905688754 -9.7566534189777911 0 -9.7566534189777911 3.6276144021949221 0 0 0 0 22.817054749756082 3.6293116981899178 0 3.6293116981899178 -2.7112674877571097 0 0 0 0 129.58218514858163 43.393921540347492 0 43.393921540347492 -186.78210656168244 0 0 0 0 29.651413961574065 4.1423829987715433 0 4.1423829987715433 -0.51293428309473466 0 0 0 0 -62.613044095705845 108.32346159844519 0 108.32346159844519 -14.808215667625518 0 0 0 0 10.64150502386012 -1.1195770101324563 0 -1.1195770101324563 -5.4843637894436323 0 0 0 0 45.53278995927576 1.6888768254850817 0 1.6888768254850817 -3.173843920051354 0 0 0 0 46.468257400073981 4.7978562712184853 0 4.7978562712184853 -0.35400633917436153 0 0 0 0 35.327054756118741 -5.942533742069493 0 -5.942533742069493 -3.0483161472429012 0 0 0 0 52.31980817713702 1.4053584563982753 0 1.4053584563982753 -3.354607884128697 0 0 0 0 60.53724533876175 3.5118453072436253 0 3.5118453072436253 -4.1473207445652207 0 0 0 0 13.226250339497646 -1.1787020893124911 0 -1.1787020893124911 -1.3078544825854033 0 0 0 0 52.671316716689944 4.0192111437146991 0 4.0192111437146991 2.0097968937949418 0 0 0 0 64.091527961624706 -4.3845268036269829 0 -4.3845268036269829 -0.80953266124083711 0 0 0 0 36.649861861484673 9.4553720210470207 0 9.4553720210470207 -2.1168290971433055 0 0 0 0 10.373271570855188 0.38194221356829505 0 0.38194221356829505 -0.002667951624541684 0 0 0 0 10.188509014983644 -0.74997011269909519 0 -0.74997011269909519 4.2069927543563326 0 0 0 0 51.21797121014788 -1.4193540650603644 0 -1.4193540650603644 6.2896568195274014 0 0 0 0 52.695159818300453 5.5030042285245884 0 5.5030042285245884 2.0822516775740798 0 0 0 0 29.74036853195879 -4.8605028824113141 0 -4.8605028824113141 0.97056786723836252 0 0 0 0 26.251350304426118 4.1631592185450002 0 4.1631592185450002 0.12950560992020077 0 0 0 0 17.157144551183592 -2.4731634676927285 0 -2.4731634676927285 0.79265164929961429 0 0 0 0 19.571766676678322 3.5657095787318358 0 3.5657095787318358 3.3597997652326836 0 0 0 0 53.150486407419521 2.2109145090335751 0 2.2109145090335751 0.77119456167439537 0 0 0 0 26.83533077912125 2.7183395020405214 0 2.7183395020405214 0.70343382937790011 0 0 0 0 23.854752060498473 -8.6258971699084359 0 -8.6258971699084359 -0.57024898764636811 0 0 0 0 41.468772720449124 4.4134185109169124 0 4.4134185109169124 2.2074142436978406 0 0 0 0 1504.4941583078248 -610.20191078564733 0 -610.20191078564733 57.687890765639906 0 0 0 0 25.947692749686098 8.1279287091952046 0 8.1279287091952046 -7.0960965509486371 0 0 0 0 1505.6202348681709 -589.84317658064856 0 -589.84317658064856 201.41369356891562 0 0 0 0 755.4396710574847 -273.7538713376203 0 -273.7538713376203 262.95527629836658 0 0 0 0 1053.6237366947989 -438.87901051019048 0 -438.87901051019048 154.64719743747614 0 0 0 0 22.660287533849047 5.4617855915378071 0 5.4617855915378071 -1.0213711168652402 0 0 0 0 -48.055228443039596 -63.126155300296112 0 -63.126155300296112 -59.301769813314948 0 0 0 0 -25.099835184861149 5.9981991854268664 0 5.9981991854268664 72.249064652442996 0 0 0 0 11.609750196389431 5.0382492367360623 0 5.0382492367360623 0.46993836050490823 0 0 0 0 415.9699252190585 240.72584820548585 0 240.72584820548585 -191.54814826817736 0 0 0 0 11.659980672666448 0.38823983661096939 0 0.38823983661096939 -0.65909373323811371 0 0 0 0 -50.762914230763272 0.64461390361435278 0 0.64461390361435278 138.01896879577646 0 0 0 0 3494.7787947817487 -1925.9613370038335 0 -1925.9613370038335 791.36514068440101 0 0 0 0 193.30410355985987 -853.25796997669113 0 -853.25796997669113 320.8912926521316 0 0 0 0 3472.3254439653847 139.01390526800267 0 139.01390526800267 -220.14827630001224 0 0 0 0 16.927577429494871 5.529073751817295 0 5.529073751817295 -0.85491878321479686 0 0 0 0 401.54781594527344 356.63906522944797 0 356.63906522944797 224.99368930011724 0 0 0 0 4.3278114499638889 8.234639449991592 0 8.234639449991592 0.25357625060736089 0 0 0 0 1195.5936857696324 2417.7076890573289 0 2417.7076890573289 1563.7999725874663 0 0 0 0 6.8396966573995854 1.1427836686283284 0 1.1427836686283284 2.3146629167235884 0 0 0 0 14.48597496815637 7.8956912301277953 0 7.8956912301277953 -4.6972028250254425 0 0 0 0 51.075706092310838 1.6445632276460884 0 1.6445632276460884 -0.039777833303332955 0 0 0 0 102.41622508972432 19.907908124008223 0 19.907908124008223 -153.23684542646777 0 0 0 0 30.012245331697997 -0.36886140441119863 0 -0.36886140441119863 -1.9788552813046814 0 0 0 0 22.578755445290881 8.3125127166943003 0 8.3125127166943003 -3.0619158691577013 0 0 0 0 28.496236198754559 6.5356759638210455 0 6.5356759638210455 -5.2680281450476514 0 0 0 0 22.931970041091134 5.9415800277644104 0 5.9415800277644104 0.29090683936124734 0 0 0 0 57.578678420031792 13.244252280508576 0 13.244252280508576 -60.53803064177157 0 0 0 0 17.128635026363021 19.491861519722796 0 19.491861519722796 -1.0620993403307639 0 0 0 0 43.551631952424941 19.516628899266834 0 19.516628899266834 30.794885831237849 0 0 0 0 33.486316999825561 3.4485677144109488 0 3.4485677144109488 -5.5550962669332051 0 0 0 0 1376.1268293748053 517.72810281115119 0 517.72810281115119 266.88579965166684 0 0 0 0 3495.4732267985 1033.0429652898808 0 1033.0429652898808 -310.7693173156527 0 0 0 0 1551.4401820636231 179.95568843588853 0 179.95568843588853 -98.206357134199138 0 0 0 0 2013.2818526239198 -218.99040691108087 0 -218.99040691108087 -316.33776525526696 0 0 0 0 3499.5438764052815 -439.81070558007031 0 -439.81070558007031 -318.82516872082243 0 0 0 0 11.985849141773681 15.824890298103206 0 15.824890298103206 -0.11536542662302812 0 0 0 0 2921.2125289332653 -722.81064538252838 0 -722.81064538252838 164.30254530870877 0 0 0 0 -27.777377457538023 182.61055992040309 0 182.61055992040309 -149.59816793070877 0 0 0 0 91.249476168635738 100.24154646501567 0 100.24154646501567 -119.04121583009575 0 0 0 0 72.199093106675718 -8.0084242254697813 0 -8.0084242254697813 -104.40079223169039 0 0 0 0 -48.559778462959002 61.36800451036693 0 61.36800451036693 -70.130514987396737 0 0 0 0 140.44509382937758 -6.6446709810275308 0 -6.6446709810275308 -116.21522948673282 0 0 0 0 71.900625107515225 56.528679040263768 0 56.528679040263768 -136.85360704713059 0 0 0 0 111.81226930265257 -1.3636275798213777 0 -1.3636275798213777 -14.989580934152031 0 0 0 0 39.379574554288411 -62.620812973783657 0 -62.620812973783657 -65.344434129555751 0 0 0 0 187.56773334302488 -164.1724787696495 0 -164.1724787696495 33.567826795368681 0 0 0 0 22.885744951299273 5.2125083969235568 0 5.2125083969235568 -13.521226288062522 0 0 0 0 7.0064941029295369 33.803567365820129 0 33.803567365820129 -34.639983434595706 0 0 0 0 144.04636822970224 -104.55977710068366 0 -104.55977710068366 127.63440471158867 0 0 0 0 -397.32584929397126 653.84017244383358 0 653.84017244383358 -28.796873887439531 0 0 0 0 3499.8699832192938 -969.61263108320156 0 -969.61263108320156 260.69247839069834 0 0 0 0 6.6781524482816792 5.5725871248788152 0 5.5725871248788152 0.1222030997363043 0 0 0 0 315.05388336591386 -32.403280010144968 0 -32.403280010144968 -189.55792209350807 0 0 0 0 138.13091632336727 -495.67647121417394 0 -495.67647121417394 1229.2481649591355 0 0 0 0 6.0633251402822808 -1.7118220666656008 0 -1.7118220666656008 7.828503761369717 0 0 0 0 330.8365765113922 -488.54104138794537 0 -488.54104138794537 954.58631175334585 0 0 0 0 -463.51637419318286 347.59269497635069 0 347.59269497635069 651.80593701979637 0 0 0 0 -54.431763874056742 1045.9669059413627 0 1045.9669059413627 -248.21474536133428 0 0 0 0 436.06635412085734 368.00591625167783 0 368.00591625167783 -253.40712289300063 0 0 0 0 246.17708445788776 -58.861438171373266 0 -58.861438171373266 -31.722205401453721 0 0 0 0 1.0812898698531157 -2.4966475554621157 0 -2.4966475554621157 -5.1621215040567101 0 0 0 0 987.92444668085045 -599.37987389819205 0 -599.37987389819205 -261.32318000191117 0 0 0 0 209.64853116313316 279.90371650720726 0 279.90371650720726 -596.49787574965285 0 0 0 0 -7.8838061031547468 -10.808755168300266 0 -10.808755168300266 -12.848745071890612 0 0 0 0 241.01495965107824 -483.62504410419194 0 -483.62504410419194 61.786733638463033 0 0 0 0 375.94980359066176 -321.7853567686426 0 -321.7853567686426 248.60429969778431 0 0 0 0 375.98338955229701 -444.87156227491107 0 -444.87156227491107 202.59055776709238 0 0 0 0 11.755783481804798 9.7891735792743813 0 9.7891735792743813 12.568860734569604 0 0 0 0 23.201161630939168 -18.092720154914787 0 -18.092720154914787 -23.023885783921287 0 0 0 0 5.4535299241467428 2.8948842886679778 0 2.8948842886679778 -2.7310186462240367 0 0 0 0 4.418296918811393 -52.136292295861494 0 -52.136292295861494 98.981553209814592 0 0 0 0 121.03674957063595 -85.453095093495676 0 -85.453095093495676 52.996406793734423 0 0 0 0 148.14994110716361 -499.73695614583175 0 -499.73695614583175 449.53034864402889 0 0 0 0 14.043300622376194 1.3081305267341481 0 1.3081305267341481 5.9944878608558945 0 0 0 0 82.25993614258914 111.78488664917131 0 111.78488664917131 -60.809796800265758 0 0 0 0 103.39861879098453 -98.649730033559138 0 -98.649730033559138 -102.71259131183615 0 0 0 0 211.86210707718055 104.28633810920019 0 104.28633810920019 66.223714082066181 0 0 0 0 375.46365235434496 -122.73652807810868 0 -122.73652807810868 51.927701179665746 0 0 0 0 43.957508381093291 -12.34231122822899 0 -12.34231122822899 8.7569321039527743 0 0 0 0 73.107762592976087 -69.050220678026562 0 -69.050220678026562 25.827590992292244 0 0 0 0 109.8206877863413 -22.064543024891464 0 -22.064543024891464 -11.956577265758824 0 0 0 0 110.74295538871229 -19.169417224631616 0 -19.169417224631616 -19.412531041880356 0 0 0 0 -242.11961929354584 70.954402711715375 0 70.954402711715375 72.928350655036411 0 0 0 0 61.607682887583749 -12.595105606858688 0 -12.595105606858688 0.57020489246867356 0 0 0 0 4.3353914180518984 -0.69411040688705583 0 -0.69411040688705583 1.0958151661879576 0 0 0 0 -17.52780632552458 26.996729448985207 0 26.996729448985207 317.31270771598065 0 0 0 0 58.963796071862816 213.36871433022952 0 213.36871433022952 628.87202203474953 0 0 0 0 139.90758484761318 257.90034735505378 0 257.90034735505378 564.82031881556395 0 0 0 0 490.0663137671836 772.73371873543692 0 772.73371873543692 977.08622226551483 0 0 0 0 -123.78320164315937 163.25506623218826 0 163.25506623218826 1016.3870124781279 0 0 0 0 111.7629890123826 -89.993690706383859 0 -89.993690706383859 45.141704192468751 0 0 0 0 6.5995068126626393 4.284438302238458 0 4.284438302238458 4.3332161388687283 0 0 0 0 936.00653757710779 -731.10364833337405 0 -731.10364833337405 439.66312522497537 0 0 0 0 860.35235562686648 52.329895780503648 0 52.329895780503648 24.355697508166486 0 0 0 0 22.016192976947416 8.7250737748764617 0 8.7250737748764617 9.6860278664358788 0 0 0 0 84.716554655395385 164.89352070043361 0 164.89352070043361 -82.989469109619677 0 0 0 0 1530.874418696736 -659.56001579545773 0 -659.56001579545773 235.01232336535304 0 0 0 0 1039.1412855319313 535.86309542616868 0 535.86309542616868 778.25149118039371 0 0 0 0 328.63379430754867 -0.6728597083420027 0 -0.6728597083420027 1367.7390035837507 0 0 0 0 1479.7161717595618 335.91067104104877 0 335.91067104104877 459.38300553045701 0 0 0 0 968.73311252690473 -376.42339125950275 0 -376.42339125950275 882.46801359422898 0 0 0 0 322.04721034533395 -214.46687747666601 0 -214.46687747666601 672.34145381853273 0 0 0 0 278.70603253372246 182.32101091017921 0 182.32101091017921 709.10099486245667 0 0 0 0 72.064788848245371 151.0562955740661 0 151.0562955740661 514.21046671201975 0 0 0 0 39.002726914632149 17.268240518106722 0 17.268240518106722 586.22721652225755 0 0 0 0 176.47696077075307 271.42296385745249 0 271.42296385745249 461.76491336356548 0 0 0 0 59.727268363299117 109.66152292909828 0 109.66152292909828 422.33724163917941 0 0 0 0 92.301018145328726 80.664436046669607 0 80.664436046669607 709.23363716489439 0 0 0 0 229.96843509449445 -20.543308057624472 0 -20.543308057624472 405.98963056152388 0 0 0 0 113.84029367636504 445.1613925651136 0 445.1613925651136 576.29309788422529 0 0 0 0 103.63622107043375 -3.8938353225839819 0 -3.8938353225839819 246.70042530656815 0 0 0 0 77.536360099545163 -34.284038634669287 0 -34.284038634669287 266.36923254661633 0 0 0 0 75.537088072687766 90.808719300041957 0 90.808719300041957 441.96152479071407 0 0 0 0 48.857209975557907 35.173605359402245 0 35.173605359402245 331.77592300607466 0 0 0 0 34.757322932076931 -27.764575266643078 0 -27.764575266643078 319.16882219510262 0 0 0 0 181.95160253143149 138.01574918490587 0 138.01574918490587 349.61604010485678 0 0 0 0 158.54499359146121 82.295340833289629 0 82.295340833289629 246.48816018213802 0 0 0 0 224.94773494250148 20.434250902018903 0 20.434250902018903 272.05697087993758 0 0 0 0 323.24562460213792 97.431763255396277 0 97.431763255396277 236.00147966932673 0 0 0 0 266.47624853857815 157.61684407340454 0 157.61684407340454 244.97667744285172 0 0 0 0 152.83795426653251 193.35251784899265 0 193.35251784899265 245.55940724470929 0 0 0 0 259.52509298429868 141.48302316473973 0 141.48302316473973 210.27605125445461 0 0 0 0 354.53630167270603 72.962384912524612 0 72.962384912524612 205.38791637532768 0 0 0 0 257.89174625439409 194.20566599183257 0 194.20566599183257 113.11905132244578 0 0 0 0 181.15054997017432 337.05877422433514 0 337.05877422433514 147.36071933934909 0 0 0 0 251.70324110649472 194.02480319790675 0 194.02480319790675 161.42163382045328 0 0 0 0 328.59338852173187 152.7967816797825 0 152.7967816797825 74.575245774983159 0 0 0 0 199.48646144896156 28.225053382886927 0 28.225053382886927 -8.4457025217338924 0 0 0 0 266.21211249342559 111.70308448968399 0 111.70308448968399 115.57677969260499 0 0 0 0 244.75161836131883 130.14490069363183 0 130.14490069363183 102.05113576093845 0 0 0 0 225.231604012557 33.646184167937918 0 33.646184167937918 39.979975343993829 0 0 0 0 142.15733996676136 57.41776847557594 0 57.41776847557594 68.614675110024109 0 0 0 0 113.2450045196365 -26.059362567114249 0 -26.059362567114249 8.2174500456912938 0 0 0 0 109.99743184126783 41.357471679258197 0 41.357471679258197 55.598651386114398 0 0 0 0 461.49180101080856 86.982929050167115 0 86.982929050167115 117.45612084264758 0 0 0 0 279.60338790807782 143.71254205247942 0 143.71254205247942 146.99088906375255 0 0 0 0 265.19547655934275 120.23725716824401 0 120.23725716824401 107.64546653718753 0 0 0 0 359.00873456641602 73.657780159486265 0 73.657780159486265 103.71787791477368 0 0 0 0 367.30653608998182 108.52712317252599 0 108.52712317252599 137.99138845893685 0 0 0 0 513.66861535288626 77.173480824027138 0 77.173480824027138 73.055545194656133 0 0 0 0 337.57519621037773 133.79911665325244 0 133.79911665325244 122.36220302165475 0 0 0 0 198.46590619190465 77.094291611266726 0 77.094291611266726 69.438843158707641 0 0 0 0 293.30165181906023 28.157468341967615 0 28.157468341967615 68.876352015863631 0 0 0 0 248.2090389811674 90.384294434357344 0 90.384294434357344 82.86232970921651 0 0 0 0 161.14479424051842 -35.050537275473516 0 -35.050537275473516 64.855852735131521 0 0 0 0 374.3615114658021 35.979535413132396 0 35.979535413132396 59.241462772612067 0 0 0 0 29.727812297438504 -1.1386983235188382 0 -1.1386983235188382 30.693837439933304 0 0 0 0 174.60081019603422 -11.921584350503508 0 -11.921584350503508 15.57702988544861 0 0 0 0 165.63047320770056 -19.920565524660788 0 -19.920565524660788 -36.005311303925737 0 0 0 0 61.65423660090164 -4.6682272004973129 0 -4.6682272004973129 55.856938352107136 0 0 0 0 -49.225044990425886 -66.659564500556371 0 -66.659564500556371 -25.149586000325144 0 0 0 0 69.435252370954345 -73.992300225103634 0 -73.992300225103634 -63.787481623298845 0 0 0 0 -69.814107749795767 -166.60867768675803 0 -166.60867768675803 -137.24221981715527 0 0 0 0 59.413489525699035 -21.050118821587095 0 -21.050118821587095 -40.068717879170094 0 0 0 0 -84.942808112549301 -146.53289450500495 0 -146.53289450500495 -92.6713968889635 0 0 0 0 -54.462163789859915 -45.742515205143263 0 -45.742515205143263 -42.478687668729435 0 0 0 0 -63.991124290062999 -62.170750581416485 0 -62.170750581416485 -23.614272742715912 0 0 0 0 10.710285295617723 -82.506154264362976 0 -82.506154264362976 -46.631727605836204 0 0 0 0 -8.6148544979278086 -10.313387297343979 0 -10.313387297343979 31.531006841702037 0 0 0 0 -26.106902938166513 -64.164092125343018 0 -64.164092125343018 -30.737284749684477 0 0 0 0 -1.0477288009287804 10.839722825502918 0 10.839722825502918 -5.3630013334241085 0 0 0 0 -25.344151446764954 -24.684527600576075 0 -24.684527600576075 14.785097019979048 0 0 0 0 71.318500131854307 -50.307377587105748 0 -50.307377587105748 21.560228231222936 0 0 0 0 -2.1766012282041629 13.505406280374245 0 13.505406280374245 61.1380829698046 0 0 0 0 41.750285985443043 -453.02410137614697 0 -453.02410137614697 448.40388587845609 0 0 0 0 599.41883812632796 -381.00136884596475 0 -381.00136884596475 -4.2270417187246494 0 0 0 0 -16.481669441983122 -29.796218035142488 0 -29.796218035142488 -27.762845358918845 0 0 0 0 271.61563612322789 -111.61163482161783 0 -111.61163482161783 -155.74639921972448 0 0 0 0 -40.960396665233475 -66.985627507078448 0 -66.985627507078448 -49.717385326283875 0 0 0 0 53.472240114623666 -18.805301246547288 0 -18.805301246547288 -43.895530276293201 0 0 0 0 -63.569413259883731 -89.844107052228992 0 -89.844107052228992 -43.883193687445896 0 0 0 0 148.21347524203884 194.78432387989596 0 194.78432387989596 221.18954101347663 0 0 0 0 1223.2806752892284 -354.08341673668951 0 -354.08341673668951 -6.6780488757749481 0 0 0 0 0.094972620043108691 -3.337118138180081 0 -3.337118138180081 -2.0096970786825565 0 0 0 0 -6.470037293212954 -95.61223350557907 0 -95.61223350557907 74.920499666507567 0 0 0 0 244.88712720717874 167.22554883914739 0 167.22554883914739 111.5288117299242 0 0 0 0 141.33578230794956 150.68006925743794 0 150.68006925743794 54.41042553134929 0 0 0 0 47.497262287091871 38.554483263795646 0 38.554483263795646 77.185317685549307 0 0 0 0 150.95592104767275 78.085102069189816 0 78.085102069189816 51.061868928350123 0 0 0 0 334.26069220501813 96.899421470763627 0 96.899421470763627 -5.7763311213568613 0 0 0 0 245.00505146726937 93.164044656599799 0 93.164044656599799 66.732111297988013 0 0 0 0 174.46584499110122 156.05233800379983 0 156.05233800379983 74.704904455335054 0 0 0 0 547.55553081408289 216.9663016267923 0 216.9663016267923 19.46801499043795 0 0 0 0 527.43743881280534 -119.16550296699461 0 -119.16550296699461 -203.94322556049156 0 0 0 0 1330.0232895485169 55.363725469562269 0 55.363725469562269 -174.82994429654582 0 0 0 0 678.65547938160307 434.62185349678066 0 434.62185349678066 187.09786004454509 0 0 0 0 662.18675767545938 -1207.5256757495117 0 -1207.5256757495117 127.25392074754927 0 0 0 0 135.75895386390766 -71.709939955951995 0 -71.709939955951995 127.00001702927329 0 0 0 0 -389.02885983599481 -118.21204010964243 0 -118.21204010964243 167.47898127646204 0 0 0 0 14.746175267822721 23.92478013780466 0 23.92478013780466 39.180129973675491 0 0 0 0 280.48199609201299 -175.83928599716202 0 -175.83928599716202 73.071658755752651 0 0 0 0 107.16077234769909 -90.386059843518979 0 -90.386059843518979 130.4692992052361 0 0 0 0 102.00432993073491 -119.77105094882194 0 -119.77105094882194 53.989010266197511 0 0 0 0 95.575434721530655 -84.593302295009153 0 -84.593302295009153 87.876211595976201 0 0 0 0 85.565270426421193 -50.537725557812337 0 -50.537725557812337 43.292376556025829 0 0 0 0 136.04203016136944 -110.09592211379442 0 -110.09592211379442 83.712381445660867 0 0 0 0 135.91052864406811 -110.03992522367435 0 -110.03992522367435 102.05354560703927 0 0 0 0 135.94091129812296 -74.55369073111433 0 -74.55369073111433 64.126849435486747 0 0 0 0 160.43294263406278 -56.078209868952399 0 -56.078209868952399 37.742777505769482 0 0 0 0 115.0633654618141 -74.107051458771821 0 -74.107051458771821 72.376589679541212 0 0 0 0 127.21976521606848 -35.731817855437839 0 -35.731817855437839 9.7933212559619278 0 0 0 0 114.77756651124946 -51.512563452202812 0 -51.512563452202812 49.075148178430027 0 0 0 0 147.25113202707144 -60.590717632030646 0 -60.590717632030646 43.683488976766967 0 0 0 0 115.41881211656073 -80.366532533125337 0 -80.366532533125337 28.120378774665369 0 0 0 0 65.702602869980183 4.331478425800924 0 4.331478425800924 24.330032752890475 0 0 0 0 59.733253960435832 29.970373955047762 0 29.970373955047762 -7.9367517594960191 0 0 0 0 27.3514029250587 -3.0951857332688206 0 -3.0951857332688206 -1.9779457351594445 0 0 0 0 90.21380165134542 -22.304552272287765 0 -22.304552272287765 -21.778339116435745 0 0 0 0 85.705470066504859 -28.306179368046969 0 -28.306179368046969 33.17831859850412 0 0 0 0 110.3992732590923 -27.330311396372963 0 -27.330311396372963 55.444311495371949 0 0 0 0 97.260848545447516 -0.81492412721854635 0 -0.81492412721854635 1.4288526911077497 0 0 0 0 108.3982037605092 -30.101672109055926 0 -30.101672109055926 51.669596677653317 0 0 0 0 88.352465442119865 14.140692681125074 0 14.140692681125074 28.3090215696011 0 0 0 0 119.44372838910203 -3.76285462604028 0 -3.76285462604028 74.932734601849916 0 0 0 0 149.53621705020123 -28.740404989920535 0 -28.740404989920535 75.065514906298631 0 0 0 0 162.75368919786706 -70.631236867769985 0 -70.631236867769985 61.341833878959733 0 0 0 0 130.27319893414096 -59.03178569209922 0 -59.03178569209922 99.821385236388778 0 0 0 0 182.06331418847549 -139.60670032512098 0 -139.60670032512098 200.84251789685732 0 0 0 0 159.01256387660396 -79.629618242861397 0 -79.629618242861397 67.196786798074754 0 0 0 0 158.34079778435262 7.3787204755426501 0 7.3787204755426501 185.34947929026475 0 0 0 0 17.211620611332251 20.481721350882136 0 20.481721350882136 23.860167729315279 0 0 0 0 515.34130664388294 74.69116344070909 0 74.69116344070909 100.90451367601872 0 0 0 0 -4.3473351366337738 75.511914779803192 0 75.511914779803192 133.31706853240757 0 0 0 0 2.3931630399781909 0.30142939875539909 0 0.30142939875539909 1.5198149471492073 0 0 0 0 305.01077334187721 -172.63871010076946 0 -172.63871010076946 -19.266433920663985 0 0 0 0 592.85951035205289 -878.24626953408824 0 -878.24626953408824 306.07487286221294 0 0 0 0 22.965332203583586 6.6041931082440897 0 6.6041931082440897 -4.5165949874794507 0 0 0 0 954.04379558605797 1156.9741897439917 0 1156.9741897439917 211.5828123794883 0 0 0 0 17.878461906143485 26.564015340067684 0 26.564015340067684 38.793985402052655 0 0 0 0 194.01955927317613 -50.219078489411004 0 -50.219078489411004 20.373464760876232 0 0 0 0 193.35931667027762 -44.18547095784561 0 -44.18547095784561 64.096406152763848 0 0 0 0 154.90134205022514 -70.658875387726539 0 -70.658875387726539 45.99204094200104 0 0 0 0 176.44687287596753 -69.222565736086835 0 -69.222565736086835 44.161424152290238 0 0 0 0 145.06304440652821 -63.546575087772453 0 -63.546575087772453 60.770902820120682 0 0 0 0 244.87138162694464 -71.55551447691505 0 -71.55551447691505 -15.799721186175759 0 0 0 0 189.59090906965866 -92.715778727229917 0 -92.715778727229917 58.474666843234445 0 0 0 0 80.245552829931526 8.6500872721666298 0 8.6500872721666298 -17.177851238006355 0 0 0 0 -1.0809150851055165 31.119240723499388 0 31.119240723499388 -35.176243649103299 0 0 0 0 -20.386420007780544 117.75067613686497 0 117.75067613686497 -42.592916086405353 0 0 0 0 -61.511690422295942 58.374820200630893 0 58.374820200630893 26.212729340632904 0 0 0 0 -9.2753278764666902 1.6639291205671043 0 1.6639291205671043 60.870973389042774 0 0 0 0 21.771109620895004 -41.926471005894655 0 -41.926471005894655 18.748518903140848 0 0 0 0 28.894964622057159 12.988120008377336 0 12.988120008377336 41.735735055176747 0 0 0 0 60.448183483138564 -27.794508486710583 0 -27.794508486710583 -42.279912661883941 0 0 0 0 60.701766397191022 -28.567289075822146 0 -28.567289075822146 95.890230532369969 0 0 0 0 50.7887478392513 81.162311363083063 0 81.162311363083063 108.63547898283434 0 0 0 0 45.137203801285068 56.372688672716322 0 56.372688672716322 5.2960223677237082 0 0 0 0 228.76051805658062 -39.017294278572535 0 -39.017294278572535 19.521123889810042 0 0 0 0 648.46929030519641 -222.75296453037356 0 -222.75296453037356 -7.9037178805428994 0 0 0 0 3.1990684863383052 1.5529063605303435 0 1.5529063605303435 -2.4534119921665933 0 0 0 0 461.80694551006309 165.6517356947661 0 165.6517356947661 15.681511479615438 0 0 0 0 280.53978133927376 502.222657301249 0 502.222657301249 -184.81429976797631 0 0 0 0 130.71123996879032 150.01867610354645 0 150.01867610354645 185.45972896123931 0 0 0 0 3.9634719421115392 1.6946217973147881 0 1.6946217973147881 -0.17284646182451979 0 0 0 0 64.978265717043541 129.7057378707741 0 129.7057378707741 65.29593570797806 0 0 0 0 -28.84517376999429 19.66114545421965 0 19.66114545421965 112.01973974038174 0 0 0 0 688.19948516126169 -303.77858244559684 0 -303.77858244559684 128.36376805821993 0 0 0 0 242.08644856415776 21.023261948580512 0 21.023261948580512 199.8633913283511 0 0 0 0 195.59363011879759 90.253188221833625 0 90.253188221833625 241.61367758653569 0 0 0 0 662.43870241412242 83.469813803914406 0 83.469813803914406 125.49406788667147 0 0 0 0 110.56131733550137 -121.95014061228721 0 -121.95014061228721 149.65160319284973 0 0 0 0 -14.069956338462362 -67.503517202746025 0 -67.503517202746025 123.00144235827702 0 0 0 0 101.14954387708713 -145.35715637466001 0 -145.35715637466001 -27.63553604594108 0 0 0 0 2.749670850528048 3.303311906032242 0 3.303311906032242 -3.6559230559186915 0 0 0 0 121.31348771838384 -50.632070657428812 0 -50.632070657428812 -94.987613258361307 0 0 0 0 1.0421014592502615 25.230611186976603 0 25.230611186976603 -21.127584416453828 0 0 0 0 358.79134086510385 -213.02409864659478 0 -213.02409864659478 -43.245000877062921 0 0 0 0 259.74084310125909 -41.015448421710062 0 -41.015448421710062 -86.477946219136356 0 0 0 0 -10.512149233662058 -55.171810137224384 0 -55.171810137224384 170.19248139771116 0 0 0 0 178.11532372682814 276.14024701432027 0 276.14024701432027 -359.12296114251313 0 0 0 0 92.621861490827712 18.071366507084615 0 18.071366507084615 -14.630523872284854 0 0 0 0 173.5291492089691 142.49402462980447 0 142.49402462980447 -188.69002224431097 0 0 0 0 123.8244164314674 -96.277206083999772 0 -96.277206083999772 118.82931229306132 0 0 0 0 313.99752114569856 -32.073456216449927 0 -32.073456216449927 -161.97890630322036 0 0 0 0 388.65750065275643 -39.565671987350484 0 -39.565671987350484 -159.61857174875547 0 0 0 0 77.694750738817675 177.72176717692673 0 177.72176717692673 1.6990907579092323 0 0 0 0 122.78296517293347 167.79049389225474 0 167.79049389225474 -224.6453916151786 0 0 0 0 86.666694682477868 15.03460538236644 0 15.03460538236644 -16.193934779630286 0 0 0 0 28.977007180311375 -93.107576666781881 0 -93.107576666781881 -84.14618665488706 0 0 0 0 435.39212424065227 59.716302466484194 0 59.716302466484194 -68.838353015508801 0 0 0 0 -468.25580923224334 -24.455879580575811 0 -24.455879580575811 108.34848284929831 0 0 0 0 0.96233916818999887 -0.47726002139691204 0 -0.47726002139691204 -5.160923359731914 0 0 0 0 633.09028635633149 -219.62528799337815 0 -219.62528799337815 -188.55068723770637 0 0 0 0 -305.59750373505267 51.854783790298399 0 51.854783790298399 129.3889369144994 0 0 0 0 230.95051133223023 -209.51352777886621 0 -209.51352777886621 -111.64696977336008 0 0 0 0 58.439777554558077 -88.968792882265802 0 -88.968792882265802 164.80245411753421 0 0 0 0 -15.098865710566315 -111.57786895412346 0 -111.57786895412346 -19.4487411948503 0 0 0 0 77.803956316184667 -194.28255815952093 0 -194.28255815952093 50.832940487341148 0 0 0 0 335.84307762577737 -230.03900753004018 0 -230.03900753004018 97.119259840618724 0 0 0 0 -2.6462832967137402 -5.4759120145370677 0 -5.4759120145370677 -8.9257195185746703 0 0 0 0 -44.246776569905705 -32.473828128795503 0 -32.473828128795503 -0.4343694219369354 0 0 0 0 779.39050945998451 -270.54145372274184 0 -270.54145372274184 -52.510226086053081 0 0 0 0 438.07041462769848 -182.89609124500566 0 -182.89609124500566 154.19223080860851 0 0 0 0 374.29871747612015 -92.693516268314852 0 -92.693516268314852 41.216475292947507 0 0 0 0 195.88814334866402 -36.828581613001916 0 -36.828581613001916 2.8464036335726632 0 0 0 0 532.53318359129798 -54.125031466044675 0 -54.125031466044675 -96.2925287875496 0 0 0 0 349.29513584721172 99.170343856299922 0 99.170343856299922 -198.96762405103618 0 0 0 0 162.98322143516452 -29.827499247249762 0 -29.827499247249762 -272.71599757730382 0 0 0 0 11.113916672322603 320.32440799603432 0 320.32440799603432 -335.21914676717824 0 0 0 0 -97.785991129004287 187.46912372659972 0 187.46912372659972 -107.5341124139286 0 0 0 0 90.241999465290007 19.827996939232179 0 19.827996939232179 -13.658865288237902 0 0 0 0 129.79191080511828 59.132254953596203 0 59.132254953596203 -48.103302158850056 0 0 0 0 268.28696245454375 150.49490227050137 0 150.49490227050137 -214.35559523241955 0 0 0 0 389.8973152079252 120.04107451808522 0 120.04107451808522 -122.77200021654244 0 0 0 0 95.440817032782206 263.48892226997225 0 263.48892226997225 -176.84261609559326 0 0 0 0 272.0430061528923 13.922347907951917 0 13.922347907951917 11.884385195427967 0 0 0 0 313.40460055637186 143.51571120550716 0 143.51571120550716 -147.57585288302289 0 0 0 0 550.57920621239725 56.319039417555246 0 56.319039417555246 -36.574841587706032 0 0 0 0 412.07726216419326 98.363681644391107 0 98.363681644391107 -61.17854208530116 0 0 0 0 407.30111393410789 -91.327310948516242 0 -91.327310948516242 80.09803759985698 0 0 0 0 819.61451059874707 -277.32453155655639 0 -277.32453155655639 56.245395385655684 0 0 0 0 812.70119506398987 -163.5324995314495 0 -163.5324995314495 -4.9272138271326185 0 0 0 0 539.27730794065792 -13.857133045987212 0 -13.857133045987212 95.933758607126947 0 0 0 0 735.70769285918504 -200.52293867419939 0 -200.52293867419939 310.4268597991022 0 0 0 0 9.3226968600254168 64.596181720058667 0 64.596181720058667 -40.299969181418419 0 0 0 0 1155.2199684124889 -422.74052547987048 0 -422.74052547987048 38.60252604076959 0 0 0 0 1019.977782130446 -482.88802522411152 0 -482.88802522411152 255.26081478853303 0 0 0 0 12.042757029922136 12.119216172000606 0 12.119216172000606 13.790451502920618 0 0 0 0 1343.7791649229148 -288.75407514718972 0 -288.75407514718972 131.61463275385904 0 0 0 0 0.97584337403266019 0.33932281548283427 0 0.33932281548283427 0.63832158859674237 0 0 0 0 782.42180619757528 -450.74100004160755 0 -450.74100004160755 257.70225325335923 0 0 0 0 952.49496641070618 -371.20310791817974 0 -371.20310791817974 29.853801975237729 0 0 0 0 776.11735510813196 -107.16713833650647 0 -107.16713833650647 179.11477419840958 0 0 0 0 810.64540200740885 -101.48929284162296 0 -101.48929284162296 27.869398299694694 0 0 0 0 773.71901871032242 -230.02110815069682 0 -230.02110815069682 104.74346588733169 0 0 0 0 678.14042323456852 -71.846478560681135 0 -71.846478560681135 -38.366510584552088 0 0 0 0 520.38808630448693 -140.3659834482803 0 -140.3659834482803 66.475591700360383 0 0 0 0 651.41802016225301 -376.76477072570742 0 -376.76477072570742 148.51638778368795 0 0 0 0 36.552031796692063 -21.898071207417843 0 -21.898071207417843 -21.012411166702805 0 0 0 0 37.594994687430699 -24.134449914195102 0 -24.134449914195102 -23.146344315468014 0 0 0 0 1.6918533792351482 -8.1098739071816013 0 -8.1098739071816013 -11.960308663377006 0 0 0 0 13.502391539204837 -29.943931219817387 0 -29.943931219817387 -23.036266917856636 0 0 0 0 37.662417935193261 -9.1577866294113193 0 -9.1577866294113193 -14.365584531599808 0 0 0 0 -12.611021126074775 6.3855686945071284 0 6.3855686945071284 -18.095166616434653 0 0 0 0 61.131360142098856 -15.980747312970379 0 -15.980747312970379 -24.171366363334528 0 0 0 0 155.48499933798303 8.3098686317825923 0 8.3098686317825923 -63.559587398744043 0 0 0 0 59.187481464268785 -0.52089778435765766 0 -0.52089778435765766 -55.930884887882712 0 0 0 0 115.7584506048388 -23.859870020236258 0 -23.859870020236258 -53.561908900686831 0 0 0 0 54.241727787612035 -40.024926103804319 0 -40.024926103804319 -3.631242151141123 0 0 0 0 54.321833000543847 -42.249878309214182 0 -42.249878309214182 -58.626639611479732 0 0 0 0 142.23066592848659 -87.013980426390731 0 -87.013980426390731 -36.696232620024603 0 0 0 0 141.22267066071072 1.3633683548669069 0 1.3633683548669069 -35.024730920984439 0 0 0 0 87.404173318114772 48.323004594580198 0 48.323004594580198 -36.576524346615372 0 0 0 0 174.73421618055988 184.35748492956236 0 184.35748492956236 -148.53678541720001 0 0 0 0 86.434411091337466 18.204549654054112 0 18.204549654054112 -11.908790719999342 0 0 0 0 158.38569396188541 -40.198058305053564 0 -40.198058305053564 -5.0699747157541424 0 0 0 0 115.80654662622692 -27.779605050822283 0 -27.779605050822283 4.1848418673134802 0 0 0 0 103.72745540117558 -44.66969408866612 0 -44.66969408866612 59.760114118953425 0 0 0 0 225.45669129117471 9.456586279749871 0 9.456586279749871 67.014172333227179 0 0 0 0 224.36364434296047 -108.17154626673255 0 -108.17154626673255 74.014986986883741 0 0 0 0 202.86615352133231 -21.029710918297496 0 -21.029710918297496 25.896500692138943 0 0 0 0 126.74644724128302 20.051659589987139 0 20.051659589987139 -0.21729178112946101 0 0 0 0 153.83709185141197 -23.499427875483889 0 -23.499427875483889 28.661635960183048 0 0 0 0 127.63678314669232 24.017225443642474 0 24.017225443642474 8.2566450301892473 0 0 0 0 115.81937934400776 -8.4203970482521981 0 -8.4203970482521981 34.774109394267725 0 0 0 0 148.16819298456539 19.882784213174091 0 19.882784213174091 57.424875732918736 0 0 0 0 89.028428413938883 20.233863412923291 0 20.233863412923291 -11.746307511222728 0 0 0 0 113.12984881125158 -17.246788868543263 0 -17.246788868543263 46.721518341197225 0 0 0 0 60.569151555333519 64.298971389560393 0 64.298971389560393 -22.819088293209461 0 0 0 0 78.113552782902843 22.668533940153793 0 22.668533940153793 36.188641065411502 0 0 0 0 93.825594516345518 30.947202505817131 0 30.947202505817131 -26.093634473108978 0 0 0 0 84.841691937952419 1.9418650843736032 0 1.9418650843736032 1.2678365402207419 0 0 0 0 68.584933972560975 1.0991043698140857 0 1.0991043698140857 -0.28775695696822368 0 0 0 0 -142.91966777762718 147.31390622775234 0 147.31390622775234 -164.365568510706 0 0 0 0 29.357375474866153 -5.1232006819393012 0 -5.1232006819393012 -2.7404953313549818 0 0 0 0 -243.36270374710102 360.434390998136 0 360.434390998136 -198.36900104166853 0 0 0 0 -178.5568619696478 164.91595212283028 0 164.91595212283028 -232.57937905117933 0 0 0 0 -89.608333024700642 270.42937911970876 0 270.42937911970876 -108.43953514870736 0 0 0 0 54.705231775322318 124.4219101856761 0 124.4219101856761 -88.529161132082663 0 0 0 0 270.06361483563342 -40.782284385695675 0 -40.782284385695675 -107.66554766708759 0 0 0 0 -23.589360404777835 -85.109376678949047 0 -85.109376678949047 191.36257591648609 0 0 0 0 450.10203947892342 -212.92418540494691 0 -212.92418540494691 -32.599088116376151 0 0 0 0 0.22284521576423888 1.4665458497886004 0 1.4665458497886004 -1.2962114515846466 0 0 0 0 -557.58694395335169 381.36632451486093 0 381.36632451486093 5.404247469134134 0 0 0 0 -435.32841358527367 136.28719151328596 0 136.28719151328596 -62.899241991450253 0 0 0 0 -299.37986471688146 339.75600394347202 0 339.75600394347202 -79.711060448747958 0 0 0 0 54.470098266111563 224.12423599743124 0 224.12423599743124 -28.84042076892365 0 0 0 0 -40.509846036140516 133.03311412932271 0 133.03311412932271 -92.173840764659417 0 0 0 0 -210.01101008123351 278.31968118631266 0 278.31968118631266 -28.81369267037735 0 0 0 0 -203.5866827437012 142.55561428861802 0 142.55561428861802 26.939470866034753 0 0 0 0 -159.52919210398886 221.51867027737717 0 221.51867027737717 52.718539670268001 0 0 0 0 465.92450938926868 8.4523399457020787 0 8.4523399457020787 -188.51129887010757 0 0 0 0 42.641595306087765 273.36173229100859 0 273.36173229100859 14.285438696810161 0 0 0 0 -106.02131105763078 102.71070421185505 0 102.71070421185505 190.22146276049716 0 0 0 0 -5.2327236619112707 1.1065655228296833 0 1.1065655228296833 -0.53971553564901242 0 0 0 0 -158.388252724822 211.81697337123478 0 211.81697337123478 -19.069614396426914 0 0 0 0 -10.602234143798341 190.8102841972941 0 190.8102841972941 29.261395208599424 0 0 0 0 109.17191237142106 -89.297895798345053 0 -89.297895798345053 -413.09768913657535 0 0 0 0 380.52183628685771 107.13808546227551 0 107.13808546227551 -50.191836354049883 0 0 0 0 78.315245389347183 47.453828107631125 0 47.453828107631125 24.733434497831695 0 0 0 0 135.45440192388287 -40.383746260782573 0 -40.383746260782573 -120.84451351213283 0 0 0 0 107.29381468689826 0.18249694591213483 0 0.18249694591213483 -16.115772882046258 0 0 0 0 74.394365285476312 92.340143293936308 0 92.340143293936308 3.0621169573751104 0 0 0 0 84.336968679993959 12.018499085711081 0 12.018499085711081 -12.218387796454827 0 0 0 0 -34.0478606760758 130.41926967999916 0 130.41926967999916 9.3266451092258649 0 0 0 0 -7.2553072033986581 12.757282719670478 0 12.757282719670478 -5.4421940798363515 0 0 0 0 86.718533681120789 -1.2001166161553556 0 -1.2001166161553556 -113.05117804215843 0 0 0 0 38.170512780963691 140.59219166135381 0 140.59219166135381 71.888399592711721 0 0 0 0 86.604063054555809 224.63702333941274 0 224.63702333941274 413.85694710681673 0 0 0 0 85.719690619726862 413.28459024914991 0 413.28459024914991 228.55497679985456 0 0 0 0 315.61547878175475 -114.75680184838006 0 -114.75680184838006 252.71480327391509 0 0 0 0 -235.17847497583216 326.88103764279458 0 326.88103764279458 -63.799119778824206 0 0 0 0 -209.97606527840526 -173.25926919173344 0 -173.25926919173344 372.58783061243776 0 0 0 0 292.5956317005938 -107.15383923880937 0 -107.15383923880937 343.89868930108787 0 0 0 0 -231.46107748616487 -78.111669698693731 0 -78.111669698693731 547.81458279655726 0 0 0 0 -205.53475174807431 -140.25900197195006 0 -140.25900197195006 379.55272875031915 0 0 0 0 4.3482320336350053 -2.3293204987513008 0 -2.3293204987513008 1.0780519753473996 0 0 0 0 364.67225807850627 141.9678855643524 0 141.9678855643524 69.203607695217215 0 0 0 0 469.57824376196118 205.93963116066152 0 205.93963116066152 93.34090689297409 0 0 0 0 293.65350229663909 95.652431241328031 0 95.652431241328031 -76.422177554231894 0 0 0 0 9.2049528026450442 -4.9648151221517836 0 -4.9648151221517836 1.4169769981181908 0 0 0 0 188.12958134454101 110.40806278555874 0 110.40806278555874 195.82040645865709 0 0 0 0 187.16021456689651 90.86208390110005 0 90.86208390110005 209.72600017924469 0 0 0 0 135.59771353794122 109.88472062573237 0 109.88472062573237 83.481763008197049 0 0 0 0 197.32051745882291 226.21867082432982 0 226.21867082432982 85.557483308434712 0 0 0 0 292.39713206990132 82.626202728759381 0 82.626202728759381 302.38900083356748 0 0 0 0 8.0998336964080409 -8.9251392393334754 0 -8.9251392393334754 75.519568996161979 0 0 0 0 117.66293496878734 -5.3665852877838915 0 -5.3665852877838915 -34.248874755458928 0 0 0 0 57.274417818731763 -76.28408715104888 0 -76.28408715104888 -0.32914558721495268 0 0 0 0 268.73682741362427 -57.6980352683604 0 -57.6980352683604 94.063949099596357 0 0 0 0 54.244559311199268 -19.070669986961025 0 -19.070669986961025 -4.9535094367443833 0 0 0 0 98.441952353381112 23.101492352863715 0 23.101492352863715 91.318488309134409 0 0 0 0 128.31767462093012 6.47041479165091 0 6.47041479165091 32.821636997523456 0 0 0 0 247.21818219910347 -135.55589448733008 0 -135.55589448733008 23.664507261837571 0 0 0 0 346.67357503981657 99.365453682971747 0 99.365453682971747 -141.85323902166056 0 0 0 0 22.228953411653492 93.288305928411319 0 93.288305928411319 -63.994938613890554 0 0 0 0 70.107773938393166 48.34636463168863 0 48.34636463168863 0.036233205511962296 0 0 0 0 66.873412603881576 -7.4239122268754727 0 -7.4239122268754727 -47.862620923297072 0 0 0 0 114.23309847594828 -4.5100374686880969 0 -4.5100374686880969 -52.999745086683106 0 0 0 0 74.502354715929755 20.00823410335579 0 20.00823410335579 19.141337652432412 0 0 0 0 159.28275925283594 39.113295436216504 0 39.113295436216504 16.12112922360393 0 0 0 0 138.47149604461902 120.6068729742392 0 120.6068729742392 64.354299371054367 0 0 0 0 97.306592425347844 -6.3123885268796585 0 -6.3123885268796585 84.798390391253633 0 0 0 0 117.71686503273258 93.919509683297292 0 93.919509683297292 131.02209667867101 0 0 0 0 348.19906727498721 431.71122433302116 0 431.71122433302116 369.40696158609717 0 0 0 0 -7.3222932922587916 124.65105349944724 0 124.65105349944724 331.3331526560014 0 0 0 0 -90.640691487146796 -16.062663078648256 0 -16.062663078648256 174.21413811993625 0 0 0 0 2.2507160239952757 2.5697238970388883 0 2.5697238970388883 6.2970055699619678 0 0 0 0 134.91292649040315 46.049050536335017 0 46.049050536335017 -48.49594366101519 0 0 0 0 1126.8560775160531 -222.58304476592821 0 -222.58304476592821 14.531121730477025 0 0 0 0 1523.7997085987886 -508.89285346737961 0 -508.89285346737961 182.5705815598576 0 0 0 0 418.93851206554154 10.419436007550757 0 10.419436007550757 306.85279336393069 0 0 0 0 1306.0454933426572 160.58026499949574 0 160.58026499949574 79.265999175666366 0 0 0 0 292.40336948157341 251.54108861134631 0 251.54108861134631 729.23791406007877 0 0 0 0 570.5332973152731 -307.1779714559234 0 -307.1779714559234 502.37960304535363 0 0 0 0 312.76732774993314 248.32920582704412 0 248.32920582704412 -16.891676030905728 0 0 0 0 184.64412753945453 -295.45808333660443 0 -295.45808333660443 -142.28945905545913 0 0 0 0 449.03987486716159 264.17892269643812 0 264.17892269643812 -41.021434540762129 0 0 0 0 409.00243189368661 208.05908203478066 0 208.05908203478066 -20.130343588300093 0 0 0 0 940.79386685934583 352.93249137030466 0 352.93249137030466 16.733675275676433 0 0 0 0 290.49820826851669 32.004470575069718 0 32.004470575069718 -25.588768278092175 0 0 0 0 388.71540607332247 261.49068598093072 0 261.49068598093072 114.42148794153263 0 0 0 0 216.73537046098954 2.1410079313500319 0 2.1410079313500319 -11.288624328456535 0 0 0 0 380.5840711976839 67.285858183955497 0 67.285858183955497 9.7279487659782262 0 0 0 0 106.01986431596561 4.271459254938236 0 4.271459254938236 31.145298306832046 0 0 0 0 202.97531058328377 87.201740097627408 0 87.201740097627408 47.518608245933137 0 0 0 0 1.5362983241493637 2.221823782464849 0 2.221823782464849 2.8279694418086834 0 0 0 0 -748.4964973431197 672.10444926255241 0 672.10444926255241 415.60431507131125 0 0 0 0 1537.8992285406903 235.55383096677815 0 235.55383096677815 79.037170795904785 0 0 0 0 2.1570612594553218 6.311015738519492 0 6.311015738519492 3.650941374863514 0 0 0 0 719.95079510460209 -117.36404600355127 0 -117.36404600355127 -53.418027630972574 0 0 0 0 670.67869252686194 479.30724917960902 0 479.30724917960902 224.81010034897918 0 0 0 0 7.858623078571271 -1.379120025647719 0 -1.379120025647719 -1.149213690395765 0 0 0 0 205.9129497369704 309.14452009621436 0 309.14452009621436 329.79484673772276 0 0 0 0 1197.260152846663 496.39245264133115 0 496.39245264133115 196.08747439643685 0 0 0 0 887.46139869604121 1017.5128239571641 0 1017.5128239571641 733.77966772709624 0 0 0 0 231.43881010496489 299.05392796595925 0 299.05392796595925 259.84182861794761 0 0 0 0 213.01351607380093 193.93289442073001 0 193.93289442073001 187.64101991641837 0 0 0 0 9.7690337890620391 -3.7236482723416788 0 -3.7236482723416788 -0.20481451823329877 0 0 0 0 414.3875508716992 210.81000530482652 0 210.81000530482652 -83.089715496650115 0 0 0 0 415.74579628428853 201.02256735384299 0 201.02256735384299 -13.182019501513878 0 0 0 0 131.85130670827976 217.17195898122418 0 217.17195898122418 268.06285069147725 0 0 0 0 103.50851728455007 202.73177116223314 0 202.73177116223314 134.20930481772575 0 0 0 0 88.620184764011469 161.56597657850671 0 161.56597657850671 252.21832854577042 0 0 0 0 46.738175278846562 73.382367949325726 0 73.382367949325726 62.606281650236269 0 0 0 0 108.80108186333518 139.68476111194013 0 139.68476111194013 99.416456849579845 0 0 0 0 20.833020675836451 67.529829593177965 0 67.529829593177965 101.01955184066588 0 0 0 0 44.726838141262533 69.231595057587128 0 69.231595057587128 -2.0094846346510167 0 0 0 0 0.0022079644017480859 -16.651614994153078 0 -16.651614994153078 -30.333927701552966 0 0 0 0 -22.103506842949628 -8.323647121373142 0 -8.323647121373142 -31.684241824887977 0 0 0 0 -3.905556401477952 -21.184664142434485 0 -21.184664142434485 -46.26497666715477 0 0 0 0 -22.352732973529328 -56.406178719944364 0 -56.406178719944364 -60.983843406819688 0 0 0 0 11.040994360996365 22.951909960090234 0 22.951909960090234 42.862273869373894 0 0 0 0 -4.7374658617864043 -33.377102972933244 0 -33.377102972933244 -24.572256458444826 0 0 0 0 37.516206273443458 37.528701761415505 0 37.528701761415505 8.9432926189083446 0 0 0 0 77.180192740554958 85.697067311146384 0 85.697067311146384 62.919808686183387 0 0 0 0 13.918052943678958 34.795788287386131 0 34.795788287386131 69.679052948513345 0 0 0 0 56.950021282695388 117.49566659183256 0 117.49566659183256 157.89201035215228 0 0 0 0 85.186118221336073 84.651879230423219 0 84.651879230423219 97.748510067524876 0 0 0 0 33.769056005989114 61.957856122789963 0 61.957856122789963 113.49044746456912 0 0 0 0 28.278287573184571 40.297526049684166 0 40.297526049684166 45.427856184294797 0 0 0 0 53.372554357600166 36.395325156775471 0 36.395325156775471 28.78971864515006 0 0 0 0 71.132856976922994 85.36686759154145 0 85.36686759154145 92.952219760070875 0 0 0 0 9.3336083749945828 -27.93089761214469 0 -27.93089761214469 -13.722415292108053 0 0 0 0 96.328328815877285 88.317597109734379 0 88.317597109734379 101.05217434814949 0 0 0 0 39.90581585172913 68.315865682364347 0 68.315865682364347 134.3439615645143 0 0 0 0 48.726031118883839 21.603671450652655 0 21.603671450652655 61.266727253325826 0 0 0 0 105.07793733351718 108.9185691425364 0 108.9185691425364 127.59036506934353 0 0 0 0 100.86390260062217 118.78773689686659 0 118.78773689686659 196.59662995992949 0 0 0 0 58.482634736426007 73.673721118660069 0 73.673721118660069 134.62846020560028 0 0 0 0 105.03640590730174 138.20344597341136 0 138.20344597341136 154.82821156368345 0 0 0 0 135.95907580073327 203.03213076769441 0 203.03213076769441 220.92383755894298 0 0 0 0 127.84926048548641 124.6736827893892 0 124.6736827893892 141.04400782899575 0 0 0 0 68.594085586114488 154.03805138503321 0 154.03805138503321 214.51598508432653 0 0 0 0 178.61586644090221 184.91639198159737 0 184.91639198159737 222.09657444441154 0 0 0 0 213.17942542594028 202.16344989712707 0 202.16344989712707 348.26136245057251 0 0 0 0 355.94344176235427 280.98003078447755 0 280.98003078447755 245.24226101294335 0 0 0 0 284.95216357270419 187.14279755928692 0 187.14279755928692 293.26909567951589 0 0 0 0 187.61761035962991 176.43168168499324 0 176.43168168499324 247.02299219213296 0 0 0 0 246.33475622996139 233.77124789174377 0 233.77124789174377 243.34727000142084 0 0 0 0 176.73859322576664 235.28398192160512 0 235.28398192160512 319.66058130010242 0 0 0 0 169.8128895706559 150.50271398947552 0 150.50271398947552 174.83806116450796 0 0 0 0 156.35265169500599 191.85976451792885 0 191.85976451792885 244.82952197092163 0 0 0 0 89.758181024331861 107.32454707416218 0 107.32454707416218 186.60234953934923 0 0 0 0 160.70121321002807 136.52668598598029 0 136.52668598598029 156.35896937741563 0 0 0 0 68.754690633608334 96.189592786662615 0 96.189592786662615 168.55262132927101 0 0 0 0 149.19511019775746 135.58248661371908 0 135.58248661371908 156.62180464895755 0 0 0 0 159.94391983685819 123.62868382899069 0 123.62868382899069 169.5920693981825 0 0 0 0 200.90670520128151 271.57884200495937 0 271.57884200495937 309.8651418585905 0 0 0 0 124.64274835838478 141.05075802718784 0 141.05075802718784 234.77793185761402 0 0 0 0 230.56917276604327 188.85686566349068 0 188.85686566349068 216.71667816978879 0 0 0 0 204.12275022896938 201.76779645321221 0 201.76779645321221 216.66208839802493 0 0 0 0 133.87869131270236 207.48211588561844 0 207.48211588561844 303.67453935586946 0 0 0 0 229.09224657275445 218.39508334696984 0 218.39508334696984 249.35175040163176 0 0 0 0 176.33752625371017 255.23607332569918 0 255.23607332569918 433.37760091238715 0 0 0 0 279.49794770593144 369.80829883341266 0 369.80829883341266 358.11323768235707 0 0 0 0 391.19333406967075 834.48966218801127 0 834.48966218801127 438.19441897039906 0 0 0 0 371.69672039203579 691.30542489657091 0 691.30542489657091 752.0430225738819 0 0 0 0 4.5953497248610908 0.16606257919870249 0 0.16606257919870249 -1.4819662322600351 0 0 0 0 792.59140456493742 -39.684898532306761 0 -39.684898532306761 69.153903782963425 0 0 0 0 580.09410613210321 -582.93109061627911 0 -582.93109061627911 228.18844783492568 0 0 0 0 4.413069164903165 1.9055207948322899 0 1.9055207948322899 1.1406539940835358 0 0 0 0 10.594976797778827 274.63085778977972 0 274.63085778977972 -54.943309887313262 0 0 0 0 76.290192738529072 1.5454039021760764 0 1.5454039021760764 -199.07547976835849 0 0 0 0 409.09377708035754 250.22299831830742 0 250.22299831830742 -90.616855983676942 0 0 0 0 504.04484745867148 76.778000519367197 0 76.778000519367197 99.692215010801647 0 0 0 0 339.51997356023264 -29.78002208013595 0 -29.78002208013595 293.36597547484962 0 0 0 0 88.539956122435001 139.2775967433281 0 139.2775967433281 264.20863450777324 0 0 0 0 16.860965130950689 92.777925701426284 0 92.777925701426284 188.47017675736379 0 0 0 0 165.0503659915762 147.82295782688971 0 147.82295782688971 208.84820018161008 0 0 0 0 103.16501549938562 114.01240634686201 0 114.01240634686201 367.10941505451387 0 0 0 0 56.340094334387253 245.96280255298916 0 245.96280255298916 0.60841492266808928 0 0 0 0 135.62189761402124 106.5734026172513 0 106.5734026172513 -158.55246187325065 0 0 0 0 -92.867914871169091 -96.791632583692717 0 -96.791632583692717 71.82188452405353 0 0 0 0 -24.837777772019308 -45.751594429998477 0 -45.751594429998477 -97.121010727442354 0 0 0 0 9.657300901873441 71.455311454581533 0 71.455311454581533 71.756392642032552 0 0 0 0 47.576071004487005 27.400913951910752 0 27.400913951910752 -88.910627293545986 0 0 0 0 -53.801580969791303 -21.276727173034487 0 -21.276727173034487 -52.327821608481827 0 0 0 0 -40.07368289764679 -48.878927230779254 0 -48.878927230779254 -203.29280552409 0 0 0 0 -72.548652682204192 -142.89295593372844 0 -142.89295593372844 -234.21212166408077 0 0 0 0 -49.245264249336174 -71.912076394502947 0 -71.912076394502947 -131.63663292153979 0 0 0 0 -29.046699232813495 -79.692171500168115 0 -79.692171500168115 -136.49719971919603 0 0 0 0 -0.88628893851597468 -29.94518936114082 0 -29.94518936114082 -86.276347762490332 0 0 0 0 -124.33535463968678 -287.8202262027994 0 -287.8202262027994 -501.56551652113512 0 0 0 0 -70.381070459988791 -16.461329677637877 0 -16.461329677637877 -98.035088898679533 0 0 0 0 61.149475842539687 54.512682830075391 0 54.512682830075391 -7.3847616511848173 0 0 0 0 -0.35339175767346687 0.9979304032984011 0 0.9979304032984011 -3.000933654650467 0 0 0 0 5.4050300666943478 -1.5002937177421369 0 -1.5002937177421369 0.55938172042320744 0 0 0 0 23.925219551958662 -53.706278152713821 0 -53.706278152713821 -18.529334122756609 0 0 0 0 510.72816860859746 -438.83820847121251 0 -438.83820847121251 -192.58003129440749 0 0 0 0 695.6941380021774 -285.39661830156274 0 -285.39661830156274 -276.53795284138641 0 0 0 0 404.29822627037993 -271.05078575741118 0 -271.05078575741118 76.452051085936546 0 0 0 0 218.26244343785902 50.1184034944838 0 50.1184034944838 -26.433238076419002 0 0 0 0 264.49444088383825 -29.890311245555495 0 -29.890311245555495 -26.008592517398938 0 0 0 0 681.30619429760816 155.35729465538293 0 155.35729465538293 23.746430790592058 0 0 0 0 385.78141552453258 -195.31470626557166 0 -195.31470626557166 286.50631958343047 0 0 0 0 263.48635740377995 39.707705938917115 0 39.707705938917115 -24.821064517012019 0 0 0 0 -4.5294799799058865 147.14791148130894 0 147.14791148130894 -39.24005688845682 0 0 0 0 -42.258183297572941 80.737991991936724 0 80.737991991936724 153.16724904218904 0 0 0 0 -74.218704901734782 -15.704661126103019 0 -15.704661126103019 143.87675738983512 0 0 0 0 -77.706556871208704 -0.51907046863561845 0 -0.51907046863561845 94.421768391017395 0 0 0 0 -185.49850111862725 -51.830724323082904 0 -51.830724323082904 125.00687533690279 0 0 0 0 -7.4665164274629205 -28.209917647618568 0 -28.209917647618568 -14.423682030108466 0 0 0 0 -9.0751633073893458 -22.085180260014567 0 -22.085180260014567 -20.005736338363477 0 0 0 0 -3.3909339442118913 -2.3748708228903546 0 -2.3748708228903546 -0.91514537545774388 0 0 0 0 3.3252134379014571 -5.2020777370483007 0 -5.2020777370483007 2.4220244770682307 0 0 0 0 -150.86585090047083 -83.930707640780383 0 -83.930707640780383 30.857100271558011 0 0 0 0 -36.263588795513101 18.235743578624806 0 18.235743578624806 39.687590022023869 0 0 0 0 -111.43883662992357 -36.030077649039868 0 -36.030077649039868 -33.32790324511916 0 0 0 0 -130.14326237017758 -42.446545869872352 0 -42.446545869872352 64.967219020207267 0 0 0 0 -84.328584077641608 39.712771321102991 0 39.712771321102991 37.172759519424289 0 0 0 0 -57.619635540941999 41.365060737944077 0 41.365060737944077 -40.606473186618132 0 0 0 0 -99.589527827043185 2.4881059347803784 0 2.4881059347803784 -52.038274176760751 0 0 0 0 15.977584736764143 -1.2108629711959189 0 -1.2108629711959189 -0.77436856838713375 0 0 0 0 13.359470173425507 -7.7809903933689384 0 -7.7809903933689384 -5.6375036978342905 0 0 0 0 6.3435438543558416 -2.2875635792070987 0 -2.2875635792070987 -0.56020295630399275 0 0 0 0 5.2252204216292739 18.918760225067672 0 18.918760225067672 -20.213835461618146 0 0 0 0 231.475234833586 43.496297247465918 0 43.496297247465918 -87.860654830996282 0 0 0 0 12.154638955862971 4.6990229942485566 0 4.6990229942485566 1.3136565572140704 0 0 0 0 1.8297692419289451 2.2599739952114746 0 2.2599739952114746 -1.145439310563706 0 0 0 0 294.28114740391754 76.395397395467853 0 76.395397395467853 -30.432979053333838 0 0 0 0 23.121139692425459 -38.926028941494224 0 -38.926028941494224 -68.806115556708392 0 0 0 0 -76.298052342046503 24.34978435854191 0 24.34978435854191 65.390351782403741 0 0 0 0 1.6562501729758878 156.64249519836176 0 156.64249519836176 -188.57444376200147 0 0 0 0 -153.6016749162045 110.99132301012651 0 110.99132301012651 50.64062177955384 0 0 0 0 82.390623351351678 -47.412663356391022 0 -47.412663356391022 32.066792070540373 0 0 0 0 -27.499538649190072 -52.959411189404932 0 -52.959411189404932 -42.167200000788398 0 0 0 0 41.028169155988962 43.291276437553279 0 43.291276437553279 -10.372212515794672 0 0 0 0 47.436539075177279 17.159722341993984 0 17.159722341993984 42.761611365231147 0 0 0 0 -47.106456296900433 -27.633289943010823 0 -27.633289943010823 43.879582888408322 0 0 0 0 30.322557096744276 -26.252825481780746 0 -26.252825481780746 32.763025575396568 0 0 0 0 -3.191366429262029 -0.5671426526550345 0 -0.5671426526550345 0.30036675816473135 0 0 0 0 -43.369673733759555 -16.794697420660668 0 -16.794697420660668 43.099059170745022 0 0 0 0 -24.794370113530984 -14.100802732488912 0 -14.100802732488912 1.5702022962642559 0 0 0 0 -20.390865453185143 -4.6557365629889773 0 -4.6557365629889773 -28.194967396459106 0 0 0 0 -16.96923957280751 -33.94053870868629 0 -33.94053870868629 -2.5413257698119196 0 0 0 0 -10.699506528962715 7.1992842656141534 0 7.1992842656141534 15.760317369018594 0 0 0 0 -9.0780080120635809 -16.663003889483793 0 -16.663003889483793 -1.6869182807309784 0 0 0 0 -29.725131377539583 -13.204707782449077 0 -13.204707782449077 1.1372123384171573 0 0 0 0 -13.401829634688511 -37.793683913405857 0 -37.793683913405857 -17.845759616672694 0 0 0 0 11.906179199177132 -5.9628061424255066 0 -5.9628061424255066 -2.8882604301779793 0 0 0 0 14.720655655589908 -9.2402302239678082 0 -9.2402302239678082 -2.0699737504310178 0 0 0 0 -103.20852550921518 -114.80756790885607 0 -114.80756790885607 -12.469264330965416 0 0 0 0 5.9669661111386034 -10.796752480242812 0 -10.796752480242812 4.5737339057990063 0 0 0 0 -157.51949004079506 192.13571988407512 0 192.13571988407512 191.74555116239935 0 0 0 0 -203.02468003992908 -25.989888760176655 0 -25.989888760176655 91.881546740962222 0 0 0 0 23.305167319826751 -74.558654673083765 0 -74.558654673083765 -122.35390690718759 0 0 0 0 -5.9237057064947294 -108.83506115619457 0 -108.83506115619457 -10.415611533451624 0 0 0 0 -44.679324395348885 -127.49815713071121 0 -127.49815713071121 -156.76950279027005 0 0 0 0 24.347915498760582 -5.5234604984838738 0 -5.5234604984838738 -1.7361440001097179 0 0 0 0 19.181821060768634 -9.0228643241946074 0 -9.0228643241946074 1.7308639845543219 0 0 0 0 15.015207973548513 -14.890189290576018 0 -14.890189290576018 -13.865867629843706 0 0 0 0 27.099548525528917 -100.78417984245471 0 -100.78417984245471 -242.78705310293844 0 0 0 0 24.093940829932762 -98.262949678108271 0 -98.262949678108271 -238.90868261713058 0 0 0 0 166.44895325456309 16.961580341778244 0 16.961580341778244 -195.52795488743914 0 0 0 0 113.73171801834542 -101.61750258626739 0 -101.61750258626739 -429.35531099513537 0 0 0 0 -29.234896278601809 -89.344371873192358 0 -89.344371873192358 -160.74072538557084 0 0 0 0 4.8720609953834355 -192.26407110813489 0 -192.26407110813489 -215.11627758704617 0 0 0 0 19.458199057411548 -242.64056451665056 0 -242.64056451665056 -41.463181447979878 0 0 0 0 -37.280861782270222 -232.35634148214831 0 -232.35634148214831 201.98827630174128 0 0 0 0 51.454062591372349 -68.090345386910485 0 -68.090345386910485 -132.35252855568615 0 0 0 0 2.9355468841995389 17.503463590556294 0 17.503463590556294 -191.74866758958524 0 0 0 0 56.54346286029795 74.189933670683786 0 74.189933670683786 -248.33971390464831 0 0 0 0 95.722845949358089 1.1833493052608901 0 1.1833493052608901 -190.12261453896474 0 0 0 0 69.335535458904815 -12.75802933608702 0 -12.75802933608702 -189.77655724722354 0 0 0 0 42.281947328128808 -40.039111793281336 0 -40.039111793281336 -212.95391697131163 0 0 0 0 149.1750857783436 37.99356816458203 0 37.99356816458203 -160.53181582806201 0 0 0 0 52.952995315451517 -16.311890794510873 0 -16.311890794510873 -128.74761336489973 0 0 0 0 49.574370789725435 27.949524880499666 0 27.949524880499666 -88.596402059985849 0 0 0 0 161.15457244363097 148.60058037513227 0 148.60058037513227 -49.099181908693708 0 0 0 0 139.17940339099368 274.20098380417903 0 274.20098380417903 255.52184220090385 0 0 0 0 152.75695029613871 215.34270109582576 0 215.34270109582576 21.573505873065187 0 0 0 0 234.32087060996309 231.9267435041811 0 231.9267435041811 -67.707465918100752 0 0 0 0 114.50123470086965 40.884445069246794 0 40.884445069246794 -108.61346918278468 0 0 0 0 33.967373776220484 77.502852727806385 0 77.502852727806385 -241.06156974788064 0 0 0 0 -52.919902884405019 -240.19556400750844 0 -240.19556400750844 -636.37204391607884 0 0 0 0 35.811475734646592 49.141129831999933 0 49.141129831999933 -319.59483453945904 0 0 0 0 192.46676366826614 -34.257975279274433 0 -34.257975279274433 -277.79771413256094 0 0 0 0 100.99028221457365 114.44160452723463 0 114.44160452723463 -75.191046418680344 0 0 0 0 240.83110559502711 103.79943499753608 0 103.79943499753608 -286.06329308013665 0 0 0 0 165.73172576641537 205.7529389606002 0 205.7529389606002 1.0474232515753101 0 0 0 0 345.52290938254191 263.24379867040352 0 263.24379867040352 -43.483972990299208 0 0 0 0 262.22791880045224 172.36577356656744 0 172.36577356656744 105.96251402336202 0 0 0 0 403.87749195746073 299.27176330828297 0 299.27176330828297 193.57557936483863 0 0 0 0 195.9972262460924 76.232047222662004 0 76.232047222662004 60.465660956622742 0 0 0 0 381.02843963871055 169.37032469759833 0 169.37032469759833 -71.548515633723127 0 0 0 0 519.71729095820365 47.063363005304836 0 47.063363005304836 62.461701036834711 0 0 0 0 325.41768747203969 19.031861018973359 0 19.031861018973359 258.66071216805267 0 0 0 0 579.67033447679933 357.01386733709251 0 357.01386733709251 459.03655568764225 0 0 0 0 758.46770938856525 -114.47283377275357 0 -114.47283377275357 298.27997796038835 0 0 0 0 453.17176939134879 194.97523568436736 0 194.97523568436736 262.62212611876748 0 0 0 0 292.13723470119385 425.56900487815437 0 425.56900487815437 644.27510379862906 0 0 0 0 228.71819117092764 262.05748620920986 0 262.05748620920986 281.78338804700979 0 0 0 0 185.11776328813812 347.62370865971025 0 347.62370865971025 244.00504265222389 0 0 0 0 84.753561286415788 312.57234443160542 0 312.57234443160542 324.20688960863424 0 0 0 0 86.547087841867167 310.01942177587864 0 310.01942177587864 234.71313440661106 0 0 0 0 208.72835624365416 339.04365576998862 0 339.04365576998862 238.26543726898126 0 0 0 0 -8.6072680860006585 -120.32300376528383 0 -120.32300376528383 105.13604498499808 0 0 0 0 84.760703770884447 -153.14907162896475 0 -153.14907162896475 -74.393314355926123 0 0 0 0 43.61482934657397 -139.94585006333909 0 -139.94585006333909 -67.945361345824494 0 0 0 0 -29.33709117770286 -150.87156944370054 0 -150.87156944370054 83.869129744452948 0 0 0 0 54.027057376114499 -101.0245184390883 0 -101.0245184390883 125.84273091267642 0 0 0 0 -33.558470346780268 -86.492301610754112 0 -86.492301610754112 126.90998679124823 0 0 0 0 -5.4719460790529411 -79.574441574220145 0 -79.574441574220145 269.44918387283587 0 0 0 0 31.476527007876939 -38.487994106802034 0 -38.487994106802034 196.15237292608799 0 0 0 0 5.945042207280494 -50.245800741946368 0 -50.245800741946368 336.29280441991068 0 0 0 0 78.613383712228824 -110.6896717416821 0 -110.6896717416821 98.540847764005775 0 0 0 0 44.293523539725356 -132.57331044925741 0 -132.57331044925741 219.37576560932939 0 0 0 0 126.99899981813178 -120.59774729525088 0 -120.59774729525088 349.96481966540705 0 0 0 0 63.838540035588949 -52.239029560380459 0 -52.239029560380459 281.90383489206215 0 0 0 0 156.64793167036555 -11.908396693080249 0 -11.908396693080249 429.60444902025483 0 0 0 0 416.9871777831595 9.7774925616022301 0 9.7774925616022301 612.4139374883398 0 0 0 0 202.36473737964661 -200.10840260692748 0 -200.10840260692748 315.02805338247526 0 0 0 0 398.90383167340678 -59.534811903764876 0 -59.534811903764876 90.140208529803203 0 0 0 0 216.73005586171894 -122.43305266866173 0 -122.43305266866173 -104.13788611114796 0 0 0 0 140.35612647511698 -87.722425908774312 0 -87.722425908774312 88.119888868268845 0 0 0 0 295.54101647767675 -15.940139499592533 0 -15.940139499592533 -86.004567787749693 0 0 0 0 109.10193079352757 -181.00979232702048 0 -181.00979232702048 145.75186203767589 0 0 0 0 157.55343712817194 -84.456739386999288 0 -84.456739386999288 92.189564060008706 0 0 0 0 79.676301031453477 -127.13887109305506 0 -127.13887109305506 88.392260345332602 0 0 0 0 70.56978174441474 -101.99173663736724 0 -101.99173663736724 83.59056578433956 0 0 0 0 105.30414823385036 -193.92019417181473 0 -193.92019417181473 -71.952412014148649 0 0 0 0 70.373460532788158 -118.36670190759105 0 -118.36670190759105 -120.37877546363688 0 0 0 0 132.19670830136829 -118.79765985596259 0 -118.79765985596259 -320.56241265109929 0 0 0 0 90.105904794683738 -208.29152864547632 0 -208.29152864547632 -233.72072948911227 0 0 0 0 55.187403187330347 -133.83944136589344 0 -133.83944136589344 -278.9939089491927 0 0 0 0 71.636872486033099 -28.975893185706809 0 -28.975893185706809 -84.213165289834478 0 0 0 0 47.109657932975097 -152.71045432825304 0 -152.71045432825304 -103.83465519594711 0 0 0 0 165.15401325927087 -67.87753299792621 0 -67.87753299792621 -265.7783995627542 0 0 0 0 117.65229705849197 -164.73211309151156 0 -164.73211309151156 -563.07167483420926 0 0 0 0 -80.138659598222148 -3.168335171216313 0 -3.168335171216313 -547.356097942215 0 0 0 0 187.27055655403092 31.468127545376774 0 31.468127545376774 -1128.3226313184477 0 0 0 0 -48.844562551281342 -159.02975595150019 0 -159.02975595150019 -290.55375665693418 0 0 0 0 -12.356591224432123 -121.40539325542159 0 -121.40539325542159 -449.18186898567478 0 0 0 0 104.94696295462745 -172.94376218782963 0 -172.94376218782963 -455.85617176804044 0 0 0 0 46.808654865513745 -196.61692324603064 0 -196.61692324603064 -373.81957347796742 0 0 0 0 28.301869326440283 -102.6557669545582 0 -102.6557669545582 -320.66837717326979 0 0 0 0 64.892504036699393 -163.06906665183033 0 -163.06906665183033 -463.70505130695824 0 0 0 0 48.970900135734155 -186.45855970558705 0 -186.45855970558705 -297.59992794409118 0 0 0 0 40.362502124837192 -138.92587421899043 0 -138.92587421899043 -427.53346847745706 0 0 0 0 89.514336817986987 -138.87988280072204 0 -138.87988280072204 -393.69932421991143 0 0 0 0 49.405084937190622 -116.27334850697389 0 -116.27334850697389 -257.78740665367332 0 0 0 0 39.974541035851871 -194.59459296672321 0 -194.59459296672321 -77.56363271787734 0 0 0 0 8.2733573085624812 -173.57370538258328 0 -173.57370538258328 -217.560859403824 0 0 0 0 19.84656839768877 -196.1143162129581 0 -196.1143162129581 -206.1594192325465 0 0 0 0 -15.427748604452063 -113.08741191298759 0 -113.08741191298759 -76.799756037215047 0 0 0 0 -27.186262466744665 -135.5788024249523 0 -135.5788024249523 -263.1758381314794 0 0 0 0 13.583440843533026 -209.21347805315418 0 -209.21347805315418 -344.50879523547701 0 0 0 0 -13.22270301439039 -154.61370495116125 0 -154.61370495116125 -227.07730711316981 0 0 0 0 -108.54610347983544 -219.41883481876539 0 -219.41883481876539 -326.14398952866213 0 0 0 0 8.5768671024561627 -107.98928846008494 0 -107.98928846008494 -450.16902007607678 0 0 0 0 -84.817772734328173 -121.00999465093264 0 -121.00999465093264 -381.20903012629969 0 0 0 0 -1.885044401500636 -193.81963304961027 0 -193.81963304961027 -318.34967158125983 0 0 0 0 -17.962561034684768 -22.490965442439517 0 -22.490965442439517 6.3696884131895786 0 0 0 0 -110.24459642301736 70.275233936360564 0 70.275233936360564 140.63061037516218 0 0 0 0 10.209739092886405 -4.9998344355497375 0 -4.9998344355497375 2.1794009632689182 0 0 0 0 -1.3789701051376113 -1.0543338946628218 0 -1.0543338946628218 1.8950338574508425 0 0 0 0 25.368120812945563 60.13685242950487 0 60.13685242950487 -21.307540796280136 0 0 0 0 39.95571378461586 -13.952303377577257 0 -13.952303377577257 3.1889767256507096 0 0 0 0 6.1653710714580257 -87.270497803569697 0 -87.270497803569697 -22.57596841243776 0 0 0 0 12.722586008141455 -9.9056763265105481 0 -9.9056763265105481 1.4563286894423122 0 0 0 0 24.891716107824323 -48.53190250922421 0 -48.53190250922421 -118.58393252289443 0 0 0 0 22.01500571177894 21.989153098463248 0 21.989153098463248 -90.165273611497014 0 0 0 0 6.3102708209692615 -2.9786768890821733 0 -2.9786768890821733 -0.35392345704286754 0 0 0 0 -168.84004106341672 -32.5840834717701 0 -32.5840834717701 14.493515248447238 0 0 0 0 -14.088074717442851 -12.109739649449921 0 -12.109739649449921 -46.480649583651029 0 0 0 0 61.029116591029378 16.48634596089687 0 16.48634596089687 -57.565109258959637 0 0 0 0 24.777330141108905 5.5365719296451061 0 5.5365719296451061 -101.90556203250981 0 0 0 0 -2.0772039653267242 0.49808397475586119 0 0.49808397475586119 -0.19753435461178626 0 0 0 0 -132.0872508475768 -154.63192773953233 0 -154.63192773953233 364.10248988295825 0 0 0 0 85.096801102794871 -133.14665671080661 0 -133.14665671080661 -239.09827933022098 0 0 0 0 54.506096839713791 -21.03327412323415 0 -21.03327412323415 -147.95658319760696 0 0 0 0 -2.5979749089638062 70.365637035187319 0 70.365637035187319 125.33709596574408 0 0 0 0 76.724528252896562 -54.043267091062262 0 -54.043267091062262 -583.65192107083749 0 0 0 0 108.62306001934303 -108.75936227552302 0 -108.75936227552302 -225.55771631010521 0 0 0 0 30.401991413564474 -152.53757352631197 0 -152.53757352631197 -13.626365469835946 0 0 0 0 56.767291165289656 -14.280004827970584 0 -14.280004827970584 0.027865681724247082 0 0 0 0 -0.13488490179121726 -12.397939374378183 0 -12.397939374378183 -0.31987814950877436 0 0 0 0 3.5158084530451141 -0.89222130389858201 0 -0.89222130389858201 -0.02094225927333504 0 0 0 0 1032.5366108397247 200.56700995595747 0 200.56700995595747 -192.24298492974435 0 0 0 0 411.15241613137005 -11.896090483488479 0 -11.896090483488479 -61.021163371301554 0 0 0 0 -164.29620881245637 55.176537234692205 0 55.176537234692205 172.38275559321482 0 0 0 0 -289.2854100108334 29.486964879873995 0 29.486964879873995 228.89658764172236 0 0 0 0 60.99745501648249 -157.88413077143014 0 -157.88413077143014 -238.98135406842266 0 0 0 0 52.770017935336341 -13.878080943977446 0 -13.878080943977446 0.57743313452853151 0 0 0 0 5.1207707339076407 -2.2320485106870613 0 -2.2320485106870613 1.7297042402928913 0 0 0 0 396.13548524148428 4.0832510480895507 0 4.0832510480895507 -77.15981648865818 0 0 0 0 393.95583186568706 -74.643234135035982 0 -74.643234135035982 -78.357551121702272 0 0 0 0 341.38497466053741 229.65367947352934 0 229.65367947352934 -13.689609792880219 0 0 0 0 133.13657688906096 41.129174091824098 0 41.129174091824098 -14.740785409173441 0 0 0 0 10.566003049985738 306.64450569036308 0 306.64450569036308 147.32089001098211 0 0 0 0 225.6394169622472 -142.24146753223613 0 -142.24146753223613 -49.27541605647184 0 0 0 0 121.57830463978644 -139.84665573135771 0 -139.84665573135771 -9.1734154693285745 0 0 0 0 60.37454935182177 -146.25566429321225 0 -146.25566429321225 -49.118223064996528 0 0 0 0 -85.145666199935476 -50.286675577378446 0 -50.286675577378446 7.6090553671283487 0 0 0 0 79.041647078638562 -50.895916947416026 0 -50.895916947416026 3.4518972230162035 0 0 0 0 57.799560126694814 -67.561076264003532 0 -67.561076264003532 9.3670534549764852 0 0 0 0 106.34438722293999 -69.901873265406721 0 -69.901873265406721 9.4120541781753673 0 0 0 0 106.89047585237677 -41.503059407817091 0 -41.503059407817091 -3.2481834907212033 0 0 0 0 196.2062510117139 -50.813531578056427 0 -50.813531578056427 -53.912241673143399 0 0 0 0 137.69763950114975 -33.395430385336113 0 -33.395430385336113 -19.4561687481646 0 0 0 0 122.68705459841294 5.4508654499704789 0 5.4508654499704789 -8.193402805038204 0 0 0 0 17.370682521551316 36.425622080715584 0 36.425622080715584 29.744913610836193 0 0 0 0 102.19333969362742 73.944341937253739 0 73.944341937253739 14.392202714167524 0 0 0 0 95.90238345734906 25.070031916114203 0 25.070031916114203 -2.9681020574717536 0 0 0 0 12.356997593042252 -3.4761610374916927 0 -3.4761610374916927 -1.3570529617481952 0 0 0 0 36.077000211656923 -33.842978452907346 0 -33.842978452907346 25.550913928731461 0 0 0 0 97.564454062947334 -8.8849126985355724 0 -8.8849126985355724 35.148597408276146 0 0 0 0 63.916135761017358 59.481424994120061 0 59.481424994120061 58.408311809182123 0 0 0 0 125.90221969848972 69.415917147372966 0 69.415917147372966 35.767628997525662 0 0 0 0 209.61374355215958 115.98675446340462 0 115.98675446340462 59.670553561364613 0 0 0 0 165.44201810643199 60.273820751307767 0 60.273820751307767 35.095426231066085 0 0 0 0 208.2106341113863 -7.2227743656034136 0 -7.2227743656034136 14.245671436802695 0 0 0 0 364.4825757068902 104.19067744886752 0 104.19067744886752 35.462481807680518 0 0 0 0 277.01933143876431 -41.839287429309024 0 -41.839287429309024 30.97182700643657 0 0 0 0 90.706045197136973 -23.15772053988519 0 -23.15772053988519 -4.9554853735198776 0 0 0 0 111.68792123017624 -57.48393165494258 0 -57.48393165494258 32.084790196184258 0 0 0 0 88.963693043962849 -23.126325956702203 0 -23.126325956702203 20.381178392097127 0 0 0 0 117.62510252893662 -54.384964080615646 0 -54.384964080615646 42.5491830572455 0 0 0 0 87.111754443880159 4.7687768943611673 0 4.7687768943611673 15.254585715169924 0 0 0 0 18.979850037681569 12.039622306633689 0 12.039622306633689 6.807304878112399 0 0 0 0 72.542870332279108 -42.578753735087872 0 -42.578753735087872 85.145402521395681 0 0 0 0 -114.72335503086106 4.6859588097499909 0 4.6859588097499909 751.22288201316678 0 0 0 0 6.6392396742234041 4.3147863120094243 0 4.3147863120094243 3.133380222518543 0 0 0 0 -55.911350321708596 48.176135198469865 0 48.176135198469865 332.7397613517378 0 0 0 0 44.209591279646702 149.78729203387547 0 149.78729203387547 66.719014264080215 0 0 0 0 262.17958467768631 178.76948538047873 0 178.76948538047873 92.458553384721199 0 0 0 0 409.04228282975964 194.92717513842217 0 194.92717513842217 91.578664040658168 0 0 0 0 601.95915448989763 -62.871310125080527 0 -62.871310125080527 23.484339244190778 0 0 0 0 521.7580705936648 366.91550802275697 0 366.91550802275697 319.7612919424264 0 0 0 0 290.02177839598153 141.89381521292898 0 141.89381521292898 594.6304588011908 0 0 0 0 520.1577764839476 -130.7010306173338 0 -130.7010306173338 418.99084028305651 0 0 0 0 382.0730778291354 83.242169500907039 0 83.242169500907039 197.02437214837846 0 0 0 0 577.2670991771779 -147.21786843008405 0 -147.21786843008405 -240.13458590045639 0 0 0 0 596.09207323164139 338.1305302129303 0 338.1305302129303 -103.76503593585835 0 0 0 0 5.4411985652436741 2.3555058314873913 0 2.3555058314873913 -1.110639164492683 0 0 0 0 149.69023742262834 302.72560490893397 0 302.72560490893397 500.51628498407365 0 0 0 0 755.99055434757702 -198.94834327274259 0 -198.94834327274259 -346.93800287363069 0 0 0 0 8.148265194524356 362.78264031614765 0 362.78264031614765 521.14541596741378 0 0 0 0 31.801910705574301 293.96687722051763 0 293.96687722051763 43.580128719168442 0 0 0 0 -130.37103130041578 223.09459514850414 0 223.09459514850414 385.62214312280366 0 0 0 0 -36.420962216721819 218.25040210299699 0 218.25040210299699 222.00243378241885 0 0 0 0 -148.90928192498905 84.891794659308061 0 84.891794659308061 267.25068485717657 0 0 0 0 11.459457343243294 3.4780054647511784 0 3.4780054647511784 -2.1010889303124136 0 0 0 0 23.183263045536478 52.242300782343364 0 52.242300782343364 -194.69135336094632 0 0 0 0 12.498962520458008 152.74590360058505 0 152.74590360058505 18.819522100254403 0 0 0 0 119.60074575198814 131.66230361214792 0 131.66230361214792 -63.577078815117602 0 0 0 0 65.06044199154212 141.25231531039964 0 141.25231531039964 -60.350223993551708 0 0 0 0 71.916743315493477 140.82193858708871 0 140.82193858708871 -175.1417489510435 0 0 0 0 176.17579376382309 188.71807324434531 0 188.71807324434531 -138.71329038976489 0 0 0 0 -249.7722229684241 266.52301450485697 0 266.52301450485697 -132.38853573566939 0 0 0 0 5.9344666507877264 109.0570236859738 0 109.0570236859738 -392.92457253131556 0 0 0 0 -34.788959450372204 80.226627945350145 0 80.226627945350145 -38.10686228614297 0 0 0 0 -38.318409579209401 182.73640061286164 0 182.73640061286164 -151.34698920594053 0 0 0 0 -33.534973267829628 74.802809073139088 0 74.802809073139088 -61.065302983100537 0 0 0 0 -114.2782295335146 102.76258534589806 0 102.76258534589806 -69.193072498680522 0 0 0 0 66.374679034327528 105.49472324316847 0 105.49472324316847 -201.76895076874234 0 0 0 0 91.77278656798444 44.538661819907475 0 44.538661819907475 -128.09614338211304 0 0 0 0 51.797802092176426 134.91786846705509 0 134.91786846705509 -132.86342066469115 0 0 0 0 67.235202877742267 -39.487823004424172 0 -39.487823004424172 -271.97521022550643 0 0 0 0 64.332225377084598 -1.9465843502824516 0 -1.9465843502824516 -7.6789470027124764 0 0 0 0 175.50879534968226 -47.34592443271913 0 -47.34592443271913 -490.64363623707663 0 0 0 0 30.819324442112702 56.259963746912035 0 56.259963746912035 91.819424153636646 0 0 0 0 49.936996110336736 2.3185301553204809 0 2.3185301553204809 16.274983177687979 0 0 0 0 -224.27101202726408 -288.29429613554601 0 -288.29429613554601 -367.58292759130211 0 0 0 0 -229.71469290100777 -191.3990576698715 0 -191.3990576698715 -363.97064733659045 0 0 0 0 -46.470519780772406 -307.22761525885841 0 -307.22761525885841 -435.48773431811435 0 0 0 0 -56.922445009306102 -98.132295507887505 0 -98.132295507887505 -313.7046681244924 0 0 0 0 -23.385105210694746 13.491877615435783 0 13.491877615435783 -358.10303109128108 0 0 0 0 272.38951267376251 86.716804222574183 0 86.716804222574183 -374.12055407555755 0 0 0 0 85.437518104807168 -210.53017523510357 0 -210.53017523510357 -307.95276341208455 0 0 0 0 222.9250316655507 -150.22376922182741 0 -150.22376922182741 -373.27941903652254 0 0 0 0 166.62308225842571 -72.56130669291133 0 -72.56130669291133 -237.16272709832742 0 0 0 0 170.51897231322255 77.291795140044087 0 77.291795140044087 -156.45872070058863 0 0 0 0 270.60968168912768 78.718618063779331 0 78.718618063779331 -316.89946525018382 0 0 0 0 411.46117908258475 -57.747561334529081 0 -57.747561334529081 85.173250402251824 0 0 0 0 166.42784786034099 278.16485863495177 0 278.16485863495177 168.7799640391014 0 0 0 0 464.64737852971302 213.29224284393194 0 213.29224284393194 -32.621177294552581 0 0 0 0 195.21543775840473 77.056144375639633 0 77.056144375639633 -69.575836339515035 0 0 0 0 366.90853757236891 -40.317272661614822 0 -40.317272661614822 -236.20687916127895 0 0 0 0 134.60296575269604 -57.977247342363512 0 -57.977247342363512 -54.28569958468421 0 0 0 0 128.04981433341163 -23.185411458085014 0 -23.185411458085014 -40.876429403566704 0 0 0 0 152.42233888570263 -34.322693905577694 0 -34.322693905577694 -129.12881991362826 0 0 0 0 62.022462516863015 -57.323388947620856 0 -57.323388947620856 135.57899704013289 0 0 0 0 -16.381449375028751 86.402596782138062 0 86.402596782138062 207.374921337449 0 0 0 0 607.79296887770397 -254.85068881763755 0 -254.85068881763755 -90.735656348895418 0 0 0 0 145.26975659448726 -48.491943142451873 0 -48.491943142451873 -48.010480826177627 0 0 0 0 -2.0640508947500233 -2.9241051124268722 0 -2.9241051124268722 -1.3962154053815805 0 0 0 0 103.19119656692783 48.160268721288958 0 48.160268721288958 272.43026558802012 0 0 0 0 153.0316687278173 -39.610684115471031 0 -39.610684115471031 -266.0372677415603 0 0 0 0 -1.2672373552261398 -1.2380645777992783 0 -1.2380645777992783 1.4964481984514988 0 0 0 0 558.35943201010741 11.602508385451642 0 11.602508385451642 -535.77139484132476 0 0 0 0 107.63083611060574 186.44226053536499 0 186.44226053536499 -243.92819156045266 0 0 0 0 6.6866478020620548 3.2705522987843576 0 3.2705522987843576 -1.5648886992416169 0 0 0 0 256.23673549501109 445.96112831419305 0 445.96112831419305 476.64368085003986 0 0 0 0 170.62384492267665 -172.82186700566524 0 -172.82186700566524 -324.29450173328451 0 0 0 0 -82.781054619121278 0.8646615933494104 0 0.8646615933494104 -134.23168021930371 0 0 0 0 -136.78830024299168 61.541616203232934 0 61.541616203232934 286.1101522388044 0 0 0 0 711.39728376993298 250.31679785545748 0 250.31679785545748 289.20179305549175 0 0 0 0 22.471133954273682 346.17465084286232 0 346.17465084286232 416.7826253545627 0 0 0 0 159.15560227869719 -96.299848835511057 0 -96.299848835511057 406.50904947102481 0 0 0 0 12.413128120056527 3.7294882184807241 0 3.7294882184807241 -2.406886618887218 0 0 0 0 305.39247941876238 -83.582082996690133 0 -83.582082996690133 -33.669840401477131 0 0 0 0 -26.983836591207364 164.99508357351124 0 164.99508357351124 142.12287369185924 0 0 0 0 404.25400379438361 313.29463796725076 0 313.29463796725076 183.52212434761805 0 0 0 0 -57.58007056713268 235.72953742089726 0 235.72953742089726 492.22565530619613 0 0 0 0 348.40067687542614 -141.59098308979401 0 -141.59098308979401 64.880156473678198 0 0 0 0 116.6879271039943 465.54421109082841 0 465.54421109082841 513.15475936430539 0 0 0 0 -0.31818711844104541 5.5429439435975851 0 5.5429439435975851 5.1015858282909052 0 0 0 0 70.957425538039388 -52.090425657438573 0 -52.090425657438573 0.83764152895901134 0 0 0 0 150.80656292069034 26.159509723040173 0 26.159509723040173 -223.8812392951445 0 0 0 0 19.635113228352992 -7.1892309206212772 0 -7.1892309206212772 -1.3862547479216705 0 0 0 0 299.4123999204603 -159.06463486278244 0 -159.06463486278244 -117.38675884878967 0 0 0 0 581.8692916605487 248.17549263900867 0 248.17549263900867 -16.880294946469803 0 0 0 0 355.5543720541682 429.29001550990006 0 429.29001550990006 434.26976507307518 0 0 0 0 50.012818987022911 -158.34692909461432 0 -158.34692909461432 145.02733887554223 0 0 0 0 2.5543948398545098 -4.8244251669150948 0 -4.8244251669150948 1.76455230580707 0 0 0 0 472.53272551814734 174.93723299337807 0 174.93723299337807 105.53364650984577 0 0 0 0 17.430785799516663 0.52571058861853004 0 0.52571058861853004 -5.611388051869076 0 0 0 0 -146.96520742472785 5.2549094129481659 0 5.2549094129481659 162.40942865951718 0 0 0 0 62.605287477563934 -65.659056475024045 0 -65.659056475024045 3.474712702857687 0 0 0 0 55.838645804911074 -34.237734232274484 0 -34.237734232274484 -6.9058308361184046 0 0 0 0 18.808948968260665 -56.034031225185572 0 -56.034031225185572 45.334404521726356 0 0 0 0 45.428427811128984 -71.40643081199471 0 -71.40643081199471 -78.762902523842968 0 0 0 0 85.910585519782131 -35.015493342768082 0 -35.015493342768082 -189.43258724702901 0 0 0 0 84.770648790969972 -127.1896283913361 0 -127.1896283913361 36.314245272625158 0 0 0 0 15.237889556146522 -7.7881382173883154 0 -7.7881382173883154 -3.0047706569374917 0 0 0 0 -4.8326838823086291 -65.770463870213462 0 -65.770463870213462 22.207409130540327 0 0 0 0 40.048084972316623 -34.441591947707757 0 -34.441591947707757 -11.662425418712285 0 0 0 0 78.58447302085915 -40.835317281255811 0 -40.835317281255811 -43.054805443925943 0 0 0 0 -119.21234665084285 -84.490511472935395 0 -84.490511472935395 -22.912964664701576 0 0 0 0 38.210783621044591 -30.239511452498721 0 -30.239511452498721 -14.965850002846199 0 0 0 0 41.827156840055977 -46.478267181137198 0 -46.478267181137198 -42.070136101394496 0 0 0 0 -81.487693815351918 -163.20140855809541 0 -163.20140855809541 -15.948695077125194 0 0 0 0 26.681125826694711 -85.309192041793722 0 -85.309192041793722 -77.037448728405366 0 0 0 0 136.99364634557105 -76.122552825634784 0 -76.122552825634784 -44.844676078902012 0 0 0 0 170.94718111127051 -112.34020790844852 0 -112.34020790844852 -131.0744954930633 0 0 0 0 56.655794405763864 -121.19920173274068 0 -121.19920173274068 -37.799319208353154 0 0 0 0 -0.87860368603105599 97.291617250218678 0 97.291617250218678 99.487187495884882 0 0 0 0 215.82013243015354 -13.384766648725417 0 -13.384766648725417 -101.61147425039053 0 0 0 0 61.521451491218613 -17.178080750548361 0 -17.178080750548361 51.258190420054234 0 0 0 0 104.66511535910468 -85.613176223379924 0 -85.613176223379924 32.789595465435923 0 0 0 0 22.787492109916911 2.2724139827073486 0 2.2724139827073486 9.301541672305575 0 0 0 0 110.47166633024972 35.93752604110523 0 35.93752604110523 -121.69093704938632 0 0 0 0 35.055017790174048 12.109051769162939 0 12.109051769162939 5.0264544999892884 0 0 0 0 25.413468251361337 11.220267031313142 0 11.220267031313142 37.592410060995917 0 0 0 0 23.26505185010501 -4.4355175036721448 0 -4.4355175036721448 4.3274219645227276 0 0 0 0 27.380182131768379 -16.633293393886561 0 -16.633293393886561 37.921066831924193 0 0 0 0 25.268155227558069 -12.872502490331073 0 -12.872502490331073 -0.015039230971193973 0 0 0 0 -71.032252379403189 -87.308522207420538 0 -87.308522207420538 -7.1873065888539713 0 0 0 0 13.454621892875366 -7.500694609387665 0 -7.500694609387665 14.200468470839724 0 0 0 0 10.611729525820945 -16.562767396443736 0 -16.562767396443736 -0.16357296714157599 0 0 0 0 -60.173866217381601 -40.411677688189684 0 -40.411677688189684 13.067095100102051 0 0 0 0 -76.605724098059454 -72.881710021695653 0 -72.881710021695653 -22.95933503492779 0 0 0 0 -61.235034862244675 -15.517546859437971 0 -15.517546859437971 21.757723575634373 0 0 0 0 -49.271520760875603 -14.814287190778714 0 -14.814287190778714 4.7727741480266559 0 0 0 0 1.6940492618570566 -1.3580212362036121 0 -1.3580212362036121 -0.41144733016315271 0 0 0 0 2.5446707370074364 -12.486287506324743 0 -12.486287506324743 6.1404897093007094 0 0 0 0 24.87129683825151 6.2877018080844209 0 6.2877018080844209 -13.453673417622667 0 0 0 0 357.24116909253115 -239.09203528506714 0 -239.09203528506714 60.174814741642876 0 0 0 0 -4.0615239302044301 -28.810587676665818 0 -28.810587676665818 63.01905763779547 0 0 0 0 49.336520203823511 -75.185204464963135 0 -75.185204464963135 99.740487202190707 0 0 0 0 27.640600838083515 -86.858449436499541 0 -86.858449436499541 257.20711934819337 0 0 0 0 6.0880292235451634 -122.9777309753008 0 -122.9777309753008 -105.97004131061567 0 0 0 0 18.211371603849329 -167.65694368443565 0 -167.65694368443565 55.807210780611058 0 0 0 0 -105.58465132914762 -164.48130277714336 0 -164.48130277714336 -133.17295263018059 0 0 0 0 -150.23460978480585 -44.878946590635792 0 -44.878946590635792 36.824215031991116 0 0 0 0 15.087261705863202 -15.36412562426888 0 -15.36412562426888 -11.161091914068713 0 0 0 0 -56.570155693429342 -50.976952199426705 0 -50.976952199426705 26.000543864214706 0 0 0 0 -60.880325665222927 -52.597961997676066 0 -52.597961997676066 96.941142078616394 0 0 0 0 -7.6665700051435124 7.9157792975101984 0 7.9157792975101984 50.821631335936218 0 0 0 0 -23.430324303880298 -14.622032082781516 0 -14.622032082781516 68.039269189623155 0 0 0 0 -56.4826590055808 -13.511594561831458 0 -13.511594561831458 84.723075643538323 0 0 0 0 -87.347117044298102 -34.580257252396223 0 -34.580257252396223 63.145481891976488 0 0 0 0 -55.894327839406039 -24.912701474844852 0 -24.912701474844852 35.10448298598385 0 0 0 0 -51.072762474353112 9.6526374986297014 0 9.6526374986297014 42.746129030746943 0 0 0 0 -40.986790687677285 0.68961197639737293 0 0.68961197639737293 49.701105682022899 0 0 0 0 17.404913269596847 76.393520760548654 0 76.393520760548654 33.998764858759387 0 0 0 0 2.634457301536564 -1.5158511867452269 0 -1.5158511867452269 1.1373051819628142 0 0 0 0 27.180733868778248 32.511035090796895 0 32.511035090796895 194.66644418405303 0 0 0 0 546.22851680030658 -153.21421918867372 0 -153.21421918867372 -12.667069108264457 0 0 0 0 13.174342276787627 46.698148112999206 0 46.698148112999206 120.9938018539633 0 0 0 0 -21.498993533519666 -30.335565315604754 0 -30.335565315604754 156.54081935735303 0 0 0 0 838.33875999169709 -118.84294508452945 0 -118.84294508452945 -60.394123586469505 0 0 0 0 517.35676591684432 -77.500348413384472 0 -77.500348413384472 27.580098692879801 0 0 0 0 409.75328255922301 171.83300552251194 0 171.83300552251194 -51.094452469046701 0 0 0 0 339.14817598785532 108.30492247250913 0 108.30492247250913 131.06261752435694 0 0 0 0 339.34766337832315 107.8445424000036 0 107.8445424000036 -36.452960664109014 0 0 0 0 196.15785770536286 141.15583822621193 0 141.15583822621193 57.666644502125337 0 0 0 0 37.470171914830189 32.826502812744366 0 32.826502812744366 102.72469330796048 0 0 0 0 485.81367008603934 264.07039055669338 0 264.07039055669338 92.549513559031766 0 0 0 0 13.252409569745875 -5.4903384220247666 0 -5.4903384220247666 0.06367307145941048 0 0 0 0 86.125981380676421 -34.099744479521178 0 -34.099744479521178 -46.255531262993827 0 0 0 0 47.905664198899331 -14.657636645984894 0 -14.657636645984894 -56.030764903869112 0 0 0 0 2.4476512916015767 3.9943547306929021 0 3.9943547306929021 -9.366880274028027 0 0 0 0 33.832842269323919 25.725809227406899 0 25.725809227406899 -33.189528039342804 0 0 0 0 94.491729576179296 -46.484437975111177 0 -46.484437975111177 -28.921079899844699 0 0 0 0 -35.653816836690567 -96.788978486700216 0 -96.788978486700216 -154.87528433965053 0 0 0 0 -57.353613373158964 -101.01501693904538 0 -101.01501693904538 -123.03529074003018 0 0 0 0 -25.038123874553108 -86.316607224321388 0 -86.316607224321388 -145.97440752062903 0 0 0 0 -58.082688827567893 -94.309701472725919 0 -94.309701472725919 -157.69655635395975 0 0 0 0 -150.36006681178719 -181.33289740637338 0 -181.33289740637338 -171.19838242147307 0 0 0 0 -130.86047863883505 -106.03195437848603 0 -106.03195437848603 -132.37920046713771 0 0 0 0 -86.646317010285941 -134.14477417901981 0 -134.14477417901981 -165.29896503636701 0 0 0 0 10.047206734900101 2.3188016952390171 0 2.3188016952390171 -2.5270579684893164 0 0 0 0 8.2733906369283101 1.4120439281124906 0 1.4120439281124906 -8.5997191464508038 0 0 0 0 -88.348818738337172 -82.578569219698693 0 -82.578569219698693 -119.92529130142975 0 0 0 0 -30.505862937094207 -127.67060964234133 0 -127.67060964234133 -226.7447909410721 0 0 0 0 -49.815701968547046 -118.0527732032042 0 -118.0527732032042 -167.80216059610439 0 0 0 0 -88.292229349760859 -84.606238223871685 0 -84.606238223871685 -192.22137760150144 0 0 0 0 -58.141853236365705 -105.3420833934365 0 -105.3420833934365 -152.3260103439352 0 0 0 0 1.9811177726523859 0.26305101115666663 0 0.26305101115666663 -3.6065880926648557 0 0 0 0 5.7320145116613048 -0.49072126359726553 0 -0.49072126359726553 -4.6688917033416146 0 0 0 0 5.9686304276154107 -0.61557000231335923 0 -0.61557000231335923 -2.8093518664049562 0 0 0 0 8.3978693535273123 -2.3259646140282415 0 -2.3259646140282415 -4.2479408936474172 0 0 0 0 -60.886977074335846 -56.293852283133674 0 -56.293852283133674 -21.800814568612623 0 0 0 0 59.180313988699709 12.31035089773286 0 12.31035089773286 -25.85955404361431 0 0 0 0 4.955800464995642 -2.5742410473539312 0 -2.5742410473539312 -5.9956362270724775 0 0 0 0 50.600691043485313 -7.7006543409424921 0 -7.7006543409424921 32.80917802804106 0 0 0 0 151.31583887345323 11.230338840211516 0 11.230338840211516 -14.819415256254615 0 0 0 0 55.363835648205168 33.264349427779052 0 33.264349427779052 26.374311923521873 0 0 0 0 260.60080821983206 -7.435860131274012 0 -7.435860131274012 5.6516046480344357 0 0 0 0 117.46707959791524 44.441356083570668 0 44.441356083570668 115.04585787386895 0 0 0 0 20.908662206168628 3.5434638521481929 0 3.5434638521481929 -3.6221514313274383 0 0 0 0 -64.755981184327993 -45.052752019458694 0 -45.052752019458694 28.439523981174716 0 0 0 0 111.74142742637378 4.1111706283286367 0 4.1111706283286367 -32.674807717336535 0 0 0 0 -62.022389625748701 -4.4797787643952347 0 -4.4797787643952347 42.093569795614712 0 0 0 0 0.47947561171106656 3.0084068842276599 0 3.0084068842276599 -0.61416484673329474 0 0 0 0 2.4780696807398424 0.63580106822600868 0 0.63580106822600868 -6.4444517880330618 0 0 0 0 13.662547720105067 5.1799920497312542 0 5.1799920497312542 -8.2847161965728446 0 0 0 0 157.25839012053211 35.200157839037047 0 35.200157839037047 -34.766437063250578 0 0 0 0 194.28756093633046 135.36612816021261 0 135.36612816021261 51.479973349096781 0 0 0 0 298.34395664370913 173.30519672696937 0 173.30519672696937 56.453950682026516 0 0 0 0 409.20140166874012 128.24690038868516 0 128.24690038868516 -22.092338721095075 0 0 0 0 329.0675892568554 -249.39428776875457 0 -249.39428776875457 194.86250708521447 0 0 0 0 0.30918224114960147 2.7067448520717114 0 2.7067448520717114 1.9238460630158762 0 0 0 0 76.930734339151343 194.77915498018689 0 194.77915498018689 -145.18235678723795 0 0 0 0 383.2197775758134 89.595983297849216 0 89.595983297849216 -111.68204416362664 0 0 0 0 345.9257141325686 114.18449737074388 0 114.18449737074388 -33.747281182032339 0 0 0 0 149.55739551551051 -140.55498024194776 0 -140.55498024194776 13.107010617382002 0 0 0 0 48.419429778166716 21.414278262984233 0 21.414278262984233 -172.22571780083263 0 0 0 0 57.951975624861007 -189.66509979853095 0 -189.66509979853095 -251.69341080314894 0 0 0 0 304.46478422196833 172.28155492322458 0 172.28155492322458 290.79304091172071 0 0 0 0 36.51964152924949 80.371872883978085 0 80.371872883978085 373.88991274238379 0 0 0 0 211.88247662962112 239.53038155819115 0 239.53038155819115 273.59953484898051 0 0 0 0 152.82094428837627 99.497155441323002 0 99.497155441323002 232.76796880022994 0 0 0 0 37.972915957522119 -65.476273475345337 0 -65.476273475345337 105.10497594491244 0 0 0 0 109.19347124427077 132.91216523650473 0 132.91216523650473 210.89221480926835 0 0 0 0 65.000914755374652 9.9848512713170976 0 9.9848512713170976 72.278095725154344 0 0 0 0 60.795886628863627 80.352058985082294 0 80.352058985082294 167.42196397989687 0 0 0 0 11.706839011912962 -22.169668804262983 0 -22.169668804262983 87.479609162751558 0 0 0 0 57.351582624244656 -35.395916238402833 0 -35.395916238402833 -81.915985601774082 0 0 0 0 28.506649153127 -45.454412364931613 0 -45.454412364931613 -80.69851324082947 0 0 0 0 -7.1110520796175933 -119.3310724399114 0 -119.3310724399114 -74.176015162764998 0 0 0 0 52.755168537341888 -84.75071464588018 0 -84.75071464588018 -35.90286382721024 0 0 0 0 53.665712666836043 -15.837862243274685 0 -15.837862243274685 -21.025452851637056 0 0 0 0 3.0126752124699578 -155.74219912089734 0 -155.74219912089734 -157.42895169674193 0 0 0 0 12.917126987438678 -86.738584971824594 0 -86.738584971824594 -25.524565010492267 0 0 0 0 -37.602189198835731 -184.27689996185359 0 -184.27689996185359 -204.98287150547071 0 0 0 0 -19.953644603351677 -81.127072556617804 0 -81.127072556617804 -252.07881968560355 0 0 0 0 10.508767934987191 -177.82179571518145 0 -177.82179571518145 -279.58394316246449 0 0 0 0 1.3680044900533392 0.40788441850281187 0 0.40788441850281187 -1.5803979633938203 0 0 0 0 10.577865012834081 -161.37148986969169 0 -161.37148986969169 -266.14842388729176 0 0 0 0 2.583484209882954 -131.97267405182902 0 -131.97267405182902 -168.10125428797619 0 0 0 0 13.95196733550074 -112.4915127091117 0 -112.4915127091117 -311.18343055410605 0 0 0 0 -26.076016857157811 -64.8316585760831 0 -64.8316585760831 -96.869749296676673 0 0 0 0 12.820556201711952 -89.515061530822095 0 -89.515061530822095 -242.33391386399035 0 0 0 0 -63.947802809045243 -36.213820383365601 0 -36.213820383365601 -310.71690630467492 0 0 0 0 -27.89070567273302 -63.48443370521727 0 -63.48443370521727 -291.29821534105213 0 0 0 0 -15.690918237782171 -99.52757619803333 0 -99.52757619803333 -193.14062869913687 0 0 0 0 -15.159527357840489 -56.680043403738637 0 -56.680043403738637 -198.15897395798686 0 0 0 0 24.935970957105383 -98.398824349104871 0 -98.398824349104871 -187.09571180430248 0 0 0 0 14.714311306099262 -130.19284721331223 0 -130.19284721331223 -175.57222853538678 0 0 0 0 21.107904913932543 -49.24756979645781 0 -49.24756979645781 -114.49286987367668 0 0 0 0 -8.1204500290054966 -53.884752942326941 0 -53.884752942326941 -5.5422042811806023 0 0 0 0 27.737816920527393 -6.0136485900504795 0 -6.0136485900504795 85.232969095790395 0 0 0 0 49.985810664847122 18.597665262554983 0 18.597665262554983 -15.119607107291017 0 0 0 0 3.0839117953069035 -40.001291168983698 0 -40.001291168983698 7.3490424456031178 0 0 0 0 3.7646375216072556 -12.688200274197698 0 -12.688200274197698 -45.985290743725272 0 0 0 0 -19.448297986408988 -65.051052504616564 0 -65.051052504616564 -56.826887717397767 0 0 0 0 -39.554893775752134 -64.621116626345611 0 -64.621116626345611 -50.08566009889887 0 0 0 0 -27.344648879764463 -48.560317861351905 0 -48.560317861351905 -111.29531984866844 0 0 0 0 -66.056894241951341 -81.286255450891986 0 -81.286255450891986 -120.16193243868838 0 0 0 0 -66.856390757148802 -69.667099433604562 0 -69.667099433604562 -127.0133301346068 0 0 0 0 -75.20420764856226 -129.82516207622211 0 -129.82516207622211 -141.80173871311672 0 0 0 0 -35.564379851648937 -82.484769521724047 0 -82.484769521724047 -115.76993646209121 0 0 0 0 -24.185496583668282 -50.13229067523207 0 -50.13229067523207 -80.596302921218012 0 0 0 0 -46.059157740039382 -91.438728428960758 0 -91.438728428960758 -104.23767210932783 0 0 0 0 -46.98116200905497 -90.644400475124712 0 -90.644400475124712 -84.480287584632606 0 0 0 0 -4.0599134938001953 -48.816039778552749 0 -48.816039778552749 -76.04185429773861 0 0 0 0 -24.397659228076918 -24.727525460777542 0 -24.727525460777542 -9.3742053175246838 0 0 0 0 -15.480711600247218 -48.405506623365227 0 -48.405506623365227 -91.071505587977299 0 0 0 0 -34.80799723904579 -74.742509705331031 0 -74.742509705331031 -67.889336961654408 0 0 0 0 -21.616183731181991 -66.177488108615762 0 -66.177488108615762 -107.78683117677065 0 0 0 0 -41.904873765196498 -99.130603325317679 0 -99.130603325317679 -122.20784195860324 0 0 0 0 -41.558634878721932 -107.7888727786958 0 -107.7888727786958 -153.8226653643469 0 0 0 0 -35.154052344330921 -122.14489795986901 0 -122.14489795986901 -197.6161181583775 0 0 0 0 -49.201740278015677 -116.19697932563486 0 -116.19697932563486 -134.79911608458042 0 0 0 0 -64.762075948329766 -139.89059287230157 0 -139.89059287230157 -163.31466569949089 0 0 0 0 -53.586795010677861 -121.91871855275303 0 -121.91871855275303 -177.17742519264175 0 0 0 0 -47.942578676883386 -148.43769604134832 0 -148.43769604134832 -187.32029385986061 0 0 0 0 9.8940483821766065 -4.330642515620184 0 -4.330642515620184 -4.2496810403167444 0 0 0 0 7.3055048220774603 -0.84350355113357889 0 -0.84350355113357889 -4.6615627405576294 0 0 0 0 -58.683778929877008 -168.10974275243734 0 -168.10974275243734 -204.61707042294483 0 0 0 0 -107.88086672170721 -165.48190040593727 0 -165.48190040593727 -187.27015732915788 0 0 0 0 -85.949040149639131 -110.39624854686872 0 -110.39624854686872 -193.47576865122755 0 0 0 0 -128.63944960204026 -76.567696718489969 0 -76.567696718489969 -170.29285208004057 0 0 0 0 -49.122570395813909 -98.61258790371312 0 -98.61258790371312 -166.06463216634984 0 0 0 0 -200.07030307754303 -86.191768808774214 0 -86.191768808774214 -196.52772890641882 0 0 0 0 -73.500852072624184 -97.99917993904819 0 -97.99917993904819 -208.00607784530439 0 0 0 0 -161.51317405570444 -32.300867890784502 0 -32.300867890784502 -256.1181678078301 0 0 0 0 -60.583035428669973 -114.27668570784044 0 -114.27668570784044 -348.8436948976705 0 0 0 0 -147.36065989643248 -154.12340043191398 0 -154.12340043191398 -189.43514162769134 0 0 0 0 -0.13667213482158225 -1.5441551379919254 0 -1.5441551379919254 -1.3726612472470361 0 0 0 0 7.0424824566653115 -7.0748729688741605 0 -7.0748729688741605 -3.3206658415654147 0 0 0 0 7.0114129538974339 -6.884628097575245 0 -6.884628097575245 -3.7884344051353764 0 0 0 0 14.75260012521494 -0.42226284365276712 0 -0.42226284365276712 -8.5606045146186602 0 0 0 0 4.2542694598126616 -5.9674321548533831 0 -5.9674321548533831 -4.7389611656324337 0 0 0 0 16.789255640051124 -3.1337972601871513 0 -3.1337972601871513 -5.0021724206605995 0 0 0 0 8.003539263985207 -0.75172312787693585 0 -0.75172312787693585 -8.1394941258387892 0 0 0 0 11.564555803387918 2.9754491955472133 0 2.9754491955472133 -7.8878716502349562 0 0 0 0 11.523755585245453 3.4756985197159338 0 3.4756985197159338 -1.8942279300890732 0 0 0 0 13.622425320145794 4.70740080125654 0 4.70740080125654 -10.866491223189314 0 0 0 0 19.253598099042065 4.5590985452024846 0 4.5590985452024846 -8.4109939935740119 0 0 0 0 50.041149534663418 20.220440564425189 0 20.220440564425189 -42.675735836726666 0 0 0 0 151.59264896957029 -3.2102162068370603 0 -3.2102162068370603 -44.707407207874695 0 0 0 0 2.6500482449409901 -41.926018210750669 0 -41.926018210750669 16.495116411934418 0 0 0 0 4.54051163313963 -6.7210709726191418 0 -6.7210709726191418 -3.0106084100026611 0 0 0 0 26.043284746992867 -1.8240033729432525 0 -1.8240033729432525 -4.6933842792786891 0 0 0 0 27.833165028027182 -2.2505111845572845 0 -2.2505111845572845 -13.142553885885238 0 0 0 0 5.2191967389444471 -39.427535150797439 0 -39.427535150797439 15.486250585248342 0 0 0 0 15.106281853117881 -11.281713858384704 0 -11.281713858384704 -4.8264830036149631 0 0 0 0 18.61097758321921 -4.3104877671983388 0 -4.3104877671983388 -6.5500555397529752 0 0 0 0 18.801892796951794 -8.1796840722982118 0 -8.1796840722982118 -7.4295598927151287 0 0 0 0 17.10616368713735 -7.7639422703379246 0 -7.7639422703379246 -10.459714425070899 0 0 0 0 29.509816321815379 -95.832108107062368 0 -95.832108107062368 1.66066260156731 0 0 0 0 38.047836304484861 4.9239339443070946 0 4.9239339443070946 -22.719546264792143 0 0 0 0 19.090120917741594 -0.20968372826143389 0 -0.20968372826143389 -3.7495793740377756 0 0 0 0 16.111121376286974 -2.5088411618066857 0 -2.5088411618066857 -10.710402952235654 0 0 0 0 3.7724669866765907 -5.2216581732166105 0 -5.2216581732166105 -7.1527099141130748 0 0 0 0 13.030494125090627 -0.70150686362376291 0 -0.70150686362376291 -0.72691523671528557 0 0 0 0 0.80332571701698541 -1.4050033513396414 0 -1.4050033513396414 -1.0222334544742659 0 0 0 0 -11.04120357339616 -2.2343927698214543 0 -2.2343927698214543 39.548362011182917 0 0 0 0 11.275941104679987 -28.93038339242645 0 -28.93038339242645 -70.046277838362016 0 0 0 0 11.435183657631114 -2.2432586336470877 0 -2.2432586336470877 -16.832421853282995 0 0 0 0 -26.976430889331823 -75.637561512905847 0 -75.637561512905847 4.3029688886820736 0 0 0 0 -39.84713830405417 -62.066619923036569 0 -62.066619923036569 25.836762971550797 0 0 0 0 -1.9202474096151647 1.3392029081741099 0 1.3392029081741099 1.4411532127255451 0 0 0 0 -52.08677165600966 41.411727710952846 0 41.411727710952846 -11.890599122793674 0 0 0 0 80.839627341209962 21.661169074837176 0 21.661169074837176 -413.73733567637919 0 0 0 0 -55.816577458697793 -253.64947604323822 0 -253.64947604323822 70.188388901889397 0 0 0 0 -25.35563016033484 50.028374167008224 0 50.028374167008224 -133.47604664937475 0 0 0 0 10.576422671106087 2.6405061644478742 0 2.6405061644478742 -0.093513384290904167 0 0 0 0 13.893874406840041 -1.8436797855773648 0 -1.8436797855773648 0.58344591834429593 0 0 0 0 154.56165017815511 -89.476226100133317 0 -89.476226100133317 21.847712672796661 0 0 0 0 94.717586780826423 106.74013094400667 0 106.74013094400667 -83.930355676252475 0 0 0 0 6.8791772941308729 0.98219203264411981 0 0.98219203264411981 0.76305178842845756 0 0 0 0 45.75076997537326 -220.26840404091183 0 -220.26840404091183 284.88112393942714 0 0 0 0 114.40568112938854 -94.203820322368074 0 -94.203820322368074 204.5610687171602 0 0 0 0 77.526388079932076 -129.76949028372337 0 -129.76949028372337 40.385011724875767 0 0 0 0 107.16402814536923 -186.9753444683306 0 -186.9753444683306 49.301491751648427 0 0 0 0 14.63465227825084 3.3715722520836806 0 3.3715722520836806 0.61607097989624848 0 0 0 0 3.2853204806269787 87.138636457095032 0 87.138636457095032 -443.26553554900102 0 0 0 0 3.2204498112515765 -1.2954317773598065 0 -1.2954317773598065 -0.2575452591233196 0 0 0 0 42.95826763915511 1.1324200262305339 0 1.1324200262305339 -183.33694836350651 0 0 0 0 58.402807097207187 144.7281606732721 0 144.7281606732721 -190.83338317846483 0 0 0 0 10.362390119638803 180.68211249023807 0 180.68211249023807 -162.22116679155533 0 0 0 0 5.9414699414628558 65.733735761480602 0 65.733735761480602 -48.434193102524659 0 0 0 0 73.82068587581557 24.307731870383577 0 24.307731870383577 71.634820770707847 0 0 0 0 207.32791575567535 75.840302904995951 0 75.840302904995951 -68.552554485461769 0 0 0 0 81.33613316633955 59.521460196089151 0 59.521460196089151 -196.97482479449172 0 0 0 0 -8.7493850483660935 20.041466362050414 0 20.041466362050414 -106.31602300935128 0 0 0 0 77.599513399773059 -93.509864041141554 0 -93.509864041141554 -8.5891746153311033 0 0 0 0 104.9344629340485 -92.121943417783314 0 -92.121943417783314 -122.33728935595354 0 0 0 0 168.43873360008001 -155.04068027722769 0 -155.04068027722769 -26.17054331003601 0 0 0 0 181.77547717681591 -156.70197076432305 0 -156.70197076432305 23.672551640232996 0 0 0 0 185.75867801225104 -128.87645200036059 0 -128.87645200036059 9.2132562813060304 0 0 0 0 109.2234845346793 38.036645556569965 0 38.036645556569965 8.2561585589392052 0 0 0 0 1.7864494007558491 0.074019560280845553 0 0.074019560280845553 -0.51806879542206263 0 0 0 0 250.85888782051552 -122.55400217256101 0 -122.55400217256101 -18.631728601946634 0 0 0 0 99.990641270160268 -119.78825201165455 0 -119.78825201165455 136.1443658884582 0 0 0 0 231.93818180865946 -141.02909891915476 0 -141.02909891915476 2.8629311037511798 0 0 0 0 103.29474958480205 -22.446825535684184 0 -22.446825535684184 -56.829426883235556 0 0 0 0 10.425348154497406 -27.278471984813233 0 -27.278471984813233 -3.6351446786056592 0 0 0 0 47.266007044967409 -44.885918814436536 0 -44.885918814436536 -0.86525710521414112 0 0 0 0 34.855539626369136 -86.380182591931771 0 -86.380182591931771 52.672324085837772 0 0 0 0 21.090653555975813 -11.546279299118051 0 -11.546279299118051 -5.0301682091588305 0 0 0 0 20.650883312577207 -12.971492107418271 0 -12.971492107418271 -4.6443242177629145 0 0 0 0 -12.486840749952535 1.2647702797894453 0 1.2647702797894453 -5.2366567280779464 0 0 0 0 12.114898919408247 -18.194953103945291 0 -18.194953103945291 -2.6181641708098873 0 0 0 0 0.25760909926023601 -1.0879081144007543 0 -1.0879081144007543 -1.1825339113289388 0 0 0 0 -17.34800086202813 -25.578602714887893 0 -25.578602714887893 0.58959635942665045 0 0 0 0 -8.1682151296299708 -4.1985393514551106 0 -4.1985393514551106 -24.61008228675928 0 0 0 0 12.901019372904862 -3.6031002224135982 0 -3.6031002224135982 -8.117786323647497 0 0 0 0 27.357883456614218 -23.492528275110089 0 -23.492528275110089 11.570735594541475 0 0 0 0 9.1050183828698614 -7.3165857247358019 0 -7.3165857247358019 -3.2038349248774605 0 0 0 0 16.208016513270195 -8.133857461134312 0 -8.133857461134312 -6.4728854320205755 0 0 0 0 21.175580119030201 -5.6563168272136863 0 -5.6563168272136863 -4.1532966227805446 0 0 0 0 5.9740317075775238 -7.0255165176495211 0 -7.0255165176495211 -3.566146870305829 0 0 0 0 -1.0102641144892388 -9.5905912188546107 0 -9.5905912188546107 -1.1394492238378497 0 0 0 0 13.846463600031598 -11.33018459184578 0 -11.33018459184578 0.69567297968329456 0 0 0 0 5.1233212002516417 -4.3704553467635279 0 -4.3704553467635279 -2.6351333967998514 0 0 0 0 5.2289424435019427 -1.8018307649487504 0 -1.8018307649487504 -2.5230420557854298 0 0 0 0 16.400662916854344 -11.153679400656074 0 -11.153679400656074 -0.081920273321443915 0 0 0 0 9.6787118267384358 -8.0254499849424974 0 -8.0254499849424974 -4.5223759938380681 0 0 0 0 13.948396007861177 -10.236469295736846 0 -10.236469295736846 -7.2475367888564559 0 0 0 0 70.295815569037586 3.1559303834040975 0 3.1559303834040975 -24.081579833597061 0 0 0 0 35.057645217335448 -1.4298655241069582 0 -1.4298655241069582 -9.795958225450704 0 0 0 0 56.350790263846648 -31.103998266720282 0 -31.103998266720282 0.36135527347767038 0 0 0 0 56.414298641719142 -5.2465304945085336 0 -5.2465304945085336 -26.219338532446727 0 0 0 0 22.193943411328977 10.50455112821615 0 10.50455112821615 -18.557605211111994 0 0 0 0 48.630020883254474 14.701943928317633 0 14.701943928317633 -1.5852319153980261 0 0 0 0 40.191220222469063 -8.4540031079609808 0 -8.4540031079609808 -7.4882840523473071 0 0 0 0 60.936481976088544 -15.450420058238862 0 -15.450420058238862 -11.877357611044943 0 0 0 0 40.251793622490368 -11.102948867611133 0 -11.102948867611133 -12.766492937181283 0 0 0 0 29.062067284907712 -4.2682670685173072 0 -4.2682670685173072 -15.294900430604727 0 0 0 0 30.634539290569265 -26.809450561407075 0 -26.809450561407075 -13.873498043008507 0 0 0 0 13.555435660433432 -3.8772809063208982 0 -3.8772809063208982 -2.5813547883271437 0 0 0 0 116.06715986935887 -61.456895120476474 0 -61.456895120476474 -1.9701417860615038 0 0 0 0 10.86059733913816 -26.348053481340493 0 -26.348053481340493 -5.0375701081843571 0 0 0 0 44.604876171917567 -27.342943323352415 0 -27.342943323352415 -11.274539311799799 0 0 0 0 65.766757166235038 -21.38568000398277 0 -21.38568000398277 -28.46952963290596 0 0 0 0 33.756500283342348 -9.312327403574848 0 -9.312327403574848 -12.905171966390778 0 0 0 0 29.841188073865609 -13.128506382937324 0 -13.128506382937324 -0.64236300404885327 0 0 0 0 16.744562493052538 -24.460574060708726 0 -24.460574060708726 -13.334227795788543 0 0 0 0 43.660395518836594 -27.389361611078129 0 -27.389361611078129 -10.488223949380881 0 0 0 0 59.623547265899106 -22.290835352428303 0 -22.290835352428303 -10.56310231300813 0 0 0 0 72.603370618300232 10.604060735917756 0 10.604060735917756 -41.14784200617396 0 0 0 0 118.92981220929323 -55.997762578265338 0 -55.997762578265338 -51.334760026380536 0 0 0 0 96.928563816663882 20.37300182858894 0 20.37300182858894 -108.78245980439715 0 0 0 0 87.061611423725481 -45.391821699734464 0 -45.391821699734464 -86.374570205390228 0 0 0 0 8.7534475595125514 10.690253423820906 0 10.690253423820906 21.920400383150081 0 0 0 0 50.556410242897982 -92.374283058916262 0 -92.374283058916262 -38.175304954652802 0 0 0 0 54.042913496185065 7.4989093611684439 0 7.4989093611684439 7.3446640152726559 0 0 0 0 13.988661387013472 -0.094420412107250939 0 -0.094420412107250939 1.7625327969636917 0 0 0 0 36.375063978017806 10.879224184699765 0 10.879224184699765 1.7023542630260433 0 0 0 0 -1.7217462772869112 -91.167897655809725 0 -91.167897655809725 42.111474186243868 0 0 0 0 116.87625809194287 -45.536503270459434 0 -45.536503270459434 34.754048780347148 0 0 0 0 132.45456439979898 -66.687285884501762 0 -66.687285884501762 4.4768624002799697 0 0 0 0 6.120356433832967 90.754640019686946 0 90.754640019686946 83.17137708413884 0 0 0 0 27.460883686882539 12.895349718738947 0 12.895349718738947 3.8235626239235927 0 0 0 0 4.588363826961583 4.2237548218531309 0 4.2237548218531309 2.34311941028853 0 0 0 0 122.25615642018965 -10.149972358900413 0 -10.149972358900413 51.437297262802531 0 0 0 0 -73.53232036722693 120.82107372470091 0 120.82107372470091 -62.335841053252352 0 0 0 0 124.0360185818281 -4.6414532456365691 0 -4.6414532456365691 -74.626891124521421 0 0 0 0 115.89353598545082 5.8731592891207107 0 5.8731592891207107 0.61205190054477598 0 0 0 0 104.57948516166653 51.154880839159333 0 51.154880839159333 -31.725389860527002 0 0 0 0 104.14361212260702 -1.8197178101790836 0 -1.8197178101790836 -2.5149408813539678 0 0 0 0 98.296621097484604 37.9299833861877 0 37.9299833861877 -54.732582532486845 0 0 0 0 105.57289023799058 -45.367103133460347 0 -45.367103133460347 39.006219926543963 0 0 0 0 138.84888717157446 -73.722157340731883 0 -73.722157340731883 -173.09576785307232 0 0 0 0 84.245612203130122 -154.99383783077974 0 -154.99383783077974 -4.1490669977988546 0 0 0 0 257.28540728637552 53.5993649646515 0 53.5993649646515 -338.63188326196814 0 0 0 0 167.24458129197592 -135.88971127060813 0 -135.88971127060813 32.324085485966066 0 0 0 0 308.98781726339803 84.969512899820074 0 84.969512899820074 -28.558831440772792 0 0 0 0 85.926323039652743 302.78320376882948 0 302.78320376882948 -10.411607133119787 0 0 0 0 143.87142560404163 161.58098147462124 0 161.58098147462124 -252.57372874358907 0 0 0 0 27.204577544311405 22.487127057214025 0 22.487127057214025 -47.760217809242022 0 0 0 0 -20.008082529537205 61.263194078784181 0 61.263194078784181 183.39606957126989 0 0 0 0 124.03007366783348 3.3499155178933648 0 3.3499155178933648 -6.9463522882242881 0 0 0 0 152.56068886871071 -31.800477117831747 0 -31.800477117831747 -80.91186509807838 0 0 0 0 131.89701169937598 -27.052699580916936 0 -27.052699580916936 -35.302902948175188 0 0 0 0 110.22982082270028 -11.989509810750206 0 -11.989509810750206 -51.872051889575459 0 0 0 0 154.05675249190244 23.138851716823183 0 23.138851716823183 -131.76300098818362 0 0 0 0 175.33504393698968 -33.262160117599933 0 -33.262160117599933 -48.574455382835595 0 0 0 0 151.25488419482645 -20.208711422126783 0 -20.208711422126783 -32.688708108593346 0 0 0 0 148.98298017946581 -42.447289663127094 0 -42.447289663127094 -32.076940757753391 0 0 0 0 172.59246805180737 -78.442492867886244 0 -78.442492867886244 -5.8366521648611069 0 0 0 0 196.74667117174977 -55.119496709610303 0 -55.119496709610303 -30.26309394789655 0 0 0 0 159.21593976693111 -33.892528464341922 0 -33.892528464341922 -7.2614083294365628 0 0 0 0 129.70097222329787 -82.485702058813558 0 -82.485702058813558 2.2211031805145467 0 0 0 0 228.83488640745782 -35.019270367952458 0 -35.019270367952458 -9.3430857342618765 0 0 0 0 188.79409842922905 -6.7258158786294189 0 -6.7258158786294189 -28.935511931546444 0 0 0 0 256.77525969161798 58.5497233033268 0 58.5497233033268 -28.649866801127757 0 0 0 0 155.96073893194807 101.98515024074948 0 101.98515024074948 25.720580874318784 0 0 0 0 136.3578391627525 38.447114111025371 0 38.447114111025371 -31.441953089660956 0 0 0 0 181.43727505903917 32.719718418502751 0 32.719718418502751 -57.4085676269342 0 0 0 0 166.16585070764631 70.155168840506917 0 70.155168840506917 -30.57404125797359 0 0 0 0 36.729966352977499 91.004480029503554 0 91.004480029503554 37.086386831700338 0 0 0 0 179.70322861266322 155.57831176191894 0 155.57831176191894 66.014979444589017 0 0 0 0 147.73730596689347 147.63281855715422 0 147.63281855715422 79.792339395954514 0 0 0 0 224.96827768879666 219.16729938749177 0 219.16729938749177 97.036244310128495 0 0 0 0 -9.4986538116390875 126.30210650902973 0 126.30210650902973 140.98829145094737 0 0 0 0 -5.2905504148596378 2.1304006417173937 0 2.1304006417173937 7.2300740254371014 0 0 0 0 410.18007278292498 107.34754940837388 0 107.34754940837388 20.912282830951881 0 0 0 0 349.17774690821989 -61.859688181350805 0 -61.859688181350805 79.233758557872534 0 0 0 0 226.90624652618862 8.4780048529428313 0 8.4780048529428313 39.956707821625969 0 0 0 0 236.86125304278357 -56.342030060650472 0 -56.342030060650472 -14.549207357304113 0 0 0 0 159.28371741544106 -42.260609289189233 0 -42.260609289189233 -9.6242701758019393 0 0 0 0 171.32219290002104 -65.929685779307874 0 -65.929685779307874 34.18735733194535 0 0 0 0 190.23685283494706 8.5275349056091727 0 8.5275349056091727 46.085710038782736 0 0 0 0 229.14330585030984 -5.4671768129710472 0 -5.4671768129710472 48.021912652191531 0 0 0 0 277.98188253414264 113.1078122063418 0 113.1078122063418 144.95120883595064 0 0 0 0 355.53999399358872 181.13978081341702 0 181.13978081341702 171.82860134956582 0 0 0 0 248.83812022257189 68.048333290098526 0 68.048333290098526 247.17569468154579 0 0 0 0 303.09260749530586 115.19237217590307 0 115.19237217590307 100.19798618479035 0 0 0 0 286.53887864179706 1.9529479719003575 0 1.9529479719003575 32.019566315295378 0 0 0 0 185.26889127801769 65.41894841269459 0 65.41894841269459 -5.4941636786070376 0 0 0 0 286.55293311983405 -53.371273110963102 0 -53.371273110963102 -197.78388394088142 0 0 0 0 136.22077108429221 -55.304192614611566 0 -55.304192614611566 43.697972472748461 0 0 0 0 182.6989848700693 -3.749565210756522 0 -3.749565210756522 -18.127002437768581 0 0 0 0 187.68435660551404 -129.39145681241871 0 -129.39145681241871 -78.884496937937001 0 0 0 0 219.77851729102258 7.3650946766185825 0 7.3650946766185825 -42.989752734709782 0 0 0 0 29.545719756347268 -3.4974167490912826 0 -3.4974167490912826 -2.6948475346639533 0 0 0 0 506.79581770247842 -146.68019403973858 0 -146.68019403973858 60.137476388128562 0 0 0 0 110.98327703831819 -28.77849345080449 0 -28.77849345080449 9.2145507535315119 0 0 0 0 133.32035953709965 -91.749832392339499 0 -91.749832392339499 55.86356285826605 0 0 0 0 144.42188864345371 -42.988095762114426 0 -42.988095762114426 37.561021754331705 0 0 0 0 64.216726810263935 -76.274705219709176 0 -76.274705219709176 46.23305867705858 0 0 0 0 59.543917969156269 -18.132751458532866 0 -18.132751458532866 -4.9830816401126867 0 0 0 0 37.426014169886912 -65.158316716905119 0 -65.158316716905119 13.166538162186043 0 0 0 0 -12.550353667858872 -55.363391608344955 0 -55.363391608344955 45.068641056629531 0 0 0 0 29.016982664150419 -20.161693275067591 0 -20.161693275067591 31.360597996032084 0 0 0 0 20.155372737741807 -36.771432061463813 0 -36.771432061463813 -2.1380905541642541 0 0 0 0 141.27204932703171 7.1872406558698003 0 7.1872406558698003 -6.309584066642401 0 0 0 0 51.337860219733557 -21.703978806052419 0 -21.703978806052419 -0.4902651646295908 0 0 0 0 56.750002510744707 -17.658791883976392 0 -17.658791883976392 -1.8340426024778935 0 0 0 0 48.297155017902753 6.7773436676944456 0 6.7773436676944456 -7.463298650054405 0 0 0 0 18.018990733779038 -15.339642956449538 0 -15.339642956449538 4.7418523198025451 0 0 0 0 -33.615817187164794 -59.261448600213043 0 -59.261448600213043 48.351556055618857 0 0 0 0 4.3465864172612783 -50.581889445430534 0 -50.581889445430534 -67.456492113948116 0 0 0 0 10.572499631517502 -5.9743104221824979 0 -5.9743104221824979 -5.236243910529172 0 0 0 0 -54.313765497179702 -50.055509558180347 0 -50.055509558180347 0.056489922770197154 0 0 0 0 140.01862293670274 -71.862310479642929 0 -71.862310479642929 -47.1179948666977 0 0 0 0 170.20526992522719 -69.988857106748696 0 -69.988857106748696 9.4222429263882077 0 0 0 0 16.936380722094327 -15.968020158116815 0 -15.968020158116815 -1.5946478709465737 0 0 0 0 19.321241742640268 -79.906204077229631 0 -79.906204077229631 45.778854884851171 0 0 0 0 4.6384659002265423 0.79690773819957883 0 0.79690773819957883 2.9678625914538657 0 0 0 0 211.35940220521479 -25.028524489966685 0 -25.028524489966685 37.213646002318455 0 0 0 0 0.33600915453095581 -0.29194979447508729 0 -0.29194979447508729 4.5071034995591042 0 0 0 0 210.75510770210167 141.21381136257742 0 141.21381136257742 46.125900155570889 0 0 0 0 13.302711180716869 14.423886831211348 0 14.423886831211348 101.79143366779044 0 0 0 0 128.05381476113325 88.82164747812476 0 88.82164747812476 13.525957754727642 0 0 0 0 -3.9642341464393382 -1.1053631513154158 0 -1.1053631513154158 11.754116532466551 0 0 0 0 149.51295637731528 17.192519861529036 0 17.192519861529036 -6.3453690943169931 0 0 0 0 167.7625734439207 38.841142624743043 0 38.841142624743043 -26.508304034362482 0 0 0 0 103.13406074122759 -3.6785553641072966 0 -3.6785553641072966 28.401433726485266 0 0 0 0 186.08628445806971 -4.3463314849063863 0 -4.3463314849063863 -3.9949961025604352 0 0 0 0 184.1849725015818 -82.442934392208372 0 -82.442934392208372 -32.75209237738818 0 0 0 0 59.822699153736721 -66.791616639286531 0 -66.791616639286531 8.7957342804656946 0 0 0 0 208.99317640289519 25.083414362785334 0 25.083414362785334 -25.183205302264469 0 0 0 0 12.270889954319784 -39.135861802905978 0 -39.135861802905978 -2.1513526635586793 0 0 0 0 64.412133431618713 -15.628209307548786 0 -15.628209307548786 -5.599667443866565 0 0 0 0 135.66851801877237 -6.770694907645975 0 -6.770694907645975 -8.3253554366756362 0 0 0 0 1.098815457467694 -0.90341244372918794 0 -0.90341244372918794 -0.41013626467599096 0 0 0 0 231.83276331419074 5.106298169506772 0 5.106298169506772 -37.898787066668774 0 0 0 0 52.423608498669637 -45.504651958692193 0 -45.504651958692193 -2.346493329589066 0 0 0 0 193.80544067099254 -23.021053748726445 0 -23.021053748726445 86.876803576687962 0 0 0 0 117.66004390769376 -13.703505218325972 0 -13.703505218325972 -27.742889597119756 0 0 0 0 24.402880290597899 -36.255234914022047 0 -36.255234914022047 -1.3701762067423644 0 0 0 0 190.02526319275603 -50.875790430508573 0 -50.875790430508573 19.014487197237031 0 0 0 0 206.68288714945083 -21.287931765669782 0 -21.287931765669782 25.229477925575338 0 0 0 0 277.2527197472391 62.134723817311624 0 62.134723817311624 -26.766195774289372 0 0 0 0 28.308638751547804 6.3180253939716948 0 6.3180253939716948 2.1291096737538346 0 0 0 0 -7.205936984120882 -5.1695389467755675 0 -5.1695389467755675 7.4319895114409071 0 0 0 0 141.3776666612539 80.278112971533119 0 80.278112971533119 71.31756435234638 0 0 0 0 201.01234838983783 60.489700399845333 0 60.489700399845333 7.0500350904185325 0 0 0 0 34.896281031662269 6.635307384206456 0 6.635307384206456 21.071981308226853 0 0 0 0 178.48248777426488 -63.109468676682354 0 -63.109468676682354 129.16243421108993 0 0 0 0 299.39168165151204 36.529942586973448 0 36.529942586973448 -48.451232544337472 0 0 0 0 189.2093381413797 65.940862699926583 0 65.940862699926583 22.086592541773825 0 0 0 0 156.24316209285996 -1.6997408604258908 0 -1.6997408604258908 -22.232922609045154 0 0 0 0 137.40809944890498 -63.615253428913917 0 -63.615253428913917 -71.411317172003791 0 0 0 0 124.61637279223942 -48.145560611941875 0 -48.145560611941875 -62.69952071370227 0 0 0 0 149.92990508739604 -73.790914947066241 0 -73.790914947066241 -36.956215639981792 0 0 0 0 117.937574820593 -85.380669900207181 0 -85.380669900207181 -10.664912074553058 0 0 0 0 149.00926273714867 -56.464647286786999 0 -56.464647286786999 -30.723751664875863 0 0 0 0 93.198426155664492 -44.122924244062148 0 -44.122924244062148 -34.513811001089266 0 0 0 0 103.5535363623203 -48.426540098629005 0 -48.426540098629005 -32.735398608858418 0 0 0 0 34.342714788333844 3.9460566166808917 0 3.9460566166808917 -3.5763426762204689 0 0 0 0 161.31628800043836 42.564529989439507 0 42.564529989439507 14.627837725173322 0 0 0 0 254.55688944617577 36.852519065372633 0 36.852519065372633 -3.1105517036664878 0 0 0 0 135.99654483103257 -15.936080832131836 0 -15.936080832131836 -12.561175292727885 0 0 0 0 132.90386431855586 55.545104310253464 0 55.545104310253464 0.25652409344911575 0 0 0 0 58.94385084253679 14.816562998200553 0 14.816562998200553 11.900077933958144 0 0 0 0 79.89812062097738 -5.7369383047050206 0 -5.7369383047050206 -3.3755382158882092 0 0 0 0 47.629475602258083 -19.361581349352178 0 -19.361581349352178 -11.330523397585097 0 0 0 0 205.51209155625111 -7.8795113405808479 0 -7.8795113405808479 -0.12509586359942659 0 0 0 0 26.13545196260106 19.383649673677866 0 19.383649673677866 6.3477177360538128 0 0 0 0 170.24628339280753 12.175519271036535 0 12.175519271036535 -27.223934977636873 0 0 0 0 96.990579824892905 -9.7807864542497853 0 -9.7807864542497853 -4.6166790201763819 0 0 0 0 82.315963633239207 -19.176598756741555 0 -19.176598756741555 -7.6045911239802848 0 0 0 0 81.74239459178898 -13.703199558504025 0 -13.703199558504025 -6.9981563883939089 0 0 0 0 82.869171728714718 -13.549520403230417 0 -13.549520403230417 -7.0049783958560852 0 0 0 0 238.07254635848221 35.149256201580556 0 35.149256201580556 -73.008326034283854 0 0 0 0 233.1159222164315 51.63327200877481 0 51.63327200877481 -63.70001138466796 0 0 0 0 224.12267435442482 38.84232322402508 0 38.84232322402508 -69.488849719026689 0 0 0 0 200.61170661319193 45.274457294008357 0 45.274457294008357 -12.122166355881745 0 0 0 0 171.56250711072755 -9.2738010152680559 0 -9.2738010152680559 -21.475671816669113 0 0 0 0 183.02807204399141 0.75819325951226801 0 0.75819325951226801 -74.414155353831177 0 0 0 0 202.00120195721684 -8.2825599450644631 0 -8.2825599450644631 -103.81850190629098 0 0 0 0 165.59100678837606 -4.7380615212736785 0 -4.7380615212736785 -23.242769337970628 0 0 0 0 217.27410426414008 16.97943114151235 0 16.97943114151235 -103.92849313785882 0 0 0 0 186.62842464457208 -53.449013855962832 0 -53.449013855962832 -125.30430642592961 0 0 0 0 142.01438982382206 -32.415766574629494 0 -32.415766574629494 -72.702529497233002 0 0 0 0 169.26170469777571 -0.11492712509081571 0 -0.11492712509081571 -74.606015524133397 0 0 0 0 202.42200790856441 -10.298694015763999 0 -10.298694015763999 -81.29525452552565 0 0 0 0 196.48910813858674 -38.274183039182674 0 -38.274183039182674 -72.106165777680488 0 0 0 0 236.85044158481469 -33.445851949003554 0 -33.445851949003554 -36.603129596183692 0 0 0 0 195.26593794766086 -91.865568993658655 0 -91.865568993658655 -16.178137508143891 0 0 0 0 218.53806370912207 -60.820666780871562 0 -60.820666780871562 -52.502216777190597 0 0 0 0 253.76248660578858 9.252858855708233 0 9.252858855708233 -64.014224254701503 0 0 0 0 314.21631575388892 85.448335417272688 0 85.448335417272688 -34.980396481905359 0 0 0 0 328.88516435398196 -9.9230649697792614 0 -9.9230649697792614 -59.497622263187452 0 0 0 0 258.76998825603823 58.87712325128178 0 58.87712325128178 -63.05508027569573 0 0 0 0 265.62966475779831 2.0075065889701023 0 2.0075065889701023 -81.982982636567158 0 0 0 0 227.93988733730657 41.715810257035528 0 41.715810257035528 -71.583184948600859 0 0 0 0 245.0571292039067 88.697732614492438 0 88.697732614492438 -35.893724350419163 0 0 0 0 250.75422679560143 52.926268627276784 0 52.926268627276784 -51.053842579454169 0 0 0 0 136.78035576186085 82.679680788409314 0 82.679680788409314 8.8113219993981247 0 0 0 0 88.517027346373652 42.862734360646357 0 42.862734360646357 -3.060553876015689 0 0 0 0 141.85136566200163 71.541164243658372 0 71.541164243658372 8.2711649332311481 0 0 0 0 117.93928275458893 25.974246855117499 0 25.974246855117499 -38.169670965671344 0 0 0 0 141.21545640577096 65.381834650871212 0 65.381834650871212 -12.739707489540194 0 0 0 0 176.65819429263502 46.146599636399742 0 46.146599636399742 -39.770206578801321 0 0 0 0 189.89063485719089 67.886817423326249 0 67.886817423326249 -43.696453487273573 0 0 0 0 156.85052947441 43.725981036291842 0 43.725981036291842 -38.087293397911026 0 0 0 0 203.35696284635924 31.964493007568535 0 31.964493007568535 -36.241397890757526 0 0 0 0 119.69580227627011 43.898107751207789 0 43.898107751207789 -28.560875103319177 0 0 0 0 149.07756905075803 29.940447686118489 0 29.940447686118489 -26.110150121340666 0 0 0 0 115.986514175107 -27.224990609864903 0 -27.224990609864903 50.847053297389238 0 0 0 0 179.31346137238143 31.824779024867212 0 31.824779024867212 -28.455335460079141 0 0 0 0 71.947536039777333 71.82731482388408 0 71.82731482388408 -18.788726359946736 0 0 0 0 142.00079214039943 50.187247050638177 0 50.187247050638177 -32.442257018173677 0 0 0 0 46.080944055618602 102.22961983328503 0 102.22961983328503 60.884356868449686 0 0 0 0 96.421984099462861 27.182255593303921 0 27.182255593303921 -20.789742668276517 0 0 0 0 238.71000924053806 -61.911283459829519 0 -61.911283459829519 -95.163273961540881 0 0 0 0 13.152986198696567 -4.8469915404086805 0 -4.8469915404086805 -1.0005415850467867 0 0 0 0 90.859419117216987 27.481552809292985 0 27.481552809292985 5.6364669300390871 0 0 0 0 28.662872965389397 -44.878719065448877 0 -44.878719065448877 18.060121563771645 0 0 0 0 230.38931600825163 -107.96152499760865 0 -107.96152499760865 18.255498924997028 0 0 0 0 207.16750913974829 28.417924014515961 0 28.417924014515961 -49.250016465968656 0 0 0 0 377.73297885264037 47.92229124877349 0 47.92229124877349 -53.093504312964853 0 0 0 0 228.61238339578267 32.51186647334157 0 32.51186647334157 -50.880970241238032 0 0 0 0 128.20298440497209 8.5418633414641931 0 8.5418633414641931 -32.450756160492801 0 0 0 0 225.80482195949298 -9.8544987341608703 0 -9.8544987341608703 -31.237435853878196 0 0 0 0 149.61570033242606 17.710244656827399 0 17.710244656827399 -13.477858390796428 0 0 0 0 31.565498339672089 19.335171411210396 0 19.335171411210396 -3.0507488837123482 0 0 0 0 31.427513647600456 1.4740985476775847 0 1.4740985476775847 -13.14687480531766 0 0 0 0 95.952719501524427 23.364442966146683 0 23.364442966146683 -2.9872855506096272 0 0 0 0 101.56258293550209 16.637691811959034 0 16.637691811959034 -6.2110095245570651 0 0 0 0 131.39899551775306 12.647791772470896 0 12.647791772470896 -9.039602376060401 0 0 0 0 86.430407143045159 121.32718412354518 0 121.32718412354518 -87.057323932324834 0 0 0 0 23.234448924478059 -0.059134304151598371 0 -0.059134304151598371 -28.436778776956377 0 0 0 0 86.678573954079184 19.99106957110331 0 19.99106957110331 -7.7389706548959794 0 0 0 0 155.71066407114267 25.524634023829321 0 25.524634023829321 -96.481940140743973 0 0 0 0 100.16274448591867 26.348823592815165 0 26.348823592815165 -36.050738521054143 0 0 0 0 32.886359487405571 106.8044262501403 0 106.8044262501403 -57.980621687033818 0 0 0 0 132.69830814377929 15.87262740607548 0 15.87262740607548 -5.0546345032275894 0 0 0 0 249.53365504216345 -32.440750561340337 0 -32.440750561340337 -60.71809745063274 0 0 0 0 292.4599896126274 143.80659250718202 0 143.80659250718202 -184.70537274985327 0 0 0 0 55.84856648198911 70.927711831483066 0 70.927711831483066 154.60837421673978 0 0 0 0 3.5891281321344479 -4.275830291985983 0 -4.275830291985983 -27.400807915975328 0 0 0 0 50.941499667162134 -59.704248132601379 0 -59.704248132601379 0.61242709165071574 0 0 0 0 72.963099892891478 17.521874501534001 0 17.521874501534001 -6.5489291544114394 0 0 0 0 2.9067794911142641 -2.775590928076781 0 -2.775590928076781 -5.9429607813410072 0 0 0 0 326.8220597368163 131.83948354010215 0 131.83948354010215 56.0453652982942 0 0 0 0 217.62482417444153 108.58070048214464 0 108.58070048214464 71.261804936862973 0 0 0 0 362.9856984725775 27.452763054232946 0 27.452763054232946 101.43844448434788 0 0 0 0 0.81690983360363134 0.48199451464830645 0 0.48199451464830645 -5.2195567694042779 0 0 0 0 218.76617265965615 133.91195519587518 0 133.91195519587518 133.83526613183426 0 0 0 0 106.21622554332134 163.18208661110657 0 163.18208661110657 126.83989582588265 0 0 0 0 38.915875185066398 -12.908026384409823 0 -12.908026384409823 -70.22376211295159 0 0 0 0 57.009044132151757 21.741301845347152 0 21.741301845347152 -7.0494416035567156 0 0 0 0 20.832915945475975 7.9245992780785173 0 7.9245992780785173 -9.5879876970977875 0 0 0 0 196.19052016802743 109.05331134504695 0 109.05331134504695 -14.461490894871531 0 0 0 0 179.26629488258914 136.88427971352894 0 136.88427971352894 18.525503458396997 0 0 0 0 96.722562687529717 14.169467237569734 0 14.169467237569734 -13.602161093459927 0 0 0 0 142.51358990953304 74.653312419513895 0 74.653312419513895 -0.80506155998864415 0 0 0 0 179.59587595783523 47.045307881908229 0 47.045307881908229 -67.572833658284253 0 0 0 0 104.86884440551512 204.33945219557995 0 204.33945219557995 6.8846846780870692 0 0 0 0 190.82337842995912 98.730596662061544 0 98.730596662061544 -1.1222563716983132 0 0 0 0 191.10201557734399 132.00662319279763 0 132.00662319279763 -121.7336805101022 0 0 0 0 78.604935924886377 36.628574807489713 0 36.628574807489713 -27.794337674447888 0 0 0 0 74.049145112712722 5.012195839094602 0 5.012195839094602 -5.5080706192165962 0 0 0 0 60.337619417674432 20.221932664685482 0 20.221932664685482 -45.599020565532555 0 0 0 0 62.679851006389072 25.530573675199776 0 25.530573675199776 -34.912571687687887 0 0 0 0 51.176270950643811 20.766292406615321 0 20.766292406615321 -21.775857837517833 0 0 0 0 76.790134584807674 39.217586561362623 0 39.217586561362623 -47.982431336957688 0 0 0 0 22.205796840948736 28.763860371515804 0 28.763860371515804 -13.246319271402122 0 0 0 0 97.897168517738464 17.349305054866818 0 17.349305054866818 -35.560289124980045 0 0 0 0 90.70732403366128 33.785653842428474 0 33.785653842428474 -40.466690744520747 0 0 0 0 54.277374876895919 28.174482864411402 0 28.174482864411402 -19.621534137124399 0 0 0 0 76.918297166390403 25.932598557258643 0 25.932598557258643 -44.292616874547093 0 0 0 0 57.350790145843348 23.777214958626246 0 23.777214958626246 -35.322629298147149 0 0 0 0 64.482012466226678 23.283875670137974 0 23.283875670137974 3.1758469005766941 0 0 0 0 20.341148683764914 104.21613770411841 0 104.21613770411841 -59.244372183504311 0 0 0 0 38.013939088647021 20.43874198931826 0 20.43874198931826 37.313258850997954 0 0 0 0 35.101142997722491 17.481892177209374 0 17.481892177209374 37.852170928070336 0 0 0 0 -92.314897772645054 109.51821720505632 0 109.51821720505632 55.907891159509745 0 0 0 0 -2.3268200574361799 -48.582228214721795 0 -48.582228214721795 101.76476063154041 0 0 0 0 -7.5524248659094155 61.890885005427634 0 61.890885005427634 13.976807960494625 0 0 0 0 -144.70469367019905 4.1039824743888857 0 4.1039824743888857 143.25161295043654 0 0 0 0 17.888053039248916 61.571659374930277 0 61.571659374930277 4.4114948643991738 0 0 0 0 35.745315903900732 5.8824744708170726 0 5.8824744708170726 -10.34536897957442 0 0 0 0 69.752444180543534 4.2510883469058172 0 4.2510883469058172 -44.276978554608831 0 0 0 0 44.808202253450872 20.305467680164838 0 20.305467680164838 -3.4542511026556895 0 0 0 0 76.413791840197518 24.002842327972758 0 24.002842327972758 -17.484650624799542 0 0 0 0 68.418255023839407 26.930396110110834 0 26.930396110110834 -15.192580218007276 0 0 0 0 40.768834750562689 7.7876815619407935 0 7.7876815619407935 -10.012989574308051 0 0 0 0 122.9297550869378 63.347862361030138 0 63.347862361030138 23.651268592251199 0 0 0 0 130.21153102678363 47.976225219097387 0 47.976225219097387 39.662089124354679 0 0 0 0 70.666151187427857 17.577464219000209 0 17.577464219000209 -5.8869364391805767 0 0 0 0 51.057003449542293 34.125116340511873 0 34.125116340511873 2.5724761126185278 0 0 0 0 115.14288981205755 37.54255498361465 0 37.54255498361465 19.604788147842783 0 0 0 0 103.44792625863192 49.724943653555556 0 49.724943653555556 46.531110420947243 0 0 0 0 102.25485970358932 47.647424375260243 0 47.647424375260243 43.159997660053705 0 0 0 0 107.31199573778576 58.061931555753858 0 58.061931555753858 36.08348637405561 0 0 0 0 105.69804202190062 56.475382954304905 0 56.475382954304905 53.667239971168783 0 0 0 0 9.7860795025546068 7.0355914281911538 0 7.0355914281911538 5.0435021288474955 0 0 0 0 76.998590510193026 91.195210346382737 0 91.195210346382737 25.498303458543432 0 0 0 0 110.67414528562222 41.416708951441251 0 41.416708951441251 94.746657713507375 0 0 0 0 100.72831445593329 45.685053229175082 0 45.685053229175082 73.440102130100968 0 0 0 0 100.22795076639159 48.683618708957511 0 48.683618708957511 66.033947071967305 0 0 0 0 103.30337292665899 -44.87519729307769 0 -44.87519729307769 -25.621335406608068 0 0 0 0 226.64951536059016 6.9991316531989014 0 6.9991316531989014 -56.116489717183867 0 0 0 0 27.003160037264919 -0.22744292784278741 0 -0.22744292784278741 -2.6039967546644149 0 0 0 0 163.33888032485265 -12.342005488677387 0 -12.342005488677387 -18.029026103241449 0 0 0 0 117.35743197358701 26.143616699165896 0 26.143616699165896 0.3681624751524728 0 0 0 0 97.129979423014447 49.687174778094231 0 49.687174778094231 -14.290122709611751 0 0 0 0 170.25662682560505 56.143392188245343 0 56.143392188245343 -13.824971713736886 0 0 0 0 142.70883440293255 81.590749584704099 0 81.590749584704099 -25.71769091574788 0 0 0 0 92.023403624749335 29.606643006484774 0 29.606643006484774 7.4802734288327883 0 0 0 0 126.42448423116002 57.042128611632506 0 57.042128611632506 -3.4927329322235892 0 0 0 0 153.52607653187442 83.44954841340541 0 83.44954841340541 -14.327277565558688 0 0 0 0 113.05155436682981 78.835367809728268 0 78.835367809728268 44.174769942319472 0 0 0 0 78.0735380980841 8.0886297741008093 0 8.0886297741008093 -20.606469596299576 0 0 0 0 84.520814977948916 37.258097916052307 0 37.258097916052307 -3.8042785516623532 0 0 0 0 63.720241752446782 42.833050172605112 0 42.833050172605112 5.6321989911077779 0 0 0 0 14.047586954082362 28.755668310470355 0 28.755668310470355 -16.806060513164994 0 0 0 0 69.178320052711115 47.82666076339612 0 47.82666076339612 0.53388239955243222 0 0 0 0 53.176739048354932 38.606524434431911 0 38.606524434431911 -5.3351938048664067 0 0 0 0 96.803330532683162 34.64599410530392 0 34.64599410530392 7.6473476356480807 0 0 0 0 105.5039547541819 16.572926612560423 0 16.572926612560423 13.274858298929757 0 0 0 0 44.711951164432975 38.715840798158858 0 38.715840798158858 14.694819640421246 0 0 0 0 135.27278291271068 48.006915755632804 0 48.006915755632804 23.310778273408459 0 0 0 0 117.65857962616428 40.591507354734404 0 40.591507354734404 7.9511111515621451 0 0 0 0 154.17598543624626 24.325069410041579 0 24.325069410041579 0.44336232291789202 0 0 0 0 127.36415952383322 14.429835746983713 0 14.429835746983713 0.043557914158100175 0 0 0 0 91.938103022195719 22.27861855419701 0 22.27861855419701 28.55721853646719 0 0 0 0 123.2414921073505 17.088304401101595 0 17.088304401101595 13.267571560056808 0 0 0 0 18.301891904330162 36.098082157455615 0 36.098082157455615 8.5134794718103493 0 0 0 0 94.567901700447692 23.964878514327381 0 23.964878514327381 12.623048897322178 0 0 0 0 95.085232139594154 12.373549530331957 0 12.373549530331957 -1.3330994554814879 0 0 0 0 88.911127033214143 11.2032870963817 0 11.2032870963817 -0.52212354571298647 0 0 0 0 67.193841965652609 40.711410049181552 0 40.711410049181552 11.152363483891349 0 0 0 0 96.514107247738139 16.401765576609478 0 16.401765576609478 -12.791691372462992 0 0 0 0 125.17927039499045 -0.65456298149007353 0 -0.65456298149007353 -5.4838063736028744 0 0 0 0 124.56781602990668 9.2883753116655043 0 9.2883753116655043 5.0021560748260754 0 0 0 0 31.622889944379651 32.541655652028744 0 32.541655652028744 -0.56394931042117413 0 0 0 0 75.059501190087758 40.905861113816627 0 40.905861113816627 37.35114729664474 0 0 0 0 99.305010591793689 30.994727983706298 0 30.994727983706298 20.707619288492879 0 0 0 0 101.71904467480272 30.652321347508718 0 30.652321347508718 35.794411142390345 0 0 0 0 101.30098012681992 36.418557054922985 0 36.418557054922985 29.481122734175187 0 0 0 0 102.82584091320905 49.133722693878667 0 49.133722693878667 39.651983774641849 0 0 0 0 71.29400570972939 44.832266705416259 0 44.832266705416259 61.83519779037897 0 0 0 0 130.12509235472498 114.78988250341388 0 114.78988250341388 64.677008055549777 0 0 0 0 106.79177738566068 67.206139137663399 0 67.206139137663399 74.93178751999767 0 0 0 0 150.40975366176281 33.249256815258377 0 33.249256815258377 43.540221969802587 0 0 0 0 127.29822132532718 41.638168247810427 0 41.638168247810427 40.505826259372952 0 0 0 0 106.9194956900028 22.156965283713362 0 22.156965283713362 58.204374589483905 0 0 0 0 134.1007033098067 11.636547860672181 0 11.636547860672181 62.27593472141416 0 0 0 0 104.88549154781504 25.796277656702387 0 25.796277656702387 84.424717532181603 0 0 0 0 98.633036153914873 30.841842526661367 0 30.841842526661367 60.449109768065682 0 0 0 0 103.67268830802641 33.160068742799695 0 33.160068742799695 54.893146308648284 0 0 0 0 111.23713645774114 18.581278790492888 0 18.581278790492888 43.65198815055237 0 0 0 0 100.59418362010911 26.170365481324779 0 26.170365481324779 39.213071746706191 0 0 0 0 105.75746896726196 16.860059977663468 0 16.860059977663468 23.544358903595366 0 0 0 0 102.79550626475248 23.058691366459698 0 23.058691366459698 16.310986992032213 0 0 0 0 98.79788704807288 11.017989067252074 0 11.017989067252074 17.152481443144325 0 0 0 0 105.05866103800508 19.85956348928039 0 19.85956348928039 19.590890562912136 0 0 0 0 98.647159124330301 24.597291290130915 0 24.597291290130915 43.99488822060539 0 0 0 0 98.910945879106293 27.022461700237272 0 27.022461700237272 40.435915960712464 0 0 0 0 100.29493920827372 18.498549007313159 0 18.498549007313159 15.236388741500377 0 0 0 0 96.798039345186226 20.112141639984372 0 20.112141639984372 14.513602085839011 0 0 0 0 97.893514166586101 12.407878485988476 0 12.407878485988476 -1.2556406639635043 0 0 0 0 97.576833008919493 7.6611458219958877 0 7.6611458219958877 2.2413531773752311 0 0 0 0 100.01988073861867 7.499267899850679 0 7.499267899850679 -21.193997036831661 0 0 0 0 96.623488855479081 7.8302908225947476 0 7.8302908225947476 -9.1868306865412706 0 0 0 0 95.630347371610696 7.783085868655121 0 7.783085868655121 -1.6174866966680383 0 0 0 0 101.73372951842975 13.021966588928763 0 13.021966588928763 -2.3517748205003954 0 0 0 0 96.087087549436546 14.973199066381994 0 14.973199066381994 13.703581632872556 0 0 0 0 88.394836210238282 16.16507076674543 0 16.16507076674543 13.946756533716439 0 0 0 0 99.581108167563798 14.778900467634685 0 14.778900467634685 1.5734030684452591 0 0 0 0 82.479034142364981 10.407633551928029 0 10.407633551928029 1.8795785745901838 0 0 0 0 70.170243403554196 21.693187833581533 0 21.693187833581533 7.7286692025331831 0 0 0 0 84.42907051531347 19.256145154604667 0 19.256145154604667 -0.84367170541827363 0 0 0 0 92.713784031393516 25.33282878353333 0 25.33282878353333 7.9017056317102288 0 0 0 0 73.504572846053634 28.763701508489248 0 28.763701508489248 20.746960205320633 0 0 0 0 54.533877963876876 9.2282399670248196 0 9.2282399670248196 0.30200897653594438 0 0 0 0 63.760981666709995 15.796358689708086 0 15.796358689708086 -1.0774129788627249 0 0 0 0 47.354691184847979 25.691374483050367 0 25.691374483050367 1.9384108054191529 0 0 0 0 69.040400212274108 24.280796313595943 0 24.280796313595943 -1.0647161547435644 0 0 0 0 73.912695521285059 -1.3841871650743087 0 -1.3841871650743087 -11.33860421123984 0 0 0 0 76.979889818278025 10.911947609103208 0 10.911947609103208 -3.3393081939498188 0 0 0 0 48.405631981659099 -14.067400817064708 0 -14.067400817064708 -2.9965519009567743 0 0 0 0 54.62377648135589 8.3650104397570431 0 8.3650104397570431 1.5698905050030589 0 0 0 0 45.560916259026271 -30.35639187057302 0 -30.35639187057302 23.253844909635518 0 0 0 0 63.548225410399027 -71.238098891282561 0 -71.238098891282561 72.656091426039893 0 0 0 0 93.867945611179493 -18.205098622587826 0 -18.205098622587826 -44.789842430403041 0 0 0 0 94.294757646290236 -13.056788979544763 0 -13.056788979544763 -6.5242007985625605 0 0 0 0 112.92582244887308 5.0361623381209029 0 5.0361623381209029 -20.735370976661784 0 0 0 0 108.4181601131786 20.806807503166283 0 20.806807503166283 -71.054455764775412 0 0 0 0 162.6730175008197 -3.2646014595595716 0 -3.2646014595595716 -72.6126523054063 0 0 0 0 83.434568165233941 -111.8900611422614 0 -111.8900611422614 -66.180220894470949 0 0 0 0 91.978585037773883 -199.37897382866743 0 -199.37897382866743 148.48844600872826 0 0 0 0 136.41995333866362 -34.4487723532377 0 -34.4487723532377 -54.485975398195478 0 0 0 0 4.0810082464896169 -1.5246547112839224 0 -1.5246547112839224 0.3014053838896471 0 0 0 0 15.563170777211781 -64.230172018412304 0 -64.230172018412304 172.54521233407331 0 0 0 0 166.18312020307349 -8.534809312559446 0 -8.534809312559446 112.0885736998498 0 0 0 0 -252.3587032096475 237.87282853812258 0 237.87282853812258 145.55867100195059 0 0 0 0 5.3929322137264535 16.092103334535921 0 16.092103334535921 30.90851767339791 0 0 0 0 16.246377828836557 -15.580263335466952 0 -15.580263335466952 56.930375040309627 0 0 0 0 41.371607503235282 14.343860700282789 0 14.343860700282789 -12.427516426751026 0 0 0 0 42.259151295838819 16.763100915007385 0 16.763100915007385 -19.672558497924001 0 0 0 0 16.516346972537519 0.94714314683909961 0 0.94714314683909961 5.4846751489639676 0 0 0 0 31.846844000814599 26.657631581794931 0 26.657631581794931 -13.756009724911223 0 0 0 0 35.288956017284363 16.913512643259992 0 16.913512643259992 4.4670400477784824 0 0 0 0 102.50349519410224 -7.2412166256301376 0 -7.2412166256301376 -13.359282242846792 0 0 0 0 190.55186454842624 3.1932300996704726 0 3.1932300996704726 -35.11957323267734 0 0 0 0 207.97315919234097 -19.155424185529455 0 -19.155424185529455 68.422331903048871 0 0 0 0 89.328945644407213 -62.172732700759298 0 -62.172732700759298 -0.91126888773442261 0 0 0 0 27.002750829056524 -24.0943134721999 0 -24.0943134721999 -26.15134112151032 0 0 0 0 -153.04072184668985 53.06857611218129 0 53.06857611218129 -64.407492262288542 0 0 0 0 -2.2538534695592602 -2.2662299982718679 0 -2.2662299982718679 1.5757421605404893 0 0 0 0 181.44911514466003 32.19657425080959 0 32.19657425080959 -26.98643169261959 0 0 0 0 -0.20225185492017772 226.8002235402048 0 226.8002235402048 35.679981153656172 0 0 0 0 1.1026305769133842 4.5462257597052353 0 4.5462257597052353 -1.18244145801861 0 0 0 0 106.30124468973372 80.229861340802358 0 80.229861340802358 38.686085392555128 0 0 0 0 141.45456474286038 58.151180785534279 0 58.151180785534279 -66.142595701351183 0 0 0 0 106.45877126131381 28.608444158324119 0 28.608444158324119 -8.4031404573537429 0 0 0 0 531.5122130633099 303.04239086167036 0 303.04239086167036 -330.66755581925088 0 0 0 0 160.01254858889297 35.059158516368939 0 35.059158516368939 -238.20476155698907 0 0 0 0 196.22071936313296 -349.24841823634688 0 -349.24841823634688 -178.8448379153678 0 0 0 0 146.69240696629276 5.8024796379968393 0 5.8024796379968393 -397.02836198332011 0 0 0 0 58.565199963194303 -2.0615310602000996 0 -2.0615310602000996 -15.193130636937884 0 0 0 0 422.98651571640221 -81.307161319139595 0 -81.307161319139595 114.90343870804736 0 0 0 0 26.562871855392586 52.976168652678098 0 52.976168652678098 -109.74051873187659 0 0 0 0 37.268950148338263 37.510623328143993 0 37.510623328143993 -89.329308166041301 0 0 0 0 8.0500261422424622 1.3835720704981149 0 1.3835720704981149 3.40971714306575 0 0 0 0 419.87812633550857 -61.905787218812975 0 -61.905787218812975 -142.7112800201121 0 0 0 0 229.72368303047188 29.200623021661158 0 29.200623021661158 145.89461728340302 0 0 0 0 119.74797593991025 20.072707717525645 0 20.072707717525645 -100.18088904911883 0 0 0 0 255.0306359626793 -47.390228111725946 0 -47.390228111725946 -124.91104782661296 0 0 0 0 312.40630494558718 84.417235372899995 0 84.417235372899995 57.117927866963328 0 0 0 0 139.89962524167458 -2.6944343998650311 0 -2.6944343998650311 11.216282222238078 0 0 0 0 226.30915280300815 17.321145322737266 0 17.321145322737266 1.8573104748556943 0 0 0 0 14.467438259034378 -1.8758236004350337 0 -1.8758236004350337 -7.2021533301533616 0 0 0 0 150.17376443183457 -15.14193236141864 0 -15.14193236141864 -16.252032692591456 0 0 0 0 16.982050410464918 0.63438367043279698 0 0.63438367043279698 -1.1828327089526347 0 0 0 0 139.89864308301276 -25.561127804827038 0 -25.561127804827038 -22.905499807893648 0 0 0 0 129.11872034947373 -4.5815904639321161 0 -4.5815904639321161 -38.315695541969035 0 0 0 0 86.151164908529609 -24.367040099061342 0 -24.367040099061342 -13.712256527947829 0 0 0 0 88.495176255397382 30.479911329206516 0 30.479911329206516 16.699454752231759 0 0 0 0 140.11706999731177 0.13265212103488011 0 0.13265212103488011 -27.105894508260462 0 0 0 0 129.45825208961469 -16.317901926762715 0 -16.317901926762715 -22.952279621362322 0 0 0 0 135.57833393457304 -6.0066005798119022 0 -6.0066005798119022 -12.866583692626591 0 0 0 0 130.87489404450571 -14.054812358899653 0 -14.054812358899653 0.31704492826975184 0 0 0 0 133.09776367103041 -15.145194574964989 0 -15.145194574964989 -10.37532390619026 0 0 0 0 129.23094845649757 -38.651562928016119 0 -38.651562928016119 -35.088727673945868 0 0 0 0 125.81557740658172 -26.499842021691165 0 -26.499842021691165 18.663446625386314 0 0 0 0 145.25495499808312 -14.817571765489902 0 -14.817571765489902 0.35480200273286755 0 0 0 0 160.07192959191161 4.0236709399532629 0 4.0236709399532629 -17.639233653769224 0 0 0 0 234.31789983831732 14.404411765914347 0 14.404411765914347 -30.190356729975974 0 0 0 0 182.19046877949586 -45.787747521465008 0 -45.787747521465008 -51.240335646232552 0 0 0 0 183.80484087083823 92.88869105508968 0 92.88869105508968 2.2126071624779797 0 0 0 0 127.61959616730019 35.523380612711662 0 35.523380612711662 25.623706936393091 0 0 0 0 101.46790827229052 -7.4943291536646939 0 -7.4943291536646939 -38.886819059765912 0 0 0 0 145.3690484665276 8.1751183730848425 0 8.1751183730848425 -30.69785996617793 0 0 0 0 128.64341926081397 -1.0617734556853975 0 -1.0617734556853975 -16.392333154579319 0 0 0 0 118.79244749821555 17.618824725114223 0 17.618824725114223 -33.949450846690524 0 0 0 0 129.81465971613943 24.184372731367148 0 24.184372731367148 -30.092630253050629 0 0 0 0 124.87208609054869 37.380607938444882 0 37.380607938444882 -58.777198441451674 0 0 0 0 111.96621932911512 32.938582485049494 0 32.938582485049494 -32.85737799052913 0 0 0 0 170.7801396883151 276.23166981079385 0 276.23166981079385 30.034035850083455 0 0 0 0 -7.4108763052095696 13.603998742592616 0 13.603998742592616 4.0898362068675294 0 0 0 0 122.24701957899504 20.690155296464695 0 20.690155296464695 -10.636119933556166 0 0 0 0 176.64600289420923 -46.15802578402463 0 -46.15802578402463 162.59732848194562 0 0 0 0 105.8563248150266 10.128426781530145 0 10.128426781530145 -20.123954228563008 0 0 0 0 106.74506830349856 9.7182404882400419 0 9.7182404882400419 -43.429680024361119 0 0 0 0 102.71924878833306 7.7222108208248983 0 7.7222108208248983 -10.19486633699546 0 0 0 0 95.532028916481067 31.383829752569056 0 31.383829752569056 -3.9136812891619002 0 0 0 0 160.96535870280786 34.343824257305016 0 34.343824257305016 -15.051342531005503 0 0 0 0 115.07061301271824 25.17717066292721 0 25.17717066292721 6.0633675898407091 0 0 0 0 148.03037413413404 13.760119859849624 0 13.760119859849624 -1.7584091465814708 0 0 0 0 239.81739108602778 19.691717917568837 0 19.691717917568837 -3.7688923460796673 0 0 0 0 29.728646342835379 19.901948832456412 0 19.901948832456412 -5.4446739267424586 0 0 0 0 239.88034507082193 20.905145794627387 0 20.905145794627387 5.5559775970177725 0 0 0 0 31.535651901588551 -0.35282329559886705 0 -0.35282329559886705 3.7231504805811828 0 0 0 0 82.692356999446929 19.936554857584497 0 19.936554857584497 -3.2944335218817287 0 0 0 0 76.062701205605933 35.590321653218204 0 35.590321653218204 5.3229792458860192 0 0 0 0 78.655248803971503 -3.6395379609593803 0 -3.6395379609593803 -16.473018384335305 0 0 0 0 89.054710235890667 -1.745220878568766 0 -1.745220878568766 -13.242970961082268 0 0 0 0 139.64098656977148 19.309150937780714 0 19.309150937780714 -5.0987487991899343 0 0 0 0 109.52668580442696 -8.4085614703465126 0 -8.4085614703465126 -29.475050080231085 0 0 0 0 104.61079397167678 -2.150147527634779 0 -2.150147527634779 -20.188391836259605 0 0 0 0 129.29206095295376 -15.834948068122685 0 -15.834948068122685 -44.28234845274801 0 0 0 0 1569.2017578930136 -259.07357523865699 0 -259.07357523865699 -217.45900511038343 0 0 0 0 23.913099266040007 -18.230513531067661 0 -18.230513531067661 9.2348450596748943 0 0 0 0 1179.1300057245389 -244.62156450907014 0 -244.62156450907014 -192.5117982342494 0 0 0 0 1674.3658571628621 226.73218120796241 0 226.73218120796241 -258.14849269486581 0 0 0 0 1295.7658553010842 206.40868095215043 0 206.40868095215043 -247.18547131983976 0 0 0 0 11.454044175873996 -7.0173238917408796 0 -7.0173238917408796 4.4541158370699705 0 0 0 0 3497.6249641912746 1232.7046332651801 0 1232.7046332651801 20.579919461328778 0 0 0 0 -167.29251327197198 -432.20258948292275 0 -432.20258948292275 -322.77067143125419 0 0 0 0 353.57115163906201 -230.22512121450961 0 -230.22512121450961 -298.19490951316993 0 0 0 0 109.83366113761076 -110.21307151175438 0 -110.21307151175438 -191.22846612738567 0 0 0 0 156.96427011962078 -20.173720558271611 0 -20.173720558271611 -229.03876691526602 0 0 0 0 57.982779109559488 -75.656832181036862 0 -75.656832181036862 -253.44392410973342 0 0 0 0 119.19805220984381 -85.135338972880731 0 -85.135338972880731 -250.28954183391488 0 0 0 0 -6.0457547648667429 -10.175260669910568 0 -10.175260669910568 2.0736836754121128 0 0 0 0 25.970748813253998 -21.238631362643481 0 -21.238631362643481 10.605857675706773 0 0 0 0 3.1280545252302545 -132.96806595546514 0 -132.96806595546514 -264.49010393683864 0 0 0 0 -93.577074365330191 -47.368745933487901 0 -47.368745933487901 20.988546848598503 0 0 0 0 20.615992085721317 -3.8104462512835156 0 -3.8104462512835156 -0.45753694290032088 0 0 0 0 72.448848225067195 -50.095446116524215 0 -50.095446116524215 -302.27011460248286 0 0 0 0 175.40147657109628 48.062044981980762 0 48.062044981980762 -71.860916447432828 0 0 0 0 51.493795286798559 -146.11541877775517 0 -146.11541877775517 57.790894020993164 0 0 0 0 1.6007853098438858 -2.9008339670758616 0 -2.9008339670758616 5.4754349003591436 0 0 0 0 -15.636238053140914 120.92527259954409 0 120.92527259954409 97.664375652350827 0 0 0 0 -24.721482401480898 -42.142411494983179 0 -42.142411494983179 70.480441319140652 0 0 0 0 -38.467095636726299 -257.78725243341705 0 -257.78725243341705 -197.65555212093636 0 0 0 0 69.179390563793277 4.5140342279439665 0 4.5140342279439665 -64.699619169557991 0 0 0 0 0.84538567762896832 -5.6812446857555585 0 -5.6812446857555585 -0.33528487868889989 0 0 0 0 578.48864239466639 14.751041070833168 0 14.751041070833168 388.87704252195903 0 0 0 0 32.620096038983966 -8.1008750314226745 0 -8.1008750314226745 3.4068982742932841 0 0 0 0 16.059713948809076 -53.539470709082707 0 -53.539470709082707 -20.952155941938372 0 0 0 0 997.53296453288931 9.2488756451837162 0 9.2488756451837162 -206.37199734524484 0 0 0 0 -136.85738658599348 -244.8751992634048 0 -244.8751992634048 366.05972027944557 0 0 0 0 604.18662585406128 141.53645496779089 0 141.53645496779089 157.1065766777852 0 0 0 0 3494.8915985050062 -579.43470136563269 0 -579.43470136563269 -532.17245412100499 0 0 0 0 1836.8230291121617 -1402.0696760886435 0 -1402.0696760886435 495.39527178795356 0 0 0 0 6.4085167148250974 -1.0997275120270915 0 -1.0997275120270915 2.7599286567611614 0 0 0 0 3466.2835884864617 -12.278398324820206 0 -12.278398324820206 3.987568237447165 0 0 0 0 5.0780214512126278 -2.0355911898415471 0 -2.0355911898415471 3.0180714538689095 0 0 0 0 -396.56563941876811 -630.44459592350063 0 -630.44459592350063 1417.4638376429491 0 0 0 0 624.15862904993992 1526.9390167347399 0 1526.9390167347399 1443.4375863693779 0 0 0 0 1948.9626642488765 -551.99048962177062 0 -551.99048962177062 -729.76739221350749 0 0 0 0 3486.1439593704363 537.45904354364302 0 537.45904354364302 -672.02812428139055 0 0 0 0 -382.12345924593319 122.91124150968108 0 122.91124150968108 518.63807961208659 0 0 0 0 17.740719751001972 4.1477133065791314 0 4.1477133065791314 -0.49045104012976271 0 0 0 0 158.83493477441539 -245.80127281500549 0 -245.80127281500549 -69.118411978572993 0 0 0 0 3492.904863540643 947.97698499584885 0 947.97698499584885 -529.78284134546516 0 0 0 0 10.660490540349748 3.2841880532233976 0 3.2841880532233976 -0.027222441941179093 0 0 0 0 1051.1933080501567 1500.2519796999709 0 1500.2519796999709 567.80789633696122 0 0 0 0 1649.256638175747 306.40100366409666 0 306.40100366409666 -555.85377332775977 0 0 0 0 1648.9870739058429 189.14830692972947 0 189.14830692972947 32.957734326621505 0 0 0 0 608.4817171335435 300.43528305570794 0 300.43528305570794 234.71402211848675 0 0 0 0 779.33732884803158 -188.95905527125339 0 -188.95905527125339 57.434008143235474 0 0 0 0 1945.9424977340523 -232.7762810608271 0 -232.7762810608271 -180.32539559339375 0 0 0 0 1323.4336593467424 -39.377788834922228 0 -39.377788834922228 75.782721795410438 0 0 0 0 837.1440772637776 -332.60103360152868 0 -332.60103360152868 68.960335904256453 0 0 0 0 1172.7439873101821 -107.61900642151335 0 -107.61900642151335 82.309603024612329 0 0 0 0 1442.0748812157008 -490.41127416503537 0 -490.41127416503537 77.594066295252105 0 0 0 0 3501.2498176593076 -68.367355159980747 0 -68.367355159980747 -574.30303346273547 0 0 0 0 1978.2207705346759 -724.2360192885053 0 -724.2360192885053 5.0212114874540248 0 0 0 0 24.476179156106809 -42.966749057635752 0 -42.966749057635752 -79.680722234608993 0 0 0 0 61.180826596157203 -2.2805232236771076 0 -2.2805232236771076 -40.038698886688508 0 0 0 0 43.531141488200774 24.974733476748725 0 24.974733476748725 -126.71298106368863 0 0 0 0 8.8699434462605495 -56.170638272354296 0 -56.170638272354296 -36.272008300834671 0 0 0 0 4.2437158840589753 -2.6980986904133015 0 -2.6980986904133015 -2.3939931316004328 0 0 0 0 -19.21590530067806 -26.838552050287149 0 -26.838552050287149 -8.0204690232164921 0 0 0 0 34.26516387425545 24.00070899607249 0 24.00070899607249 -4.3692902806169513 0 0 0 0 28.634818350413294 -2.3921283721352351 0 -2.3921283721352351 0.97802640558601928 0 0 0 0 3.8689949574686171 1.5346911930733302 0 1.5346911930733302 -1.3589640317290703 0 0 0 0 139.59604008773567 -5.6841508982265623 0 -5.6841508982265623 -9.7777308117651955 0 0 0 0 10.221263886976912 3.0907588921477025 0 3.0907588921477025 -1.2226509589315668 0 0 0 0 69.631763355350586 -31.361237822938548 0 -31.361237822938548 130.27316681533227 0 0 0 0 37.575080493462707 -32.991213343905358 0 -32.991213343905358 -36.957438164526593 0 0 0 0 73.016378833873659 4.0248352230293563 0 4.0248352230293563 3.0807040520647888 0 0 0 0 108.9942797116737 -25.861907484411887 0 -25.861907484411887 12.334232785604627 0 0 0 0 471.33489426945607 -311.7078059701538 0 -311.7078059701538 222.42725045720255 0 0 0 0 806.11283152436658 -171.53223525455707 0 -171.53223525455707 -50.350254973463962 0 0 0 0 67.255846061090779 -75.673380774710097 0 -75.673380774710097 -11.427927905065701 0 0 0 0 106.62371695595448 -30.067956422906633 0 -30.067956422906633 25.537464481523784 0 0 0 0 0.24414326671498454 0.26636595297452725 0 0.26636595297452725 1.9835849707145656 0 0 0 0 745.50526905348954 -113.85766673364442 0 -113.85766673364442 358.64740371796671 0 0 0 0 136.67648074082445 -314.66607410202289 0 -314.66607410202289 311.27774885290097 0 0 0 0 76.519967902212557 -199.32984669945731 0 -199.32984669945731 309.13312788911333 0 0 0 0 45.86719070102572 -10.453333144728305 0 -10.453333144728305 162.91953965109104 0 0 0 0 60.341070713348017 -88.3732477921873 0 -88.3732477921873 21.050037219081361 0 0 0 0 44.974932389290757 -7.0750805443721383 0 -7.0750805443721383 20.076314336788698 0 0 0 0 57.982818245776571 -116.96353399618333 0 -116.96353399618333 14.267626238774312 0 0 0 0 110.15129770952444 -77.88538770383613 0 -77.88538770383613 33.698584004831787 0 0 0 0 423.8141630628179 -398.15842033009005 0 -398.15842033009005 -210.54549002653405 0 0 0 0 219.05434702119601 -366.93503621913152 0 -366.93503621913152 -190.93634716456842 0 0 0 0 358.83331253509914 -198.13220168553403 0 -198.13220168553403 -2.9395670470240134 0 0 0 0 197.40725464746174 -339.73556600821644 0 -339.73556600821644 172.20844237374774 0 0 0 0 650.70597131530667 -252.4863163238274 0 -252.4863163238274 -163.12143026718957 0 0 0 0 524.80505118989731 51.878508684792067 0 51.878508684792067 -909.02886141643683 0 0 0 0 419.03361855110688 -222.57291500287482 0 -222.57291500287482 -55.341492410891988 0 0 0 0 -228.18938423993131 -233.11922309692463 0 -233.11922309692463 -37.723943800507257 0 0 0 0 60.342826469435749 -17.809908768913505 0 -17.809908768913505 4.7062041907816843 0 0 0 0 222.74544629008869 256.77436661156224 0 256.77436661156224 -409.23798114825843 0 0 0 0 71.115019552323702 279.54568203951675 0 279.54568203951675 120.96286127673679 0 0 0 0 -640.90216477125978 358.8556229726928 0 358.8556229726928 442.06405804429983 0 0 0 0 7.0072038874906539 1.6098125395199689 0 1.6098125395199689 0.11796727927414941 0 0 0 0 -517.26251390665129 -364.1074875770787 0 -364.1074875770787 745.15841191658546 0 0 0 0 384.07203109875991 574.89823701109481 0 574.89823701109481 -239.78894367211251 0 0 0 0 79.177316322651279 -22.36506725160088 0 -22.36506725160088 5.5152958602519186 0 0 0 0 1135.7244474836598 -538.93908127284305 0 -538.93908127284305 -4.3665505757204528 0 0 0 0 419.14196629951766 -177.67759271076693 0 -177.67759271076693 -591.6547769768049 0 0 0 0 -69.904606713964313 -112.94271863779932 0 -112.94271863779932 -42.137813563035664 0 0 0 0 103.39609148507589 1.0788826616226288 0 1.0788826616226288 -1.8082233474087843 0 0 0 0 80.848742308313376 85.005037294703357 0 85.005037294703357 -149.69923908309738 0 0 0 0 41.804559869030527 -60.571732541939411 0 -60.571732541939411 -36.732851204964106 0 0 0 0 79.821401666951658 -25.397062477008273 0 -25.397062477008273 3.4981371509311705 0 0 0 0 -82.494539213497774 -118.91040893827321 0 -118.91040893827321 -57.675712753055791 0 0 0 0 262.73172074907052 244.76788897454657 0 244.76788897454657 -118.95446187073804 0 0 0 0 704.14656504150685 18.564430737042791 0 18.564430737042791 -191.49676290842831 0 0 0 0 -251.66667662096097 97.842729828782041 0 97.842729828782041 24.597595031961873 0 0 0 0 83.189629683420208 66.764549297881643 0 66.764549297881643 8.0631451573778605 0 0 0 0 113.55410283375659 2.5826041331273046 0 2.5826041331273046 -5.9297131061554893 0 0 0 0 273.21664971037762 40.573513845547566 0 40.573513845547566 -192.46600736656922 0 0 0 0 94.961288848029312 21.13565856052346 0 21.13565856052346 -11.543088325157186 0 0 0 0 25.16156113733166 43.370912616553923 0 43.370912616553923 -14.530289785812329 0 0 0 0 61.594829917545212 12.080008342130114 0 12.080008342130114 1.6587179282428153 0 0 0 0 59.917380636660113 41.711160152793852 0 41.711160152793852 3.9119124991734822 0 0 0 0 -49.033409571631637 34.307560513117281 0 34.307560513117281 13.751653940457828 0 0 0 0 32.208400053025798 -36.21825812550675 0 -36.21825812550675 1.4949743866958016 0 0 0 0 14.395038678734181 -28.518328271125366 0 -28.518328271125366 9.6434852851220967 0 0 0 0 -59.495166302628434 -62.304191645162014 0 -62.304191645162014 -5.3966421706098799 0 0 0 0 20.255098973299027 16.856563559715369 0 16.856563559715369 -10.034556664292268 0 0 0 0 23.156689236119746 -21.874832281305913 0 -21.874832281305913 14.855967069575456 0 0 0 0 26.871184714838819 0.34347923966606686 0 0.34347923966606686 -24.624728877897496 0 0 0 0 40.678149093279899 -32.722763609260426 0 -32.722763609260426 9.3426340474322842 0 0 0 0 6.6629888945406801 -5.6237652365852568 0 -5.6237652365852568 -15.825614885854559 0 0 0 0 7.2372340395173893 -2.1786795120069549 0 -2.1786795120069549 -5.7487798840656623 0 0 0 0 108.157352930446 -6.1545661608045066 0 -6.1545661608045066 -16.316457723417891 0 0 0 0 58.591558697345135 -52.142263145502397 0 -52.142263145502397 -7.1482053735371665 0 0 0 0 28.128165981797792 -22.414531804884177 0 -22.414531804884177 -7.6373194465579672 0 0 0 0 65.907598324823994 4.1158323146743214 0 4.1158323146743214 -90.761175889773995 0 0 0 0 67.758865720994436 22.347476718001928 0 22.347476718001928 -6.1627973365134494 0 0 0 0 84.598631030105025 5.6667786779997869 0 5.6667786779997869 -8.3673797400299463 0 0 0 0 54.066847673987922 -6.4460566487581445 0 -6.4460566487581445 -31.490334280984825 0 0 0 0 12.909049555534075 -16.169224691449113 0 -16.169224691449113 -16.566221725563285 0 0 0 0 46.304302110955177 -12.887026200183755 0 -12.887026200183755 -34.494516361308342 0 0 0 0 30.369544079279876 3.1341175925217613 0 3.1341175925217613 -30.663155508413183 0 0 0 0 32.580851160138991 -12.495340135784318 0 -12.495340135784318 -0.64131347166676278 0 0 0 0 10.034497522833398 0.98259766542721749 0 0.98259766542721749 -0.28899737090537059 0 0 0 0 52.681370126020738 -7.2509256612370336 0 -7.2509256612370336 -19.15142242812999 0 0 0 0 32.418591827036522 -40.789205596871895 0 -40.789205596871895 -13.128778182636097 0 0 0 0 14.320624907762737 -1.7050038161153678 0 -1.7050038161153678 -16.008640136229968 0 0 0 0 70.99202702731418 -32.845039017687782 0 -32.845039017687782 -25.675249067375319 0 0 0 0 30.802694652245563 -12.001910332391311 0 -12.001910332391311 -16.589669447027983 0 0 0 0 41.109369090219843 -21.201107641939416 0 -21.201107641939416 -27.664705007214707 0 0 0 0 56.335132797616097 -6.1382793091725034 0 -6.1382793091725034 -35.946110045249952 0 0 0 0 10.172017003485607 -12.617756023675739 0 -12.617756023675739 -2.8903717900172676 0 0 0 0 28.119055559651315 -10.293164857405145 0 -10.293164857405145 2.1412873383924875 0 0 0 0 35.264050235443094 -17.063366930962626 0 -17.063366930962626 -11.852321679013839 0 0 0 0 34.950078861024096 -10.441533285605475 0 -10.441533285605475 -7.6623722442227411 0 0 0 0 44.433770499987077 -11.466805203025274 0 -11.466805203025274 -14.734483732329181 0 0 0 0 12.001946150191987 6.0221931058702296 0 6.0221931058702296 -12.379998217721209 0 0 0 0 42.351634304570325 -3.6613576617148738 0 -3.6613576617148738 -20.691464547952364 0 0 0 0 21.040584264010732 -5.1188838558697967 0 -5.1188838558697967 -1.4906423916936089 0 0 0 0 157.3126590535685 -201.77812390318991 0 -201.77812390318991 -644.89688971687769 0 0 0 0 26.926077565056445 -7.5269457225141352 0 -7.5269457225141352 -1.4624767373065377 0 0 0 0 34.143367967795712 -24.067402520687736 0 -24.067402520687736 -12.09910227269404 0 0 0 0 371.13534779776819 -171.99956713380061 0 -171.99956713380061 -641.52856189522208 0 0 0 0 -136.63484211781179 -216.18101882847054 0 -216.18101882847054 -95.969964061550399 0 0 0 0 86.550371568242554 -37.045658590467156 0 -37.045658590467156 -75.359820357842636 0 0 0 0 498.2014170668499 -267.22426639477737 0 -267.22426639477737 42.042836938817345 0 0 0 0 -80.676918484987254 -66.56341306402453 0 -66.56341306402453 550.20841296509514 0 0 0 0 42.928369748537079 45.14483186535017 0 45.14483186535017 119.13443135259564 0 0 0 0 13.536222187140083 -152.92705073823186 0 -152.92705073823186 -278.13300773576157 0 0 0 0 -190.90871864587825 -165.51366648047861 0 -165.51366648047861 185.05003659073645 0 0 0 0 -29.613413027464048 -393.74654048250164 0 -393.74654048250164 -445.27588880227722 0 0 0 0 -447.99423604349795 -418.63830962412385 0 -418.63830962412385 -199.82386286029214 0 0 0 0 84.827856332994998 -342.74689782589076 0 -342.74689782589076 -152.81982584584966 0 0 0 0 -110.24969242355291 -176.06499459893189 0 -176.06499459893189 -288.50990215393085 0 0 0 0 33.734475624318293 189.28074457074354 0 189.28074457074354 153.87512958747197 0 0 0 0 15.792477244700422 -21.967170866825768 0 -21.967170866825768 76.777520596371232 0 0 0 0 3.7182662073307995 -2.2217985816996411 0 -2.2217985816996411 0.73434990147723589 0 0 0 0 2.3909106413480572 1.304222929334145 0 1.304222929334145 -1.7221991703905193 0 0 0 0 71.36691783934657 -356.68200292591928 0 -356.68200292591928 -51.361237576719418 0 0 0 0 307.48642294242018 -189.44022061557826 0 -189.44022061557826 83.327911946185395 0 0 0 0 54.94599751003534 -113.42301468654387 0 -113.42301468654387 348.04423339088407 0 0 0 0 391.94866728956549 86.620091755567046 0 86.620091755567046 -48.869445971392452 0 0 0 0 187.32208054755029 138.5230867034245 0 138.5230867034245 159.59788499769002 0 0 0 0 288.79457442251805 -185.97130376355261 0 -185.97130376355261 80.52213185028495 0 0 0 0 -71.266857373986568 -332.52015371944412 0 -332.52015371944412 252.84639712202375 0 0 0 0 14.780301740481136 -0.50218071148658794 0 -0.50218071148658794 -1.7626441143587548 0 0 0 0 -420.39606718770665 -186.28045090038495 0 -186.28045090038495 110.91452697279374 0 0 0 0 48.455392117524752 -330.68634827734911 0 -330.68634827734911 134.07542060331912 0 0 0 0 112.6549639216064 79.643850872213875 0 79.643850872213875 -521.75605814200685 0 0 0 0 -3.1302669402648462 -84.99067071257673 0 -84.99067071257673 -183.87366582171086 0 0 0 0 9.7423925504044746 -13.276494750186657 0 -13.276494750186657 -187.11544257335572 0 0 0 0 149.64263530428798 -85.032682215656052 0 -85.032682215656052 -17.895872667700758 0 0 0 0 100.90849932037054 38.788522128616194 0 38.788522128616194 -164.67163766126487 0 0 0 0 148.02730812620212 159.10370345104971 0 159.10370345104971 -8.1603357042027369 0 0 0 0 216.98986539696853 119.93507575605128 0 119.93507575605128 -135.14427034666301 0 0 0 0 507.9931511979994 336.14645612462999 0 336.14645612462999 -90.58536731601248 0 0 0 0 574.47112489667052 368.04773457563681 0 368.04773457563681 -173.9942344193762 0 0 0 0 502.42942156263416 347.5269112608384 0 347.5269112608384 -111.36400343172238 0 0 0 0 1199.0179043390526 362.71317834631736 0 362.71317834631736 -225.42708623810393 0 0 0 0 946.57842203532743 6.6583716125353885 0 6.6583716125353885 449.02906026899723 0 0 0 0 -151.16210682296514 259.03916384349213 0 259.03916384349213 -37.33161716423291 0 0 0 0 5.7930014129025835 -0.25422153604112019 0 -0.25422153604112019 -0.37850072471523677 0 0 0 0 354.79513607282934 505.77345119977167 0 505.77345119977167 -148.81299798554187 0 0 0 0 2.5340511492950242 2.6019645258365944 0 2.6019645258365944 1.1879426892793603 0 0 0 0 -81.501457180467696 353.1466661924992 0 353.1466661924992 166.31943478577273 0 0 0 0 -184.25531261670039 -287.51409151548194 0 -287.51409151548194 -880.16757875938038 0 0 0 0 -45.576494501947309 39.243507534689797 0 39.243507534689797 -219.36995298827787 0 0 0 0 937.21109804569528 301.77841748998799 0 301.77841748998799 316.10695300290399 0 0 0 0 791.97536957774719 -87.432362507620383 0 -87.432362507620383 72.73865436885967 0 0 0 0 -541.61325778259379 362.51944259288177 0 362.51944259288177 1056.4901074756808 0 0 0 0 1.5939613066405158 3.6044277710525634 0 3.6044277710525634 7.7064877649914507 0 0 0 0 698.49835343801533 224.60860661476875 0 224.60860661476875 -73.445147745844679 0 0 0 0 369.46161723513796 85.681854132552644 0 85.681854132552644 16.491578234926067 0 0 0 0 -82.028198964595504 176.6434902466267 0 176.6434902466267 -212.90577166871208 0 0 0 0 3.0908648686442319 9.0465676186444384 0 9.0465676186444384 17.618201595186108 0 0 0 0 18.301393934998487 73.228011219984182 0 73.228011219984182 -259.22911229272449 0 0 0 0 252.76170509563235 252.60789032570028 0 252.60789032570028 -480.32397731553692 0 0 0 0 15.207497630857688 126.42924514731158 0 126.42924514731158 -224.83543380546689 0 0 0 0 7.009733708128266 3.7693423849675325 0 3.7693423849675325 0.96097592304551682 0 0 0 0 74.286875971949485 59.675919827666348 0 59.675919827666348 -148.23490523079863 0 0 0 0 -102.80594215918518 368.71153998869266 0 368.71153998869266 290.81908371104237 0 0 0 0 -20.726468823668256 365.05992315751428 0 365.05992315751428 290.51098597341888 0 0 0 0 209.78991659534768 283.3060146853511 0 283.3060146853511 220.45206429248083 0 0 0 0 419.90287308391089 185.71381246321926 0 185.71381246321926 256.59954445414496 0 0 0 0 131.34364146872394 222.06000981480781 0 222.06000981480781 453.91134175969898 0 0 0 0 180.81018701099129 542.76154860314682 0 542.76154860314682 433.21542226121119 0 0 0 0 -125.19731632996263 505.49209228521386 0 505.49209228521386 413.947784905258 0 0 0 0 78.645879747607978 531.94401088001609 0 531.94401088001609 367.18715597242317 0 0 0 0 123.32623363132734 380.89994198816066 0 380.89994198816066 -44.179028728036656 0 0 0 0 -450.58519138543852 406.90418422257619 0 406.90418422257619 486.30536150029729 0 0 0 0 10.880385505239246 679.34312352174288 0 679.34312352174288 596.08579368391702 0 0 0 0 1546.5655322328093 614.45853312824158 0 614.45853312824158 238.10432060655739 0 0 0 0 489.51776608673168 344.12938427476439 0 344.12938427476439 855.40929610520834 0 0 0 0 684.68778976522299 -12.105818647943579 0 -12.105818647943579 -98.493900402329473 0 0 0 0 609.3791521711828 754.28329936029854 0 754.28329936029854 221.43324530886866 0 0 0 0 81.444301203344367 63.731497908361234 0 63.731497908361234 -104.67056294669987 0 0 0 0 -31.903143613397333 -98.951217709627173 0 -98.951217709627173 -122.28461860911642 0 0 0 0 14.202477875791374 -199.11338968038672 0 -199.11338968038672 -482.63236436580428 0 0 0 0 -50.727682244803873 188.54503947703233 0 188.54503947703233 -863.28679743432485 0 0 0 0 142.90265060945603 421.80188354912281 0 421.80188354912281 -90.105989874020906 0 0 0 0 6.6613099690189728 -3.8752342238945516 0 -3.8752342238945516 -0.52355424119137872 0 0 0 0 78.636503783331136 -1.3628637489428428 0 -1.3628637489428428 -324.59954941518811 0 0 0 0 -57.310478569052066 125.4539232905733 0 125.4539232905733 234.97179766942691 0 0 0 0 54.984418534935685 278.35801951549468 0 278.35801951549468 19.846599163574638 0 0 0 0 -21.409311256917135 -16.238951753005949 0 -16.238951753005949 76.015653402563203 0 0 0 0 23.436832465594335 -8.937326096860037 0 -8.937326096860037 1.5872579496425023 0 0 0 0 78.801903727948229 -76.766787151308563 0 -76.766787151308563 1.4195383063479312 0 0 0 0 29.685269040412095 -63.64424662961892 0 -63.64424662961892 -27.230285166598605 0 0 0 0 41.992376682086615 -30.408076765774467 0 -30.408076765774467 -19.29955853724141 0 0 0 0 30.198319533774338 -13.830475673747515 0 -13.830475673747515 21.566306494278251 0 0 0 0 -10.397336884125252 -62.373342832826438 0 -62.373342832826438 23.792941656637083 0 0 0 0 46.109399598673448 -18.126409552114644 0 -18.126409552114644 3.8101627937689946 0 0 0 0 63.336765644560728 -27.528371468300065 0 -27.528371468300065 -67.372320373025104 0 0 0 0 108.20497377596621 -6.5102581955361529 0 -6.5102581955361529 -59.054581107984632 0 0 0 0 48.800413564684277 -59.461696362155635 0 -59.461696362155635 -86.300504996099335 0 0 0 0 40.252119625245349 -15.848619572582546 0 -15.848619572582546 6.3690105977398979 0 0 0 0 49.172929199048667 -139.92971057701561 0 -139.92971057701561 -140.98430663425324 0 0 0 0 -5.00727915090647 4.8686547657225674 0 4.8686547657225674 -60.313215944512194 0 0 0 0 -27.91374107532647 -60.089651059715834 0 -60.089651059715834 69.764333334553157 0 0 0 0 52.654368349020388 -88.727486487243254 0 -88.727486487243254 -15.820024200216722 0 0 0 0 -116.13956040589983 -152.47706064914018 0 -152.47706064914018 59.739869580712366 0 0 0 0 56.848007987588971 -161.94905189005942 0 -161.94905189005942 48.080161235033302 0 0 0 0 -130.63892590010619 -67.101444396120769 0 -67.101444396120769 77.282526712195249 0 0 0 0 -89.241279335585205 -135.156907501364 0 -135.156907501364 38.966127507443161 0 0 0 0 57.079383761116333 -316.69908791549778 0 -316.69908791549778 3.7425369328102533 0 0 0 0 -190.05113831234667 -333.48514980804578 0 -333.48514980804578 6.8355244649246742 0 0 0 0 373.64365347980856 -6.7211252763154334 0 -6.7211252763154334 484.63447970864217 0 0 0 0 28.469806293440342 10.190939573004471 0 10.190939573004471 -39.968312883582257 0 0 0 0 0.11837734309954939 -0.11434249011355391 0 -0.11434249011355391 -0.37351619627625965 0 0 0 0 41.711428226568387 -1.5722731606711022 0 -1.5722731606711022 -54.474937673366185 0 0 0 0 325.7473271100298 -254.69374705134487 0 -254.69374705134487 -83.275785487063331 0 0 0 0 62.564973298016412 -141.24106980715442 0 -141.24106980715442 -88.537224522009751 0 0 0 0 22.364493740288708 51.368710121557797 0 51.368710121557797 118.04119635527695 0 0 0 0 33.194524314005221 -11.190856930553139 0 -11.190856930553139 3.4852960932460988 0 0 0 0 194.48644844106457 -364.06292522320655 0 -364.06292522320655 -340.15309212100556 0 0 0 0 -55.031045194235048 -77.723750418606869 0 -77.723750418606869 64.771472475285464 0 0 0 0 35.522564581620827 51.159906167416011 0 51.159906167416011 86.38383732300872 0 0 0 0 11.325081031367972 -59.61337791623987 0 -59.61337791623987 29.587615928510786 0 0 0 0 -53.516486318796524 -17.040990104662342 0 -17.040990104662342 43.785253559002292 0 0 0 0 -186.5939410561441 -118.21890917937264 0 -118.21890917937264 125.41847393669786 0 0 0 0 149.32307703619153 120.41519010944808 0 120.41519010944808 -135.1206059391169 0 0 0 0 116.52966723341615 -26.863342788383875 0 -26.863342788383875 664.84902395046629 0 0 0 0 17.563739251083177 -4.7553838363742109 0 -4.7553838363742109 1.5650237615444016 0 0 0 0 -35.185008039151398 71.226419848149135 0 71.226419848149135 178.02460067826041 0 0 0 0 225.90617558687518 -73.176117995769232 0 -73.176117995769232 -52.935866211788152 0 0 0 0 -41.821584549172258 164.08318961139253 0 164.08318961139253 331.02796658103193 0 0 0 0 60.084745464126172 332.40824123817777 0 332.40824123817777 288.48387370794717 0 0 0 0 380.99870613129224 598.39428568780522 0 598.39428568780522 782.62054801414729 0 0 0 0 -53.828956746860058 769.94679217768135 0 769.94679217768135 -84.537347431315993 0 0 0 0 568.73874958166562 885.56941812796731 0 885.56941812796731 -63.286184872909018 0 0 0 0 9.6911502575041482 5.3846136009770937 0 5.3846136009770937 3.326641549767638 0 0 0 0 1034.7702661695585 427.48461501284919 0 427.48461501284919 550.74775409329982 0 0 0 0 1157.8048890489627 655.76738404224625 0 655.76738404224625 26.136605073789084 0 0 0 0 939.59292219374811 837.86518506534139 0 837.86518506534139 282.69528579982011 0 0 0 0 1228.1120657672363 527.60012630118877 0 527.60012630118877 124.2981884755574 0 0 0 0 8.3665735925939373 0.13128774809634081 0 0.13128774809634081 -0.48977247456535666 0 0 0 0 -62.658468421303041 71.312884913174457 0 71.312884913174457 536.62328963111668 0 0 0 0 -35.995178238303197 -424.57707216113795 0 -424.57707216113795 299.85825699498128 0 0 0 0 1062.2426324792541 415.87864890269589 0 415.87864890269589 72.064404111568592 0 0 0 0 1147.5288806798053 722.83632421786319 0 722.83632421786319 182.11004204164692 0 0 0 0 1065.5025283989035 401.93306124011815 0 401.93306124011815 478.12564825560548 0 0 0 0 1375.2904512323094 673.43083363662004 0 673.43083363662004 69.563945644343221 0 0 0 0 1252.5734334331064 749.22040422490636 0 749.22040422490636 57.354871850502605 0 0 0 0 1033.4711082558169 836.67288050674301 0 836.67288050674301 126.77100109967341 0 0 0 0 15.360119607711674 -2.8372425689126066 0 -2.8372425689126066 0.92339567387931076 0 0 0 0 623.97325677052686 -16.389697340621296 0 -16.389697340621296 279.28540426420568 0 0 0 0 301.75994346200065 380.37169886129396 0 380.37169886129396 634.62764000219977 0 0 0 0 604.77614579585861 501.95800977379417 0 501.95800977379417 206.10951330317221 0 0 0 0 1480.1949902563974 165.19694645610252 0 165.19694645610252 302.21259115629709 0 0 0 0 1098.9162913071423 441.55818594351172 0 441.55818594351172 -52.790112948288879 0 0 0 0 160.45300117292754 198.68767618552056 0 198.68767618552056 237.84360168239891 0 0 0 0 -81.665355301131058 -123.44626541603037 0 -123.44626541603037 -45.267302587917641 0 0 0 0 181.13179374763604 -98.424676592359333 0 -98.424676592359333 -519.19461613870271 0 0 0 0 382.61908828224659 612.99121571539581 0 612.99121571539581 -34.831382260402279 0 0 0 0 4.9131023431824872 3.1929772153089173 0 3.1929772153089173 1.7224331015452683 0 0 0 0 825.25349681028069 -333.42050859438905 0 -333.42050859438905 472.70849789496435 0 0 0 0 -24.974816021731385 -90.43355244635859 0 -90.43355244635859 404.65286771892806 0 0 0 0 475.54552787971659 -191.14807215013309 0 -191.14807215013309 73.695213994607911 0 0 0 0 -18.947594876321091 -175.3220291806947 0 -175.3220291806947 106.94553981736567 0 0 0 0 95.012639554457564 -194.04413800206157 0 -194.04413800206157 -258.96256293574515 0 0 0 0 -118.18980093389109 29.868642191097024 0 29.868642191097024 -7.6641222894004386 0 0 0 0 -348.46846265520435 -168.63852366221181 0 -168.63852366221181 -145.5211107817413 0 0 0 0 132.25103637682696 -239.54225258073325 0 -239.54225258073325 149.10424546000149 0 0 0 0 144.44871155365581 -71.589295678783856 0 -71.589295678783856 126.8581385174416 0 0 0 0 81.833393794811855 -86.721703883998202 0 -86.721703883998202 -170.19542222257951 0 0 0 0 75.525691121925774 -121.15047914166462 0 -121.15047914166462 73.205097715163902 0 0 0 0 48.583374788544461 -178.19920754713985 0 -178.19920754713985 22.006043836714525 0 0 0 0 3.9037073574509122 -46.532097160566991 0 -46.532097160566991 -90.14083992145288 0 0 0 0 110.25551059645477 -132.66550608568309 0 -132.66550608568309 -106.68388525934097 0 0 0 0 32.028722261202347 -79.601649522608568 0 -79.601649522608568 -157.72694943116767 0 0 0 0 -20.257218451439257 73.778804635840061 0 73.778804635840061 -304.14587140506228 0 0 0 0 25.371112016175175 64.940160451324118 0 64.940160451324118 -344.19380862424123 0 0 0 0 -80.401817551668501 143.33338332600852 0 143.33338332600852 -279.96172751575068 0 0 0 0 -120.79627216397421 239.18135887239941 0 239.18135887239941 -391.74840588470761 0 0 0 0 44.993508757333984 -42.027216607404171 0 -42.027216607404171 -225.09250176015121 0 0 0 0 -128.75042057503742 105.45494321927981 0 105.45494321927981 -209.33358975343413 0 0 0 0 -21.742714824871655 30.430753808961526 0 30.430753808961526 -192.06873425479444 0 0 0 0 -224.18603694657213 102.19018739818966 0 102.19018739818966 -194.67207320909574 0 0 0 0 -3.510422197447042 -109.04054966173044 0 -109.04054966173044 -65.825157883198699 0 0 0 0 -2.3089305840894667 10.830490964198361 0 10.830490964198361 -196.16874285939775 0 0 0 0 -231.72758292425715 273.35462655062383 0 273.35462655062383 -269.37517562015273 0 0 0 0 -283.38642721698852 205.18789597035175 0 205.18789597035175 -194.88866086873441 0 0 0 0 420.77658080118272 -300.20897125921783 0 -300.20897125921783 178.32323522376373 0 0 0 0 2.7191704641620618 1.2466559164828936 0 1.2466559164828936 1.0382879710020134 0 0 0 0 -1.7145305428061448 101.18074957953507 0 101.18074957953507 68.384832257092057 0 0 0 0 437.6843875793711 -257.83407654466282 0 -257.83407654466282 104.49953588676271 0 0 0 0 484.07571747556358 -298.26046754656454 0 -298.26046754656454 125.32796283715561 0 0 0 0 283.58936585352058 -274.60041919099331 0 -274.60041919099331 207.28410395733499 0 0 0 0 472.22327652759122 -244.25662733788795 0 -244.25662733788795 201.79980808402252 0 0 0 0 21.911396979325218 254.64968874952137 0 254.64968874952137 -683.4770916381749 0 0 0 0 194.51204781423439 112.18711427152084 0 112.18711427152084 22.950093021296198 0 0 0 0 23.910456271155724 11.181824906661083 0 11.181824906661083 3.3398784590485455 0 0 0 0 -76.869832741249411 326.99947475050431 0 326.99947475050431 -473.50699393395917 0 0 0 0 83.718900685336848 86.308852296666373 0 86.308852296666373 -643.53289678094097 0 0 0 0 9.0357930519958245 125.65544696572465 0 125.65544696572465 -375.38616171674221 0 0 0 0 -5.9377836431922333 -36.018855581796743 0 -36.018855581796743 -248.18155497292901 0 0 0 0 66.861721399189264 -7.6444728865526486 0 -7.6444728865526486 -474.30298957758851 0 0 0 0 31.404248521917907 -61.267139099312317 0 -61.267139099312317 -885.07350176470391 0 0 0 0 -224.94222244109551 -277.24158418651677 0 -277.24158418651677 -642.78732258403943 0 0 0 0 39.728320991278451 53.538193946744286 0 53.538193946744286 -488.95309244145938 0 0 0 0 -57.086721714669693 -35.140395609433199 0 -35.140395609433199 -327.29634092157357 0 0 0 0 23.214293665121659 -135.34286153657831 0 -135.34286153657831 -553.51930528261846 0 0 0 0 -364.64294495483045 -229.46253792915195 0 -229.46253792915195 -282.55021708035019 0 0 0 0 950.06060991463164 -766.20018482790124 0 -766.20018482790124 577.19695719391757 0 0 0 0 250.50902690847579 -438.63378394311439 0 -438.63378394311439 425.71406894215943 0 0 0 0 -84.528786447921448 -237.76544198915713 0 -237.76544198915713 685.12516488746951 0 0 0 0 1518.7179432894827 -324.39243697459756 0 -324.39243697459756 152.70470196129736 0 0 0 0 1235.6900880967078 575.01018743622876 0 575.01018743622876 302.76840163999941 0 0 0 0 537.35184103956635 -98.047311295838426 0 -98.047311295838426 101.21967845714471 0 0 0 0 587.31929833653703 -94.967024969486602 0 -94.967024969486602 -29.105412027079183 0 0 0 0 722.751751834061 -341.14972352207906 0 -341.14972352207906 53.51581050306504 0 0 0 0 464.00728901503317 -198.28151518876621 0 -198.28151518876621 470.72615889068857 0 0 0 0 467.70235037999373 -309.94353466330813 0 -309.94353466330813 192.83461997808263 0 0 0 0 499.75422210451507 -435.43630118563397 0 -435.43630118563397 420.61535584087187 0 0 0 0 506.70293029405366 -254.8658427363705 0 -254.8658427363705 122.57532539060048 0 0 0 0 531.80593606718321 -308.75462189331756 0 -308.75462189331756 64.713332286876266 0 0 0 0 566.22334802206205 -179.60439375023805 0 -179.60439375023805 -79.948364445063817 0 0 0 0 68.300715397748718 171.37167622286279 0 171.37167622286279 -149.96497804444289 0 0 0 0 286.62793488953685 -248.85712515703585 0 -248.85712515703585 -75.628655418319568 0 0 0 0 648.53943038036232 -137.52263935448445 0 -137.52263935448445 -263.91905442242 0 0 0 0 493.39258263874581 -257.86085666099507 0 -257.86085666099507 -216.28468665509081 0 0 0 0 3.8880706169518362 1.8539730755810204 0 1.8539730755810204 0.49576506552516975 0 0 0 0 346.50112069601164 -50.239813191179564 0 -50.239813191179564 -41.320093881323146 0 0 0 0 550.42394049723953 23.537335528812491 0 23.537335528812491 -26.823140243836747 0 0 0 0 128.36568627391171 -91.65868801151646 0 -91.65868801151646 58.62481883286182 0 0 0 0 163.600399228264 -25.056445043918757 0 -25.056445043918757 50.114851614841882 0 0 0 0 231.6186604594609 -125.6686199515583 0 -125.6686199515583 62.773145207911512 0 0 0 0 322.32453701880877 -132.95667046249037 0 -132.95667046249037 58.84222361380489 0 0 0 0 226.95614191237223 -59.354808833417565 0 -59.354808833417565 50.834596817234342 0 0 0 0 81.689768107224154 -27.428794557811329 0 -27.428794557811329 105.25272431523263 0 0 0 0 93.38587618604106 -170.39548469369282 0 -170.39548469369282 150.27834390054886 0 0 0 0 436.04414437315427 -244.07572171211541 0 -244.07572171211541 49.941345608734991 0 0 0 0 319.42375016494771 -190.93193984294066 0 -190.93193984294066 59.107030957718734 0 0 0 0 511.28130360562682 -128.9924480328192 0 -128.9924480328192 -30.279828029142664 0 0 0 0 533.0652019248264 -188.32215168677203 0 -188.32215168677203 -98.792397285290463 0 0 0 0 526.62983878440718 -275.53284275913165 0 -275.53284275913165 -31.319681633272921 0 0 0 0 400.82120928161385 -114.74945155039177 0 -114.74945155039177 10.724884491660532 0 0 0 0 208.65587242028778 -115.78844183481306 0 -115.78844183481306 -25.419777832497857 0 0 0 0 207.94001248568384 12.474473968908569 0 12.474473968908569 -45.172975624611354 0 0 0 0 221.7976563399061 -87.977301282020107 0 -87.977301282020107 15.345711172934898 0 0 0 0 239.96891062199938 -3.2215244981377396 0 -3.2215244981377396 127.8289926160096 0 0 0 0 151.24100150342565 287.99300108191801 0 287.99300108191801 -53.725612897361316 0 0 0 0 -27.077088603278753 102.21864285272227 0 102.21864285272227 1.420438058155014 0 0 0 0 202.06643615602388 127.83261820372775 0 127.83261820372775 -33.91590174313751 0 0 0 0 463.95932883840578 161.26040827991892 0 161.26040827991892 -134.85175694417103 0 0 0 0 213.94074387762885 101.72186825065035 0 101.72186825065035 -76.141728343474824 0 0 0 0 234.01512641868248 86.204699087318204 0 86.204699087318204 -68.266423126455265 0 0 0 0 203.72752970704096 43.406138188599243 0 43.406138188599243 -10.654360017996623 0 0 0 0 189.44148441016114 81.812013475023832 0 81.812013475023832 -45.782635222184581 0 0 0 0 240.24345555969921 56.807806246604684 0 56.807806246604684 -45.670748138344607 0 0 0 0 115.29403896071744 41.91421246118307 0 41.91421246118307 -32.991379018182215 0 0 0 0 50.121755270196445 -99.16434862755932 0 -99.16434862755932 -21.928247157617307 0 0 0 0 105.04387466432308 11.295986352897671 0 11.295986352897671 -42.666995563526257 0 0 0 0 50.0756847630837 -32.422084453162825 0 -32.422084453162825 -4.3950700464820329 0 0 0 0 1.4625324497426249 -1.3348258107917346 0 -1.3348258107917346 -0.14638839643444612 0 0 0 0 235.13562095971974 134.5281112463681 0 134.5281112463681 11.92086567939532 0 0 0 0 45.417344806162873 21.753368102897639 0 21.753368102897639 82.792507668891631 0 0 0 0 0.99496122464890391 -0.92721051095236362 0 -0.92721051095236362 -0.35146628854641193 0 0 0 0 21.266445973120426 1.5034898735625575 0 1.5034898735625575 -18.336160175013902 0 0 0 0 -16.281328610266428 -42.856442268814817 0 -42.856442268814817 -25.888046452308117 0 0 0 0 88.019898191592802 -25.619729107503531 0 -25.619729107503531 -30.010167632642151 0 0 0 0 -184.36394940444734 -308.05205495216796 0 -308.05205495216796 4.1973271269064298 0 0 0 0 88.777804571498535 -15.443218559245821 0 -15.443218559245821 -7.3781253739646342 0 0 0 0 -223.41173003445056 43.400956109178424 0 43.400956109178424 35.573514947525837 0 0 0 0 81.681639396847459 -39.913401069148676 0 -39.913401069148676 -25.457004697109369 0 0 0 0 90.985017382056782 -11.715520772352384 0 -11.715520772352384 -5.8790096251217401 0 0 0 0 123.97095279647328 -47.384887864417578 0 -47.384887864417578 -95.503575845010801 0 0 0 0 87.093537366687087 15.950898211336153 0 15.950898211336153 9.2151251676614265 0 0 0 0 217.29321307456848 411.19893427908482 0 411.19893427908482 405.28365355044843 0 0 0 0 440.82537144090747 -293.58494280459126 0 -293.58494280459126 -551.84654875661545 0 0 0 0 88.71011209176109 -7.7257620995621679 0 -7.7257620995621679 -7.1891168570102995 0 0 0 0 78.577854725681391 -26.470594499728577 0 -26.470594499728577 -79.445527177163967 0 0 0 0 70.780423668213189 -71.437797600108752 0 -71.437797600108752 -53.553460430655832 0 0 0 0 441.9576417759381 -446.15421228263313 0 -446.15421228263313 -128.90223605663232 0 0 0 0 85.73111544374791 -16.376584416206953 0 -16.376584416206953 -8.8384124840024452 0 0 0 0 84.376014544104692 -65.308096611675865 0 -65.308096611675865 71.204769351441428 0 0 0 0 60.758345920630745 39.249934445553322 0 39.249934445553322 659.85702227274669 0 0 0 0 171.6006945566005 -159.22795221806791 0 -159.22795221806791 125.28094448756565 0 0 0 0 6.0863296642948654 -1.8032665976291682 0 -1.8032665976291682 0.33666545152685856 0 0 0 0 660.72552482198262 59.557802192829513 0 59.557802192829513 -14.18842616850543 0 0 0 0 158.69615988057194 304.04853627096054 0 304.04853627096054 466.59434634715672 0 0 0 0 171.28451547151053 216.16031054697669 0 216.16031054697669 331.63708633446367 0 0 0 0 273.86589349521455 56.477135642172925 0 56.477135642172925 -40.489858132855034 0 0 0 0 226.31721944904075 45.412263333007559 0 45.412263333007559 -1.6957096277656092 0 0 0 0 259.27072053017764 -19.641120754525218 0 -19.641120754525218 2.97267995025868 0 0 0 0 42.913756466055929 -1.6192608488340738 0 -1.6192608488340738 53.331033730100899 0 0 0 0 87.731467888785119 5.4325216456099952 0 5.4325216456099952 13.056458557754922 0 0 0 0 87.930374082447088 -31.031083589415175 0 -31.031083589415175 102.96179236565331 0 0 0 0 54.832983046897425 32.276706755364103 0 32.276706755364103 58.782848159596142 0 0 0 0 25.863142354181505 11.025767222099319 0 11.025767222099319 5.8526230436378039 0 0 0 0 80.774933056138252 31.72586301137153 0 31.72586301137153 1.411288123956183 0 0 0 0 72.771569570017164 29.144598971050982 0 29.144598971050982 38.418876093971448 0 0 0 0 22.159114914010324 7.0921735487984705 0 7.0921735487984705 24.228752749757767 0 0 0 0 31.11820621251718 -57.95613677006088 0 -57.95613677006088 6.824138150048384 0 0 0 0 187.41256421986327 91.752382853650488 0 91.752382853650488 -7.8963716492853564 0 0 0 0 206.71863987122561 173.36696490138365 0 173.36696490138365 -134.87593699455101 0 0 0 0 175.43237626785412 191.67038689427955 0 191.67038689427955 175.82348867236897 0 0 0 0 232.32643450313481 96.097642736470334 0 96.097642736470334 -212.41057369929604 0 0 0 0 87.786664000530436 -76.616748607296813 0 -76.616748607296813 -39.035363361543205 0 0 0 0 151.56347973242535 -14.008104293092391 0 -14.008104293092391 4.0785003952476542 0 0 0 0 111.06192877618741 -102.95690637064388 0 -102.95690637064388 -12.421805191740987 0 0 0 0 124.30622414181653 -57.710207065740633 0 -57.710207065740633 -21.607544417896406 0 0 0 0 54.339392192101514 -84.579850169753058 0 -84.579850169753058 33.986651866025568 0 0 0 0 114.43654318984045 -72.13902555448135 0 -72.13902555448135 23.254474206895338 0 0 0 0 -118.1569236733485 -85.686969239761709 0 -85.686969239761709 105.55606015006583 0 0 0 0 0.26986888443167345 9.3587671859330896 0 9.3587671859330896 26.096810321112269 0 0 0 0 115.85296026045307 -58.21326437529514 0 -58.21326437529514 150.26523005573449 0 0 0 0 -147.0253897636303 33.996346300775556 0 33.996346300775556 192.09838150833951 0 0 0 0 193.60078758677992 -79.647482195828559 0 -79.647482195828559 60.901993479945531 0 0 0 0 325.63349805757753 128.51629546850086 0 128.51629546850086 3.3911923717666923 0 0 0 0 3.0971391958786754 9.9658695901996666 0 9.9658695901996666 25.708403431627076 0 0 0 0 86.890317868146667 17.253487896501156 0 17.253487896501156 19.834047972648477 0 0 0 0 117.32009277212273 -5.866063717247016 0 -5.866063717247016 14.206557700886151 0 0 0 0 51.025112780229392 5.0337480452593582 0 5.0337480452593582 18.201751210942348 0 0 0 0 114.51767403845588 25.026267688513144 0 25.026267688513144 -3.6963848215582402 0 0 0 0 53.497811939945677 75.721438088840387 0 75.721438088840387 -16.067917697878556 0 0 0 0 -24.425443594078388 48.576058224177359 0 48.576058224177359 11.630554610132322 0 0 0 0 40.085034753115906 22.886337597422767 0 22.886337597422767 -130.38899508892155 0 0 0 0 -78.339621183924464 129.94476049274954 0 129.94476049274954 -23.021585567060356 0 0 0 0 422.47567015947425 147.37329006204752 0 147.37329006204752 -94.816808904981031 0 0 0 0 -33.202801708308471 183.41441383170053 0 183.41441383170053 122.56496929591435 0 0 0 0 3.0239442625678876 10.105032950432737 0 10.105032950432737 22.536636353607303 0 0 0 0 59.460745174557815 -3.2131273703712395 0 -3.2131273703712395 -23.066439123538657 0 0 0 0 495.38992607352702 427.4532209846318 0 427.4532209846318 245.84224415885245 0 0 0 0 487.42761220332068 353.85752012326236 0 353.85752012326236 101.1219125368732 0 0 0 0 594.36781428557879 361.80309524283575 0 361.80309524283575 -109.44732536268846 0 0 0 0 622.92280012391711 460.94294811549207 0 460.94294811549207 69.465484511349246 0 0 0 0 111.61328244716788 -347.49206204906551 0 -347.49206204906551 -61.648995814161879 0 0 0 0 -54.459777732547991 -21.52960803263845 0 -21.52960803263845 191.55350945830011 0 0 0 0 819.45008035574574 64.824814117728437 0 64.824814117728437 -94.069376260355853 0 0 0 0 96.754642910942493 10.870242173304689 0 10.870242173304689 81.642663162739524 0 0 0 0 8.2722546672624873 -2.9418577760616387 0 -2.9418577760616387 0.99507503696846433 0 0 0 0 1003.0022958162372 757.76291807613757 0 757.76291807613757 608.42987591303847 0 0 0 0 515.61669154811625 477.66569980795055 0 477.66569980795055 380.20931708191483 0 0 0 0 428.19737648000955 310.34646237907714 0 310.34646237907714 370.15243014586241 0 0 0 0 295.80126599029245 0.13193268644931777 0 0.13193268644931777 278.24087562860268 0 0 0 0 983.8123976489876 121.01415157566285 0 121.01415157566285 144.46396338914826 0 0 0 0 342.99723851304225 45.775554581926428 0 45.775554581926428 385.59163830653154 0 0 0 0 682.94880489729621 237.28245669328527 0 237.28245669328527 166.55918400903374 0 0 0 0 307.92492559435414 18.836487617286423 0 18.836487617286423 52.110742563330859 0 0 0 0 233.64039498300372 48.021179431693497 0 48.021179431693497 144.98364833820142 0 0 0 0 297.75586999027473 30.449397104043555 0 30.449397104043555 14.021525792964894 0 0 0 0 214.74501958081237 -120.53301879734204 0 -120.53301879734204 21.922823207768488 0 0 0 0 107.59417793781904 -59.852171377146533 0 -59.852171377146533 9.5786283090931477 0 0 0 0 196.50530542723027 -66.714660456322235 0 -66.714660456322235 -206.47795602915812 0 0 0 0 144.41343391219064 -24.259471187859866 0 -24.259471187859866 1.3111466554652553 0 0 0 0 170.03576938601691 -134.84355413751359 0 -134.84355413751359 -168.1262483156811 0 0 0 0 100.3691902988212 6.2021225987887192 0 6.2021225987887192 63.142792418696445 0 0 0 0 216.16795184144576 0.96819608563532711 0 0.96819608563532711 29.752353433350208 0 0 0 0 201.74370394151674 191.48992315049711 0 191.48992315049711 209.66083207996553 0 0 0 0 282.81321958853459 370.88271176321905 0 370.88271176321905 392.69754461291382 0 0 0 0 388.33932395525699 167.08877152067521 0 167.08877152067521 119.1365927539224 0 0 0 0 438.81257468132389 393.34071489384269 0 393.34071489384269 334.22478788914646 0 0 0 0 29.153890969320742 -11.584609273933474 0 -11.584609273933474 1.7995267415906895 0 0 0 0 401.67497908946098 271.2250804596635 0 271.2250804596635 13.299830141744224 0 0 0 0 952.7123712481407 774.06713968146141 0 774.06713968146141 149.20724130076303 0 0 0 0 143.40004528376176 391.7767338497228 0 391.7767338497228 849.93657991206965 0 0 0 0 103.07359935145359 180.00856179374205 0 180.00856179374205 273.94121702585858 0 0 0 0 3.1261872155955643 -106.95591699207876 0 -106.95591699207876 303.8958678422141 0 0 0 0 -1.0016129621264849 0.49713852146264514 0 0.49713852146264514 9.8944410576282511 0 0 0 0 157.49129759613425 101.01570606704081 0 101.01570606704081 13.404779131186388 0 0 0 0 133.78282026312081 -37.43505770588763 0 -37.43505770588763 50.726484422807061 0 0 0 0 3571.2424821926616 25.722496492616912 0 25.722496492616912 -247.40157840436291 0 0 0 0 2020.1823542855782 637.13683196056343 0 637.13683196056343 -174.64978404664734 0 0 0 0 1476.6008571639031 353.14541495464215 0 353.14541495464215 -249.51287491724031 0 0 0 0 1659.1660629835169 -14.858241399707893 0 -14.858241399707893 446.52449867639803 0 0 0 0 935.88739962863474 635.77092206582802 0 635.77092206582802 1067.880781567585 0 0 0 0 393.06677115654747 -672.1317962608905 0 -672.1317962608905 571.73625837331895 0 0 0 0 840.63615216943435 378.3769314058668 0 378.3769314058668 394.01712197763959 0 0 0 0 1100.0732509324007 717.10251283224068 0 717.10251283224068 593.61363455170329 0 0 0 0 1997.144066638637 -576.9056944336246 0 -576.9056944336246 569.95508583241917 0 0 0 0 3502.1804890624198 336.58048771469788 0 336.58048771469788 1665.0063308374192 0 0 0 0 4120.4301180716211 1195.0848530705175 0 1195.0848530705175 350.53386639803796 0 0 0 0 3499.0288334928919 1526.9243350449947 0 1526.9243350449947 176.95601844610343 0 0 0 0 15.732595307671318 -5.1950961931635149 0 -5.1950961931635149 1.8680240110133322 0 0 0 0 -284.43445376758609 436.84340007287204 0 436.84340007287204 1260.6258787494785 0 0 0 0 1259.019995632374 14.06791990918245 0 14.06791990918245 -297.8380150752601 0 0 0 0 1438.0887395588834 419.26235427736077 0 419.26235427736077 -363.7893145659387 0 0 0 0 3500.3324186150094 498.05820448430183 0 498.05820448430183 -595.6776742104912 0 0 0 0 1855.1276164592746 -397.88831134230259 0 -397.88831134230259 -471.02813471790756 0 0 0 0 212.93140897997364 -159.75626969704587 0 -159.75626969704587 -295.88781139872322 0 0 0 0 1278.1156007406898 395.91857559890855 0 395.91857559890855 -152.49715827752681 0 0 0 0 200.75872880800671 -134.6642418112954 0 -134.6642418112954 192.22904874214572 0 0 0 0 22.00627998949615 -8.897204197107321 0 -8.897204197107321 1.5253033001420349 0 0 0 0 659.45726228446074 22.090553791406819 0 22.090553791406819 8.1775129272394338 0 0 0 0 245.2633111299001 95.563631950767331 0 95.563631950767331 -51.155063814665596 0 0 0 0 110.53648025094299 -64.264963785323076 0 -64.264963785323076 197.84105193655967 0 0 0 0 229.86862639743777 -136.95877001816314 0 -136.95877001816314 134.53460987303129 0 0 0 0 347.31085249276657 -1984.7952089978903 0 -1984.7952089978903 1105.3193137034968 0 0 0 0 3492.5613815360116 -1386.6160106587897 0 -1386.6160106587897 -547.00702693242283 0 0 0 0 2036.1191672545392 -465.96463601357493 0 -465.96463601357493 -483.28303059598414 0 0 0 0 992.77184621753895 -816.80821910376187 0 -816.80821910376187 474.26583666215049 0 0 0 0 2293.2780152742707 -1247.4544474699953 0 -1247.4544474699953 464.73824619931042 0 0 0 0 2990.1392515787011 -1090.749275467854 0 -1090.749275467854 32.446577435094724 0 0 0 0 3500.074010255521 -1331.6977816328742 0 -1331.6977816328742 75.187031972215593 0 0 0 0 2633.9433197108156 -979.79083133567997 0 -979.79083133567997 30.704334379775204 0 0 0 0 3499.0899957566289 -686.45650151756968 0 -686.45650151756968 -237.17731117085367 0 0 0 0 2540.1294013739753 -755.74856058072123 0 -755.74856058072123 238.42206762383941 0 0 0 0 1848.2039412758022 -1051.1516887424693 0 -1051.1516887424693 412.70232562728529 0 0 0 0 1800.5366164691513 -856.75042022151467 0 -856.75042022151467 480.94413733370169 0 0 0 0 1363.5695411199267 -854.64280208698688 0 -854.64280208698688 564.09125606527164 0 0 0 0 1406.6145956976825 -967.69571276250781 0 -967.69571276250781 612.08943753629228 0 0 0 0 2227.9705964187378 -1051.7679947498959 0 -1051.7679947498959 392.54904594119739 0 0 0 0 1327.7715327331389 -1118.4949280381009 0 -1118.4949280381009 671.75700166116053 0 0 0 0 1652.1846468237345 -1289.6512106781724 0 -1289.6512106781724 669.54902780622513 0 0 0 0 1303.1403068943182 -894.97451205601419 0 -894.97451205601419 586.70092706224773 0 0 0 0 638.86526630809385 -670.10533590035197 0 -670.10533590035197 702.17843881585793 0 0 0 0 1252.1421307735436 -1123.4744523110426 0 -1123.4744523110426 898.86116203133861 0 0 0 0 91.393412138655549 -541.74029888291579 0 -541.74029888291579 944.20064979507913 0 0 0 0 633.68542769036139 -325.71051985818167 0 -325.71051985818167 237.88042208018214 0 0 0 0 2426.5221776413018 -1689.7174062534471 0 -1689.7174062534471 740.50247519516779 0 0 0 0 918.0306085368502 -1450.052107852046 0 -1450.052107852046 1325.6952047540285 0 0 0 0 2528.0146523227777 -1221.2046443580732 0 -1221.2046443580732 592.37828514062016 0 0 0 0 2853.6986986708653 -1475.518979531279 0 -1475.518979531279 507.50580288734824 0 0 0 0 3499.4259597278869 -1999.3061324979517 0 -1999.3061324979517 1180.0348975999877 0 0 0 0 2907.4098790306016 -2278.4728790703871 0 -2278.4728790703871 1052.1105318479399 0 0 0 0 3846.4301309057428 -1719.5452095063388 0 -1719.5452095063388 354.23320485267215 0 0 0 0 0.7077041485766884 -4.5249385924678904 0 -4.5249385924678904 10.682643051795198 0 0 0 0 589.18636977354618 -192.93536728307663 0 -192.93536728307663 585.74333421637516 0 0 0 0 3495.7145607924977 -2430.0926236932555 0 -2430.0926236932555 691.79609817864275 0 0 0 0 1144.4454126752171 1835.1490617380143 0 1835.1490617380143 1507.4402579260393 0 0 0 0 1388.6794389175848 -2551.6543492031528 0 -2551.6543492031528 2978.6456808113953 0 0 0 0 18.32979106002918 -3.9841178076084596 0 -3.9841178076084596 4.5768705264071574 0 0 0 0 18.787710971992762 -11.309197834979273 0 -11.309197834979273 21.105024963476602 0 0 0 0 1274.1498182894943 243.65748177936121 0 243.65748177936121 -82.568604500974629 0 0 0 0 539.98526739960653 -343.09906489876994 0 -343.09906489876994 262.66744778157999 0 0 0 0 43.098114410611998 -11.477178178635963 0 -11.477178178635963 11.584786212543818 0 0 0 0 339.06743691390147 90.482712422479153 0 90.482712422479153 438.26838643331052 0 0 0 0 3493.6501922521861 914.18097094587199 0 914.18097094587199 -213.5593891188735 0 0 0 0 16.233779642086425 -1.0317663553224321 0 -1.0317663553224321 22.862826231377397 0 0 0 0 88.552692073855724 36.619130430054156 0 36.619130430054156 -43.444276636068935 0 0 0 0 -379.06879790883795 -379.17011939236596 0 -379.17011939236596 -169.84209828684743 0 0 0 0 95.478003232627628 -16.681291302644446 0 -16.681291302644446 5.5113759356080658 0 0 0 0 123.46704048664833 -356.94489553784797 0 -356.94489553784797 -386.63972616816022 0 0 0 0 -36.734019053405063 -133.04148687145062 0 -133.04148687145062 -395.76578442698701 0 0 0 0 248.92292376160572 -92.574557257700803 0 -92.574557257700803 -24.203931650236882 0 0 0 0 242.77681465796195 -536.13478267812479 0 -536.13478267812479 -152.07951728231819 0 0 0 0 -1155.0182936682031 -332.61364586408058 0 -332.61364586408058 814.45899706907448 0 0 0 0 376.99049844230467 -324.0617838508856 0 -324.0617838508856 245.11347941433451 0 0 0 0 573.88998031771916 -228.09821738937671 0 -228.09821738937671 227.75195329171288 0 0 0 0 349.44792903927737 -35.107750680412209 0 -35.107750680412209 107.01196222910721 0 0 0 0 534.33349440249731 -18.842169621679204 0 -18.842169621679204 64.075098663442986 0 0 0 0 500.08421660715248 10.304037679529756 0 10.304037679529756 144.11797718977141 0 0 0 0 320.05176620291604 76.693368840949461 0 76.693368840949461 35.450170631821493 0 0 0 0 277.24006454824848 62.699691703830013 0 62.699691703830013 -204.96866631411649 0 0 0 0 422.48995369246404 92.840572858327505 0 92.840572858327505 -47.457615710774917 0 0 0 0 200.65487361543637 48.924622566178186 0 48.924622566178186 -41.349682137890341 0 0 0 0 118.29509255550511 -60.866930875080016 0 -60.866930875080016 -54.481706828226834 0 0 0 0 445.84009937871815 -86.537002971364018 0 -86.537002971364018 -56.32560428205943 0 0 0 0 331.28613165994466 -293.9753291249931 0 -293.9753291249931 -327.95741560428587 0 0 0 0 175.36045926985389 -169.64822141416607 0 -169.64822141416607 -366.44081761840334 0 0 0 0 -86.267035826203937 -107.25203274981186 0 -107.25203274981186 -372.72464309290081 0 0 0 0 119.57025435681891 -19.979568937127414 0 -19.979568937127414 0.83268416938536127 0 0 0 0 215.84901327767875 -3.7284246325741606 0 -3.7284246325741606 -228.35448967319735 0 0 0 0 224.5660076671702 -350.98209160158467 0 -350.98209160158467 -765.17170762695059 0 0 0 0 44.778492333392933 35.570326001891544 0 35.570326001891544 -51.668674487953467 0 0 0 0 318.04030233340745 278.88326197089987 0 278.88326197089987 -184.42501854101374 0 0 0 0 136.62891333262016 -22.013300262103968 0 -22.013300262103968 1.3622435591266733 0 0 0 0 196.51774030536762 -295.21938982954612 0 -295.21938982954612 -520.34133515311078 0 0 0 0 302.10109707622905 -158.19845479882406 0 -158.19845479882406 -911.63752605857326 0 0 0 0 139.78827352763619 123.5329221043412 0 123.5329221043412 -119.49577275755018 0 0 0 0 344.22707748337416 49.810185857966644 0 49.810185857966644 -111.23733822570921 0 0 0 0 289.06782965146704 181.4330925837221 0 181.4330925837221 139.9885441735496 0 0 0 0 1073.6397849564382 654.38731075510532 0 654.38731075510532 88.711531366115196 0 0 0 0 688.75794310643687 260.28353523381247 0 260.28353523381247 -196.73592344290591 0 0 0 0 480.14634509306052 491.754081314225 0 491.754081314225 172.45769945343454 0 0 0 0 376.8300520421617 356.92358900727322 0 356.92358900727322 207.85244359165517 0 0 0 0 749.78502643971296 6.3957571229520909 0 6.3957571229520909 236.07812961023228 0 0 0 0 506.15204022196122 373.34525483036487 0 373.34525483036487 96.105524837434132 0 0 0 0 543.65058715917257 274.66136331136704 0 274.66136331136704 -203.53632706021745 0 0 0 0 520.78306672514009 278.99637418451948 0 278.99637418451948 -185.10370408355811 0 0 0 0 479.50305831825244 218.37352656042913 0 218.37352656042913 -155.23036121056521 0 0 0 0 384.75469783865265 41.913525930142896 0 41.913525930142896 -981.91919932966448 0 0 0 0 363.87228710192721 322.24665827910212 0 322.24665827910212 -639.77717714990104 0 0 0 0 322.03713863587473 288.08165764685145 0 288.08165764685145 -187.19328325046081 0 0 0 0 291.57856772217201 212.16788031949363 0 212.16788031949363 20.081207222394369 0 0 0 0 598.41581761355337 239.41094778493562 0 239.41094778493562 -20.393751961852104 0 0 0 0 421.2466802506824 287.80499384443738 0 287.80499384443738 105.62595959466853 0 0 0 0 405.99144631344097 208.31900607778027 0 208.31900607778027 -51.859124073573184 0 0 0 0 388.88302426751761 202.29569878580787 0 202.29569878580787 -53.421217699974477 0 0 0 0 479.8258469555301 183.49806994047967 0 183.49806994047967 -198.03323282906604 0 0 0 0 480.28947899839841 163.12131454310656 0 163.12131454310656 -40.191108144294958 0 0 0 0 464.29422259880812 120.33864779750456 0 120.33864779750456 -19.421166021398676 0 0 0 0 432.80101023157476 68.262276708059971 0 68.262276708059971 68.144069209235568 0 0 0 0 508.56334174657241 101.86292525306635 0 101.86292525306635 -70.097574867731055 0 0 0 0 288.98625448708481 173.11179558981667 0 173.11179558981667 -262.33040015685947 0 0 0 0 261.74406531684508 4.8591821586173864 0 4.8591821586173864 -235.34229278206294 0 0 0 0 206.84839255499537 10.99577394849166 0 10.99577394849166 -449.46441884307842 0 0 0 0 444.92175363496062 119.83569237555184 0 119.83569237555184 -405.39847158127941 0 0 0 0 441.98739225332974 58.88128007425712 0 58.88128007425712 -139.96861329410194 0 0 0 0 335.20206677349051 117.43396119681984 0 117.43396119681984 -70.851102980559517 0 0 0 0 231.16289879378746 54.280780749697442 0 54.280780749697442 65.710131775441369 0 0 0 0 406.08127101705759 91.293893277675124 0 91.293893277675124 42.837443490523583 0 0 0 0 397.86089744960191 48.966388934013594 0 48.966388934013594 -72.847223419457038 0 0 0 0 406.24833949303138 117.96284118995254 0 117.96284118995254 85.433126834832819 0 0 0 0 488.66633128504327 8.4849500954389896 0 8.4849500954389896 44.862130639830866 0 0 0 0 305.39121471012004 62.154858471157581 0 62.154858471157581 167.01435376675818 0 0 0 0 587.57358976836258 109.50727413863342 0 109.50727413863342 136.48913814379307 0 0 0 0 564.98201672470896 -62.001673343192238 0 -62.001673343192238 241.89055620935369 0 0 0 0 675.0738158426102 -16.976298280568926 0 -16.976298280568926 120.769423809822 0 0 0 0 452.92310596862808 -2.447438397132828 0 -2.447438397132828 163.23121716795094 0 0 0 0 473.38744809708442 24.71132963308537 0 24.71132963308537 6.4863673135625959 0 0 0 0 621.49982983931841 -45.75530338874114 0 -45.75530338874114 73.330716686468492 0 0 0 0 515.40155668355146 82.187195633693818 0 82.187195633693818 81.731231199426475 0 0 0 0 498.21573963730771 -85.654824955025106 0 -85.654824955025106 272.78470748209293 0 0 0 0 788.35515110306733 -208.45147925697324 0 -208.45147925697324 205.61948089442694 0 0 0 0 853.1071702655463 -558.52409262687331 0 -558.52409262687331 528.29314260142701 0 0 0 0 467.73388124748453 -196.02609258396114 0 -196.02609258396114 389.63725483478629 0 0 0 0 693.65009731465398 -252.4798797832384 0 -252.4798797832384 326.87104824703692 0 0 0 0 882.89177080793888 -503.45161910481875 0 -503.45161910481875 523.54390481015162 0 0 0 0 1020.8247282640223 -242.44875601967919 0 -242.44875601967919 164.77923232987371 0 0 0 0 606.07419349894553 -156.20599657192628 0 -156.20599657192628 296.21022867841475 0 0 0 0 1090.8469629279716 -528.97936414239848 0 -528.97936414239848 396.06228247980812 0 0 0 0 1384.420599220477 -779.38850339205328 0 -779.38850339205328 517.6433043836048 0 0 0 0 1023.5708618550998 -799.29505014583742 0 -799.29505014583742 626.11565613233256 0 0 0 0 1250.2340695552848 -826.48415151614904 0 -826.48415151614904 604.23422938382305 0 0 0 0 1312.1015263670997 -696.66459963819068 0 -696.66459963819068 465.55048975102341 0 0 0 0 1084.6595776103277 -383.17070791705169 0 -383.17070791705169 322.62726366359493 0 0 0 0 1243.162375590422 -720.78424381383013 0 -720.78424381383013 626.25217054337691 0 0 0 0 1209.8965290719498 -690.05352693436737 0 -690.05352693436737 507.39453575001039 0 0 0 0 1535.2908865857171 -608.80182285469698 0 -608.80182285469698 323.12333736321341 0 0 0 0 626.56379796091278 333.29026361377669 0 333.29026361377669 188.64727540604554 0 0 0 0 1796.2747024026612 88.41313245262927 0 88.41313245262927 128.00856093919458 0 0 0 0 147.45460690706386 62.742442169267292 0 62.742442169267292 299.67444703086892 0 0 0 0 320.41956835328165 220.91043254078295 0 220.91043254078295 284.04205287606237 0 0 0 0 1301.6109629259299 -302.20316306235691 0 -302.20316306235691 227.48166317614368 0 0 0 0 784.57601565211371 -40.892955171067683 0 -40.892955171067683 152.47319426198283 0 0 0 0 69.905369966785656 151.80395412528105 0 151.80395412528105 219.95645619879815 0 0 0 0 161.94325304983067 39.812076685390139 0 39.812076685390139 156.24587214057004 0 0 0 0 12.557845590183149 -6.3705771224524028 0 -6.3705771224524028 2.8223871418271411 0 0 0 0 -0.23221393824496772 41.32835563045478 0 41.32835563045478 -140.31501412024159 0 0 0 0 10.867530576852005 -0.73874249880054776 0 -0.73874249880054776 5.4978588418825893 0 0 0 0 30.55478574729932 11.715227086507412 0 11.715227086507412 7.3294563903648395 0 0 0 0 26.177958010881412 18.074914354749922 0 18.074914354749922 -0.21424181257862074 0 0 0 0 3.6463976834179084 9.1120587965997686 0 9.1120587965997686 5.2263381549129715 0 0 0 0 29.404548124177381 12.717564241772834 0 12.717564241772834 1.505266741868752 0 0 0 0 1.6157128753929548 8.8736070348797114 0 8.8736070348797114 2.659896987101277 0 0 0 0 20.518286712309873 16.51985809258916 0 16.51985809258916 13.265821622937437 0 0 0 0 33.788645738291962 -1.4303622042891675 0 -1.4303622042891675 -15.044976662752106 0 0 0 0 14.126110607370009 -5.4808150720493529 0 -5.4808150720493529 2.2830460078090322 0 0 0 0 96.948715105347219 116.32995421819919 0 116.32995421819919 134.75043381046089 0 0 0 0 43.426772554594208 137.24364108529471 0 137.24364108529471 197.50581123855864 0 0 0 0 276.58997704982175 208.35618495091421 0 208.35618495091421 165.62964718425633 0 0 0 0 77.573563904805269 137.15335372300331 0 137.15335372300331 195.38843013872702 0 0 0 0 1.9852053637904987 1.0541264917739284 0 1.0541264917739284 1.253339278328081 0 0 0 0 12.998663865285835 23.770420393115117 0 23.770420393115117 226.59572299962929 0 0 0 0 37.546910472039599 14.160169951017906 0 14.160169951017906 6.8564725337187156 0 0 0 0 3.3639591330107539 0.29934886927142657 0 0.29934886927142657 0.92474760719953863 0 0 0 0 104.56127259883215 187.28566738526661 0 187.28566738526661 191.88731002406257 0 0 0 0 215.326959869657 165.12590500202839 0 165.12590500202839 105.19030938622745 0 0 0 0 118.13794864228112 125.19730325366163 0 125.19730325366163 93.262025487206301 0 0 0 0 40.033111312266556 157.57791808167394 0 157.57791808167394 187.84861294092843 0 0 0 0 74.291379883507034 180.79544937976152 0 180.79544937976152 307.86465764608511 0 0 0 0 158.9858611263553 47.55052351077029 0 47.55052351077029 207.49299858970608 0 0 0 0 94.90925638625049 140.8692645010683 0 140.8692645010683 99.793666350350577 0 0 0 0 80.065955864847638 80.262922764224641 0 80.262922764224641 126.52685266455092 0 0 0 0 59.667447667270608 141.94072508179929 0 141.94072508179929 44.083437930607033 0 0 0 0 63.047190995715937 94.7885437383419 0 94.7885437383419 14.196537538346092 0 0 0 0 55.692211152068921 90.583681347034599 0 90.583681347034599 69.268980718905368 0 0 0 0 45.495219535543583 153.51243890551814 0 153.51243890551814 119.53649766151148 0 0 0 0 39.325498265228816 119.64597253704733 0 119.64597253704733 162.11198570097395 0 0 0 0 44.113685463285947 132.72854914487999 0 132.72854914487999 223.74889638267177 0 0 0 0 62.044063296954846 147.90426655606666 0 147.90426655606666 190.01816751295655 0 0 0 0 145.632400557035 101.8115638273448 0 101.8115638273448 259.91026626418579 0 0 0 0 139.08783996773127 142.9663267206131 0 142.9663267206131 192.83360850505187 0 0 0 0 66.966019002891699 107.02958677151486 0 107.02958677151486 204.48274822744952 0 0 0 0 291.66457872685714 156.41901919813913 0 156.41901919813913 147.69178239567555 0 0 0 0 119.6916275468393 84.325035867078441 0 84.325035867078441 121.59609047450931 0 0 0 0 114.86692183002015 162.00149228919781 0 162.00149228919781 144.838961059967 0 0 0 0 235.75215638938289 133.85856489672508 0 133.85856489672508 25.747033505073887 0 0 0 0 180.51762269291794 145.45930905943715 0 145.45930905943715 -129.89636994600505 0 0 0 0 106.18849302516901 36.884360830469632 0 36.884360830469632 -41.658759813549295 0 0 0 0 92.233177527270527 150.49526619307915 0 150.49526619307915 1.607998933919589 0 0 0 0 129.85772862267913 66.669045748351891 0 66.669045748351891 -274.04858850779965 0 0 0 0 38.357518420409178 87.839071787786452 0 87.839071787786452 -102.0049338012559 0 0 0 0 38.626216676144395 -6.5845971126655058 0 -6.5845971126655058 -270.66906520677287 0 0 0 0 120.31198602647055 43.638488118782334 0 43.638488118782334 -289.55092265405619 0 0 0 0 105.06588083490351 3.2266759880048994 0 3.2266759880048994 -276.39244452464663 0 0 0 0 250.34572761441086 84.460168500800819 0 84.460168500800819 -549.85844215260477 0 0 0 0 28.45007653319044 103.87344906497856 0 103.87344906497856 12.01813251328349 0 0 0 0 66.174183336421265 109.89863412814657 0 109.89863412814657 -99.130690919504559 0 0 0 0 79.116417103468848 104.06581376763916 0 104.06581376763916 -117.26302434167883 0 0 0 0 36.781107302202145 52.710911937204401 0 52.710911937204401 -82.745861126607451 0 0 0 0 -0.39702719722117763 73.861898451426441 0 73.861898451426441 -103.16923892861087 0 0 0 0 51.254969070956577 51.884534118497868 0 51.884534118497868 -245.71127417559728 0 0 0 0 61.78043705507298 56.493122132772442 0 56.493122132772442 -215.28169915159742 0 0 0 0 32.661289830488386 66.701821995846785 0 66.701821995846785 -97.335692518065116 0 0 0 0 43.186561380483909 6.1056182878937761 0 6.1056182878937761 -290.50847284724659 0 0 0 0 -25.720265697338618 46.461755147061922 0 46.461755147061922 -199.57450173635698 0 0 0 0 -84.079397747816984 -54.955141439497311 0 -54.955141439497311 -302.62794328840027 0 0 0 0 31.534690685599344 8.0087684476543473 0 8.0087684476543473 -332.69215365390846 0 0 0 0 -9.6642814638908021 21.26206906182324 0 21.26206906182324 -222.82150750460278 0 0 0 0 -65.370486625710328 -157.73922633267557 0 -157.73922633267557 -443.1875076840588 0 0 0 0 -47.778447056341975 -59.965931843318913 0 -59.965931843318913 -354.22330329894976 0 0 0 0 -241.26307256441214 -292.69627440593831 0 -292.69627440593831 -403.15970633424877 0 0 0 0 -334.97024942064309 -149.84777244831184 0 -149.84777244831184 -275.80653807714589 0 0 0 0 -109.53552786860382 -137.91755407818346 0 -137.91755407818346 -397.18879512003332 0 0 0 0 -168.16279998747632 -53.808291696652304 0 -53.808291696652304 -306.74839175432498 0 0 0 0 -153.48790357426333 -51.793958444462078 0 -51.793958444462078 -303.02192181288046 0 0 0 0 -24.565168618457392 -52.066800532198613 0 -52.066800532198613 -344.03345418936806 0 0 0 0 -27.943775301804635 24.513824842523974 0 24.513824842523974 -282.91110878621657 0 0 0 0 -47.568641028963611 -37.806628389971593 0 -37.806628389971593 -294.80396549377292 0 0 0 0 -56.767213238723343 -18.993372527071188 0 -18.993372527071188 -332.14961174026394 0 0 0 0 32.026702996925451 2.7123613139481222 0 2.7123613139481222 -282.07178652852235 0 0 0 0 28.306029567349469 -16.411007621488352 0 -16.411007621488352 -329.8939142530362 0 0 0 0 204.92582124494947 -291.75807768981485 0 -291.75807768981485 -895.47103867140959 0 0 0 0 639.58369502635105 252.21925882436608 0 252.21925882436608 -433.04914410629453 0 0 0 0 -447.61018973769387 -84.694550937774693 0 -84.694550937774693 543.83208487083903 0 0 0 0 -1.7091167645075984 -0.86048891105036773 0 -0.86048891105036773 -1.7327608467796551 0 0 0 0 204.83767099602846 -81.302562475536433 0 -81.302562475536433 -696.4615740977224 0 0 0 0 210.28802640436334 -39.859524467202391 0 -39.859524467202391 -550.59637172598923 0 0 0 0 114.65510604341398 -19.075710988449828 0 -19.075710988449828 -483.75626221449784 0 0 0 0 54.872523098078091 -115.58097259776878 0 -115.58097259776878 -466.60740578566742 0 0 0 0 50.213445094501367 -31.607016252923586 0 -31.607016252923586 -385.74260820234485 0 0 0 0 7.3768900029535871 -179.92996813198442 0 -179.92996813198442 -568.2243233201043 0 0 0 0 53.521558647975326 -80.753091044123721 0 -80.753091044123721 -466.1780550557487 0 0 0 0 -27.486521618324332 -65.070051076407253 0 -65.070051076407253 -349.03706755394523 0 0 0 0 -48.220486473757774 -359.78420083258879 0 -359.78420083258879 -636.50050260812611 0 0 0 0 4.0475430006262627 -1.4387950558350582 0 -1.4387950558350582 -0.12336278730495742 0 0 0 0 320.49539099850517 720.00401040195993 0 720.00401040195993 718.94362152388385 0 0 0 0 32.037330859835492 299.3608139742264 0 299.3608139742264 811.53229966930303 0 0 0 0 163.49249848679756 410.98339652045797 0 410.98339652045797 686.63502835036343 0 0 0 0 298.76706510822987 65.962038340658182 0 65.962038340658182 32.995740133902018 0 0 0 0 121.9134019711928 183.27736247254143 0 183.27736247254143 342.51422548931941 0 0 0 0 95.486286088271299 72.124164540304264 0 72.124164540304264 668.50485524641772 0 0 0 0 173.88642054179218 238.81941227062271 0 238.81941227062271 326.7412525909549 0 0 0 0 15.420790262205571 6.0140130099552138 0 6.0140130099552138 3.0539189376223703 0 0 0 0 454.79135412402684 335.91909799517794 0 335.91909799517794 -165.24218945527491 0 0 0 0 147.69573841052625 161.48979517322709 0 161.48979517322709 138.23735916786882 0 0 0 0 -184.61945176654262 -11.934610100668579 0 -11.934610100668579 -283.86113350910819 0 0 0 0 -230.54239085683366 -14.163821331593681 0 -14.163821331593681 -265.88617242849432 0 0 0 0 -80.311394213524181 -10.564932212328131 0 -10.564932212328131 -288.23018289761148 0 0 0 0 22.222391003218945 -28.634106869618336 0 -28.634106869618336 -302.01455696233552 0 0 0 0 37.208224995789351 -43.382015046167908 0 -43.382015046167908 -304.83730703682886 0 0 0 0 -47.552731084695552 -8.2336578245412966 0 -8.2336578245412966 -297.55084000866191 0 0 0 0 -49.177770622074604 -18.488636424383003 0 -18.488636424383003 -307.3173431397845 0 0 0 0 205.29259732355422 64.864401427154007 0 64.864401427154007 290.71880200413761 0 0 0 0 132.42710624625397 181.01496283003803 0 181.01496283003803 139.09844052759126 0 0 0 0 176.87813474681025 127.30407264017344 0 127.30407264017344 21.787980775283359 0 0 0 0 192.83508005189651 181.37489425998183 0 181.37489425998183 -29.392923730136317 0 0 0 0 267.27765924828418 -107.77310133995752 0 -107.77310133995752 -552.0328557427365 0 0 0 0 223.67267532437108 257.33583838251252 0 257.33583838251252 100.30351568944752 0 0 0 0 94.975695715998881 -78.452508343353088 0 -78.452508343353088 -138.95903817079261 0 0 0 0 182.47369679784606 80.664263942052912 0 80.664263942052912 51.603918084525503 0 0 0 0 203.33443132429966 26.772528854588018 0 26.772528854588018 -153.01710590546145 0 0 0 0 67.643909308651928 -31.361685400994247 0 -31.361685400994247 -58.875665522451527 0 0 0 0 173.82036437108383 5.4903129687185981 0 5.4903129687185981 -25.867321588885897 0 0 0 0 57.721956005586463 67.106163989989255 0 67.106163989989255 26.02181238548782 0 0 0 0 144.76835722007672 77.474281819789894 0 77.474281819789894 12.521225285858236 0 0 0 0 25.202136711188359 -28.491471691470906 0 -28.491471691470906 -285.27843007404499 0 0 0 0 24.061358215321377 12.493160371614351 0 12.493160371614351 -6.1410401363481135 0 0 0 0 12.382030035492789 -101.61484305468912 0 -101.61484305468912 -107.92305233123625 0 0 0 0 10.259432922458473 10.351849345226952 0 10.351849345226952 2.5917156563042205 0 0 0 0 61.593129948130809 -29.362915270248322 0 -29.362915270248322 -286.31638536792161 0 0 0 0 74.069982506276574 -48.223932467662053 0 -48.223932467662053 -286.81751539139441 0 0 0 0 56.662347622303059 -19.596748900013608 0 -19.596748900013608 -279.64017648965637 0 0 0 0 45.67301942766062 -51.368846835422119 0 -51.368846835422119 -234.87482281905159 0 0 0 0 96.632113639469026 9.5081816928877743 0 9.5081816928877743 -217.30375479905842 0 0 0 0 110.94954623161175 -9.7942852684532227 0 -9.7942852684532227 -269.51351050702488 0 0 0 0 82.099215029418701 -127.48845348298801 0 -127.48845348298801 -193.82263172612511 0 0 0 0 107.08621231031429 -75.803688498311203 0 -75.803688498311203 -161.7804706430361 0 0 0 0 116.16004811762832 -37.57405146672636 0 -37.57405146672636 -196.5091019287247 0 0 0 0 120.65098173883598 -20.228808375615472 0 -20.228808375615472 -129.54135519474949 0 0 0 0 115.59549119259464 29.54087103024176 0 29.54087103024176 -120.5023310316792 0 0 0 0 89.017267533228733 0.41502683739736312 0 0.41502683739736312 -187.02773761998651 0 0 0 0 116.04270551702939 44.799491520157972 0 44.799491520157972 -161.72523045860567 0 0 0 0 126.52429839890101 70.259012784549668 0 70.259012784549668 -155.30203301233996 0 0 0 0 92.167403824598296 52.782814214081554 0 52.782814214081554 -138.57887900562673 0 0 0 0 108.17391237965057 66.296026231173528 0 66.296026231173528 -69.523721628413114 0 0 0 0 125.83441751375358 95.371287536899672 0 95.371287536899672 -73.687562803737819 0 0 0 0 41.85664678151079 -16.179778194499704 0 -16.179778194499704 -246.68076593001751 0 0 0 0 78.997990018833661 34.095985463637589 0 34.095985463637589 -264.17498956881377 0 0 0 0 80.512848395563196 -17.835974237474147 0 -17.835974237474147 -287.12047648285625 0 0 0 0 100.33331785828341 32.636326028338772 0 32.636326028338772 -223.83157728546826 0 0 0 0 71.200820307669346 -11.757184081234982 0 -11.757184081234982 -218.77601683658941 0 0 0 0 102.91441406853846 77.31176247429903 0 77.31176247429903 -171.33833661019298 0 0 0 0 71.607116503029829 42.629396211141739 0 42.629396211141739 -153.55509459130553 0 0 0 0 33.189957960843458 40.300254964864052 0 40.300254964864052 -187.9357637134035 0 0 0 0 78.846747903240612 81.677460467899436 0 81.677460467899436 -195.83476993605336 0 0 0 0 69.463361657370115 71.544371895492077 0 71.544371895492077 -73.552235615816244 0 0 0 0 91.61410456156591 84.66228800117392 0 84.66228800117392 -69.064562874416879 0 0 0 0 127.01177887638914 71.436679754763645 0 71.436679754763645 -65.505792893123726 0 0 0 0 87.792341330110503 126.99869203909725 0 126.99869203909725 -2.2379730817410746 0 0 0 0 141.89848390323459 78.320428893474855 0 78.320428893474855 33.800375921399791 0 0 0 0 108.87302594838548 105.68213384779847 0 105.68213384779847 -71.996971324271499 0 0 0 0 56.629375231321319 85.136308497807022 0 85.136308497807022 22.03580751791651 0 0 0 0 109.36118774971692 81.72107607409589 0 81.72107607409589 -19.055257533970689 0 0 0 0 119.91659205142059 121.30430017942217 0 121.30430017942217 -44.180632755482293 0 0 0 0 121.78708088849089 96.455121767191486 0 96.455121767191486 -11.284238362618453 0 0 0 0 134.76452493884972 154.42887977821499 0 154.42887977821499 30.075498994470763 0 0 0 0 109.24434145882333 130.08406472591525 0 130.08406472591525 49.289040752731125 0 0 0 0 129.614028164513 147.38364551515542 0 147.38364551515542 43.582530221323395 0 0 0 0 106.76884815550875 65.229018817006363 0 65.229018817006363 80.783361791477546 0 0 0 0 116.83635858558409 100.09086640274109 0 100.09086640274109 -4.2395241184567567 0 0 0 0 134.65694796749449 64.631689422927366 0 64.631689422927366 69.122355257110939 0 0 0 0 129.70236553519499 82.761534311056266 0 82.761534311056266 31.016038513983403 0 0 0 0 120.6018895511661 51.207067896988519 0 51.207067896988519 23.956199041756918 0 0 0 0 141.90288830411737 42.503508284075451 0 42.503508284075451 -31.634841030842836 0 0 0 0 113.81565768364817 41.135458032909355 0 41.135458032909355 -39.971627168850318 0 0 0 0 133.88461434066267 59.261657344448849 0 59.261657344448849 -51.072177478703452 0 0 0 0 128.39618488942506 53.327264284098646 0 53.327264284098646 -91.525983072704548 0 0 0 0 108.73941731077502 -14.075135747819786 0 -14.075135747819786 -125.37744677999081 0 0 0 0 121.31389730522642 11.974640989009117 0 11.974640989009117 -97.901617209248798 0 0 0 0 108.09366202271485 7.0599685484430665 0 7.0599685484430665 -60.197903101262568 0 0 0 0 102.92610424196755 -18.50828848137553 0 -18.50828848137553 -64.792294748706354 0 0 0 0 120.03082235375405 44.923108037797135 0 44.923108037797135 -23.682804724577181 0 0 0 0 91.305796077198465 -61.722021860483437 0 -61.722021860483437 -125.66024721768372 0 0 0 0 92.888362889400014 -2.9214708163012801 0 -2.9214708163012801 -83.619547736066124 0 0 0 0 90.708896451268359 0.17290957438232368 0 0.17290957438232368 -7.2933061170841924 0 0 0 0 74.665854690006881 -17.235248547467641 0 -17.235248547467641 -10.344116049601432 0 0 0 0 59.485894079261925 -33.498579474915459 0 -33.498579474915459 -129.27291375079949 0 0 0 0 62.953677329031052 -47.005458789409204 0 -47.005458789409204 -89.884973336290386 0 0 0 0 89.088276298163692 -70.990889132838674 0 -70.990889132838674 -147.90062511889425 0 0 0 0 183.65708920080215 43.962672432802719 0 43.962672432802719 -20.935239450977406 0 0 0 0 123.21182876484818 20.368096292849714 0 20.368096292849714 0.0081072201810457045 0 0 0 0 112.46513736971974 11.070715605814939 0 11.070715605814939 -12.878304976979052 0 0 0 0 139.11637516660267 26.337753358595364 0 26.337753358595364 -45.470198647888878 0 0 0 0 73.097140901896637 -14.3372030471578 0 -14.3372030471578 -47.452693997550341 0 0 0 0 127.0017450969317 8.4576877994986717 0 8.4576877994986717 -71.470850586725874 0 0 0 0 114.05953097096062 31.645452190191008 0 31.645452190191008 -14.97397757899671 0 0 0 0 126.70179791060218 24.248690114619421 0 24.248690114619421 -11.826809500223135 0 0 0 0 176.63789457149687 69.557325167072577 0 69.557325167072577 -8.9049696232552265 0 0 0 0 198.09095268978854 89.066567351388585 0 89.066567351388585 14.478463778645391 0 0 0 0 163.24588327112724 51.07007431016973 0 51.07007431016973 26.553622394863851 0 0 0 0 175.94262602586241 53.589922050927726 0 53.589922050927726 -4.8157245659767796 0 0 0 0 167.78756311114921 73.920306008479088 0 73.920306008479088 71.307714761003808 0 0 0 0 185.2432339223451 30.671064207127756 0 30.671064207127756 24.971943392898538 0 0 0 0 186.98655359444092 104.06566131700856 0 104.06566131700856 53.215360054227858 0 0 0 0 228.50618049066998 105.37145583331403 0 105.37145583331403 19.618924035063174 0 0 0 0 223.61126125018927 65.198948743486199 0 65.198948743486199 16.881797116450343 0 0 0 0 1.4628831078307343 -1.325632644645566 0 -1.325632644645566 -0.29479203889763639 0 0 0 0 -30.73112472165667 -36.78856744066843 0 -36.78856744066843 -12.817718292574682 0 0 0 0 168.00502410695481 76.224329769162068 0 76.224329769162068 28.409209878637739 0 0 0 0 176.86346132071048 59.987369832773652 0 59.987369832773652 53.90062510980988 0 0 0 0 137.4201091529776 63.559888679937444 0 63.559888679937444 32.507375235673862 0 0 0 0 179.44022191921249 53.4059688353409 0 53.4059688353409 24.952214924750479 0 0 0 0 238.98573978587228 89.169594055367725 0 89.169594055367725 20.917386913632981 0 0 0 0 134.7095946912159 64.512557658431433 0 64.512557658431433 49.135207829310275 0 0 0 0 184.49707414468867 77.08483409643668 0 77.08483409643668 26.097552253940393 0 0 0 0 181.72493478341494 83.490093594664131 0 83.490093594664131 55.911891952579026 0 0 0 0 -59.181842147687348 8.3049243652972677 0 8.3049243652972677 4.8139449100390266 0 0 0 0 0.45646979553886524 -0.37542852324591536 0 -0.37542852324591536 -0.069252014949285012 0 0 0 0 -68.074026868949659 -37.253202297278335 0 -37.253202297278335 -2.4561683744723268 0 0 0 0 -13.147122208567453 -13.481480499623558 0 -13.481480499623558 -23.329907724123586 0 0 0 0 -30.744539069179154 -46.149165664846578 0 -46.149165664846578 -23.996201609182208 0 0 0 0 4.3252108267086911 -12.455474481660758 0 -12.455474481660758 -7.5067543722907164 0 0 0 0 25.580523976750555 -12.491242634295759 0 -12.491242634295759 -1.1874585109871987 0 0 0 0 96.884053935384145 -11.081930252668826 0 -11.081930252668826 -15.395486282327056 0 0 0 0 84.982644357383833 -7.1685970911535151 0 -7.1685970911535151 26.423108118870005 0 0 0 0 217.43634004734122 26.628613717769895 0 26.628613717769895 22.069595834756001 0 0 0 0 80.022309513806249 33.316151466046449 0 33.316151466046449 51.233977650961151 0 0 0 0 71.035883789896616 136.25222874125393 0 136.25222874125393 137.67457792841742 0 0 0 0 -0.17150364473221202 -0.24397749057551721 0 -0.24397749057551721 0.57458406043274479 0 0 0 0 79.013158078843844 49.515006895238002 0 49.515006895238002 29.45396814409969 0 0 0 0 71.14140045575914 122.54852408294391 0 122.54852408294391 118.74688006477436 0 0 0 0 39.596291945577832 36.05442056435345 0 36.05442056435345 25.560536831271747 0 0 0 0 120.6027595716514 38.86657006446444 0 38.86657006446444 2.6420446245329003 0 0 0 0 81.825595699090627 35.462909463609151 0 35.462909463609151 -4.5179144472231201 0 0 0 0 76.689094214336365 19.608758363106062 0 19.608758363106062 -5.4993645638369344 0 0 0 0 66.108126647784957 27.434707617574077 0 27.434707617574077 -8.0948458773807488 0 0 0 0 59.095480024232529 3.950905077592779 0 3.950905077592779 0.17070675171225957 0 0 0 0 100.35484972319682 40.369174091121295 0 40.369174091121295 -4.5010014693423273 0 0 0 0 68.14917470911314 27.412832756235503 0 27.412832756235503 -9.3399602984845842 0 0 0 0 62.667754661626532 2.1849465960235648 0 2.1849465960235648 -19.083377428506537 0 0 0 0 13.889730901493749 -7.7027401509221818 0 -7.7027401509221818 9.4321666530145194 0 0 0 0 -14.754195239127512 -7.2233678888192401 0 -7.2233678888192401 6.2759896471673073 0 0 0 0 7.6339951338649215 -10.69833073070663 0 -10.69833073070663 -7.9922539099761636 0 0 0 0 70.896902582084294 22.724325463647347 0 22.724325463647347 -6.9563463857325587 0 0 0 0 73.031665108195739 7.9092791436978587 0 7.9092791436978587 -17.469102634052433 0 0 0 0 54.804862956960278 14.784349002179852 0 14.784349002179852 -10.066551124755279 0 0 0 0 29.841727720271592 9.6006651783112815 0 9.6006651783112815 -2.4223462541033882 0 0 0 0 32.707720526086632 12.255590956836329 0 12.255590956836329 -0.20549296155820684 0 0 0 0 -12.268419009395075 12.570153407902104 0 12.570153407902104 21.72002934405748 0 0 0 0 1.1080750162765511 5.1161684638249767 0 5.1161684638249767 1.8651608203790353 0 0 0 0 -2.8253603523190804 -0.54262349892103146 0 -0.54262349892103146 0.0010125923859525265 0 0 0 0 21.361385942363995 -25.364564736862121 0 -25.364564736862121 -28.378292856747976 0 0 0 0 25.644389886007843 -2.2829985171882186 0 -2.2829985171882186 -7.7886447023049357 0 0 0 0 11.764546057704138 7.8279790672622767 0 7.8279790672622767 62.109209530207636 0 0 0 0 37.521451432519825 63.235599658459478 0 63.235599658459478 59.006542798047121 0 0 0 0 2.776107461571371 4.1613033275975795 0 4.1613033275975795 0.94342207812712608 0 0 0 0 65.149256396030978 -10.313350300482682 0 -10.313350300482682 2.1504559151253488 0 0 0 0 66.637167843422503 62.259375117255786 0 62.259375117255786 29.172438641418012 0 0 0 0 51.405999038077425 29.765852473251698 0 29.765852473251698 -36.09053669037894 0 0 0 0 27.513828664323796 -1.0463747125429563 0 -1.0463747125429563 -6.8070833002143472 0 0 0 0 93.72710613203526 -26.384550424317695 0 -26.384550424317695 -63.248770661086837 0 0 0 0 40.232424254321813 -3.2648161175976611 0 -3.2648161175976611 -25.242446077420823 0 0 0 0 13.517801833557314 2.8249312882894628 0 2.8249312882894628 -11.738052729214189 0 0 0 0 29.257334094595251 0.86267623770741864 0 0.86267623770741864 -6.8685709513160624 0 0 0 0 13.903693015530735 -15.118546479398489 0 -15.118546479398489 -11.521189156189166 0 0 0 0 -7.9603516106144525 -49.466420446589666 0 -49.466420446589666 40.013611123722285 0 0 0 0 -64.063761621371668 10.442834325213511 0 10.442834325213511 16.184209149688513 0 0 0 0 13.981430027779425 -21.91517310965196 0 -21.91517310965196 19.265095196187019 0 0 0 0 45.267554653517436 38.006244683263816 0 38.006244683263816 27.688537281771005 0 0 0 0 0.85339870711402455 -0.76860285565971509 0 -0.76860285565971509 -0.68781704181399783 0 0 0 0 88.976147435168969 1.2317405386816631 0 1.2317405386816631 -20.920078276636787 0 0 0 0 1.984447038353494 4.6400914267228188 0 4.6400914267228188 -3.335458704785204 0 0 0 0 25.73820823256392 12.706647682881851 0 12.706647682881851 0.71852766529315204 0 0 0 0 27.481496215075822 14.168540591374558 0 14.168540591374558 -40.49012029635071 0 0 0 0 21.028904054284794 43.254013013452266 0 43.254013013452266 2.1442491316897048 0 0 0 0 65.629531810765911 -1.8522784477793834 0 -1.8522784477793834 -31.567510708368332 0 0 0 0 23.731020329675175 -3.3304055676668369 0 -3.3304055676668369 -1.7835224238174421 0 0 0 0 73.18308377059293 -65.842060014585769 0 -65.842060014585769 16.611542182214635 0 0 0 0 56.166198422361049 -19.766473221207306 0 -19.766473221207306 -9.2242240358286267 0 0 0 0 -7.5987958626792533 -24.057453768418867 0 -24.057453768418867 13.919583229755517 0 0 0 0 5.0475154571722669 -15.431878338612421 0 -15.431878338612421 15.058414172073526 0 0 0 0 6.2389851236436726 -7.304681287377349 0 -7.304681287377349 -4.8388099473871549 0 0 0 0 -15.813343141831865 0.5777772177446252 0 0.5777772177446252 -2.0674275651299183 0 0 0 0 5.3242936141601689 -7.5588689988631188 0 -7.5588689988631188 -3.2618080930992912 0 0 0 0 25.778111270199588 -6.8393561264654466 0 -6.8393561264654466 -10.304799726554734 0 0 0 0 -4.1718265864765272 12.698345293441577 0 12.698345293441577 9.1994992311016119 0 0 0 0 -0.38548598225816022 -1.064989774552572 0 -1.064989774552572 0.056104260135429962 0 0 0 0 0.57169847900445347 0.050905995689689121 0 0.050905995689689121 -0.20072414417102419 0 0 0 0 20.121797689338564 -36.862979745914174 0 -36.862979745914174 41.400237206455756 0 0 0 0 -41.009944021410774 23.762495369784574 0 23.762495369784574 32.172791338254626 0 0 0 0 216.81169819226488 -16.556421856262517 0 -16.556421856262517 -10.515054296651215 0 0 0 0 157.05479086410924 136.50490542229693 0 136.50490542229693 30.265695673146013 0 0 0 0 166.28870302287396 -64.337468819891996 0 -64.337468819891996 51.523535164164315 0 0 0 0 0.95583267706069819 0.34924795952711918 0 0.34924795952711918 0.0020134184140545644 0 0 0 0 -1.3955023174057715 -54.329536080231229 0 -54.329536080231229 15.872589802405042 0 0 0 0 29.064697835186962 -33.975678314250047 0 -33.975678314250047 -67.759362425044543 0 0 0 0 -1.9255961941089481 -1.1671806252327315 0 -1.1671806252327315 1.1209985052362725 0 0 0 0 -49.364134019164339 -2.5058956514465969 0 -2.5058956514465969 1.0999055758092879 0 0 0 0 21.745999778650003 5.0698413862609675 0 5.0698413862609675 -1.089100892438736 0 0 0 0 1.8498664800655433 -1.0198779694835034 0 -1.0198779694835034 -0.10082259433346445 0 0 0 0 10.346415064009705 -1.5673094359835886 0 -1.5673094359835886 -1.4011413120360019 0 0 0 0 4.7703060224627052 -6.6129611299307767 0 -6.6129611299307767 0.14311163802707141 0 0 0 0 -1.3309144654776901 -6.12234288848272 0 -6.12234288848272 -2.9380230182024434 0 0 0 0 9.2293915340867443 -5.6437896357943771 0 -5.6437896357943771 -1.2559596614706927 0 0 0 0 3.8152536214911379 -2.5209666535519109 0 -2.5209666535519109 -26.124510709598503 0 0 0 0 1.4233710300738949 0.013457960552045733 0 0.013457960552045733 -0.1064508674943431 0 0 0 0 -24.412189511276665 -6.9346037784532717 0 -6.9346037784532717 37.887156414240785 0 0 0 0 39.644577647210099 -8.6409926999249933 0 -8.6409926999249933 0.13171982910793845 0 0 0 0 162.32970623925576 94.49638416408834 0 94.49638416408834 82.485268070516611 0 0 0 0 155.65493808395695 54.212181906617133 0 54.212181906617133 27.699680807341938 0 0 0 0 -5.9849356119630102 9.4840129777961835 0 9.4840129777961835 74.987636586379651 0 0 0 0 0.98899244676670151 0.55130495250114109 0 0.55130495250114109 0.053261035369426848 0 0 0 0 31.269177674956154 32.746525056270968 0 32.746525056270968 15.759087171348796 0 0 0 0 28.002361008359003 -22.622970165544356 0 -22.622970165544356 33.094652527813658 0 0 0 0 42.611737155209994 -15.053827368522715 0 -15.053827368522715 0.56333563275691212 0 0 0 0 -22.354908219262143 13.565627515929544 0 13.565627515929544 25.767005705478361 0 0 0 0 144.87988059414783 -75.987599020910068 0 -75.987599020910068 30.961196601308412 0 0 0 0 3.3228906948352233 -10.646304714638569 0 -10.646304714638569 0.11560553525124381 0 0 0 0 24.093657163568423 -9.5702444697707918 0 -9.5702444697707918 -1.4567619827681262 0 0 0 0 14.580250045881257 -0.22718248317160494 0 -0.22718248317160494 -0.1728830335559266 0 0 0 0 1.6969428092682932 -0.091327027595156096 0 -0.091327027595156096 -0.18997529946114941 0 0 0 0 12.260101118230807 -0.46229839710606058 0 -0.46229839710606058 -0.64383781066279799 0 0 0 0 25.178529625554802 -0.80314642270928971 0 -0.80314642270928971 -1.5668364595533291 0 0 0 0 7.0229301391518675 -1.2368572254512742 0 -1.2368572254512742 -3.0140957736092702 0 0 0 0 7.5208755167333265 -0.68642652490817113 0 -0.68642652490817113 -0.16792401346994626 0 0 0 0 20.280005166161573 -4.0545956843049566 0 -4.0545956843049566 1.6520391244531538 0 0 0 0 18.009206023678416 21.012710189373962 0 21.012710189373962 20.356618191901664 0 0 0 0 34.47738856280921 5.5801521199872859 0 5.5801521199872859 -15.068284940486464 0 0 0 0 27.869508643780136 2.3534247792365193 0 2.3534247792365193 -0.13038895189831123 0 0 0 0 18.254276521682641 1.0092743022585982 0 1.0092743022585982 -0.15179556851109929 0 0 0 0 23.764658313710243 4.5517452260851599 0 4.5517452260851599 -13.207408979552511 0 0 0 0 0.7847801109746797 0.87191137879076663 0 0.87191137879076663 11.539310972661475 0 0 0 0 13.382682295298338 1.723096070894627 0 1.723096070894627 -0.39051105543925824 0 0 0 0 47.912163723347476 30.039034912120258 0 30.039034912120258 1.0969193646916438 0 0 0 0 27.207525879901368 2.6980205146319634 0 2.6980205146319634 0.66137995149028939 0 0 0 0 4.0148183981992105 0.77089020161477606 0 0.77089020161477606 0.74009099608251683 0 0 0 0 27.307419711796683 2.3311118570093754 0 2.3311118570093754 1.7191776346501229 0 0 0 0 14.044302783273451 9.0043075487169517 0 9.0043075487169517 -9.2114140642607936 0 0 0 0 42.839633986441186 9.7940883632884379 0 9.7940883632884379 -13.974036981532947 0 0 0 0 34.006501803392894 -8.0943069961155061 0 -8.0943069961155061 -14.636159653892832 0 0 0 0 24.801877048768802 -9.0062488142125403 0 -9.0062488142125403 -14.665431483683108 0 0 0 0 53.232807177380892 -31.684012834568065 0 -31.684012834568065 3.4179047524182806 0 0 0 0 -25.877992801288201 24.75184195726618 0 24.75184195726618 -1.1443985041656788 0 0 0 0 80.672695268876851 54.36514245464457 0 54.36514245464457 -4.5388277962110521 0 0 0 0 53.366389077462372 -3.7092086361696488 0 -3.7092086361696488 -10.662058172577417 0 0 0 0 0.19186309397888124 0.73316370482268667 0 0.73316370482268667 0.81876034745789816 0 0 0 0 296.84663828049088 -100.49184720115915 0 -100.49184720115915 63.972771758448346 0 0 0 0 321.61836407053488 -5.1784662438014095 0 -5.1784662438014095 -54.136403408548858 0 0 0 0 136.75061873937375 153.46354027542802 0 153.46354027542802 -106.02791675084046 0 0 0 0 357.34181843439001 -135.44403821618158 0 -135.44403821618158 -175.79297278592122 0 0 0 0 767.74191703436372 -191.39586674397154 0 -191.39586674397154 -98.076444719048766 0 0 0 0 369.34517020732892 -73.243901094055047 0 -73.243901094055047 74.270781545822388 0 0 0 0 954.41192317038076 -193.90905586952445 0 -193.90905586952445 -109.73663992400674 0 0 0 0 27.369675432477379 1.8210744308744893 0 1.8210744308744893 2.274325028426631 0 0 0 0 1.7689257417017874 5.3472525712320476 0 5.3472525712320476 2.4454177087367528 0 0 0 0 -64.177840363445284 -34.189128762325637 0 -34.189128762325637 193.61283958555947 0 0 0 0 27.776623545818438 1.9588700630328191 0 1.9588700630328191 1.2224386855036755 0 0 0 0 27.807903450942831 2.1531030724298574 0 2.1531030724298574 0.23042463076899367 0 0 0 0 16.568604377738666 -3.8100773726086459 0 -3.8100773726086459 -18.639799280645356 0 0 0 0 -19.810457744693849 -31.562561158043128 0 -31.562561158043128 -37.891853480280702 0 0 0 0 42.380872470675968 -1.6701744378287771 0 -1.6701744378287771 -66.238557249315988 0 0 0 0 65.686231648374815 27.445642698517098 0 27.445642698517098 -39.630713780740891 0 0 0 0 49.504132534144446 -289.62625900422341 0 -289.62625900422341 195.54280663290086 0 0 0 0 -192.34699016358718 119.99415070119372 0 119.99415070119372 124.76036087108898 0 0 0 0 3.802408018064396 0.43357743292816053 0 0.43357743292816053 -0.71491098604000303 0 0 0 0 4.0494769706838838 0.3573364762968918 0 0.3573364762968918 0.78784101819907104 0 0 0 0 296.9494516721752 -307.05856904730121 0 -307.05856904730121 497.18186263538297 0 0 0 0 458.69485992152477 237.4754237650148 0 237.4754237650148 -38.873308964247371 0 0 0 0 666.86686290550278 -510.23076107188217 0 -510.23076107188217 218.98293294406349 0 0 0 0 1139.2924020562878 -296.55465786900368 0 -296.55465786900368 -67.635847882539323 0 0 0 0 522.01197839081578 -150.12932467252742 0 -150.12932467252742 0.029858840522605165 0 0 0 0 98.53070357532124 -98.720961310437403 0 -98.720961310437403 123.18329140038112 0 0 0 0 -167.37189848243725 83.391252633896997 0 83.391252633896997 59.388208440804817 0 0 0 0 121.51450143578404 -108.19351297968333 0 -108.19351297968333 122.58990900461626 0 0 0 0 587.54246232331934 -223.75696847363764 0 -223.75696847363764 69.37592572103415 0 0 0 0 110.72203146503307 -113.59816641434421 0 -113.59816641434421 122.18547856538501 0 0 0 0 2100.6762752106006 -562.99910856630186 0 -562.99910856630186 133.02831448978679 0 0 0 0 1137.7164691408304 -238.64450158345136 0 -238.64450158345136 232.56128329217674 0 0 0 0 1515.2735725824023 -258.67867109525196 0 -258.67867109525196 1.1025402952779888 0 0 0 0 1135.3009289874171 -323.82471348322701 0 -323.82471348322701 214.19733644713938 0 0 0 0 1471.7240064247744 -358.02482600395786 0 -358.02482600395786 202.20898355639309 0 0 0 0 1473.2958736550063 -344.48569669442202 0 -344.48569669442202 240.66892643600033 0 0 0 0 1444.8073645676159 -583.0711457808867 0 -583.0711457808867 52.28396107482115 0 0 0 0 1440.1100418133719 -371.70185953645534 0 -371.70185953645534 -6.6491848920010739 0 0 0 0 885.21095442802471 -460.51169693560564 0 -460.51169693560564 178.93623588525583 0 0 0 0 1268.0203199949028 -462.13851855791654 0 -462.13851855791654 0.40686689063136328 0 0 0 0 938.4953834626649 -317.99181469344126 0 -317.99181469344126 -18.946627744668518 0 0 0 0 739.15406011122832 -319.44485894830564 0 -319.44485894830564 51.46398707454307 0 0 0 0 1211.0187814975397 -660.98982072539195 0 -660.98982072539195 146.09310916205931 0 0 0 0 1008.1635656878934 -753.46670064987939 0 -753.46670064987939 294.70410481727708 0 0 0 0 679.29697687939915 -379.58126706344768 0 -379.58126706344768 75.170249702656918 0 0 0 0 1139.9395171840733 -595.80616206911338 0 -595.80616206911338 173.24937461435212 0 0 0 0 260.18594201101223 -235.04785652667852 0 -235.04785652667852 324.53309757531042 0 0 0 0 102.36366844686563 56.438596470084576 0 56.438596470084576 136.63432059951629 0 0 0 0 701.35118946201692 -320.64783866360085 0 -320.64783866360085 93.059170533267491 0 0 0 0 472.86959336544027 -293.2424894274169 0 -293.2424894274169 160.80353871135759 0 0 0 0 472.10908757261751 -135.27621524686637 0 -135.27621524686637 8.9197292528958769 0 0 0 0 19.86801629679394 -56.419427741300183 0 -56.419427741300183 132.31480330127374 0 0 0 0 111.30043205749826 5.5689569359592497 0 5.5689569359592497 62.049575972112848 0 0 0 0 0.83282049394620117 -58.620197471754551 0 -58.620197471754551 62.883980587149836 0 0 0 0 140.90347715915414 -124.76377555337046 0 -124.76377555337046 189.95046363805955 0 0 0 0 5.1242771792690718 7.8155406264081648 0 7.8155406264081648 0.17981626115822369 0 0 0 0 141.96463920413225 9.3640851624360266 0 9.3640851624360266 -27.928981722856406 0 0 0 0 31.942576021850982 24.411236069848428 0 24.411236069848428 22.419234315477752 0 0 0 0 -169.03362467595434 4.2595406672318745 0 4.2595406672318745 133.57485541848473 0 0 0 0 -65.102872929623118 139.15890681610188 0 139.15890681610188 65.96329293815279 0 0 0 0 0.20518579500449619 0.32019727619533001 0 0.32019727619533001 0.34628402872916553 0 0 0 0 48.128648917685496 -20.381882629457493 0 -20.381882629457493 21.806096698177726 0 0 0 0 54.386445948795881 22.420139953990656 0 22.420139953990656 -33.921417325042057 0 0 0 0 84.879964370222297 -33.840853481612839 0 -33.840853481612839 -20.075360770457792 0 0 0 0 97.593776281471946 94.033181712880889 0 94.033181712880889 -66.6831135767261 0 0 0 0 48.850409406877588 45.933801931141261 0 45.933801931141261 -99.46959802150991 0 0 0 0 -0.79265922325430438 -75.559324296074919 0 -75.559324296074919 -60.013460803842008 0 0 0 0 143.42504199927498 36.719301885579398 0 36.719301885579398 63.45416823528285 0 0 0 0 56.484066077769967 73.545558798725324 0 73.545558798725324 -6.94373958698975 0 0 0 0 4.8757247458561324 109.25114733816417 0 109.25114733816417 -16.200438120036779 0 0 0 0 11.056679578119656 48.959868775561063 0 48.959868775561063 40.832722300366186 0 0 0 0 121.57141483240412 2.4092869614466963 0 2.4092869614466963 10.146639048884026 0 0 0 0 29.072967387073732 40.527534119539609 0 40.527534119539609 -107.20973262800817 0 0 0 0 71.837947387699387 100.39677721253929 0 100.39677721253929 -40.074977882907206 0 0 0 0 -30.977245831818436 80.286320453121789 0 80.286320453121789 -11.27265293725759 0 0 0 0 26.325205422748695 24.448953688786105 0 24.448953688786105 -4.558263886086479 0 0 0 0 37.286011165793752 47.187318992594669 0 47.187318992594669 42.288707232911293 0 0 0 0 5.1915096695530067 22.276859599693921 0 22.276859599693921 5.9210460601797781 0 0 0 0 26.028938834408564 -2.4589027328935344 0 -2.4589027328935344 1.8564568722468024 0 0 0 0 30.947441383395926 24.609770233116933 0 24.609770233116933 26.274714605014651 0 0 0 0 46.030502703666571 5.1764541914014899 0 5.1764541914014899 -1.9251085815513989 0 0 0 0 -111.13116962329514 -16.288957463357747 0 -16.288957463357747 62.227459377639661 0 0 0 0 -100.94083871782641 177.2367762471913 0 177.2367762471913 154.98268315153086 0 0 0 0 -168.22809448444605 -29.219456359786705 0 -29.219456359786705 296.51533776129736 0 0 0 0 -22.395786114684597 -464.71624530765155 0 -464.71624530765155 858.54094845048121 0 0 0 0 229.55189081249409 16.756676118506505 0 16.756676118506505 -77.661893044457429 0 0 0 0 182.2895286269777 -100.80570036038625 0 -100.80570036038625 -202.61365171884654 0 0 0 0 29.792844386145589 -82.020852676896993 0 -82.020852676896993 4.5939338852381297 0 0 0 0 19.001019040177823 -7.1117368032407953 0 -7.1117368032407953 1.8981945705578473 0 0 0 0 1610.4670101338124 -692.07343376438155 0 -692.07343376438155 802.94802384570028 0 0 0 0 1624.5732451077783 -422.66957425977944 0 -422.66957425977944 707.84192534125327 0 0 0 0 2158.8396059021106 -650.07446692823169 0 -650.07446692823169 716.62962138590956 0 0 0 0 569.42201916690101 -894.31859296682046 0 -894.31859296682046 952.21733641721801 0 0 0 0 7.9760996386366969 -3.6985431535276376 0 -3.6985431535276376 1.5330107577568093 0 0 0 0 576.48736564489082 91.13049838804568 0 91.13049838804568 -45.87149431716125 0 0 0 0 2314.5984272528585 -865.62769241035187 0 -865.62769241035187 388.61258420077934 0 0 0 0 6.2847211433717689 -2.9327827466202621 0 -2.9327827466202621 1.6465298536562316 0 0 0 0 2099.712599710052 -863.29517266339838 0 -863.29517266339838 95.842840208616053 0 0 0 0 270.43403098162889 -390.99996069599473 0 -390.99996069599473 108.86065704143357 0 0 0 0 1603.3309221536474 -736.55659678337747 0 -736.55659678337747 533.19569475565595 0 0 0 0 1437.3308224232751 -643.35073168730992 0 -643.35073168730992 796.5419983274453 0 0 0 0 1466.2036710478951 -743.08204620856975 0 -743.08204620856975 627.79905505015563 0 0 0 0 1319.3114779589523 -737.1406977205196 0 -737.1406977205196 743.98490562137431 0 0 0 0 1450.9799312614341 -777.99730729949943 0 -777.99730729949943 596.86939474212875 0 0 0 0 1333.5801711890708 -753.72073471374051 0 -753.72073471374051 605.24565535683791 0 0 0 0 1334.8732697631058 -703.83790046713364 0 -703.83790046713364 636.07920522989605 0 0 0 0 1587.7880878732831 -630.51950236277435 0 -630.51950236277435 647.21805896069282 0 0 0 0 1674.219631683854 -741.19943685784926 0 -741.19943685784926 535.23682704829923 0 0 0 0 1685.9199890044365 -588.38044048685049 0 -588.38044048685049 480.26402050852266 0 0 0 0 1261.5258367322713 -529.66946711530704 0 -529.66946711530704 440.81268690707634 0 0 0 0 1.7800155244714846 -3.7328317779468136 0 -3.7328317779468136 1.2824135348267673 0 0 0 0 2742.6983125123879 -617.9758448109319 0 -617.9758448109319 27.084181634497128 0 0 0 0 1946.0081512226461 -887.79451981037732 0 -887.79451981037732 487.58354236190769 0 0 0 0 1856.6518465238478 -685.24659006435775 0 -685.24659006435775 202.99448006235593 0 0 0 0 1683.84366399399 -696.78636432921962 0 -696.78636432921962 243.66985854514985 0 0 0 0 1714.192295476576 -799.80449267867391 0 -799.80449267867391 1.8985079061402246 0 0 0 0 1742.2164522909734 -568.03989688211607 0 -568.03989688211607 446.15329157647062 0 0 0 0 1802.2183639542072 -764.81757355627269 0 -764.81757355627269 168.29825554008062 0 0 0 0 1246.2481634437863 -773.10052151984132 0 -773.10052151984132 415.86969169087524 0 0 0 0 1399.6945415470545 -634.47920022841936 0 -634.47920022841936 25.463517836863247 0 0 0 0 1447.6377900149528 -780.07489381425398 0 -780.07489381425398 226.46680093518822 0 0 0 0 1207.3653824807152 -675.37099387474223 0 -675.37099387474223 89.537642582725724 0 0 0 0 1549.9870249995874 -682.19314502648444 0 -682.19314502648444 -66.106109906340436 0 0 0 0 1642.0275814159686 -852.33742603213989 0 -852.33742603213989 32.174148344655478 0 0 0 0 1696.5969890150518 -839.25573438391189 0 -839.25573438391189 -31.011843249332628 0 0 0 0 1809.8891628655692 -977.95729260223106 0 -977.95729260223106 59.653343970288461 0 0 0 0 1470.6500287526724 -784.31540948811892 0 -784.31540948811892 -24.101727127682153 0 0 0 0 1773.5305264111666 -751.8309307524039 0 -751.8309307524039 -45.329438028863308 0 0 0 0 1739.2079504251597 -757.13799828576293 0 -757.13799828576293 12.890998915147975 0 0 0 0 2129.5715018146147 -524.17417754399401 0 -524.17417754399401 34.180491267201063 0 0 0 0 2021.6437174627481 -843.46391193414638 0 -843.46391193414638 207.50323918482934 0 0 0 0 2030.1456327607739 -918.6897361075338 0 -918.6897361075338 101.91217935687973 0 0 0 0 1275.8939239051833 -1002.966082171448 0 -1002.966082171448 251.12546932994485 0 0 0 0 2140.9331173122628 -1401.4947781856499 0 -1401.4947781856499 429.58989954586013 0 0 0 0 1594.7285448750845 -1932.3401899193852 0 -1932.3401899193852 1951.2144269638839 0 0 0 0 209.51949117879849 -44.567703519884191 0 -44.567703519884191 -285.79567590624714 0 0 0 0 11.497880902002123 -2.7222199686051951 0 -2.7222199686051951 0.2616646061327691 0 0 0 0 639.23173610652157 -1060.8642668290684 0 -1060.8642668290684 1314.2460852337556 0 0 0 0 3273.6802165557165 -1995.4781742610721 0 -1995.4781742610721 -0.72425140308056002 0 0 0 0 2264.3789871314657 -349.99201924829845 0 -349.99201924829845 310.31509237339003 0 0 0 0 3194.8312526002555 -1374.498787939287 0 -1374.498787939287 342.6977085512076 0 0 0 0 42.620135542192202 -2.3029798905752337 0 -2.3029798905752337 -3.1668959253074367 0 0 0 0 22.980105656041765 0.14208278391069484 0 0.14208278391069484 -0.19640964872572772 0 0 0 0 -82.141793586546555 7.7074121496474692 0 7.7074121496474692 -0.74141634965179204 0 0 0 0 477.54999491869239 -164.60482091133326 0 -164.60482091133326 -0.12628164948472431 0 0 0 0 160.12730172115698 -320.71897812420809 0 -320.71897812420809 675.86021868689829 0 0 0 0 27.733431610013213 -4.438178541500502 0 -4.438178541500502 -3.5000244628037604 0 0 0 0 1271.4825512097477 -889.72853763232661 0 -889.72853763232661 254.50548276090672 0 0 0 0 182.25096012720314 -270.53598010961173 0 -270.53598010961173 389.74448287326936 0 0 0 0 -476.80819875944644 -140.3460140554657 0 -140.3460140554657 341.64502420046369 0 0 0 0 10.411072088671418 -12.241719185260081 0 -12.241719185260081 -12.153390118703495 0 0 0 0 0.28294004633181125 -10.375861101971253 0 -10.375861101971253 -0.54111540106937717 0 0 0 0 1228.1261541654603 -499.30642285760723 0 -499.30642285760723 94.072766474628011 0 0 0 0 -367.71647520215402 104.84592659702994 0 104.84592659702994 31.917715908104498 0 0 0 0 967.21725674681511 -232.17490909113889 0 -232.17490909113889 -112.56059629403501 0 0 0 0 1210.4027029118297 -869.77479242558957 0 -869.77479242558957 254.64750497197204 0 0 0 0 1677.5105559268432 -378.52829427230893 0 -378.52829427230893 -9.5555179981486447 0 0 0 0 1598.9050876221299 -852.69872858790893 0 -852.69872858790893 90.883560419426317 0 0 0 0 636.06483666698477 21.477227299230549 0 21.477227299230549 0.51883462438575523 0 0 0 0 430.3725375586946 -301.91208855863584 0 -301.91208855863584 -130.43440127660838 0 0 0 0 839.78572849184275 165.54697651926801 0 165.54697651926801 178.69212311096516 0 0 0 0 983.46824515641856 -0.06600365522660212 0 -0.06600365522660212 -405.05687006915593 0 0 0 0 1224.1325503379339 11.276055703194174 0 11.276055703194174 -405.80899133300295 0 0 0 0 298.57523995410884 -82.234881111932509 0 -82.234881111932509 -145.11871605202333 0 0 0 0 519.94148051064258 -28.768058712436186 0 -28.768058712436186 -670.77475255844456 0 0 0 0 468.96018106938936 476.72048048896266 0 476.72048048896266 432.03160012117564 0 0 0 0 12.827724577848471 6.6979539162579762 0 6.6979539162579762 2.0231224939009054 0 0 0 0 -115.35251388127654 1102.1438641545767 0 1102.1438641545767 779.65746524134636 0 0 0 0 1048.6609451819459 -196.36703445272229 0 -196.36703445272229 -616.75363858251899 0 0 0 0 1459.6590544929786 -1148.2020647364898 0 -1148.2020647364898 440.20093671681417 0 0 0 0 48.723632893079241 10.867112705251923 0 10.867112705251923 -0.28765819308542229 0 0 0 0 78.279704675659104 -48.913602976557229 0 -48.913602976557229 96.930253719098232 0 0 0 0 2717.7469377148809 -186.55473151021371 0 -186.55473151021371 -127.57237162934302 0 0 0 0 3487.1512537172603 -938.91588998509735 0 -938.91588998509735 440.03457195221068 0 0 0 0 -1557.8617555168603 1025.3804684850697 0 1025.3804684850697 1468.5249500209411 0 0 0 0 18.952816138214075 7.4719484931173668 0 7.4719484931173668 3.1542285849648941 0 0 0 0 13.45655706341438 5.2546076622690236 0 5.2546076622690236 1.4912014515705518 0 0 0 0 4639.9136117083617 -1188.3380920934005 0 -1188.3380920934005 -1082.0302771352794 0 0 0 0 891.97270954459964 1685.7778209110086 0 1685.7778209110086 1028.1925072212741 0 0 0 0 379.03418763540685 -248.05870557535198 0 -248.05870557535198 -157.10527538173454 0 0 0 0 2025.612309452401 429.89042884810391 0 429.89042884810391 -158.36955447127062 0 0 0 0 3493.0934332930628 1432.546831738126 0 1432.546831738126 -273.78895954957613 0 0 0 0 1925.400894372302 841.70609687013848 0 841.70609687013848 -419.87585495719583 0 0 0 0 3500.4363406542302 424.72472127061536 0 424.72472127061536 -593.3249817035163 0 0 0 0 2538.1154060105473 241.35129717838228 0 241.35129717838228 -532.2732526333059 0 0 0 0 2247.9489629387026 -234.51441143349112 0 -234.51441143349112 -58.975057860068318 0 0 0 0 1073.1800769564434 -43.679061698161206 0 -43.679061698161206 -21.736336825481885 0 0 0 0 1031.1728276123467 53.140658296823744 0 53.140658296823744 -203.669515455744 0 0 0 0 -554.60438412907297 -300.03735957740639 0 -300.03735957740639 324.99887173424918 0 0 0 0 1333.9069606481644 -579.93157495339983 0 -579.93157495339983 336.42496914985765 0 0 0 0 1773.073119571709 136.88806239952004 0 136.88806239952004 -45.410593642310111 0 0 0 0 1198.0392129508982 -472.55124010732902 0 -472.55124010732902 426.93342180952419 0 0 0 0 1355.3662489393027 -473.8804367648687 0 -473.8804367648687 405.11513581195931 0 0 0 0 1443.239356682403 -727.62472274157221 0 -727.62472274157221 604.74593647598624 0 0 0 0 1451.2286814954348 -784.84563159206482 0 -784.84563159206482 495.20294071728659 0 0 0 0 1857.4759054688711 -639.91373338997198 0 -639.91373338997198 219.07056552546177 0 0 0 0 1857.1228431727504 -657.07221406196459 0 -657.07221406196459 449.8721751220242 0 0 0 0 2649.6997524327162 -482.05320596182656 0 -482.05320596182656 -284.99637056135634 0 0 0 0 3499.3975833547715 -178.1274130793995 0 -178.1274130793995 -441.17676875442635 0 0 0 0 2549.9432264351854 -300.51484304385019 0 -300.51484304385019 -59.378933924316016 0 0 0 0 15.346013904742335 -4.8600627484978247 0 -4.8600627484978247 -0.78625083626954462 0 0 0 0 94.546593879873399 -80.342310057108421 0 -80.342310057108421 -328.48865238452117 0 0 0 0 269.2176874861907 201.24450046803474 0 201.24450046803474 129.52585776181365 0 0 0 0 158.70616038777371 106.97891606194577 0 106.97891606194577 62.292690305249778 0 0 0 0 342.80855213958421 135.01367074967334 0 135.01367074967334 -22.911594762198661 0 0 0 0 215.71694924999611 64.196732515126712 0 64.196732515126712 8.6529842564496278 0 0 0 0 33.44591293449048 -6.2174350997206602 0 -6.2174350997206602 -20.862028293680396 0 0 0 0 179.94368885006406 16.113168431829308 0 16.113168431829308 -17.658264899391725 0 0 0 0 6.2491564485535491 -36.951219756567298 0 -36.951219756567298 -21.787632227179529 0 0 0 0 242.7231785025142 72.160923217320146 0 72.160923217320146 193.36454333351867 0 0 0 0 2.8688934763943053 -4.7059413957613003 0 -4.7059413957613003 -6.7101185011722979 0 0 0 0 48.66168547932466 3.4814541582909442 0 3.4814541582909442 -33.569838446444464 0 0 0 0 275.43422433365777 132.42362857504804 0 132.42362857504804 95.998438109470499 0 0 0 0 123.75594217552862 -443.92380711893998 0 -443.92380711893998 -363.035794630346 0 0 0 0 485.10177816802752 554.94008948764065 0 554.94008948764065 446.53722484657874 0 0 0 0 5.9896864394472686 -1.5395609694387247 0 -1.5395609694387247 -0.52208645065072901 0 0 0 0 195.86566057071468 -178.85161786415802 0 -178.85161786415802 539.75373680562598 0 0 0 0 3.507801180441902 -3.9418783004249747 0 -3.9418783004249747 -4.7736555997237069 0 0 0 0 753.39400263488642 316.38823176881078 0 316.38823176881078 -431.06522345601797 0 0 0 0 21.357892149299005 32.511634789524692 0 32.511634789524692 0.14785978481995699 0 0 0 0 484.79944480420818 30.097401111237872 0 30.097401111237872 -220.91646447278799 0 0 0 0 325.218721970974 61.213778700419425 0 61.213778700419425 -225.89579003288839 0 0 0 0 0.95528652562296656 2.1031399434263847 0 2.1031399434263847 0.62135725374186368 0 0 0 0 491.33919375285041 60.220562153234823 0 60.220562153234823 27.942092536143946 0 0 0 0 116.15627314907033 -94.777071712097836 0 -94.777071712097836 98.485198052002033 0 0 0 0 445.66331943661135 -153.03007367006447 0 -153.03007367006447 -232.29056066700377 0 0 0 0 258.79154248113628 -173.20374987514333 0 -173.20374987514333 -177.13950906899527 0 0 0 0 349.63031320678419 -65.419546617745254 0 -65.419546617745254 -72.13914607085826 0 0 0 0 381.30457741694408 -90.5915183848781 0 -90.5915183848781 -101.46758275001707 0 0 0 0 -146.1460073096132 -64.795231708995175 0 -64.795231708995175 -70.075868749497658 0 0 0 0 14.274745038906985 34.914118683160268 0 34.914118683160268 -13.083165746065788 0 0 0 0 76.918571412472375 196.8936526315436 0 196.8936526315436 276.02661184893714 0 0 0 0 54.452357024376397 81.899913129755532 0 81.899913129755532 -28.774357732065084 0 0 0 0 63.435348942490236 55.698880965864987 0 55.698880965864987 14.201895204885659 0 0 0 0 48.752742770680925 38.529446962681959 0 38.529446962681959 -2.0582299850118488 0 0 0 0 13.363386767974589 22.637695502359747 0 22.637695502359747 21.881372131862008 0 0 0 0 169.02738105900062 3.9991504577119485 0 3.9991504577119485 -30.48705539291808 0 0 0 0 -68.824267766984121 67.100485357670152 0 67.100485357670152 -0.6462496223416565 0 0 0 0 -0.41546581267633087 0.17356449092233106 0 0.17356449092233106 1.2931675056081335 0 0 0 0 11.156526394701359 22.491823184145346 0 22.491823184145346 -7.7671600763278548 0 0 0 0 24.889059208710023 1.48249433340672 0 1.48249433340672 -5.9237001044766657 0 0 0 0 3.1272823105610428 1.5846781284436986 0 1.5846781284436986 1.6897652270209704 0 0 0 0 22.152726939835702 22.329996829019819 0 22.329996829019819 -33.873457738761772 0 0 0 0 -9.2691831489210017 35.526926266609507 0 35.526926266609507 -15.272427463068652 0 0 0 0 -22.671560783666791 6.0234046440020848 0 6.0234046440020848 -9.1206898806706249 0 0 0 0 70.300561264244607 9.0044840555053725 0 9.0044840555053725 -27.396017739661147 0 0 0 0 90.639019435999217 -3.2619818174290458 0 -3.2619818174290458 -23.597171763149618 0 0 0 0 40.968714446609511 -3.5746959640625455 0 -3.5746959640625455 9.5369294424676809 0 0 0 0 12.713653273909586 20.316095237710215 0 20.316095237710215 0.052532151976947716 0 0 0 0 40.300636780706782 22.139474276105155 0 22.139474276105155 -26.255452464271457 0 0 0 0 63.727139058275498 21.174927711831515 0 21.174927711831515 -14.406311008378793 0 0 0 0 62.011734923296899 17.61313511989826 0 17.61313511989826 -1.0486249661564671 0 0 0 0 5.466172481991407 11.363938834922294 0 11.363938834922294 -11.685552337657235 0 0 0 0 10.931086476693203 6.5279479281906561 0 6.5279479281906561 -7.5310606951556345 0 0 0 0 16.961974930272845 23.857827145193596 0 23.857827145193596 5.7504035091051264 0 0 0 0 68.4695338341553 86.954790214836805 0 86.954790214836805 -42.079275750716761 0 0 0 0 29.687837298482918 62.736985352798911 0 62.736985352798911 -21.936577625762311 0 0 0 0 85.939032168302219 42.915833643883673 0 42.915833643883673 -28.094894050984294 0 0 0 0 20.75159498341236 -8.0980752621937881 0 -8.0980752621937881 0.50213619825241396 0 0 0 0 40.907291483032168 -81.333919499109243 0 -81.333919499109243 -107.03691955257131 0 0 0 0 184.3293807781447 53.832794587979606 0 53.832794587979606 20.656136186892923 0 0 0 0 42.454576295745937 17.699123720991821 0 17.699123720991821 40.695191144649698 0 0 0 0 26.803195950499003 -9.0503023151199642 0 -9.0503023151199642 1.9020790748766552 0 0 0 0 63.06657691563305 -11.096347725883533 0 -11.096347725883533 5.7112211368976205 0 0 0 0 50.445067372216727 8.0995388610387238 0 8.0995388610387238 -49.817870616326331 0 0 0 0 19.960383566198288 29.811802175499224 0 29.811802175499224 49.514305544584886 0 0 0 0 31.106578525024815 119.36113836543541 0 119.36113836543541 204.74905039831197 0 0 0 0 6.5425504738107634 -0.40469480049625872 0 -0.40469480049625872 3.369875080167982 0 0 0 0 -0.051625338445319358 2.4085220621308423 0 2.4085220621308423 2.3372744002017014 0 0 0 0 324.84605870203814 4.8184004260074857 0 4.8184004260074857 -15.630719287171132 0 0 0 0 23.493384031649235 11.623897911181302 0 11.623897911181302 2.2429615207015452 0 0 0 0 -298.01515909814043 551.25343940053472 0 551.25343940053472 -256.12208260433408 0 0 0 0 50.504022842119667 16.237563051136163 0 16.237563051136163 -19.925321642420759 0 0 0 0 58.890154845954385 13.108432905736549 0 13.108432905736549 8.0248546927080042 0 0 0 0 42.539681903331086 19.809648703140752 0 19.809648703140752 -2.8284139470540524 0 0 0 0 91.67488735774532 9.0141684800782969 0 9.0141684800782969 -0.92621099756218683 0 0 0 0 26.2520916777612 15.717272062095446 0 15.717272062095446 -5.7757857746878472 0 0 0 0 28.06447703908816 16.240657626459281 0 16.240657626459281 -6.9656007533192668 0 0 0 0 58.018728995608399 16.227205651146164 0 16.227205651146164 4.8679130246730438 0 0 0 0 49.874182601037319 9.3169717165418433 0 9.3169717165418433 0.87530975732798311 0 0 0 0 35.64720693450613 13.095885085431973 0 13.095885085431973 -0.26006041305177929 0 0 0 0 30.758498118899297 19.447407336685501 0 19.447407336685501 -4.965826635177109 0 0 0 0 19.880812005154439 27.318533548121906 0 27.318533548121906 -9.1149494340370438 0 0 0 0 13.595453377451349 13.217247436346412 0 13.217247436346412 -8.5444237507526388 0 0 0 0 44.081132767052623 45.273626017320566 0 45.273626017320566 20.086725603829148 0 0 0 0 32.284495362822781 13.499115552242984 0 13.499115552242984 -4.643149584976527 0 0 0 0 37.852425874792971 10.470690369164004 0 10.470690369164004 16.079511155832733 0 0 0 0 12.67595841832258 11.447467823355964 0 11.447467823355964 5.7019595209870708 0 0 0 0 28.94837984017795 16.718537388630921 0 16.718537388630921 19.700132753934668 0 0 0 0 37.64822081886814 11.52466782591091 0 11.52466782591091 20.253632836041891 0 0 0 0 5.9174265793922274 0.7771337298658807 0 0.7771337298658807 -0.49081802483921155 0 0 0 0 64.51726739838341 -5.9355214489087302 0 -5.9355214489087302 -18.073632985544464 0 0 0 0 16.272304106976506 25.779398104042698 0 25.779398104042698 -13.431809544482633 0 0 0 0 78.638621539979795 -23.387652834855089 0 -23.387652834855089 -11.371981926478838 0 0 0 0 23.027309838470586 -4.0813121981931033 0 -4.0813121981931033 0.17759446955412628 0 0 0 0 29.657949051783362 38.760959896125314 0 38.760959896125314 -12.662073732880344 0 0 0 0 16.263301993283676 45.395436243290987 0 45.395436243290987 3.0421867563775322 0 0 0 0 15.865389312508597 26.14697409495983 0 26.14697409495983 -12.74946217885487 0 0 0 0 118.04412730519107 -7.9040136053463357 0 -7.9040136053463357 -26.622481387229982 0 0 0 0 74.583928242071124 33.56523434652695 0 33.56523434652695 -40.435256426556407 0 0 0 0 86.589920112215623 20.165389409738964 0 20.165389409738964 -14.492261104429417 0 0 0 0 55.91831629385706 -2.3004286604445952 0 -2.3004286604445952 6.217190112978642 0 0 0 0 57.362183341458149 -3.7465608898201026 0 -3.7465608898201026 -19.578007340103795 0 0 0 0 56.203772401251626 -3.8792617752598062 0 -3.8792617752598062 -22.530754849129153 0 0 0 0 266.67085636372349 138.42554908791931 0 138.42554908791931 -91.600609531343252 0 0 0 0 270.49384169198504 -101.26986555105123 0 -101.26986555105123 -196.87359583547368 0 0 0 0 39.393050633123494 51.724030543158506 0 51.724030543158506 3.6242932189798012 0 0 0 0 74.459150510354448 41.846717248546952 0 41.846717248546952 -77.71144729669868 0 0 0 0 69.624237931217067 49.784726725571545 0 49.784726725571545 -19.305120150109587 0 0 0 0 30.660107156843878 24.128211991283024 0 24.128211991283024 -75.200407593108878 0 0 0 0 -13.417254461266566 -214.81954055969439 0 -214.81954055969439 -172.4027419161439 0 0 0 0 2.8553900033023751 -0.27158782132617887 0 -0.27158782132617887 -3.5921075506549975 0 0 0 0 379.63773386471439 87.422442745220224 0 87.422442745220224 -65.136417902647736 0 0 0 0 401.93032548065821 182.58321962803507 0 182.58321962803507 83.248331275892554 0 0 0 0 111.29284918713529 50.598166870353907 0 50.598166870353907 16.255312994159794 0 0 0 0 205.96165168222797 144.42911144154186 0 144.42911144154186 59.676285404661598 0 0 0 0 223.26189234989943 52.973094740303083 0 52.973094740303083 -24.871105404894479 0 0 0 0 225.93448373576393 29.232183237211075 0 29.232183237211075 -86.966906359824179 0 0 0 0 149.41125212111046 -6.1881668441021276 0 -6.1881668441021276 3.7343846503740679 0 0 0 0 175.30967289536784 107.34153833543911 0 107.34153833543911 32.733139125814432 0 0 0 0 184.70376836377545 139.56402642413843 0 139.56402642413843 125.35039623656137 0 0 0 0 148.46697399255936 20.738922397729084 0 20.738922397729084 148.45703583869454 0 0 0 0 194.15842176626029 81.465923104948615 0 81.465923104948615 63.703323459805688 0 0 0 0 184.88409113652415 51.719799866568849 0 51.719799866568849 8.6165844825521845 0 0 0 0 212.8242569719514 113.70433358685743 0 113.70433358685743 33.004635045360146 0 0 0 0 239.11779375351398 77.249733961287802 0 77.249733961287802 3.8066014325304423 0 0 0 0 182.30567586972029 -25.328591163883175 0 -25.328591163883175 -5.254631954704962 0 0 0 0 27.503439125681325 -6.5665153854218374 0 -6.5665153854218374 30.864212460514864 0 0 0 0 2.4480738347844948 -2.9852734131222576 0 -2.9852734131222576 -11.625315724275678 0 0 0 0 1.4411581236090569 -0.84560249122995401 0 -0.84560249122995401 -17.907380150690972 0 0 0 0 24.674665635277051 48.409522401536492 0 48.409522401536492 -33.488377005590792 0 0 0 0 178.75971296423813 61.931279277646127 0 61.931279277646127 -4.3936039714894832 0 0 0 0 95.159342040831689 37.469718655277347 0 37.469718655277347 -8.3243825989196409 0 0 0 0 3.4638509365322534 31.39483230582232 0 31.39483230582232 29.734379192397228 0 0 0 0 132.52526994679647 -88.943927310943309 0 -88.943927310943309 38.746847007092583 0 0 0 0 11.165495667422874 -3.7501958596188842 0 -3.7501958596188842 0.83115842820603536 0 0 0 0 73.253233802737668 75.753088697792691 0 75.753088697792691 -147.89711929282203 0 0 0 0 8.060263103784564 -74.293383089515345 0 -74.293383089515345 -193.15119005196038 0 0 0 0 173.95501552018686 102.75023862701346 0 102.75023862701346 81.140612768039205 0 0 0 0 -2.6637108526192605 -6.3517686228938146 0 -6.3517686228938146 -7.3833633665974503 0 0 0 0 13.430965843712727 -7.7767888250632069 0 -7.7767888250632069 -5.4040901272934168 0 0 0 0 64.937769707437837 25.522850792050576 0 25.522850792050576 3.6973042637369815 0 0 0 0 51.348195219146874 -14.718483683779709 0 -14.718483683779709 -71.606032977089399 0 0 0 0 3.9142500850166044 0.70045040891625376 0 0.70045040891625376 -25.01460290269064 0 0 0 0 209.84149925981183 93.671218307091067 0 93.671218307091067 10.464652189401022 0 0 0 0 116.39728811253735 111.62594094520529 0 111.62594094520529 87.368466838941004 0 0 0 0 356.26966672267736 70.450961721930156 0 70.450961721930156 -29.664131739609729 0 0 0 0 277.46500809655117 167.60368274101978 0 167.60368274101978 74.66232643448825 0 0 0 0 4.8678028742424999 -1.464847918762942 0 -1.464847918762942 0.075446896559299148 0 0 0 0 673.45401334976486 409.29898430542858 0 409.29898430542858 243.32802633657323 0 0 0 0 172.03295209999487 104.15818188407388 0 104.15818188407388 96.685440676358667 0 0 0 0 350.17677418811945 276.02262345936651 0 276.02262345936651 225.95017466129548 0 0 0 0 886.77960432872351 7.6384350797918614 0 7.6384350797918614 61.952251693116636 0 0 0 0 587.88419561737101 81.766150699279024 0 81.766150699279024 -4.7819535416692815 0 0 0 0 453.30594548660156 -9.6478778149319169 0 -9.6478778149319169 88.462423602374656 0 0 0 0 414.39752892367324 -26.143066201758941 0 -26.143066201758941 -18.551982590738589 0 0 0 0 406.59948932318366 106.79642278718211 0 106.79642278718211 -5.654527114685834 0 0 0 0 328.1081226227252 11.002179625736517 0 11.002179625736517 -34.443295794214691 0 0 0 0 294.09599029469246 -70.951454949393053 0 -70.951454949393053 -17.556685595150839 0 0 0 0 304.44481315536541 -25.57500611514979 0 -25.57500611514979 5.135140301181309 0 0 0 0 175.43367507877701 -43.721417500770201 0 -43.721417500770201 3.5128096012890637 0 0 0 0 241.61902584764175 -101.03864091145033 0 -101.03864091145033 38.290583837724853 0 0 0 0 255.82607062063471 -25.178579895600365 0 -25.178579895600365 49.545118828702925 0 0 0 0 181.3878492222866 -51.855661208102674 0 -51.855661208102674 85.208246120970671 0 0 0 0 403.00934422269347 -99.762651142471213 0 -99.762651142471213 45.419550334697306 0 0 0 0 432.36168012436246 24.123723340479955 0 24.123723340479955 35.97778631880692 0 0 0 0 276.45562449445424 -75.629137672942477 0 -75.629137672942477 171.76232264694499 0 0 0 0 412.44628283441125 27.611496516608668 0 27.611496516608668 67.167300368789256 0 0 0 0 328.71401321046869 52.556953582143478 0 52.556953582143478 140.00032532979196 0 0 0 0 330.11574174044654 15.192576876673229 0 15.192576876673229 110.72708895887172 0 0 0 0 164.45085248793475 -22.878306879838874 0 -22.878306879838874 51.01433767362596 0 0 0 0 238.05689608075772 21.91977984419691 0 21.91977984419691 47.916086920355838 0 0 0 0 261.3385234765301 -15.984403492546335 0 -15.984403492546335 83.723049753615214 0 0 0 0 316.65850881359074 56.076062932902005 0 56.076062932902005 51.999446143638352 0 0 0 0 247.13618824938385 18.710078919088801 0 18.710078919088801 45.494386832040618 0 0 0 0 242.98043579508521 34.227136721684928 0 34.227136721684928 5.2924868801992488 0 0 0 0 180.74046261906915 33.483491768736258 0 33.483491768736258 30.073274893620692 0 0 0 0 303.44568425888428 78.867268355383089 0 78.867268355383089 23.528786355897864 0 0 0 0 260.08471580089827 29.46769631409461 0 29.46769631409461 -19.573974642801659 0 0 0 0 460.3892691158253 44.899743125656073 0 44.899743125656073 -75.562859803767878 0 0 0 0 399.40241052687634 115.97324988665423 0 115.97324988665423 58.32249554206669 0 0 0 0 336.54721592835267 46.925664222783325 0 46.925664222783325 -17.460200777807586 0 0 0 0 412.06259918789146 38.896701383974005 0 38.896701383974005 -59.09776604986132 0 0 0 0 233.50139536822098 -63.950005409003552 0 -63.950005409003552 -44.172450577239033 0 0 0 0 410.50858279169188 0.24933134043430982 0 0.24933134043430982 -111.02663134888462 0 0 0 0 181.42749148931762 56.21276876244508 0 56.21276876244508 -32.959331282707353 0 0 0 0 291.39089221836184 60.460248078144559 0 60.460248078144559 -91.874205931926099 0 0 0 0 0.68568510924571768 -1.0788783629641046 0 -1.0788783629641046 1.3924551179724496 0 0 0 0 527.11296584004594 -42.514933526076447 0 -42.514933526076447 -111.8413020412595 0 0 0 0 -16.645477657824813 -194.72440573954361 0 -194.72440573954361 107.79934639160456 0 0 0 0 180.03973455142841 -20.003486054777568 0 -20.003486054777568 -6.7314195973522146 0 0 0 0 322.74533082675771 94.369540499899813 0 94.369540499899813 -68.131502243123919 0 0 0 0 403.73606639236095 69.290078791832912 0 69.290078791832912 -91.30324273572478 0 0 0 0 388.62900940838153 -104.87285927380026 0 -104.87285927380026 -3.0450466165448233 0 0 0 0 135.70139690997166 -370.35361593382231 0 -370.35361593382231 -97.584364529121103 0 0 0 0 353.6712051153736 -229.45165477793194 0 -229.45165477793194 81.326719853751456 0 0 0 0 -243.23869718122296 -34.081122169154696 0 -34.081122169154696 155.50015917777091 0 0 0 0 411.58112763126496 -9.8312650254366503 0 -9.8312650254366503 413.86834727919995 0 0 0 0 573.16728137592145 161.32736014840611 0 161.32736014840611 20.171487870172314 0 0 0 0 640.70319032706902 -61.095383953313558 0 -61.095383953313558 -105.63418877455842 0 0 0 0 330.96075508841022 -415.97835809881781 0 -415.97835809881781 -87.790831064130998 0 0 0 0 9.4238063026220118 -10.105684132097906 0 -10.105684132097906 -7.7671812456404492 0 0 0 0 -7.4886772155223298 -21.529533692945279 0 -21.529533692945279 -12.657017067365814 0 0 0 0 1.2797056099094419 -2.6921332085451297 0 -2.6921332085451297 -0.033405755624356104 0 0 0 0 219.94600584654836 65.382667824364944 0 65.382667824364944 -19.596698271335299 0 0 0 0 174.10444698740321 71.220173493509719 0 71.220173493509719 0.48856074942614214 0 0 0 0 298.09213097477186 55.640241512443822 0 55.640241512443822 -19.155216171975383 0 0 0 0 193.03050578216607 -14.783915121641598 0 -14.783915121641598 14.391297991348438 0 0 0 0 -2.3006154411428668 -4.6140546532714382 0 -4.6140546532714382 -4.2566289362163987 0 0 0 0 335.35750989550434 70.315510602370068 0 70.315510602370068 -28.578024205393035 0 0 0 0 39.16439982574957 -23.282007805090757 0 -23.282007805090757 -36.943808105656558 0 0 0 0 44.740634087604121 -19.233825356169177 0 -19.233825356169177 -11.929312653120746 0 0 0 0 -38.253308485174784 -80.128785389763692 0 -80.128785389763692 9.2647331095333811 0 0 0 0 137.81802645615244 -92.076606634753375 0 -92.076606634753375 0.52215343629001154 0 0 0 0 53.810260873558946 -57.041050317678682 0 -57.041050317678682 6.4348212611132567 0 0 0 0 92.515445387136424 -30.437935865888221 0 -30.437935865888221 20.225407322877459 0 0 0 0 37.999498142162338 -49.822818835215799 0 -49.822818835215799 41.385071859255277 0 0 0 0 98.419722539038048 -66.107223590802505 0 -66.107223590802505 13.171214876222393 0 0 0 0 180.56571084387542 -41.981034299521127 0 -41.981034299521127 0.5199595630301701 0 0 0 0 144.88619026543893 12.249511768974969 0 12.249511768974969 5.8503417893173264 0 0 0 0 41.343345109722577 -15.422701869913112 0 -15.422701869913112 31.422284295204008 0 0 0 0 176.11874114334205 8.1121799773881662 0 8.1121799773881662 -39.167084199748388 0 0 0 0 128.58628925213998 36.936902915071414 0 36.936902915071414 -3.6818174237373569 0 0 0 0 -52.097277314969688 16.06220918129452 0 16.06220918129452 -19.568524246098946 0 0 0 0 97.686296457817662 -32.67408435757352 0 -32.67408435757352 -79.645606012414646 0 0 0 0 38.158957113172619 -38.395321542960573 0 -38.395321542960573 -53.846476390647695 0 0 0 0 -140.79325757871266 -49.734762884583688 0 -49.734762884583688 24.589888410925369 0 0 0 0 1.4740106739306924 -2.0951749128333859 0 -2.0951749128333859 -2.386619063689178 0 0 0 0 -241.90337279223968 -125.60551497852009 0 -125.60551497852009 -1.7007933766167298 0 0 0 0 0.32444100183032987 -0.79739605587417373 0 -0.79739605587417373 -0.83186907458419768 0 0 0 0 374.51541217259364 82.193933161802306 0 82.193933161802306 -44.199169159326516 0 0 0 0 170.68089152467292 -20.969858267796553 0 -20.969858267796553 31.772972733097049 0 0 0 0 4.0341926080553492 -12.065405870445858 0 -12.065405870445858 -7.0285588373966856 0 0 0 0 -30.20228814148868 -4.2368589316824909 0 -4.2368589316824909 -5.4927307606930071 0 0 0 0 58.738049902895 -34.519973358796506 0 -34.519973358796506 -18.628304736782525 0 0 0 0 143.49527731536 -48.30598310559165 0 -48.30598310559165 -19.52384687948188 0 0 0 0 4.8815778729827386 -12.083208342314293 0 -12.083208342314293 -6.9044423823878027 0 0 0 0 91.309059822684503 -81.646161811304182 0 -81.646161811304182 -128.45059076315897 0 0 0 0 70.640889959322521 -50.260487368039321 0 -50.260487368039321 -22.889729770045278 0 0 0 0 165.62596148326702 -10.91022765641128 0 -10.91022765641128 -48.771702006539726 0 0 0 0 46.41350733848958 -10.191221000516748 0 -10.191221000516748 -14.373627839857363 0 0 0 0 113.61552334446606 49.332395063810964 0 49.332395063810964 -48.928422629219313 0 0 0 0 152.15566258477338 19.330203035974819 0 19.330203035974819 -35.869915363020027 0 0 0 0 213.3018414479302 21.863307553765253 0 21.863307553765253 -38.570268899948132 0 0 0 0 180.86428667879954 66.470039549884063 0 66.470039549884063 -9.8241307303919712 0 0 0 0 186.49669582962815 56.806907644750709 0 56.806907644750709 2.4343773251671337 0 0 0 0 228.87824914684461 66.883376864348065 0 66.883376864348065 -32.842927847021883 0 0 0 0 186.37061554337561 67.383060513367127 0 67.383060513367127 -28.093984329699254 0 0 0 0 230.27004436179413 112.58842523511896 0 112.58842523511896 -25.667260518380772 0 0 0 0 343.96349072890735 165.73837677867539 0 165.73837677867539 -12.345217251907343 0 0 0 0 75.397902234748472 171.96930349207082 0 171.96930349207082 44.137693690695116 0 0 0 0 214.48786437221861 232.6566737186439 0 232.6566737186439 41.496257328832144 0 0 0 0 253.55945097848598 -23.46732669747189 0 -23.46732669747189 -47.223856336712515 0 0 0 0 712.35910454839177 -146.89447904279336 0 -146.89447904279336 -15.476621408005144 0 0 0 0 314.72213337339417 -14.484338393479263 0 -14.484338393479263 -63.417126475108034 0 0 0 0 138.19336717501574 1.8696989014773635 0 1.8696989014773635 -20.068053586738188 0 0 0 0 -8.0000382229991374 -82.144139846997973 0 -82.144139846997973 28.826009184705072 0 0 0 0 159.21585373727248 -80.952954319599655 0 -80.952954319599655 -16.709636141284591 0 0 0 0 211.11807880727247 -191.92967045039182 0 -191.92967045039182 9.6045790982730068 0 0 0 0 15.523584758739162 -45.575724783185592 0 -45.575724783185592 20.014169425275668 0 0 0 0 -10.061595395236509 -14.245113621343194 0 -14.245113621343194 -9.8294572065408374 0 0 0 0 376.48725355757051 -13.428347833850012 0 -13.428347833850012 49.903352998046557 0 0 0 0 382.08851879686699 -8.1188840341253581 0 -8.1188840341253581 -21.453504664075808 0 0 0 0 392.50532366383413 35.679682159153572 0 35.679682159153572 61.502239000511395 0 0 0 0 1.0621301531457874 1.1382770725502098 0 1.1382770725502098 1.1476227922647393 0 0 0 0 -64.292018476102385 79.24707839904363 0 79.24707839904363 16.15818282034661 0 0 0 0 780.66975140454451 -266.10489171204665 0 -266.10489171204665 -201.51886074912909 0 0 0 0 1.4961181820617995 -2.3082128898675194 0 -2.3082128898675194 3.1986215089994587 0 0 0 0 527.15517917319085 151.29134144786417 0 151.29134144786417 227.12474660492808 0 0 0 0 100.16075520851155 149.51765971200564 0 149.51765971200564 -0.012019932852126658 0 0 0 0 146.40900290049103 165.35534048334608 0 165.35534048334608 4.9004992540340027 0 0 0 0 522.94779002320138 97.817624673087266 0 97.817624673087266 -69.227128946282164 0 0 0 0 412.48336445875248 -12.327754662176858 0 -12.327754662176858 -40.357239964404926 0 0 0 0 390.21731944504427 22.802816397610286 0 22.802816397610286 -87.826265044920092 0 0 0 0 396.59644913452212 -11.757286532297996 0 -11.757286532297996 -55.337983893163255 0 0 0 0 392.13883544906275 11.603097017937671 0 11.603097017937671 -78.832899448072112 0 0 0 0 392.29686830760329 18.23262892975697 0 18.23262892975697 -44.929851325287473 0 0 0 0 345.61030468600802 62.692977995593992 0 62.692977995593992 -26.081374610614034 0 0 0 0 319.54927371809026 12.308524819746935 0 12.308524819746935 15.144953014793828 0 0 0 0 369.53655108841485 -5.6113214064032491 0 -5.6113214064032491 -21.593501288621155 0 0 0 0 355.74559125484666 17.096574059893555 0 17.096574059893555 -40.920913540095398 0 0 0 0 238.51391789971967 60.498195676193745 0 60.498195676193745 -8.0092002975159176 0 0 0 0 305.3835229308097 28.061380762317867 0 28.061380762317867 -22.349240302524322 0 0 0 0 286.74642644103733 55.039900903933358 0 55.039900903933358 -23.833336807212888 0 0 0 0 265.68538396213262 28.080880225257715 0 28.080880225257715 40.562537775487499 0 0 0 0 231.89965113335347 50.647581874797424 0 50.647581874797424 25.521151571872906 0 0 0 0 276.06050004462304 31.762114588965233 0 31.762114588965233 9.4978405840657842 0 0 0 0 312.26667062994966 -19.682427691940575 0 -19.682427691940575 51.665111995926509 0 0 0 0 206.95020247504726 -24.646947202864339 0 -24.646947202864339 125.08518245033019 0 0 0 0 393.54577398959373 -30.647450245386381 0 -30.647450245386381 47.950838592335231 0 0 0 0 233.51573171985001 31.392864197590256 0 31.392864197590256 96.282397098215824 0 0 0 0 73.827652504201978 80.126164594360034 0 80.126164594360034 109.82499673928385 0 0 0 0 321.67564270435832 -4.4938359253555973 0 -4.4938359253555973 85.100817274244491 0 0 0 0 169.99412645940902 81.639999210355882 0 81.639999210355882 64.018918239641948 0 0 0 0 202.4366171273723 112.87646685706147 0 112.87646685706147 70.378481749615275 0 0 0 0 101.75881460442906 134.2167880180566 0 134.2167880180566 70.904874017837585 0 0 0 0 32.915576733590569 152.01261731191767 0 152.01261731191767 56.338326715190078 0 0 0 0 140.60276435235573 105.65722649871748 0 105.65722649871748 63.552987955988101 0 0 0 0 3.8706167786294827 153.05974840210547 0 153.05974840210547 33.729241842959226 0 0 0 0 122.21153808232339 122.44539189194029 0 122.44539189194029 -261.19829549627843 0 0 0 0 172.9107430591539 -65.355465453564648 0 -65.355465453564648 104.74535355398257 0 0 0 0 -32.441631040957873 -109.57685152488352 0 -109.57685152488352 247.4041019297307 0 0 0 0 392.44300032792671 -272.43954368631398 0 -272.43954368631398 119.92415262327722 0 0 0 0 0.79156671374285992 -0.7944306883811123 0 -0.7944306883811123 1.9240256791249823 0 0 0 0 743.4804617316222 -48.470519600614779 0 -48.470519600614779 -31.35162328139495 0 0 0 0 3.5369275768675408 4.9456799930295574 0 4.9456799930295574 4.9083110939806591 0 0 0 0 339.542166289335 163.32399011696816 0 163.32399011696816 193.79881279057599 0 0 0 0 501.0910733173223 -142.06653822521912 0 -142.06653822521912 -92.615104228528253 0 0 0 0 37.989112223152915 -201.63974066759386 0 -201.63974066759386 91.137377138111333 0 0 0 0 601.15168501337757 -168.15984394037912 0 -168.15984394037912 -36.19135133935572 0 0 0 0 486.23724372472498 -201.81839038208545 0 -201.81839038208545 -46.047382115432356 0 0 0 0 471.78229696487324 -108.89969880293222 0 -108.89969880293222 -29.858113895830684 0 0 0 0 658.67891649913508 -62.734447873816976 0 -62.734447873816976 -18.635252467749524 0 0 0 0 494.14705164125189 -58.657578056891452 0 -58.657578056891452 78.753949359756916 0 0 0 0 642.11670878053701 0.14070252948874895 0 0.14070252948874895 -121.61163208518883 0 0 0 0 695.44521886364964 54.914873223600623 0 54.914873223600623 -47.048503517379004 0 0 0 0 271.59710307660862 54.954749933734661 0 54.954749933734661 -22.656860595191972 0 0 0 0 128.74322811324964 124.44344155630813 0 124.44344155630813 57.520790965204242 0 0 0 0 -82.233323280277546 59.272916521940374 0 59.272916521940374 102.15272978680127 0 0 0 0 -7.7432465534948278 107.35044209363241 0 107.35044209363241 77.496895237707463 0 0 0 0 260.3032627866487 40.937983284927782 0 40.937983284927782 0.60720632531820229 0 0 0 0 235.36573407849937 183.76456280825334 0 183.76456280825334 74.796733786895288 0 0 0 0 419.02635417338752 -325.31174822370008 0 -325.31174822370008 -165.68035394787591 0 0 0 0 5.4736721464099674 -0.22062756507622616 0 -0.22062756507622616 -0.13494116023606345 0 0 0 0 11.647731479036736 0.47025230675153384 0 0.47025230675153384 -0.52489500319951909 0 0 0 0 155.71526353454101 42.53190754916568 0 42.53190754916568 -346.24830596510719 0 0 0 0 -60.327101929695345 174.73905272067896 0 174.73905272067896 -265.75277711174652 0 0 0 0 -2.4803392836038256 7.205309457996691 0 7.205309457996691 -105.54059048494923 0 0 0 0 -351.62735613289988 142.16666122222301 0 142.16666122222301 316.98284406930452 0 0 0 0 510.26489689727896 119.91164931601412 0 119.91164931601412 321.40469712939557 0 0 0 0 2.7514874932120392 1.6740933893625822 0 1.6740933893625822 1.1856902191365237 0 0 0 0 -108.70553023565299 -124.09176698676347 0 -124.09176698676347 236.34183830037455 0 0 0 0 -46.588021878764266 -14.814804255240574 0 -14.814804255240574 3.9625473667886126 0 0 0 0 -63.169349223695463 63.394799490742685 0 63.394799490742685 26.336723581761134 0 0 0 0 -30.382623670811881 56.037377494239536 0 56.037377494239536 4.4605747517161944 0 0 0 0 5.1284345592444822 4.2096854745058323 0 4.2096854745058323 3.3579594740111132 0 0 0 0 -35.226643007204984 139.06105934018422 0 139.06105934018422 15.489056053919285 0 0 0 0 290.7537481564068 -428.55511889069066 0 -428.55511889069066 173.7154789449373 0 0 0 0 83.215758333928534 -473.24926485656022 0 -473.24926485656022 -13.707162264807948 0 0 0 0 124.24242843696265 -293.27885910889853 0 -293.27885910889853 69.388692160393703 0 0 0 0 2.4343145630829781 -1.3626497039856815 0 -1.3626497039856815 0.36889448929462665 0 0 0 0 265.67367050139364 59.035275381601977 0 59.035275381601977 127.60844171721851 0 0 0 0 272.3961428712646 -272.32737064682829 0 -272.32737064682829 74.046753545505197 0 0 0 0 183.22647758871608 49.634869949750083 0 49.634869949750083 -86.843445809489339 0 0 0 0 -47.080454888535314 -15.166834363530597 0 -15.166834363530597 16.529118176009661 0 0 0 0 397.79046618618304 -11.180822517630986 0 -11.180822517630986 -70.156650679951213 0 0 0 0 174.5879134121642 11.447527547890388 0 11.447527547890388 2.1339197771876854 0 0 0 0 442.40262328800964 -15.776050831511668 0 -15.776050831511668 -32.188964826537358 0 0 0 0 210.32963214059419 -10.046591200516673 0 -10.046591200516673 13.900813972908509 0 0 0 0 113.32424375726259 27.054744373260405 0 27.054744373260405 17.529537687227275 0 0 0 0 206.5277590963251 50.294508409671806 0 50.294508409671806 -5.7956641429507272 0 0 0 0 -72.100037954012805 -21.415316789941187 0 -21.415316789941187 3.5525096539525407 0 0 0 0 -79.811757405861499 9.746448043195187 0 9.746448043195187 169.75765933062075 0 0 0 0 127.56799712497741 36.993469543627953 0 36.993469543627953 6.4661446152109789 0 0 0 0 62.80720422910963 170.85291983861819 0 170.85291983861819 -5.2547410272629804 0 0 0 0 616.35743582675059 126.1739997207851 0 126.1739997207851 126.03589026861277 0 0 0 0 -34.004299510255805 -112.15641972816536 0 -112.15641972816536 62.822255928861125 0 0 0 0 167.20242984076685 -140.83071403064929 0 -140.83071403064929 439.70077645466745 0 0 0 0 455.36819792176539 344.53610793717576 0 344.53610793717576 89.037287787280547 0 0 0 0 6.1468355399538837 -0.2146499413839944 0 -0.2146499413839944 -0.1672475332708323 0 0 0 0 699.52777754238923 -389.02780631289806 0 -389.02780631289806 -229.13110691692253 0 0 0 0 535.89419767331856 -267.7774646787376 0 -267.7774646787376 -51.122358402803229 0 0 0 0 671.07830303189985 -178.15011216068498 0 -178.15011216068498 -125.87632433171628 0 0 0 0 753.15425605963537 -20.510109474999098 0 -20.510109474999098 -36.206162654192269 0 0 0 0 -38.386353092631907 45.175398684971469 0 45.175398684971469 13.482592922883157 0 0 0 0 121.68895613750647 116.56399532610658 0 116.56399532610658 45.78809887910927 0 0 0 0 6.5583279924472322 -0.93552773864359295 0 -0.93552773864359295 0.25234489568177348 0 0 0 0 276.82462882263644 379.60354364014063 0 379.60354364014063 429.65255873550802 0 0 0 0 451.96248854340229 -308.89051295806871 0 -308.89051295806871 -201.2843119141877 0 0 0 0 17.25819132784892 -1.4175045726577622 0 -1.4175045726577622 -0.019713469738604106 0 0 0 0 120.5140881430998 116.65930449241726 0 116.65930449241726 61.574295692348429 0 0 0 0 91.728939129197897 81.953607112616197 0 81.953607112616197 22.496263384536178 0 0 0 0 69.302283031414845 -9.5439463072083299 0 -9.5439463072083299 -16.846895349988358 0 0 0 0 25.084489891058183 29.553977651926886 0 29.553977651926886 -175.49051953055942 0 0 0 0 289.93191122992721 -86.624822020980133 0 -86.624822020980133 -21.900312658797588 0 0 0 0 364.51126917911461 92.704022970170044 0 92.704022970170044 -6.6339018804884109 0 0 0 0 156.07091704599588 81.056908485830448 0 81.056908485830448 -6.9979438884781189 0 0 0 0 200.86888036422897 34.12136286037483 0 34.12136286037483 -8.6604242015210957 0 0 0 0 161.29287446268063 142.78325094958609 0 142.78325094958609 -9.0806232999336771 0 0 0 0 186.07014645995514 106.66833388275565 0 106.66833388275565 3.423515169974749 0 0 0 0 192.64508383788052 146.04410584443494 0 146.04410584443494 104.84034730927343 0 0 0 0 151.5686770460743 72.022005214623562 0 72.022005214623562 -18.39713364830865 0 0 0 0 4.6885702467104124 -1.7731350176589586 0 -1.7731350176589586 -0.10852961519875487 0 0 0 0 136.50038266809861 145.36710944282811 0 145.36710944282811 25.337128439898152 0 0 0 0 173.91551189016354 -45.843861569560765 0 -45.843861569560765 -257.49044211361559 0 0 0 0 5.3923710131575149 -2.443368905989999 0 -2.443368905989999 0.21354301636146777 0 0 0 0 104.96059606838389 -14.898235541808962 0 -14.898235541808962 -52.724194152299461 0 0 0 0 10.179353569782506 -12.868535910006017 0 -12.868535910006017 2.2079637506804062 0 0 0 0 44.02762943106427 24.39055170542618 0 24.39055170542618 -18.365225779037758 0 0 0 0 31.930229587596841 -5.067949000824397 0 -5.067949000824397 -25.729868603961098 0 0 0 0 -10.37760089704534 -0.40179369335988635 0 -0.40179369335988635 0.085460702258328886 0 0 0 0 5.4434270702149661 -52.76085993531629 0 -52.76085993531629 -74.808962241133614 0 0 0 0 33.675364168389933 7.6353997848315078 0 7.6353997848315078 -42.712835676942476 0 0 0 0 -53.82544100117957 -85.522131832523883 0 -85.522131832523883 -50.259234123513643 0 0 0 0 2.0616139011571022 -0.54996460596426289 0 -0.54996460596426289 -0.10948351246875243 0 0 0 0 129.1085691823755 -58.544604390213877 0 -58.544604390213877 -52.40143237991996 0 0 0 0 352.91292004991556 58.419927560485498 0 58.419927560485498 -0.15442769962565056 0 0 0 0 430.0052135783626 9.6494532645009627 0 9.6494532645009627 8.1221838648327491 0 0 0 0 473.10457017213048 202.60335819087885 0 202.60335819087885 110.53407872931882 0 0 0 0 176.73714393402042 -83.085223943750023 0 -83.085223943750023 -15.338378768608386 0 0 0 0 68.841934794381814 70.315248105116908 0 70.315248105116908 87.421250571839067 0 0 0 0 2.679268512097849 1.5078113234471147 0 1.5078113234471147 0.97625378051486311 0 0 0 0 336.19775644742913 -111.41242486866412 0 -111.41242486866412 -24.228471465227415 0 0 0 0 25.521015313381213 -58.134705134804989 0 -58.134705134804989 26.199024346954673 0 0 0 0 5.3744109355714329 4.032102716565106 0 4.032102716565106 2.8695127471660316 0 0 0 0 246.24800637962471 -107.16294339429729 0 -107.16294339429729 -8.1201403346124152 0 0 0 0 233.71861721405003 10.928790597315952 0 10.928790597315952 -40.255382347005238 0 0 0 0 593.35974646358954 28.83613908106517 0 28.83613908106517 -44.295509659642335 0 0 0 0 105.39101842437231 -10.573593766165761 0 -10.573593766165761 -10.425556981299984 0 0 0 0 195.8361204500045 -42.333699301543895 0 -42.333699301543895 33.661552241535006 0 0 0 0 195.38167880520814 -21.659940424995558 0 -21.659940424995558 -35.816489645540571 0 0 0 0 97.295071789805661 -24.167186652783162 0 -24.167186652783162 -0.063498695309697595 0 0 0 0 140.82376718855812 21.01652674788512 0 21.01652674788512 -2.4404452185816683 0 0 0 0 187.10339320146522 -25.406387234332669 0 -25.406387234332669 0.077022881160975151 0 0 0 0 237.13973160342721 -5.0119603219596129 0 -5.0119603219596129 -8.949754192881116 0 0 0 0 419.21457332982391 104.58859162709079 0 104.58859162709079 38.751549625292611 0 0 0 0 423.19504592432349 -2.0145682662299293 0 -2.0145682662299293 -0.057484770332801728 0 0 0 0 238.30976255883309 61.308592813675034 0 61.308592813675034 54.233766604652942 0 0 0 0 415.84837451904605 -9.6533517905580943 0 -9.6533517905580943 -6.6958337073226879 0 0 0 0 406.98145345921512 -7.285886781428097 0 -7.285886781428097 -0.027716860389169658 0 0 0 0 582.14883547510544 -51.754068893333425 0 -51.754068893333425 2.4692509426099658 0 0 0 0 223.58088067106291 5.556565520921195 0 5.556565520921195 0.044468387926263384 0 0 0 0 347.18792433288763 -65.857817681978531 0 -65.857817681978531 17.649025838530186 0 0 0 0 205.68093639299332 -27.157202415611728 0 -27.157202415611728 51.356224559558932 0 0 0 0 192.10044002989162 13.264349285080076 0 13.264349285080076 11.908550858327864 0 0 0 0 359.12695234868443 -28.289278592483242 0 -28.289278592483242 17.501544812004965 0 0 0 0 147.59448773024678 -30.066439006541291 0 -30.066439006541291 46.849940735648744 0 0 0 0 403.12998927832814 -13.329201538118809 0 -13.329201538118809 -40.143534270757584 0 0 0 0 566.80116809008177 100.49792490694108 0 100.49792490694108 27.8562257787639 0 0 0 0 352.4173867663776 -10.271955527116162 0 -10.271955527116162 153.42616807384525 0 0 0 0 401.24954560317565 18.884767852300456 0 18.884767852300456 -5.8602662554324638 0 0 0 0 694.59490070432366 -147.5254573246514 0 -147.5254573246514 -21.688197834812058 0 0 0 0 524.56800352258142 -18.594789846386959 0 -18.594789846386959 -84.347540887419314 0 0 0 0 399.6473631800045 -55.666238865459775 0 -55.666238865459775 -40.087826806511657 0 0 0 0 520.20528394897701 -5.6616157875945419 0 -5.6616157875945419 -28.024094526674617 0 0 0 0 415.77107298559349 -95.5418859537386 0 -95.5418859537386 89.436093346539565 0 0 0 0 349.63969446615374 15.925606152204182 0 15.925606152204182 71.562657534165396 0 0 0 0 509.12586344566444 -55.589679937452615 0 -55.589679937452615 -20.625617140701934 0 0 0 0 497.04547068670217 -28.543933202615904 0 -28.543933202615904 -45.986905976358571 0 0 0 0 515.62890494190651 -0.70020278469597486 0 -0.70020278469597486 -13.663114477055615 0 0 0 0 468.11021412105765 100.0952148075113 0 100.0952148075113 18.978391355163581 0 0 0 0 1.0161012124239051 -0.36970130403179269 0 -0.36970130403179269 0.14640206683003676 0 0 0 0 40.746312094910536 -106.08843117365723 0 -106.08843117365723 -63.097604372883865 0 0 0 0 82.370000103752318 57.178599728174682 0 57.178599728174682 -41.215841471769977 0 0 0 0 77.467712223779927 -45.765779625061526 0 -45.765779625061526 -31.87388439268193 0 0 0 0 1.5418670068879692 -0.47136849362280486 0 -0.47136849362280486 -0.11425194121140514 0 0 0 0 56.24214340528124 83.036120268375953 0 83.036120268375953 30.96058674889548 0 0 0 0 349.31516578466039 24.518121898597013 0 24.518121898597013 -65.709779730656919 0 0 0 0 2.9176098912180919 0.75816479589192909 0 0.75816479589192909 0.25325790863836994 0 0 0 0 25.024551450667786 63.19197916323435 0 63.19197916323435 -66.474376629716971 0 0 0 0 159.65620171758928 -68.500577112989049 0 -68.500577112989049 -95.056327117221372 0 0 0 0 344.86365419832873 95.450236374695805 0 95.450236374695805 18.680631063268265 0 0 0 0 336.88382954402186 120.22789383906104 0 120.22789383906104 -54.412317272350947 0 0 0 0 253.36798425033339 77.001575950963343 0 77.001575950963343 88.185049071907585 0 0 0 0 282.66240766124974 -7.9041651881310031 0 -7.9041651881310031 -107.39996907728255 0 0 0 0 2.7877280557092092 1.4766580969271672 0 1.4766580969271672 2.3011941921814127 0 0 0 0 219.11928902466025 -90.798902581149321 0 -90.798902581149321 50.240081523816116 0 0 0 0 153.17200619560026 92.811545982556936 0 92.811545982556936 -93.984818418540044 0 0 0 0 262.69422096022754 20.988864028450735 0 20.988864028450735 332.3225154090826 0 0 0 0 605.32801092031877 -249.34882918013852 0 -249.34882918013852 14.345729838236821 0 0 0 0 238.63350201168214 -5.5307922686124584 0 -5.5307922686124584 -12.77547620691621 0 0 0 0 0.63406633192305151 0.38116240435329019 0 0.38116240435329019 1.1952728842821063 0 0 0 0 403.30278631858528 -161.62643337122427 0 -161.62643337122427 17.254210410957171 0 0 0 0 441.76254960927326 -21.575961732726569 0 -21.575961732726569 -11.654646363502707 0 0 0 0 351.34377216247958 83.332475397700136 0 83.332475397700136 -3.978056427423553 0 0 0 0 -90.17168822784879 66.214566173797579 0 66.214566173797579 -4.2288353349846375 0 0 0 0 50.981385684775887 6.2526513129937484 0 6.2526513129937484 -141.91286228817353 0 0 0 0 23.214716605325521 11.623382981643601 0 11.623382981643601 -15.691423880818093 0 0 0 0 4.6662291943624155 2.2245443998094458 0 2.2245443998094458 -1.4785601893529967 0 0 0 0 31.736235152551671 -4.0643088725191774 0 -4.0643088725191774 -14.468418748587709 0 0 0 0 22.85487998923054 22.106156881230049 0 22.106156881230049 -14.073577679831942 0 0 0 0 5.4545189944547019 12.720839834810363 0 12.720839834810363 -9.7584300083854032 0 0 0 0 14.160380590066779 13.554652578536889 0 13.554652578536889 -15.585530388114421 0 0 0 0 14.277871202321194 6.8928633737330358 0 6.8928633737330358 2.3899098412632025 0 0 0 0 58.726311263162643 101.74436014301318 0 101.74436014301318 -120.1683369548814 0 0 0 0 11.735280795303311 4.2736418301961763 0 4.2736418301961763 1.2016743900249063 0 0 0 0 35.571858231691294 0.80212923245301226 0 0.80212923245301226 -7.5743862426247688 0 0 0 0 19.659192250779597 33.361403713118762 0 33.361403713118762 -168.73480372431493 0 0 0 0 7.9505072311665117 2.3267904470224039 0 2.3267904470224039 0.53138392611714758 0 0 0 0 28.749432878903463 44.865104611517381 0 44.865104611517381 47.500363569509773 0 0 0 0 -33.736361332164961 -26.690088617112451 0 -26.690088617112451 -99.323307336512244 0 0 0 0 -29.140778442146257 0.44968486915990979 0 0.44968486915990979 2.5060962939447791 0 0 0 0 0.27121408132126135 -0.14332006394823793 0 -0.14332006394823793 0.10635222675430622 0 0 0 0 0.6844728440628387 79.332295618456783 0 79.332295618456783 52.198822543855385 0 0 0 0 95.220494098022755 153.0518255343793 0 153.0518255343793 20.720528976817491 0 0 0 0 -20.565068064213847 -17.832301106533237 0 -17.832301106533237 -187.44046314008335 0 0 0 0 35.268040751645458 25.529548180664563 0 25.529548180664563 25.525213818154498 0 0 0 0 -0.044454108865465969 55.351864383435498 0 55.351864383435498 0.40875561960251616 0 0 0 0 78.160468875285005 30.660119529137262 0 30.660119529137262 -19.471118817522097 0 0 0 0 78.308225824614055 33.149703266940548 0 33.149703266940548 -57.133677421341247 0 0 0 0 49.459065327406279 56.347284960526423 0 56.347284960526423 -42.457828783942489 0 0 0 0 60.741154457660741 32.614556023998404 0 32.614556023998404 -45.972365929285985 0 0 0 0 -3.8593875883125293 33.096113105301505 0 33.096113105301505 -49.30095548127133 0 0 0 0 1.1034001527150394 84.77548437295782 0 84.77548437295782 -29.813466806161728 0 0 0 0 90.227736610308057 -1.7396889420738262 0 -1.7396889420738262 0.35792826557076296 0 0 0 0 -116.04794456889795 75.039809430183169 0 75.039809430183169 -22.513462429985879 0 0 0 0 0.88303989816972717 1.4395288269381581 0 1.4395288269381581 -0.10236137656507704 0 0 0 0 -173.066943754573 86.628682499984819 0 86.628682499984819 -11.768780834786099 0 0 0 0 -22.14025108970236 41.370300129240363 0 41.370300129240363 -46.198692690750647 0 0 0 0 0.49613186110582319 70.155505572041818 0 70.155505572041818 -20.255528542954238 0 0 0 0 -12.654779253032757 13.99706306393854 0 13.99706306393854 -6.0237534015940088 0 0 0 0 -21.807713405118193 84.320022934553279 0 84.320022934553279 -33.034441925855077 0 0 0 0 57.018012347123658 45.584450371361285 0 45.584450371361285 2.1938753792661174 0 0 0 0 60.284447401631041 38.9241350556713 0 38.9241350556713 2.9227719676305526 0 0 0 0 141.60189131612606 36.098782443669791 0 36.098782443669791 -11.042189620681569 0 0 0 0 81.968584668269614 -4.1605483464879747 0 -4.1605483464879747 35.753691139834622 0 0 0 0 42.573861077791662 2.8490242843209863 0 2.8490242843209863 21.281350665490884 0 0 0 0 144.39656518334232 -19.247397208165562 0 -19.247397208165562 31.294320665551151 0 0 0 0 101.2195168508988 29.391894212516089 0 29.391894212516089 0.0012047674808570831 0 0 0 0 1.6015333017930971 44.378622327127538 0 44.378622327127538 0.047304976201284765 0 0 0 0 0.75027492412482388 42.02391151897271 0 42.02391151897271 -6.2801563442615418 0 0 0 0 -0.90937801045220112 40.450053078461494 0 40.450053078461494 -0.029246844596798251 0 0 0 0 6.1107830778637435 46.051735734108135 0 46.051735734108135 -3.9937764743146715 0 0 0 0 8.2676075694034807 33.602840463731525 0 33.602840463731525 -9.0524570694410667 0 0 0 0 -28.028856418826763 13.296295497212075 0 13.296295497212075 -7.2504839950862845 0 0 0 0 -21.659769396428601 23.096845369396668 0 23.096845369396668 -10.112073809243268 0 0 0 0 -71.766952867386863 18.153986424587316 0 18.153986424587316 -5.9026041171153736 0 0 0 0 -61.692676671722438 20.232979223609401 0 20.232979223609401 -0.0065178533745059962 0 0 0 0 -33.836424780129164 32.591249215942099 0 32.591249215942099 -6.0940414543269625 0 0 0 0 217.87696660080837 -56.815506573804669 0 -56.815506573804669 -188.55669904233832 0 0 0 0 9.3279282148323546 -2.2960465992348373 0 -2.2960465992348373 -2.0309737000464838 0 0 0 0 7.2471883802072767 -1.424377610640704 0 -1.424377610640704 0.21072049501306495 0 0 0 0 -30.199985073879361 31.155200338107477 0 31.155200338107477 -24.004867089926492 0 0 0 0 0.49616216818265002 1.5911917234079063 0 1.5911917234079063 -0.47759926015639598 0 0 0 0 -150.27810966708785 91.596328588087147 0 91.596328588087147 171.93671090835164 0 0 0 0 4.0710366771695732 5.001450069573508 0 5.001450069573508 -3.5411483321481749 0 0 0 0 -53.371237885759911 32.210533263892188 0 32.210533263892188 4.5771749019999248 0 0 0 0 1.7466732721896818 4.3376814874487764 0 4.3376814874487764 -5.4676356165078932 0 0 0 0 244.97895773573691 -103.80224362215256 0 -103.80224362215256 -66.532736452439963 0 0 0 0 -30.864600899541983 -17.753646882213502 0 -17.753646882213502 28.893585620785188 0 0 0 0 67.992580083126086 -46.020738416316362 0 -46.020738416316362 -3.0060745805562874 0 0 0 0 153.30530221939262 5.8543294681065845 0 5.8543294681065845 -43.993502726544463 0 0 0 0 0.67198062770387423 0.7121829514593685 0 0.7121829514593685 -0.217410795920157 0 0 0 0 178.19092891959008 -63.323787629343236 0 -63.323787629343236 -12.357739743390198 0 0 0 0 -9.0512041629881423 46.503747205194472 0 46.503747205194472 8.9061314080780249 0 0 0 0 -172.39637341922207 -49.999101089725059 0 -49.999101089725059 585.56346801987343 0 0 0 0 -164.09250546162366 -234.79148739986658 0 -234.79148739986658 163.48710447579106 0 0 0 0 2.5338101521699627 -1.0894776231185332 0 -1.0894776231185332 0.7523267655645931 0 0 0 0 -271.41521445026228 64.570939420382047 0 64.570939420382047 234.76930071146484 0 0 0 0 -330.68419353342324 -121.72128224114788 0 -121.72128224114788 334.49891177286361 0 0 0 0 -83.898167646722868 56.171409065516059 0 56.171409065516059 364.15595457609561 0 0 0 0 90.916276541931438 113.80547921643033 0 113.80547921643033 97.156267012506135 0 0 0 0 301.63771738758078 73.756284891523705 0 73.756284891523705 63.996504715173117 0 0 0 0 216.60431823560793 71.289137668501425 0 71.289137668501425 0.084555271362965756 0 0 0 0 425.06700732126774 106.85801112052609 0 106.85801112052609 -4.1948784139735267 0 0 0 0 -69.794521732837893 49.023682706393828 0 49.023682706393828 96.021077551086378 0 0 0 0 -50.236038405421823 -27.468217523013259 0 -27.468217523013259 -9.407559521152205 0 0 0 0 83.580032074169139 -97.92022065131755 0 -97.92022065131755 23.135978195986581 0 0 0 0 50.906706334411865 -79.382080930549847 0 -79.382080930549847 132.53811221400952 0 0 0 0 233.17873698900803 29.155351940204582 0 29.155351940204582 77.684197196164632 0 0 0 0 196.49933333226363 -152.6065960438529 0 -152.6065960438529 48.372982079397588 0 0 0 0 -134.00984504897497 -35.852896180456128 0 -35.852896180456128 74.153886688451962 0 0 0 0 7.3079419203208431 -3.0318157766858072 0 -3.0318157766858072 0.86546472827869347 0 0 0 0 4.6126703216286842 -4.4336427380958137 0 -4.4336427380958137 0.034308325208361246 0 0 0 0 86.794441148318583 -103.19608759323341 0 -103.19608759323341 18.246944173461088 0 0 0 0 4.6102501116401982 -4.3265129837613303 0 -4.3265129837613303 -0.016124095073252846 0 0 0 0 11.081973646351457 -2.6709894212125036 0 -2.6709894212125036 -0.030576818421319117 0 0 0 0 -128.70834294984525 -65.581498551859227 0 -65.581498551859227 29.266151198796805 0 0 0 0 -351.79668254168064 -289.23466233721444 0 -289.23466233721444 65.773255125230477 0 0 0 0 282.90317551119642 157.23132978825507 0 157.23132978825507 78.885031898556008 0 0 0 0 2.7189449489354729 -1.6941409623414785 0 -1.6941409623414785 0.56439650772337613 0 0 0 0 87.42070930461341 19.644573807419874 0 19.644573807419874 9.5484731182500582 0 0 0 0 140.9208004828397 31.734577572178978 0 31.734577572178978 -9.3348307938782114 0 0 0 0 6.7322235269162434 -3.2398393687021638 0 -3.2398393687021638 -0.47304458863047971 0 0 0 0 135.04133037795964 91.580076463639472 0 91.580076463639472 42.908492097632461 0 0 0 0 -338.69455619027849 -0.59241379122408766 0 -0.59241379122408766 406.06068008775162 0 0 0 0 190.42866905168194 -333.55983098613854 0 -333.55983098613854 -415.85803980786244 0 0 0 0 5.9137399311894114 -1.2879848259875288 0 -1.2879848259875288 0.112152802703191 0 0 0 0 -30.8833631552734 17.100434272182014 0 17.100434272182014 -45.000478839399307 0 0 0 0 28.756007425698044 -224.77965453836555 0 -224.77965453836555 36.041342345490875 0 0 0 0 33.994575172178884 7.5268264363866422 0 7.5268264363866422 -107.9454995386277 0 0 0 0 26.272884507023264 -30.068695810253018 0 -30.068695810253018 -167.12429882727065 0 0 0 0 6.5907807255226203 -1.794455945176523 0 -1.794455945176523 -4.4351292286895223 0 0 0 0 37.060829100868432 0.75058015632322395 0 0.75058015632322395 -9.2292067709581715 0 0 0 0 34.751007504535664 7.2768221860570748 0 7.2768221860570748 -6.739393511173148 0 0 0 0 54.775654601515271 6.2981863917384544 0 6.2981863917384544 -18.799168741798894 0 0 0 0 -9.3129595788886945 -47.861938947737144 0 -47.861938947737144 -89.504147880721121 0 0 0 0 7.4383045063191275 -2.4147013549673488 0 -2.4147013549673488 -2.2811956266247879 0 0 0 0 -18.788358950871043 -91.552441659659507 0 -91.552441659659507 -164.21164436102367 0 0 0 0 70.117502645574859 40.100488046953615 0 40.100488046953615 9.2851891698003328 0 0 0 0 44.658622759525315 19.640903313957551 0 19.640903313957551 6.3094631342137291 0 0 0 0 66.182337632126291 28.3847159843599 0 28.3847159843599 -10.92127559739879 0 0 0 0 53.344879358894104 13.111717453930225 0 13.111717453930225 -25.498350353399474 0 0 0 0 76.545582460224978 22.28986952439277 0 22.28986952439277 -33.680213593575445 0 0 0 0 57.469882462115493 7.1650769818568278 0 7.1650769818568278 -17.319059590454572 0 0 0 0 113.90369092609035 23.430317502544312 0 23.430317502544312 -23.774245072600252 0 0 0 0 66.218266747542657 31.905841431155295 0 31.905841431155295 36.584614327817292 0 0 0 0 88.669951612151635 -6.0088587141635799 0 -6.0088587141635799 -71.052861714977553 0 0 0 0 59.44091462257353 -0.85227414366865517 0 -0.85227414366865517 -1.8924297826061789 0 0 0 0 52.809343832508603 1.8532581817203493 0 1.8532581817203493 -3.5642051031427968 0 0 0 0 51.936404114152538 1.3884026484266201 0 1.3884026484266201 -3.430378444488916 0 0 0 0 54.022588069919948 -6.4451633060019731 0 -6.4451633060019731 8.8257673132040964 0 0 0 0 99.22834616372711 4.385110536604202 0 4.385110536604202 -20.786665180775344 0 0 0 0 72.658507820524392 9.2524776628154086 0 9.2524776628154086 -43.36923239045359 0 0 0 0 61.045220004024884 1.6602608111446919 0 1.6602608111446919 -2.6427088708703215 0 0 0 0 59.142903822823428 6.8591544761166006 0 6.8591544761166006 -22.990914772485212 0 0 0 0 10.578514388025837 -7.6915904262886414 0 -7.6915904262886414 -6.4568483053259582 0 0 0 0 54.267897079043905 17.688851587486511 0 17.688851587486511 24.895213058679019 0 0 0 0 89.447090542147635 -7.9470704105258392 0 -7.9470704105258392 -5.1460679062865893 0 0 0 0 87.812062445346783 16.019359829685108 0 16.019359829685108 4.8449710267636874 0 0 0 0 62.514894767229634 -2.2098541782886656 0 -2.2098541782886656 4.9047070096233938 0 0 0 0 73.364574404826271 3.5906876357133228 0 3.5906876357133228 6.4164461947730729 0 0 0 0 24.712431545444986 -2.4189497637213151 0 -2.4189497637213151 -5.9430916983037978 0 0 0 0 37.715839153487252 -3.5134588742869148 0 -3.5134588742869148 -6.5266049647319271 0 0 0 0 19.90169554365275 -9.5722349914135521 0 -9.5722349914135521 -20.996206809005798 0 0 0 0 64.052606061595725 4.5385079697612127 0 4.5385079697612127 -13.937085231536912 0 0 0 0 33.875099381808838 -4.6385594442322997 0 -4.6385594442322997 -6.4143038998700135 0 0 0 0 61.525674873759272 0.8071728754994183 0 0.8071728754994183 -19.249045522892402 0 0 0 0 4.9842328563634908 -0.23660480498789127 0 -0.23660480498789127 -3.8124817661571928 0 0 0 0 8.718266288007726 -6.2040646784814726 0 -6.2040646784814726 -9.8807017161475414 0 0 0 0 33.261471905832877 -5.3699548208182364 0 -5.3699548208182364 -21.885507473309872 0 0 0 0 4.4516404375447678 9.4304651739079617 0 9.4304651739079617 -2.9491834465384539 0 0 0 0 60.190047238575062 -7.3274440944820753 0 -7.3274440944820753 -42.11996167919915 0 0 0 0 90.886659906071145 2.0818522714433811 0 2.0818522714433811 -1.4985227389668125 0 0 0 0 56.894852368204738 34.815295232902827 0 34.815295232902827 11.776926697668216 0 0 0 0 -5.6482248996617272 129.75727490673739 0 129.75727490673739 62.045367458222472 0 0 0 0 164.8830475435243 50.088096896250704 0 50.088096896250704 -88.300913434407676 0 0 0 0 48.017103145568399 -21.469871292557514 0 -21.469871292557514 10.26722236890356 0 0 0 0 94.453060378989903 13.370751453584148 0 13.370751453584148 21.818304846771866 0 0 0 0 96.464688737760298 11.721783480970714 0 11.721783480970714 -38.959767930473845 0 0 0 0 56.107340999209555 15.577431747782384 0 15.577431747782384 -20.283168812879012 0 0 0 0 98.295990932296263 -10.258860071197773 0 -10.258860071197773 9.3432342311284629 0 0 0 0 119.31958458661393 1.063226200850039 0 1.063226200850039 -27.154293716820348 0 0 0 0 58.104430223233066 50.745156238385619 0 50.745156238385619 -33.335917271149683 0 0 0 0 6.3195478229390574 42.093933712496806 0 42.093933712496806 -5.1527170036210919 0 0 0 0 10.117155440721973 2.9634831997015567 0 2.9634831997015567 -10.606049499451778 0 0 0 0 19.764807173491135 -16.702033189989891 0 -16.702033189989891 -18.005794137148769 0 0 0 0 115.85895751214412 -5.2333261729125979 0 -5.2333261729125979 -27.955417480911137 0 0 0 0 49.817590594204376 -14.793156663662785 0 -14.793156663662785 -27.50530593100693 0 0 0 0 58.806317731723539 -27.069452142869523 0 -27.069452142869523 -46.423236290489058 0 0 0 0 81.101053227524972 6.8255060693373935 0 6.8255060693373935 -2.3589038077036832 0 0 0 0 59.761116736461645 3.1019315674136827 0 3.1019315674136827 -4.3798532987247345 0 0 0 0 86.7404198833392 5.9497863918841176 0 5.9497863918841176 -2.116399182919622 0 0 0 0 76.914836446783738 3.8515403546184075 0 3.8515403546184075 0.9145326352788743 0 0 0 0 67.787005496618804 10.985437695306132 0 10.985437695306132 2.0993914314219069 0 0 0 0 83.139165909728035 8.9162095323505355 0 8.9162095323505355 1.5897307213026579 0 0 0 0 58.601606258111133 -3.4567239028111203 0 -3.4567239028111203 -2.3796997437407299 0 0 0 0 78.853811430410133 3.4281533662472157 0 3.4281533662472157 -4.8456193870847528 0 0 0 0 73.867370606902114 9.5307959910520594 0 9.5307959910520594 -3.0902808269815978 0 0 0 0 75.599192070032586 11.584183829084168 0 11.584183829084168 -0.85513838362146544 0 0 0 0 84.198293834051583 -1.151488475670476 0 -1.151488475670476 1.8080493290929098 0 0 0 0 96.440859694193932 3.6330811363687872 0 3.6330811363687872 -3.3290815889143914 0 0 0 0 13.418401817914415 10.963372972723391 0 10.963372972723391 -5.9821417868232709 0 0 0 0 83.305485239645805 5.0842836011013262 0 5.0842836011013262 5.7416608126407027 0 0 0 0 26.513842952031922 29.951494854306446 0 29.951494854306446 -4.274468924840833 0 0 0 0 92.7978680630913 -1.1863549419666697 0 -1.1863549419666697 0.806083451019731 0 0 0 0 88.32067716534948 0.74836699194190714 0 0.74836699194190714 5.371175321449968 0 0 0 0 16.693403630222576 8.849386109064806 0 8.849386109064806 0.78557364348854319 0 0 0 0 32.77653807104798 15.757144953380134 0 15.757144953380134 -25.043486386264476 0 0 0 0 90.83168354263762 6.2462163570155553 0 6.2462163570155553 -16.148484178500667 0 0 0 0 8.6276196248170862 0.95396354065840683 0 0.95396354065840683 -1.2476285184163634 0 0 0 0 -20.432551743491786 53.73555091994308 0 53.73555091994308 -29.043744412347337 0 0 0 0 31.577766282111043 16.133219386193062 0 16.133219386193062 -7.7042017004669781 0 0 0 0 50.941560295441377 20.47876347017305 0 20.47876347017305 6.3630795847192303 0 0 0 0 9.2798761097451532 7.5747673149550394 0 7.5747673149550394 -12.073107748511108 0 0 0 0 37.438698563768412 7.4938324927409212 0 7.4938324927409212 -20.239920982201056 0 0 0 0 52.403048879350536 0.83805246198659233 0 0.83805246198659233 -8.7282486139834106 0 0 0 0 76.103802766672743 -27.962936114999614 0 -27.962936114999614 -17.212509346308781 0 0 0 0 56.798954200014123 4.7506259760951934 0 4.7506259760951934 2.2731785915425462 0 0 0 0 87.002207388009992 -20.461671289101446 0 -20.461671289101446 3.6906421628109456 0 0 0 0 6.559896082454614 10.727864763827029 0 10.727864763827029 -9.2858637129523558 0 0 0 0 1.7848025518697881 8.3429172977710948 0 8.3429172977710948 -9.9495111100974416 0 0 0 0 81.812211421347456 10.128391562797979 0 10.128391562797979 10.773080556696868 0 0 0 0 -12.106656928925076 -18.094581162391478 0 -18.094581162391478 36.75093603042842 0 0 0 0 124.54623143671779 -38.026852982404165 0 -38.026852982404165 -13.597610040468226 0 0 0 0 68.244220230146311 89.446722582672919 0 89.446722582672919 -129.22232595571995 0 0 0 0 -122.1750577238563 76.419617636104249 0 76.419617636104249 10.847500800567104 0 0 0 0 57.329909593303455 48.111346297631371 0 48.111346297631371 -52.987943658124095 0 0 0 0 -8.6227147959871218 -60.122045753286329 0 -60.122045753286329 -73.10385774644601 0 0 0 0 33.251114716316806 2.2909218857330416 0 2.2909218857330416 -45.177907629533593 0 0 0 0 70.433132429870057 12.017476158342276 0 12.017476158342276 -60.384592893427907 0 0 0 0 45.592955637475825 -0.52624046236678623 0 -0.52624046236678623 -168.4403889827463 0 0 0 0 -17.566375981608871 -29.888453097858473 0 -29.888453097858473 -37.646859137852516 0 0 0 0 10.13919623569015 4.2716811439952664 0 4.2716811439952664 -0.28772140560292492 0 0 0 0 -13.704329753411002 -31.667924555848003 0 -31.667924555848003 -40.13783494252084 0 0 0 0 39.347574141793302 19.970144136066665 0 19.970144136066665 -33.019260515728092 0 0 0 0 -10.91178891225718 -31.067178259132561 0 -31.067178259132561 -40.645218974937961 0 0 0 0 -13.768386750263744 -24.766608896398338 0 -24.766608896398338 -36.93279007293313 0 0 0 0 -9.1547299866797403 -7.0876461327161451 0 -7.0876461327161451 -25.093084292851927 0 0 0 0 7.6296622822354152 -7.2854684320355148 0 -7.2854684320355148 -7.1726442812220812 0 0 0 0 20.721710926736705 23.886973022212032 0 23.886973022212032 0.37986771412943199 0 0 0 0 30.225031719048275 27.621547575461591 0 27.621547575461591 -1.1025309546739663 0 0 0 0 93.103994202596368 15.55294473765116 0 15.55294473765116 -41.480933092428131 0 0 0 0 41.512524961369365 21.183774230886534 0 21.183774230886534 5.4037262470358378 0 0 0 0 24.469125982985133 -8.4230372359190255 0 -8.4230372359190255 -3.3009914131944242 0 0 0 0 0.10210054223892939 -0.73057402380898395 0 -0.73057402380898395 0.10707623991291904 0 0 0 0 5.3792577811909723 -86.872537462580567 0 -86.872537462580567 -53.381878672081712 0 0 0 0 295.6687894538336 77.086408613505682 0 77.086408613505682 -13.446563775831578 0 0 0 0 130.89850494894199 -2.323758764966442 0 -2.323758764966442 -51.361318696845956 0 0 0 0 120.3895188523602 -39.572343658502177 0 -39.572343658502177 -10.246306804674532 0 0 0 0 167.58597599672066 -50.45997260750255 0 -50.45997260750255 -45.30385731491333 0 0 0 0 129.68661233822058 26.375674848103245 0 26.375674848103245 -41.051193009206145 0 0 0 0 71.062595277335276 19.848554386525791 0 19.848554386525791 -3.1160639218460346 0 0 0 0 117.48026305287203 -25.015986811683206 0 -25.015986811683206 -20.811816893253763 0 0 0 0 67.138569005350291 -6.2833275664455641 0 -6.2833275664455641 -8.8632385650203105 0 0 0 0 77.139175337200868 13.857324367603951 0 13.857324367603951 -13.615799736496655 0 0 0 0 74.829747695152037 20.73811444968976 0 20.73811444968976 -13.891674606639754 0 0 0 0 80.480969344658661 7.8920179415755456 0 7.8920179415755456 -3.0424238789960327 0 0 0 0 79.982122715857258 7.3090850546503248 0 7.3090850546503248 -2.9353121361095873 0 0 0 0 30.827162947876786 -15.498430339134075 0 -15.498430339134075 1.1952611428687021 0 0 0 0 86.174720895112841 6.806474730061268 0 6.806474730061268 -5.2973223697094909 0 0 0 0 0.33198152714199836 -0.86514209877429948 0 -0.86514209877429948 -0.35477423385102114 0 0 0 0 50.826145797891513 0.069312413380487214 0 0.069312413380487214 -1.6592550811844831 0 0 0 0 60.223236084872042 -9.8025914511795236 0 -9.8025914511795236 -1.1927044208777033 0 0 0 0 58.4403722938805 -5.5216566369881548 0 -5.5216566369881548 -3.2329290121388112 0 0 0 0 62.324780070091947 -4.0716816090923658 0 -4.0716816090923658 -5.9016846789143074 0 0 0 0 0.41556741775790584 -1.0382188431187842 0 -1.0382188431187842 -0.61564221724660939 0 0 0 0 68.627136917728421 5.6683750782153766 0 5.6683750782153766 5.7857001221477731 0 0 0 0 70.469659620706807 1.1463677317447036 0 1.1463677317447036 -0.31201130790498155 0 0 0 0 68.440238757393672 4.5536956720325179 0 4.5536956720325179 0.64651953739632972 0 0 0 0 76.87212770498445 0.56531000594225134 0 0.56531000594225134 -4.5224719654588625 0 0 0 0 68.559041462503956 -2.2388277672382628 0 -2.2388277672382628 -7.7511274379789938 0 0 0 0 62.05254891057848 -2.9312335947436168 0 -2.9312335947436168 -2.5011358415488303 0 0 0 0 66.117277164103143 -0.78907574581148765 0 -0.78907574581148765 1.6708967734311955 0 0 0 0 77.037095176669027 -13.723824757581951 0 -13.723824757581951 -26.455439291729817 0 0 0 0 79.649439099564916 -2.1319207635760904 0 -2.1319207635760904 -20.708819827646948 0 0 0 0 66.328615390491905 0.30933891873564789 0 0.30933891873564789 -8.6327698632501324 0 0 0 0 60.489634265955829 4.2638633912954447 0 4.2638633912954447 -7.6900846406979326 0 0 0 0 58.244213940204645 11.634717436989831 0 11.634717436989831 -5.7163753114436986 0 0 0 0 83.365967168676434 20.831425930523437 0 20.831425930523437 -29.704976389213471 0 0 0 0 73.672921285477059 19.892907046162463 0 19.892907046162463 -29.464624482277941 0 0 0 0 87.088254411712114 4.3701838248489366 0 4.3701838248489366 -25.322104447767742 0 0 0 0 136.15628396786633 -1.0370434458618547 0 -1.0370434458618547 -47.138636697713537 0 0 0 0 90.191342188132694 -1.0386805816065134 0 -1.0386805816065134 -44.810158692013829 0 0 0 0 70.091876483842498 -6.4280730728955859 0 -6.4280730728955859 -15.423207845210527 0 0 0 0 54.986725667637074 -3.635712197526118 0 -3.635712197526118 0.46436688295307249 0 0 0 0 58.367895957257133 -9.7062802337413814 0 -9.7062802337413814 -38.722895592598434 0 0 0 0 76.774283791186463 13.885431965785983 0 13.885431965785983 -12.881852490038909 0 0 0 0 54.311343790541287 20.152060626885032 0 20.152060626885032 -18.043033946799369 0 0 0 0 18.395370958089188 -35.793353315448485 0 -35.793353315448485 -49.9932237112439 0 0 0 0 0.32567120498542579 -0.90337484660923906 0 -0.90337484660923906 -0.46177041699136723 0 0 0 0 50.524333196241059 -24.180627936056226 0 -24.180627936056226 -60.687103255470902 0 0 0 0 20.783939426692086 -31.928132746404117 0 -31.928132746404117 -54.610536146057711 0 0 0 0 30.027162377887123 -3.6559301404012405 0 -3.6559301404012405 -0.68443386962408759 0 0 0 0 38.657256477807096 9.2913699763889781 0 9.2913699763889781 -28.355423948740281 0 0 0 0 29.873647114203777 -27.322081835182871 0 -27.322081835182871 -49.312868762185644 0 0 0 0 -8.9291394816027605 -6.0739213560618737 0 -6.0739213560618737 -30.360124575736336 0 0 0 0 16.209168390923878 -35.99608393995095 0 -35.99608393995095 -48.952546626224319 0 0 0 0 43.830829126796743 -4.6314588240074954 0 -4.6314588240074954 -15.486103050435304 0 0 0 0 124.45945718842086 -178.36736096439165 0 -178.36736096439165 -56.257686516698413 0 0 0 0 38.288629793532891 -5.6123479038451478 0 -5.6123479038451478 -10.984251273479799 0 0 0 0 34.403728560696862 -5.7790757217988862 0 -5.7790757217988862 -0.67581390389678575 0 0 0 0 19.051140496798325 -7.2425901054048154 0 -7.2425901054048154 1.4660458396381273 0 0 0 0 -15.508576363667089 -46.89082466353716 0 -46.89082466353716 30.283261034027419 0 0 0 0 26.906562018408778 -4.9896660221739637 0 -4.9896660221739637 -5.5945973712612691 0 0 0 0 -53.161893119024171 -9.1330070650776634 0 -9.1330070650776634 -37.553178564754489 0 0 0 0 88.9327715288006 2.3269605052000344 0 2.3269605052000344 -7.4225106711211133 0 0 0 0 -343.13685992220417 -589.43360946901885 0 -589.43360946901885 184.37182338499315 0 0 0 0 742.04635306737327 1191.683816029481 0 1191.683816029481 623.29210130685897 0 0 0 0 174.66283147371723 -49.286201356805122 0 -49.286201356805122 -4.9155838741007756 0 0 0 0 117.27792278637935 -51.545962155093548 0 -51.545962155093548 139.79695196357352 0 0 0 0 126.43477949596127 -1.1322440679768988 0 -1.1322440679768988 -37.715424604184591 0 0 0 0 153.10960744104523 -0.78744703729967114 0 -0.78744703729967114 -44.142914704400027 0 0 0 0 97.932120791796478 27.831110470605381 0 27.831110470605381 -45.99429945769225 0 0 0 0 112.18298435657925 22.788000228770215 0 22.788000228770215 -54.584209802963414 0 0 0 0 60.445526271418203 38.781202337798277 0 38.781202337798277 -59.446478245659591 0 0 0 0 9.3610871636421962 0.0479695835964975 0 0.0479695835964975 0.14512109032340548 0 0 0 0 51.818049259469262 41.805783241191421 0 41.805783241191421 -35.450002125260653 0 0 0 0 41.27617335326795 7.8502364919131651 0 7.8502364919131651 -27.795128724307688 0 0 0 0 46.59277181571116 -2.7279824186688373 0 -2.7279824186688373 -0.26630438451453575 0 0 0 0 30.463793528462702 0.57034902704390333 0 0.57034902704390333 -11.75319019950075 0 0 0 0 4.5563712652310642 175.60574463686248 0 175.60574463686248 44.078590250856905 0 0 0 0 71.491370184332482 -0.060180261107234401 0 -0.060180261107234401 -39.450515887541769 0 0 0 0 43.354657034623244 -0.10291694876710267 0 -0.10291694876710267 -2.1804779407814259 0 0 0 0 -9.8368582252551278 22.092659865784299 0 22.092659865784299 -130.38990064459813 0 0 0 0 267.56886450843376 49.532538051943447 0 49.532538051943447 -531.00774395143799 0 0 0 0 30.774089145499602 262.97470856850032 0 262.97470856850032 -373.9776787282035 0 0 0 0 73.245146527369798 -128.39728524210295 0 -128.39728524210295 485.49121381478471 0 0 0 0 756.08688302830342 -22.321292387304311 0 -22.321292387304311 -387.58008191753379 0 0 0 0 75.154536647773057 -132.02188965824371 0 -132.02188965824371 -4.0461832905593837 0 0 0 0 153.24170374940149 -77.049857254356539 0 -77.049857254356539 33.734923191997041 0 0 0 0 1.8749344564776891 0.6046312641303615 0 0.6046312641303615 -0.29203113627575661 0 0 0 0 108.74264734516328 106.66312113202139 0 106.66312113202139 -44.621327005834246 0 0 0 0 119.88835232311976 -80.570594664712189 0 -80.570594664712189 34.711438959811858 0 0 0 0 -19.314976858888258 -114.6885601734848 0 -114.6885601734848 -419.86439600200902 0 0 0 0 -180.15922778730601 218.18709016582488 0 218.18709016582488 -213.19760780573642 0 0 0 0 39.289323845909195 -0.74463145755893478 0 -0.74463145755893478 -2.8727821108975018 0 0 0 0 6.7968845738646309 2.9090971097760843 0 2.9090971097760843 -6.7867109315037091 0 0 0 0 -173.69353361906542 -149.84690824630161 0 -149.84690824630161 652.48985378813131 0 0 0 0 -629.28409820004163 377.67404294442076 0 377.67404294442076 434.6287822953982 0 0 0 0 190.8483017568069 296.26649277908655 0 296.26649277908655 -450.43636809169027 0 0 0 0 57.052547388302628 217.90716003007401 0 217.90716003007401 -58.056705016256274 0 0 0 0 184.65795599653211 207.45809205025989 0 207.45809205025989 -183.67358941640487 0 0 0 0 142.35882275942276 182.1466771818059 0 182.1466771818059 -86.521975866868161 0 0 0 0 0.47915888571878895 217.27661538793473 0 217.27661538793473 -126.96556883390622 0 0 0 0 -64.354496855055913 -155.03540774556132 0 -155.03540774556132 16.819468653467993 0 0 0 0 153.13759358729294 -75.596282945119128 0 -75.596282945119128 -174.78874163024943 0 0 0 0 1.4800693113440104 -0.90871595540120609 0 -0.90871595540120609 -4.3286219888048656 0 0 0 0 132.28714745218895 -61.777410393783157 0 -61.777410393783157 121.02681268845481 0 0 0 0 341.62402213792666 5.6751292586013733 0 5.6751292586013733 -10.52893542705624 0 0 0 0 127.35657555630314 -19.333825536203221 0 -19.333825536203221 4.8796410757931881 0 0 0 0 254.66327493032441 72.671841344831591 0 72.671841344831591 20.083149683960073 0 0 0 0 -62.992248313638356 82.351134574347597 0 82.351134574347597 46.037630709699442 0 0 0 0 174.70077447491349 216.69062187525014 0 216.69062187525014 29.201861150256093 0 0 0 0 340.39787222607993 3.0051361056921451 0 3.0051361056921451 -45.331638773750456 0 0 0 0 104.24031035524968 25.395898611774101 0 25.395898611774101 38.266196275559196 0 0 0 0 148.20119006176537 68.319547792483263 0 68.319547792483263 -5.698746921097154 0 0 0 0 141.25995091657387 26.687698635380002 0 26.687698635380002 -119.10124743876986 0 0 0 0 99.188647340197349 142.23263986298116 0 142.23263986298116 -77.218661914397671 0 0 0 0 173.78469155268976 145.72717159795684 0 145.72717159795684 -4.7537619800905304 0 0 0 0 135.02619934656832 88.49209767479806 0 88.49209767479806 1.7107353007049824 0 0 0 0 103.61208043441002 125.34795525601567 0 125.34795525601567 192.35910024161785 0 0 0 0 29.602020373538835 -41.90568506395357 0 -41.90568506395357 116.81224847671092 0 0 0 0 300.77149798616301 170.78297169946381 0 170.78297169946381 -11.521161362462408 0 0 0 0 5.6417706155968119 -0.42268999792819528 0 -0.42268999792819528 -2.1335306875472035 0 0 0 0 244.65893591746135 292.01182632971495 0 292.01182632971495 130.36931225543049 0 0 0 0 5.1282100694463963 0.29444196502246456 0 0.29444196502246456 -3.561901754187204 0 0 0 0 368.20659197139321 152.87046210020162 0 152.87046210020162 -28.767741224739439 0 0 0 0 172.31368971746997 187.56490095993649 0 187.56490095993649 35.428645059804694 0 0 0 0 -19.933615805723093 -41.9256858301801 0 -41.9256858301801 -63.934896809623751 0 0 0 0 10.025970069643222 -4.2255989207918816 0 -4.2255989207918816 0.34622092724442055 0 0 0 0 4.3113490899413591 -27.583692889101258 0 -27.583692889101258 -34.198616746542143 0 0 0 0 -15.459697780825081 -31.566788821475711 0 -31.566788821475711 -46.374372203115854 0 0 0 0 0.7019366485910723 -17.841001807472821 0 -17.841001807472821 -34.764139821227218 0 0 0 0 33.88611587388732 -4.5461287842645106 0 -4.5461287842645106 -41.895552437621518 0 0 0 0 44.0529368743737 10.447172449172285 0 10.447172449172285 -25.192130692770661 0 0 0 0 19.233357387143769 -5.2310014927170414 0 -5.2310014927170414 -27.209807272109174 0 0 0 0 16.90016866629594 -16.208837305888665 0 -16.208837305888665 -52.615398155705407 0 0 0 0 -3.7058423723210581 -21.485076924062014 0 -21.485076924062014 -12.779418047628496 0 0 0 0 26.781478834192967 -8.6928679490883951 0 -8.6928679490883951 -31.138950983026007 0 0 0 0 23.405498640117003 -5.251272448034797 0 -5.251272448034797 -13.179158935627129 0 0 0 0 16.271531253456487 -29.417380284217415 0 -29.417380284217415 54.702594849977459 0 0 0 0 16.168309644388501 3.3286433250596019 0 3.3286433250596019 -9.2388798043684801 0 0 0 0 57.660328092082636 51.101109489149167 0 51.101109489149167 -27.591948939470967 0 0 0 0 7.0267210957563861 -1.1029318175457661 0 -1.1029318175457661 -3.5530171014667822 0 0 0 0 31.117588054898079 95.297695987136649 0 95.297695987136649 2.2380254549625533 0 0 0 0 143.73769314548917 79.350680791876442 0 79.350680791876442 -23.913181670057838 0 0 0 0 141.67589145268721 43.193257984956745 0 43.193257984956745 66.35996217517004 0 0 0 0 95.566379350420902 94.707268711524279 0 94.707268711524279 63.896641054382258 0 0 0 0 92.428181664537988 129.49250310197704 0 129.49250310197704 -27.984529922982802 0 0 0 0 10.539541010607479 0.35380015928628605 0 0.35380015928628605 -2.3669827770403584 0 0 0 0 612.20785822288599 -336.13124199168396 0 -336.13124199168396 385.28135960333566 0 0 0 0 41.097785721467517 8.9668235827427907 0 8.9668235827427907 -0.14099826569963625 0 0 0 0 -226.16584930603858 120.7315829783098 0 120.7315829783098 466.42064036256829 0 0 0 0 11.868694913690206 2.1083888813687821 0 2.1083888813687821 -3.0587359571863182 0 0 0 0 2.9687752807513448 4.430405644934865 0 4.430405644934865 0.619096208501413 0 0 0 0 328.96790352855169 -127.99977071673516 0 -127.99977071673516 -5.1225058103395895 0 0 0 0 77.224050062111928 24.136469487529212 0 24.136469487529212 -94.990294684542505 0 0 0 0 63.833880110492828 -32.367843238060388 0 -32.367843238060388 -9.1206207183470269 0 0 0 0 39.239090218570979 -13.988910898188209 0 -13.988910898188209 -17.552872244014456 0 0 0 0 92.702608514242456 -50.884389065569394 0 -50.884389065569394 -10.902286876319295 0 0 0 0 82.088410211508744 24.291240561202812 0 24.291240561202812 15.748971983309275 0 0 0 0 16.341203702373548 3.0466686387033519 0 3.0466686387033519 -0.30733230408576162 0 0 0 0 118.17975909285451 23.868140604680775 0 23.868140604680775 -23.298381050041826 0 0 0 0 217.82754159675096 4.5284104653765098 0 4.5284104653765098 -51.321542644782767 0 0 0 0 55.050560253039293 -14.302342021155027 0 -14.302342021155027 2.244835913683346 0 0 0 0 178.10264157149413 -30.108750015612657 0 -30.108750015612657 -40.866861752400837 0 0 0 0 79.542133067648649 3.5204890752078519 0 3.5204890752078519 -3.631434737573052 0 0 0 0 1.0476733171752528 -10.204591320183384 0 -10.204591320183384 -3.8809046331338477 0 0 0 0 159.49631730995316 56.97653858984404 0 56.97653858984404 -52.68877954747586 0 0 0 0 187.5162070885126 50.669987273587139 0 50.669987273587139 -63.836240495047605 0 0 0 0 172.24636147626734 56.78141953000727 0 56.78141953000727 -61.07959097282037 0 0 0 0 11.032199151795268 4.3716706635744913 0 4.3716706635744913 -10.395022859352212 0 0 0 0 55.197470508224797 -33.180131925472665 0 -33.180131925472665 -32.660766593746985 0 0 0 0 48.497301873227116 41.627210737038638 0 41.627210737038638 6.3504942590775499 0 0 0 0 16.565300411535318 6.5629350429019695 0 6.5629350429019695 -4.0777612928486491 0 0 0 0 21.747680046497408 -261.51975183724198 0 -261.51975183724198 -323.22699919025581 0 0 0 0 209.97040555888816 -79.784783134076861 0 -79.784783134076861 -485.74569525635161 0 0 0 0 55.592879405463464 -41.887782126334514 0 -41.887782126334514 -190.95046990243463 0 0 0 0 90.992848515648802 21.842611515900671 0 21.842611515900671 -47.04160966872098 0 0 0 0 74.815602624631907 -8.0037978992836045 0 -8.0037978992836045 -7.2115831106882284 0 0 0 0 191.2369677731549 98.812057734650352 0 98.812057734650352 -49.761457233673809 0 0 0 0 117.52519901290373 6.4076182621573139 0 6.4076182621573139 -7.033546919203097 0 0 0 0 135.1180401158781 -11.408763032766728 0 -11.408763032766728 -56.98180050254723 0 0 0 0 97.867166462307068 -23.722444454816468 0 -23.722444454816468 -46.508048638530454 0 0 0 0 110.19392130726192 -10.815844449655742 0 -10.815844449655742 -60.04734938495676 0 0 0 0 96.578441554242431 5.8664920499234583 0 5.8664920499234583 -1.398449754015596 0 0 0 0 153.84808738576794 -94.021563645106426 0 -94.021563645106426 -77.782651302924933 0 0 0 0 147.63122856069822 -66.914431082136616 0 -66.914431082136616 -175.47411275220202 0 0 0 0 158.52542167568754 -10.815877863986316 0 -10.815877863986316 -112.80196825890926 0 0 0 0 107.59064726363431 -182.34789640957706 0 -182.34789640957706 -83.090860650065224 0 0 0 0 26.992845938573737 -157.71078531728745 0 -157.71078531728745 62.642211125109498 0 0 0 0 128.11601356054598 -65.769898741878023 0 -65.769898741878023 52.233645651027473 0 0 0 0 124.82640673817605 -132.52682603802035 0 -132.52682603802035 22.128289647424026 0 0 0 0 241.99707454080635 78.997341277821761 0 78.997341277821761 167.89643086670549 0 0 0 0 6.6884535236604279 -130.79730934406507 0 -130.79730934406507 321.61693429592015 0 0 0 0 60.286294695086326 -115.08096392776048 0 -115.08096392776048 386.49824660749618 0 0 0 0 3.7439777109684655 -126.78447848695942 0 -126.78447848695942 395.43204948105813 0 0 0 0 67.981953000452449 -156.91029765861202 0 -156.91029765861202 61.403823006990933 0 0 0 0 59.386889353663719 -199.02757585785639 0 -199.02757585785639 202.71444576791282 0 0 0 0 189.60752410971327 -307.34407720144213 0 -307.34407720144213 223.22929222659059 0 0 0 0 421.33825788377726 -97.817771020884265 0 -97.817771020884265 -38.640195307260456 0 0 0 0 160.57398837170331 -109.0106379543713 0 -109.0106379543713 -30.473954106090787 0 0 0 0 169.68772416901629 -25.682515504277717 0 -25.682515504277717 -231.41188584556039 0 0 0 0 226.76954700179158 49.421982008824898 0 49.421982008824898 -65.509562753051796 0 0 0 0 178.5504785746889 -85.703805475488025 0 -85.703805475488025 -191.49457486670963 0 0 0 0 262.27494119709809 1.9474385038545279 0 1.9474385038545279 -12.518986546948327 0 0 0 0 266.13350068010914 14.162730339947757 0 14.162730339947757 -30.203003702630667 0 0 0 0 2.7319913553183 2.8432815420093931 0 2.8432815420093931 2.0501189136718807 0 0 0 0 30.582945670043046 21.598508187937796 0 21.598508187937796 -147.54560797744853 0 0 0 0 6.8017221763111593 58.03279687606846 0 58.03279687606846 -112.50223321915109 0 0 0 0 378.9132247498419 -19.107214421615936 0 -19.107214421615936 -77.913096918015981 0 0 0 0 245.93298316957771 84.478111693993242 0 84.478111693993242 -30.682058851838519 0 0 0 0 -56.160169807022612 -29.467377773969929 0 -29.467377773969929 18.401647366993075 0 0 0 0 0.31685002825543052 -18.793227689246123 0 -18.793227689246123 18.65757179871116 0 0 0 0 -62.124199243582552 24.575195213707957 0 24.575195213707957 25.177411844679455 0 0 0 0 -41.673391358577646 35.572711730518677 0 35.572711730518677 -122.64386965449421 0 0 0 0 -1.4456780188411358 -48.976452070755386 0 -48.976452070755386 -152.89896831601163 0 0 0 0 49.329507066117145 -2.387672653520319 0 -2.387672653520319 -0.21891245395769943 0 0 0 0 18.804467891030072 11.93849913249278 0 11.93849913249278 -32.009614805052479 0 0 0 0 29.513429342710879 12.537101927115145 0 12.537101927115145 -63.295864067897128 0 0 0 0 67.251935693668202 -0.92701614612997219 0 -0.92701614612997219 -58.726356454932102 0 0 0 0 45.331097301508294 -0.46553487480142763 0 -0.46553487480142763 -2.3028994929694386 0 0 0 0 20.288616582009126 91.517232763338598 0 91.517232763338598 -411.51562172192189 0 0 0 0 43.161548068575939 2.9446012610203169 0 2.9446012610203169 -2.1293599041984956 0 0 0 0 -44.671708573485375 -56.329987431630798 0 -56.329987431630798 -38.746413050240335 0 0 0 0 -24.117320297358674 30.771072511675811 0 30.771072511675811 -48.095816170393846 0 0 0 0 34.306303765421035 -2.6617961180314182 0 -2.6617961180314182 -29.596058148200427 0 0 0 0 285.64311534480657 212.92053042987754 0 212.92053042987754 -304.82954807635758 0 0 0 0 62.676767462995485 -67.517256645200632 0 -67.517256645200632 -143.91932892519253 0 0 0 0 141.85146729312692 -47.761771678082368 0 -47.761771678082368 -52.972668731323211 0 0 0 0 110.13159354607342 8.9836876526742344 0 8.9836876526742344 -21.006747575426743 0 0 0 0 300.01885750503425 261.30870303220127 0 261.30870303220127 -817.50053224811563 0 0 0 0 186.00033531116787 -222.08284819776327 0 -222.08284819776327 -144.76101144514223 0 0 0 0 -5.135035972820333 4.170798503207152 0 4.170798503207152 -155.76147877807307 0 0 0 0 30.433079101436306 309.59278233503755 0 309.59278233503755 -398.44614634230129 0 0 0 0 49.219239983577722 -10.883545533646789 0 -10.883545533646789 -0.96734754408003099 0 0 0 0 74.605274223795277 0.73408467342324002 0 0.73408467342324002 -70.719609605819642 0 0 0 0 47.095538233799743 27.007611183350491 0 27.007611183350491 -95.194745792437772 0 0 0 0 38.766681308494299 24.399174573511118 0 24.399174573511118 -41.170191337220785 0 0 0 0 78.784097429263056 -4.1857784383755643 0 -4.1857784383755643 -37.724636372951409 0 0 0 0 74.364153192293315 10.549241266156315 0 10.549241266156315 -69.119720648513976 0 0 0 0 80.594617432387935 3.9619817401153377 0 3.9619817401153377 -4.9262004833048332 0 0 0 0 59.578225135512184 17.193650676611469 0 17.193650676611469 13.367314508410345 0 0 0 0 64.745424322980398 8.772452917238752 0 8.772452917238752 -32.239071492977018 0 0 0 0 39.33570191553008 4.4569357599843897 0 4.4569357599843897 2.169277898292421 0 0 0 0 81.297741196896823 9.3828961310682644 0 9.3828961310682644 -0.17914530038035537 0 0 0 0 83.460530718461087 41.508064482261943 0 41.508064482261943 8.4091290759106982 0 0 0 0 39.358121804891994 -17.446133667253562 0 -17.446133667253562 -19.332102064184131 0 0 0 0 37.11274511632655 -63.263919444936164 0 -63.263919444936164 -36.995005238888552 0 0 0 0 57.446496059201309 -25.057242119763089 0 -25.057242119763089 -30.606491122027364 0 0 0 0 99.447735050398478 -17.539639509898961 0 -17.539639509898961 -25.944558859019708 0 0 0 0 54.643378451888566 -39.484020798749953 0 -39.484020798749953 -31.576596261267696 0 0 0 0 26.199165137761156 -22.265245354755962 0 -22.265245354755962 -9.4233432645823996 0 0 0 0 43.054837256015162 8.9962779288339334 0 8.9962779288339334 -23.763150023622984 0 0 0 0 63.69958987183054 -6.6993140473102812 0 -6.6993140473102812 -2.998019782002757 0 0 0 0 54.511532569638803 0.64167007175439039 0 0.64167007175439039 13.955864611671586 0 0 0 0 58.829450983372226 -12.565849234543975 0 -12.565849234543975 -4.0147785416675106 0 0 0 0 69.474013478502457 1.8947968086453102 0 1.8947968086453102 1.4550890659506877 0 0 0 0 68.866192674482591 0.89279301543456313 0 0.89279301543456313 3.3868125028836857 0 0 0 0 74.016124777632285 18.692387262446346 0 18.692387262446346 18.680772541763872 0 0 0 0 69.232011068772408 4.3457616278640216 0 4.3457616278640216 9.0400980506758515 0 0 0 0 86.158175468968693 13.127208926465528 0 13.127208926465528 -51.718821474705692 0 0 0 0 -5.5213643653733016 -37.120847368396085 0 -37.120847368396085 -10.572489693318857 0 0 0 0 21.276924856909318 -133.41385343270485 0 -133.41385343270485 -46.081000951153328 0 0 0 0 42.265716306396996 -18.244038027765271 0 -18.244038027765271 -18.166648481922195 0 0 0 0 124.7228948619013 14.17178405354116 0 14.17178405354116 -34.750638425879288 0 0 0 0 101.93451188887411 -13.764570862878827 0 -13.764570862878827 -8.2419170097285814 0 0 0 0 141.14143639549729 54.974900720853384 0 54.974900720853384 1.2263875666134254 0 0 0 0 153.76083226362243 49.906302786135711 0 49.906302786135711 22.092619464556265 0 0 0 0 169.78162957755558 -15.749722198589552 0 -15.749722198589552 -25.581519696908799 0 0 0 0 111.11519588856754 30.387603000843683 0 30.387603000843683 59.864428166930338 0 0 0 0 114.31372673671285 -4.6915659458213668 0 -4.6915659458213668 -54.567522376847592 0 0 0 0 127.31303902274522 -27.555456310209593 0 -27.555456310209593 -14.527363131192942 0 0 0 0 124.31775036098406 -23.049110550910882 0 -23.049110550910882 -49.214410684953691 0 0 0 0 55.263431829656582 -10.022594889303591 0 -10.022594889303591 -23.359843009109156 0 0 0 0 74.540801298069709 36.990625715063288 0 36.990625715063288 -21.316105104691815 0 0 0 0 136.47653518580773 22.334593018204032 0 22.334593018204032 -90.249822458520612 0 0 0 0 111.19208971020998 -0.72450820022186235 0 -0.72450820022186235 -54.0188695066945 0 0 0 0 188.80941501092457 -20.134405610718204 0 -20.134405610718204 -28.713736116310429 0 0 0 0 163.64663817321707 7.3897356416955517 0 7.3897356416955517 -53.909196444528789 0 0 0 0 94.265176934939518 48.863019074597105 0 48.863019074597105 -20.491725163647061 0 0 0 0 156.66231262015935 89.708585907817451 0 89.708585907817451 -15.444169023538052 0 0 0 0 38.39512019167887 128.58094183503863 0 128.58094183503863 297.13950668971211 0 0 0 0 301.06184511531319 67.60339347397894 0 67.60339347397894 -12.754807101057963 0 0 0 0 165.26812991432871 16.635281403364786 0 16.635281403364786 26.372952908239313 0 0 0 0 240.95241605107731 -62.972607008361592 0 -62.972607008361592 105.95328236216483 0 0 0 0 174.42916726860858 98.1729049432588 0 98.1729049432588 188.28120431239586 0 0 0 0 150.51094806342735 50.305995342800998 0 50.305995342800998 96.859683259368467 0 0 0 0 298.53469482615765 105.8906876876631 0 105.8906876876631 57.582232608679078 0 0 0 0 150.55940149899106 -19.295151521732805 0 -19.295151521732805 -39.211812112129337 0 0 0 0 2.4957266839359136 1.9071146687975169 0 1.9071146687975169 0.066362726410193029 0 0 0 0 278.5845258339541 9.6025290034785939 0 9.6025290034785939 -37.592827826111716 0 0 0 0 165.3501014894664 -9.0450506782739239 0 -9.0450506782739239 -8.3076536625821973 0 0 0 0 54.208562435436761 -18.945475713137057 0 -18.945475713137057 11.769824573752885 0 0 0 0 132.12190678005572 7.8892921980276469 0 7.8892921980276469 10.370199602519278 0 0 0 0 147.79575514619501 54.292712921144584 0 54.292712921144584 22.00191617636483 0 0 0 0 117.52355483875726 37.403262134034321 0 37.403262134034321 14.832857139241241 0 0 0 0 171.59165630652569 44.467350229995645 0 44.467350229995645 0.79881124494386313 0 0 0 0 167.32676838752286 82.037490415088911 0 82.037490415088911 27.190851116518388 0 0 0 0 182.60305600458742 62.278090559977159 0 62.278090559977159 18.247710518358872 0 0 0 0 204.75441394936934 50.029403793852907 0 50.029403793852907 24.739789620746706 0 0 0 0 201.43495321034425 105.75715142225042 0 105.75715142225042 46.537842111756618 0 0 0 0 165.68366880042595 80.903404952066921 0 80.903404952066921 29.320162619364964 0 0 0 0 146.01679299873649 76.812664908422448 0 76.812664908422448 53.346318303316366 0 0 0 0 165.26767758761707 85.5957828839787 0 85.5957828839787 23.736558079925089 0 0 0 0 136.90447415723975 52.333645117675246 0 52.333645117675246 20.357645672311264 0 0 0 0 174.4236919159739 72.324863643351364 0 72.324863643351364 20.152039188422854 0 0 0 0 160.68253602669574 56.286353872874315 0 56.286353872874315 3.1803006857026048 0 0 0 0 251.2599821062613 82.763893264761464 0 82.763893264761464 10.677036211104678 0 0 0 0 153.2684572487633 87.990265181131235 0 87.990265181131235 33.229368412378335 0 0 0 0 170.51526166543772 86.88370044555495 0 86.88370044555495 22.507892719548181 0 0 0 0 139.30513693839021 64.131160653683764 0 64.131160653683764 16.560875177433445 0 0 0 0 164.61534009700699 86.661108524494239 0 86.661108524494239 30.355667720343945 0 0 0 0 104.47219790726376 80.563973305884474 0 80.563973305884474 68.428979661260655 0 0 0 0 167.35255598697404 106.40848817085225 0 106.40848817085225 50.254044506472383 0 0 0 0 217.94964213216736 129.83401972835827 0 129.83401972835827 51.72177334724438 0 0 0 0 207.96596092372783 120.56671450569479 0 120.56671450569479 52.158826688229055 0 0 0 0 123.43034224040457 135.31589764171417 0 135.31589764171417 135.40781678163285 0 0 0 0 52.276178329033428 57.517214917946603 0 57.517214917946603 68.301586203418537 0 0 0 0 99.191828946359237 56.966965789420613 0 56.966965789420613 54.239126115290674 0 0 0 0 41.477563557899202 -13.923810056599443 0 -13.923810056599443 3.9287036883370474 0 0 0 0 48.816003213782096 -16.915300916625483 0 -16.915300916625483 21.599261442116529 0 0 0 0 97.819983819295885 17.515029309248348 0 17.515029309248348 28.245728062247736 0 0 0 0 76.581366441336286 39.025160568761692 0 39.025160568761692 -293.38264061316545 0 0 0 0 22.990328068961389 -4.1514162164608024 0 -4.1514162164608024 -6.2550116724523832 0 0 0 0 35.017639581552004 -2.4631027937347909 0 -2.4631027937347909 1.31987132349626 0 0 0 0 35.261511266886373 -18.707482651218015 0 -18.707482651218015 -16.039523376142824 0 0 0 0 29.07602755477825 -0.95862496110408557 0 -0.95862496110408557 -4.9819156792832437 0 0 0 0 7.8668744052924353 -5.8768635182684505 0 -5.8768635182684505 2.1019352055575027 0 0 0 0 52.79282531341596 25.283619868532014 0 25.283619868532014 12.028508418436104 0 0 0 0 107.50161066283181 24.304552354640236 0 24.304552354640236 9.4375125187261801 0 0 0 0 65.544807803482399 1.3258744054185172 0 1.3258744054185172 21.344656312017833 0 0 0 0 57.159244759444846 10.328506896084718 0 10.328506896084718 21.971443606262255 0 0 0 0 105.87967658050184 31.736142897319496 0 31.736142897319496 32.225422559407662 0 0 0 0 86.186440422432497 21.502246617395429 0 21.502246617395429 27.493864251313425 0 0 0 0 -0.89736766764013964 -6.5907960178033704 0 -6.5907960178033704 -2.5524917129305917 0 0 0 0 65.648358419115539 -56.245088224546635 0 -56.245088224546635 -72.987079952576096 0 0 0 0 0.33273269049652754 -7.0237191270642541 0 -7.0237191270642541 -3.3860868286097405 0 0 0 0 -21.585664592857938 -30.517208111812579 0 -30.517208111812579 -2.1119443082716316 0 0 0 0 -4.7924310362432152 -14.76670517470302 0 -14.76670517470302 -6.8501483795039348 0 0 0 0 1.6152225082623772 3.0575812813713128 0 3.0575812813713128 11.537813096459217 0 0 0 0 1.8503345882330393 -0.35784930093674916 0 -0.35784930093674916 -2.2103821034152453 0 0 0 0 -14.837319286569254 -13.399675927917087 0 -13.399675927917087 13.850410049968787 0 0 0 0 74.098874077455548 9.7234522541016872 0 9.7234522541016872 8.8433516213217498 0 0 0 0 44.992030886645637 -16.765957758101166 0 -16.765957758101166 -15.341148775461352 0 0 0 0 -17.901540642575128 10.784339618626291 0 10.784339618626291 -45.245015473863432 0 0 0 0 -26.616389120230451 -80.858850057211839 0 -80.858850057211839 -3.2277398289261328 0 0 0 0 -46.496119732328225 -22.958980728588813 0 -22.958980728588813 23.758318533838974 0 0 0 0 81.316342215650366 15.131008992436819 0 15.131008992436819 -86.34191350868241 0 0 0 0 149.653185189738 -58.202556422469343 0 -58.202556422469343 -17.676363181953093 0 0 0 0 43.528168917546282 -88.143619162696268 0 -88.143619162696268 106.74054295030965 0 0 0 0 1.5355716045322652 2.1892737652307233 0 2.1892737652307233 -0.68539581843252062 0 0 0 0 172.7838385146315 15.87110285209701 0 15.87110285209701 27.591110310476637 0 0 0 0 94.67703269028425 16.28567236046888 0 16.28567236046888 27.589063883158815 0 0 0 0 182.98199104686501 4.7726040928196198 0 4.7726040928196198 4.9946881059108819 0 0 0 0 386.68672283884371 63.320699959063859 0 63.320699959063859 -17.328376297992236 0 0 0 0 209.63996555749327 21.437997751460898 0 21.437997751460898 -27.143822796476343 0 0 0 0 480.10543720362057 -109.00032950397869 0 -109.00032950397869 41.274403123312368 0 0 0 0 395.86914327600971 262.16565936082611 0 262.16565936082611 98.789938961382177 0 0 0 0 0.55659793450240613 0.85146229986311539 0 0.85146229986311539 0.7844515847099105 0 0 0 0 57.685085519304266 160.59799055271719 0 160.59799055271719 -166.2420343491824 0 0 0 0 187.70725080445845 -74.810156412839433 0 -74.810156412839433 43.098935634820464 0 0 0 0 36.230604306329042 -13.230802883374281 0 -13.230802883374281 39.563076779942776 0 0 0 0 36.614367335074348 -19.24688909291558 0 -19.24688909291558 23.922556869942241 0 0 0 0 2.4304154271299012 0.78916268391554922 0 0.78916268391554922 -0.15390229765801688 0 0 0 0 32.619313399904058 -24.634534279461604 0 -24.634534279461604 16.690314881986524 0 0 0 0 6.1582316226267722 -31.008182610041786 0 -31.008182610041786 -97.0528679187546 0 0 0 0 6.1317798649542965 -39.320411892790958 0 -39.320411892790958 -70.004902435846816 0 0 0 0 4.7247849697596394 -12.255689390608268 0 -12.255689390608268 -68.064964192010166 0 0 0 0 4.7077545093925437 -13.576986874775912 0 -13.576986874775912 -109.73726862279136 0 0 0 0 311.78842827506014 50.660788146280964 0 50.660788146280964 -328.79394155915912 0 0 0 0 14.251522139517817 -1.4758258039138354 0 -1.4758258039138354 -0.66644253714608881 0 0 0 0 383.46049024387321 -339.7616262785649 0 -339.7616262785649 -548.96282457542168 0 0 0 0 8.2691138952068286 7.3569958919597411 0 7.3569958919597411 -73.013773152958947 0 0 0 0 14.417132944654441 -28.989508724916277 0 -28.989508724916277 -126.20937799106105 0 0 0 0 13.280913022482309 -18.573062677319669 0 -18.573062677319669 -82.718220908291642 0 0 0 0 -2.9150892979523633 -9.2102812668103979 0 -9.2102812668103979 -87.491124886618422 0 0 0 0 -4.4489613715450105 -13.583507134835543 0 -13.583507134835543 -71.489206082623241 0 0 0 0 -460.96849196396943 -129.63648270308468 0 -129.63648270308468 225.70798717080353 0 0 0 0 -171.25707729322312 701.71242735938029 0 701.71242735938029 788.28458629208512 0 0 0 0 352.17447489337064 629.90176383656762 0 629.90176383656762 552.42943437869826 0 0 0 0 1014.6025493335328 613.46051929511236 0 613.46051929511236 473.54381884900232 0 0 0 0 7.6406733595358673 -35.588796393164841 0 -35.588796393164841 83.93392154848641 0 0 0 0 909.5401321593672 624.06794505389291 0 624.06794505389291 149.98245271858048 0 0 0 0 5.4771250265290519 2.6664373890845923 0 2.6664373890845923 -0.78908339023730778 0 0 0 0 53.143054893960652 -12.161411005351965 0 -12.161411005351965 -155.53879575866563 0 0 0 0 8.9671980678159002 1.1770999802678581 0 1.1770999802678581 -0.85691777895081378 0 0 0 0 263.65291945810895 -256.03329867857326 0 -256.03329867857326 233.85826230630138 0 0 0 0 787.70847180084093 121.76763381341766 0 121.76763381341766 -181.91968965482204 0 0 0 0 265.85954896535259 187.12895376310735 0 187.12895376310735 123.14232926037585 0 0 0 0 386.63376079640875 433.3361921822011 0 433.3361921822011 322.58225297092395 0 0 0 0 135.83884836470588 85.512037172749643 0 85.512037172749643 116.37433085782413 0 0 0 0 139.52100586312008 156.88422745919752 0 156.88422745919752 617.38974011570349 0 0 0 0 13.097403454201412 -2.9749412909435478 0 -2.9749412909435478 -4.9947232527318874 0 0 0 0 9.9007809097665813 -0.89881022473507954 0 -0.89881022473507954 -0.45646318062410984 0 0 0 0 8.8856032451809028 0.22781692913451934 0 0.22781692913451934 -1.1885355216094404 0 0 0 0 -12.682571507466491 -5.5977227954584805 0 -5.5977227954584805 40.649840540214925 0 0 0 0 268.06534869018651 -87.277869132390606 0 -87.277869132390606 -107.10119845660711 0 0 0 0 14.263237962579296 14.57838112063374 0 14.57838112063374 -21.285894402007358 0 0 0 0 10.562063171986665 10.338824941473298 0 10.338824941473298 -16.358102471521008 0 0 0 0 7.8046066378738033 36.849805632579056 0 36.849805632579056 0.049517162829928622 0 0 0 0 7.9689228935894789 22.361474749954493 0 22.361474749954493 -30.451379101301434 0 0 0 0 66.007458624342689 27.360788700703147 0 27.360788700703147 -31.138987270034818 0 0 0 0 98.456469337161252 -70.024864685123703 0 -70.024864685123703 5.1224070575782434 0 0 0 0 3.9512789823722301 0.82911657102698655 0 0.82911657102698655 -0.67827792675110909 0 0 0 0 20.492820884479443 10.836478909787793 0 10.836478909787793 -104.70554034541884 0 0 0 0 153.84602800692664 100.01177083594376 0 100.01177083594376 50.878763015543022 0 0 0 0 -2.6848222912813071 56.649890460338796 0 56.649890460338796 -35.247791764142427 0 0 0 0 10.155313496131896 -1.3060077227109659 0 -1.3060077227109659 -0.38121665189168508 0 0 0 0 -51.193947276689869 -28.434327147611164 0 -28.434327147611164 -1.5469755114122705 0 0 0 0 -114.9813210896682 26.692316409118405 0 26.692316409118405 388.46690163166437 0 0 0 0 3.9793339407231656 -0.24381426465367895 0 -0.24381426465367895 -0.17308552673465338 0 0 0 0 115.51455979891762 -131.69888549184543 0 -131.69888549184543 -175.29858363863531 0 0 0 0 523.96812820318155 736.86526996087809 0 736.86526996087809 470.02335869798651 0 0 0 0 970.73956335813273 642.49948568701132 0 642.49948568701132 46.418744434166001 0 0 0 0 634.54697621928062 394.29837910639253 0 394.29837910639253 351.47255326390081 0 0 0 0 869.89262834911642 337.53692051876442 0 337.53692051876442 327.82474754210335 0 0 0 0 686.8569427866023 387.0748199033622 0 387.0748199033622 640.55467101625152 0 0 0 0 841.79759654501686 383.11283746536219 0 383.11283746536219 640.46597764837929 0 0 0 0 255.25220572831313 48.767217825764604 0 48.767217825764604 -0.11223484612199221 0 0 0 0 803.44938342971727 19.560639404623089 0 19.560639404623089 -147.69761341983639 0 0 0 0 361.58770575368544 -49.462187053591379 0 -49.462187053591379 644.31136470025308 0 0 0 0 538.04087409465865 241.81940680113377 0 241.81940680113377 200.07913898491967 0 0 0 0 533.22756990534253 200.60015558923914 0 200.60015558923914 67.286013064358002 0 0 0 0 448.28150871465914 -8.3380854797060522 0 -8.3380854797060522 104.62550142784681 0 0 0 0 254.97277169779409 -263.39793194410538 0 -263.39793194410538 371.86967112105674 0 0 0 0 890.14856952097034 201.26682734867421 0 201.26682734867421 656.18771363280848 0 0 0 0 643.61803918424994 229.06823523322595 0 229.06823523322595 655.6113118314255 0 0 0 0 865.96615291059425 117.1674482351597 0 117.1674482351597 275.14417040651404 0 0 0 0 286.12888218863372 -232.29546832157544 0 -232.29546832157544 162.34535149212036 0 0 0 0 15.269210564583773 29.128893680329384 0 29.128893680329384 16.834992711815659 0 0 0 0 -21.905033874179935 4.9750404318800179 0 4.9750404318800179 23.266029451588594 0 0 0 0 54.435875590686919 -3.4675251497781687 0 -3.4675251497781687 20.875575149208686 0 0 0 0 42.274098341440549 -19.72509530854046 0 -19.72509530854046 2.0372506418466969 0 0 0 0 51.910478575358866 32.479981703133745 0 32.479981703133745 14.994943397091706 0 0 0 0 108.23257627290877 4.2000076496297041 0 4.2000076496297041 -33.366557478124236 0 0 0 0 61.769137281022267 -47.449840795306265 0 -47.449840795306265 -54.512873039147735 0 0 0 0 -0.66510790491606109 0.03812686714545066 0 0.03812686714545066 0.95777674461673468 0 0 0 0 133.20294726002612 -39.2540639553348 0 -39.2540639553348 -211.26853280117075 0 0 0 0 122.90928439671552 8.2958219309108188 0 8.2958219309108188 -57.54004299248345 0 0 0 0 10.816572946829455 -0.63124840016990902 0 -0.63124840016990902 0.2823587173690682 0 0 0 0 100.86536344608521 -179.7025125232669 0 -179.7025125232669 -11.998569012121362 0 0 0 0 -12.56042599598004 2.8039482440861434 0 2.8039482440861434 445.98120379450631 0 0 0 0 184.0144303747511 167.77231448559795 0 167.77231448559795 -95.012347105415003 0 0 0 0 211.49859280878445 132.38669349756577 0 132.38669349756577 -185.02223699476997 0 0 0 0 -24.421976922254544 62.118747837342653 0 62.118747837342653 62.365645545348642 0 0 0 0 3.4216202097106247 -0.2308668027089098 0 -0.2308668027089098 0.22100294539903065 0 0 0 0 79.103506471044966 127.04662225455617 0 127.04662225455617 88.009884337189732 0 0 0 0 66.730795199371642 -1.1557000664236057 0 -1.1557000664236057 31.858782621253965 0 0 0 0 8.5173400084622131 -5.5763636756058901 0 -5.5763636756058901 0.69145725667988234 0 0 0 0 -14.826410348051468 -77.574039056424539 0 -77.574039056424539 -3.296981975346057 0 0 0 0 28.771490810215312 -8.3367587436543715 0 -8.3367587436543715 1.4598473530610157 0 0 0 0 20.933112242855714 37.687306794695019 0 37.687306794695019 126.94925856927284 0 0 0 0 100.90796119772131 258.86094260651839 0 258.86094260651839 214.36757561139348 0 0 0 0 56.55863349273568 53.304877687671706 0 53.304877687671706 97.007867705243143 0 0 0 0 9.8585501817396874 -3.144329799774539 0 -3.144329799774539 0.33811057827435587 0 0 0 0 -60.475125261902576 102.16946406720854 0 102.16946406720854 116.98657802415948 0 0 0 0 -114.71126569341868 98.400534293605347 0 98.400534293605347 129.36830739132779 0 0 0 0 -81.455535677116131 38.70071178701437 0 38.70071178701437 218.83852567270637 0 0 0 0 11.143054251908325 3.6226014572213856 0 3.6226014572213856 -22.29966575444459 0 0 0 0 13.849462940637181 -3.7757226207116545 0 -3.7757226207116545 -0.70700466102830084 0 0 0 0 24.831144609896 0.60862447049038337 0 0.60862447049038337 1.9322213127460373 0 0 0 0 -212.02586554689333 -67.035633684162349 0 -67.035633684162349 -52.784513238286308 0 0 0 0 16.654580575726357 -11.879121132161231 0 -11.879121132161231 1.0190966996676551 0 0 0 0 18.463763301848644 -8.4884297874285473 0 -8.4884297874285473 1.1484278224052686 0 0 0 0 12.472791378560942 -5.8806431736352351 0 -5.8806431736352351 -0.33463826971660637 0 0 0 0 30.311757947813021 -1.3776023710084004 0 -1.3776023710084004 4.9460901984552166 0 0 0 0 74.92339303123299 -33.395213825164205 0 -33.395213825164205 -16.119018435161706 0 0 0 0 -4.0644729853884201 -51.34411918407185 0 -51.34411918407185 24.031940184722089 0 0 0 0 66.064383774122689 -36.929156896481402 0 -36.929156896481402 13.824725644534539 0 0 0 0 -1.6211374241268004 -2.0827332282681041 0 -2.0827332282681041 1.4673924566269991 0 0 0 0 -8.9653872843409772 -1.6105637165023339 0 -1.6105637165023339 -16.756131433039343 0 0 0 0 64.553282268636394 0.4613953139039495 0 0.4613953139039495 -0.1403993564095174 0 0 0 0 2.7352973522538377 -1.2249650915964025 0 -1.2249650915964025 -0.25466686044876596 0 0 0 0 42.749662377864297 -19.893919245604863 0 -19.893919245604863 1.8814394729697597 0 0 0 0 10.357021033836645 3.5013336108970456 0 3.5013336108970456 -17.206961641635544 0 0 0 0 4.7673594807565678 16.567742262959932 0 16.567742262959932 -20.636173913817252 0 0 0 0 5.2709883492352674 14.019357903223362 0 14.019357903223362 -7.770413325831699 0 0 0 0 -10.48617589497735 18.27978018032298 0 18.27978018032298 -0.045870951969228538 0 0 0 0 -0.15705492676028143 0.01860621145314667 0 0.01860621145314667 -0.22171136047012671 0 0 0 0 31.400609303811507 -14.170704349890091 0 -14.170704349890091 8.5198530343230203 0 0 0 0 59.399845168809406 -35.987487460108824 0 -35.987487460108824 0.0010072603899793679 0 0 0 0 86.187300199264428 -10.763694139476677 0 -10.763694139476677 6.9396731186094058 0 0 0 0 63.007401766390103 -29.874016905955212 0 -29.874016905955212 4.1840452241051267 0 0 0 0 61.490822222360293 -21.912165253467549 0 -21.912165253467549 -1.7699887970414494 0 0 0 0 89.083833603290259 -20.976025620223361 0 -20.976025620223361 -21.324164329113021 0 0 0 0 82.904632066580234 -4.5796010721443992 0 -4.5796010721443992 27.600968970696286 0 0 0 0 152.84996703940396 -10.681374407887553 0 -10.681374407887553 -18.82199568875474 0 0 0 0 108.53891904727789 -32.28848765787459 0 -32.28848765787459 0.030021128836276917 0 0 0 0 0.29691926153263992 -0.14494652396535912 0 -0.14494652396535912 0.22176804944137951 0 0 0 0 81.296056665480137 8.9148105907590534 0 8.9148105907590534 -0.026278874486203613 0 0 0 0 91.697525427836808 5.9761775913556709 0 5.9761775913556709 -4.8425931726651683 0 0 0 0 76.563088852934015 8.3755817384790134 0 8.3755817384790134 0.10018031415498606 0 0 0 0 78.724951519478054 6.0957890972255653 0 6.0957890972255653 -1.5622583571155495 0 0 0 0 17.202096344870995 4.2084538951272066 0 4.2084538951272066 0.093079561414412981 0 0 0 0 78.64371613728872 24.945341450386092 0 24.945341450386092 3.8418573846137534 0 0 0 0 72.543609146552626 16.636445770589543 0 16.636445770589543 -7.4672902148727101 0 0 0 0 76.16112460505974 6.3328179206352928 0 6.3328179206352928 3.2105332259782138 0 0 0 0 77.911594377265828 7.4931654358306536 0 7.4931654358306536 1.059981603512071 0 0 0 0 57.893237437398056 1.6467960956959473 0 1.6467960956959473 3.9868130407775126 0 0 0 0 50.693706377915078 27.961465151918055 0 27.961465151918055 5.0636749365715303 0 0 0 0 39.630639490917162 20.011324517945354 0 20.011324517945354 3.5978504140996712 0 0 0 0 63.492403234122321 4.3927778854130608 0 4.3927778854130608 0.17512009457861666 0 0 0 0 35.842633402848662 12.775022972880066 0 12.775022972880066 -0.28354882227569278 0 0 0 0 90.862134952534689 71.465689166216407 0 71.465689166216407 26.228778392398794 0 0 0 0 149.372524992119 -2.3438191217640139 0 -2.3438191217640139 -51.319478531404798 0 0 0 0 174.52838712873199 45.870316255369715 0 45.870316255369715 -4.4023098286052118 0 0 0 0 6.8160539251619809 11.86803728237544 0 11.86803728237544 -3.7467627014155589 0 0 0 0 49.309913535340456 15.876321315121913 0 15.876321315121913 -5.9329649294963929 0 0 0 0 67.784672839440361 25.853867792662413 0 25.853867792662413 2.4340259508423681 0 0 0 0 118.30221781367436 18.109370092309746 0 18.109370092309746 0.53380127551568535 0 0 0 0 90.906852303494816 8.767905487337714 0 8.767905487337714 11.856922969334711 0 0 0 0 64.442329423355915 -29.460794944000014 0 -29.460794944000014 -8.6289127222648077 0 0 0 0 115.41730775164251 13.264780009090302 0 13.264780009090302 12.276813690209565 0 0 0 0 13.443675247832743 -7.5210576611737991 0 -7.5210576611737991 -6.2392996795331337 0 0 0 0 72.168321022014425 14.814285342903519 0 14.814285342903519 -0.077803981465533356 0 0 0 0 123.48611294169677 37.133098251011816 0 37.133098251011816 -10.029466994858463 0 0 0 0 -212.99843772419263 -388.13966970583061 0 -388.13966970583061 0.74570728572672518 0 0 0 0 7.7838832117643619 2.9190130927487701 0 2.9190130927487701 -0.64262898098790588 0 0 0 0 -52.079829285052256 -169.76415944847162 0 -169.76415944847162 -295.57481018558968 0 0 0 0 -213.15216164853473 -354.92448936140534 0 -354.92448936140534 -466.8787173257515 0 0 0 0 -158.20653423835756 -571.10603621337987 0 -571.10603621337987 -3.6136578877407017 0 0 0 0 45.51046572978521 -319.25903606181754 0 -319.25903606181754 -664.78697168399731 0 0 0 0 35.145818354780204 27.45061372281009 0 27.45061372281009 -42.841339787613151 0 0 0 0 -99.080343667854322 -438.35442145440402 0 -438.35442145440402 -427.20018687719107 0 0 0 0 30.928309025883209 -190.71406088376136 0 -190.71406088376136 -279.85981555968817 0 0 0 0 -193.1600271431962 -229.67797463627596 0 -229.67797463627596 13.586084512749039 0 0 0 0 1771.4345774434478 -1502.5237630598276 0 -1502.5237630598276 -1336.6438285138861 0 0 0 0 -6.8516578500129981 -686.08691555677706 0 -686.08691555677706 -847.30616368847905 0 0 0 0 243.87839098734548 -1251.0624263138525 0 -1251.0624263138525 10.392775540937008 0 0 0 0 -92.711002725933213 -300.69606334314085 0 -300.69606334314085 -573.67809772258295 0 0 0 0 948.25024655782909 -199.28738303146031 0 -199.28738303146031 -2922.5537309390879 0 0 0 0 85.267722330292486 17.824265619053293 0 17.824265619053293 0.031643179792568255 0 0 0 0 312.27842474971976 304.8114199427938 0 304.8114199427938 -397.5949609353238 0 0 0 0 195.80937996981083 18.020908934218312 0 18.020908934218312 -57.426417754358226 0 0 0 0 1132.1603527293846 11.968414779853674 0 11.968414779853674 -172.44444326729581 0 0 0 0 1019.2937220729273 -244.78499646709417 0 -244.78499646709417 130.05279599540461 0 0 0 0 92.556076956373545 14.077445862375519 0 14.077445862375519 -1.8326005461081669 0 0 0 0 -117.83685691695428 220.68442363344445 0 220.68442363344445 -123.59243957601961 0 0 0 0 9.1133414381292823 345.67615252649784 0 345.67615252649784 -86.600938907710315 0 0 0 0 155.45715613376524 18.955218473880223 0 18.955218473880223 -177.13396697302306 0 0 0 0 -194.29489267124154 300.93863518771013 0 300.93863518771013 20.48551251547417 0 0 0 0 -288.33088370350015 146.11467440546301 0 146.11467440546301 -57.460803951492721 0 0 0 0 65.980683960893657 149.63043166999603 0 149.63043166999603 -213.17170034720522 0 0 0 0 14.99457754038724 7.1490215190401329 0 7.1490215190401329 -4.2569562786563733 0 0 0 0 86.153851497467258 -23.450330584417316 0 -23.450330584417316 -131.3209756093367 0 0 0 0 -199.34405774573679 205.64104793966044 0 205.64104793966044 17.359976358698304 0 0 0 0 -240.10976420525003 -30.855749734026915 0 -30.855749734026915 226.39902094810941 0 0 0 0 28.825703000446083 -40.868851619568545 0 -40.868851619568545 91.793510608472616 0 0 0 0 26.028225651891262 68.136538896985371 0 68.136538896985371 95.337606197215337 0 0 0 0 -18.718980983227084 73.681221259613039 0 73.681221259613039 96.253355363314768 0 0 0 0 259.60165079274884 324.14849126245258 0 324.14849126245258 329.46518574975312 0 0 0 0 4.3470553229646214 3.679310196003641 0 3.679310196003641 4.3208045651431233 0 0 0 0 35.986563650025346 -92.201916811551882 0 -92.201916811551882 345.92382929165547 0 0 0 0 1344.4169439764046 218.39025833430685 0 218.39025833430685 9.1642739612219088 0 0 0 0 1448.3889778113662 -194.4139175636866 0 -194.4139175636866 36.388798839067618 0 0 0 0 756.90095187379484 32.910844010864878 0 32.910844010864878 -108.20955701515447 0 0 0 0 1031.5060716782609 125.03626129165218 0 125.03626129165218 -84.613520458292214 0 0 0 0 320.68870509353292 103.1509393243393 0 103.1509393243393 25.829002166168721 0 0 0 0 10.493801831848572 10.911489753931193 0 10.911489753931193 11.395146627403996 0 0 0 0 460.94050929858349 -251.92959662254634 0 -251.92959662254634 43.798360765124954 0 0 0 0 448.96532894152188 103.4595454851198 0 103.4595454851198 -7.8784798870287887 0 0 0 0 298.38590817524528 -81.270159216142531 0 -81.270159216142531 -49.387571604479035 0 0 0 0 582.00066229005461 77.801295325561114 0 77.801295325561114 -26.904554544701796 0 0 0 0 -2.1465088917102548 -10.148585269720797 0 -10.148585269720797 73.336794306069805 0 0 0 0 -16.102827014448849 16.043299966561676 0 16.043299966561676 40.29529829591047 0 0 0 0 -35.56418077305716 24.960697931954655 0 24.960697931954655 121.66576823402784 0 0 0 0 7.0258716827540582 15.376452115594617 0 15.376452115594617 21.57194808069432 0 0 0 0 -32.661003451386932 81.50821770847574 0 81.50821770847574 59.526626685015344 0 0 0 0 15.47779709290262 65.868519923968506 0 65.868519923968506 9.0843167244584038 0 0 0 0 -3.0166041150231138 7.3853069552863957 0 7.3853069552863957 10.460412286733508 0 0 0 0 2.74019277383195 23.258957183417351 0 23.258957183417351 37.803471555784768 0 0 0 0 66.8619049575791 63.029736344338744 0 63.029736344338744 -18.335572898149167 0 0 0 0 29.640597074001562 72.887852015743192 0 72.887852015743192 -4.1215753560136363 0 0 0 0 7.0644381240563234 24.331419438634839 0 24.331419438634839 6.4321357143021487 0 0 0 0 76.255250497484667 37.872197533484268 0 37.872197533484268 -3.1416659787028038 0 0 0 0 30.228989524941426 10.784255661633324 0 10.784255661633324 -9.5886946118125707 0 0 0 0 34.952466140122851 102.05958640038148 0 102.05958640038148 -63.715436795131609 0 0 0 0 117.37144596509461 -94.901643120866083 0 -94.901643120866083 231.37492244652549 0 0 0 0 20.14511625013256 -13.539012849519622 0 -13.539012849519622 76.733465108652126 0 0 0 0 2.9713385916693937 0.54069280174286405 0 0.54069280174286405 -0.95948902399742586 0 0 0 0 -5.9675744395183585 5.285325233019563 0 5.285325233019563 5.2788149618792861 0 0 0 0 222.57830700103659 22.071658836849565 0 22.071658836849565 -149.8248349235555 0 0 0 0 43.851113680153503 -2.6605637917527929 0 -2.6605637917527929 -11.193697010148753 0 0 0 0 110.36432879223139 -65.342419779027068 0 -65.342419779027068 47.793742132420448 0 0 0 0 2.6144214582163841 13.049232776163535 0 13.049232776163535 39.318369162504951 0 0 0 0 16.858001219341531 -15.246055232757499 0 -15.246055232757499 49.21751098404593 0 0 0 0 0.13079883647151291 8.3570707031008169 0 8.3570707031008169 16.216532220963927 0 0 0 0 3.2013294958596816 0.2440649834315991 0 0.2440649834315991 16.815338668029653 0 0 0 0 0.25325693402555771 -10.020749018602146 0 -10.020749018602146 -4.4893725090837506 0 0 0 0 31.116672996431589 7.6861387832545915 0 7.6861387832545915 -1.7332334736147459 0 0 0 0 -5.1238248024164932 26.26301465009692 0 26.26301465009692 -15.459718258670819 0 0 0 0 3.9546320277731866 3.148859696620093 0 3.148859696620093 -1.752760736350865 0 0 0 0 -13.417250091297319 14.454178284984209 0 14.454178284984209 17.322851610450016 0 0 0 0 0.96168520308418692 1.1923971835677243 0 1.1923971835677243 -0.41951314051293132 0 0 0 0 49.722932635122561 -38.692491419460566 0 -38.692491419460566 -8.7948891703044865 0 0 0 0 -2.9973567783599719 -10.46968175551865 0 -10.46968175551865 28.535939365559898 0 0 0 0 -33.341988231186406 9.3530279649976364 0 9.3530279649976364 20.753387024388758 0 0 0 0 42.194366570049169 -0.042406919267364174 0 -0.042406919267364174 23.898891112936326 0 0 0 0 4.5195340300633688 -1.7809972223788009 0 -1.7809972223788009 30.509758421972947 0 0 0 0 4.6020993881247705 -0.98755378516466408 0 -0.98755378516466408 28.295136747377114 0 0 0 0 -4.2159040563274175 1.2085970565830166 0 1.2085970565830166 30.098329848891808 0 0 0 0 6.431863311670952 -0.95957577751035217 0 -0.95957577751035217 -0.56533630669408819 0 0 0 0 46.09275264813914 57.00858611996955 0 57.00858611996955 61.846256609500415 0 0 0 0 4.7121267444017576 5.0375274899124634 0 5.0375274899124634 9.7941749896281181 0 0 0 0 34.164698172258795 -5.2891348456271317 0 -5.2891348456271317 0.43449349875481857 0 0 0 0 5.9331360033934519 -1.6022527460854405 0 -1.6022527460854405 -0.057975772921054158 0 0 0 0 34.446271093904215 26.551636447509111 0 26.551636447509111 0.7622609809950518 0 0 0 0 11.925328240596571 -0.81780308320487194 0 -0.81780308320487194 0.16815691676184752 0 0 0 0 29.835830477415584 22.521588720814634 0 22.521588720814634 15.452364086387888 0 0 0 0 16.230948162148707 4.2997976213928268 0 4.2997976213928268 8.1048679418397569 0 0 0 0 36.385784252595002 -1.0917977575320776 0 -1.0917977575320776 -2.483378150920216 0 0 0 0 33.506949087008252 18.341735004129873 0 18.341735004129873 17.037781422789067 0 0 0 0 33.978195707746636 27.044777249041886 0 27.044777249041886 12.494314105917965 0 0 0 0 17.366465951701684 11.165247647315482 0 11.165247647315482 14.255737613905012 0 0 0 0 58.888027277542278 16.098068529663124 0 16.098068529663124 -7.1001513991629963 0 0 0 0 184.59280713097542 150.40418197151962 0 150.40418197151962 -42.729424689523626 0 0 0 0 -7.9632548944755399 7.1841011169532152 0 7.1841011169532152 1.2021655993174836 0 0 0 0 -10.787836046605662 186.22080445114716 0 186.22080445114716 142.39684856527583 0 0 0 0 97.15106663251936 13.170242966045407 0 13.170242966045407 -5.9815731054604839 0 0 0 0 2876.3696218410623 1683.1943293987099 0 1683.1943293987099 246.51098434097028 0 0 0 0 18.057604954960652 -5.2957723775107937 0 -5.2957723775107937 5.7199285958821591 0 0 0 0 1131.9001564403297 1935.042173838395 0 1935.042173838395 2162.1643337544601 0 0 0 0 245.18452353212342 -334.21279888881691 0 -334.21279888881691 209.74375461203226 0 0 0 0 609.77335760802089 -302.67570597583585 0 -302.67570597583585 143.18332205768525 0 0 0 0 1223.2447176960122 704.47452730255623 0 704.47452730255623 532.38609223336664 0 0 0 0 44.243401775433256 -18.083645486600481 0 -18.083645486600481 5.9350193704456942 0 0 0 0 1177.0335772524413 404.88011861721225 0 404.88011861721225 254.6157856142438 0 0 0 0 1555.066965124337 529.62523987253701 0 529.62523987253701 263.23056410740043 0 0 0 0 1500.1562027547334 947.80670087036003 0 947.80670087036003 -16.815893251203761 0 0 0 0 20.727795507458978 -4.9594050118163864 0 -4.9594050118163864 -0.24208294740091324 0 0 0 0 579.76467703166418 546.74046290249589 0 546.74046290249589 497.69802203565803 0 0 0 0 3494.978640695801 776.12493370181846 0 776.12493370181846 -438.79236780471996 0 0 0 0 2515.2112275772815 137.52448336142845 0 137.52448336142845 1.9677738594758425 0 0 0 0 2172.6132212894518 -10.741081183526425 0 -10.741081183526425 -142.65383282299865 0 0 0 0 1990.2908438458398 455.41968922183872 0 455.41968922183872 -3.97356430139655 0 0 0 0 954.93530226054281 -176.29085378355242 0 -176.29085378355242 56.636165775052632 0 0 0 0 2211.9956478750246 194.17793255189298 0 194.17793255189298 -198.71374426455935 0 0 0 0 23.127154362590602 0.070257567308971147 0 0.070257567308971147 1.5712565137144567 0 0 0 0 104.7098939804855 -22.281266553950974 0 -22.281266553950974 5.7236757798005575 0 0 0 0 94.744555393393966 -16.625689943284158 0 -16.625689943284158 0.025279466835441154 0 0 0 0 1.3246027772505613 2.1305423483944992 0 2.1305423483944992 0.90835233829842177 0 0 0 0 90.076600554664765 -15.237204113564006 0 -15.237204113564006 1.9454227043637431 0 0 0 0 90.354158043730422 -16.944832267230879 0 -16.944832267230879 5.8213667329547505 0 0 0 0 94.319725658737298 -13.049505606033296 0 -13.049505606033296 8.4340055688770406 0 0 0 0 78.971032213609163 -21.778765974303447 0 -21.778765974303447 2.5869249616470418 0 0 0 0 159.88957652894896 -75.147329138481382 0 -75.147329138481382 -21.411364080006592 0 0 0 0 589.62632583177037 200.20171268437622 0 200.20171268437622 96.136861776239243 0 0 0 0 85.224488338717492 -27.129284209664206 0 -27.129284209664206 36.442849369521511 0 0 0 0 69.5140373138629 -21.446896266861827 0 -21.446896266861827 2.6664652090995906 0 0 0 0 149.69242324199877 -34.870262738430029 0 -34.870262738430029 -8.6779408713979365 0 0 0 0 82.124958435932058 -65.603859842010138 0 -65.603859842010138 302.15463866057939 0 0 0 0 141.70044350312673 -8.3241056420206405 0 -8.3241056420206405 -14.180899296752614 0 0 0 0 112.35861263815241 -35.988898451506543 0 -35.988898451506543 8.0311098589199901 0 0 0 0 11.448251075157586 -7.7695615668375808 0 -7.7695615668375808 -4.3205028854282475 0 0 0 0 105.29116318196975 -11.828448281896073 0 -11.828448281896073 5.4043149691910912 0 0 0 0 66.906645130489778 7.8398117339800137 0 7.8398117339800137 82.791612388200519 0 0 0 0 394.74215053996886 -23.072922073417772 0 -23.072922073417772 -62.538791422400777 0 0 0 0 21.065772755623641 -2.4724332690164488 0 -2.4724332690164488 -3.6633055254035725 0 0 0 0 390.47206382431614 84.916042258059292 0 84.916042258059292 15.908068637664655 0 0 0 0 678.02570960656158 248.38278437361919 0 248.38278437361919 4.9194440860184159 0 0 0 0 737.4277324737559 155.93215874519228 0 155.93215874519228 -45.246722482821042 0 0 0 0 596.01888675106238 306.1919682558613 0 306.1919682558613 114.18974440452916 0 0 0 0 235.2885504295482 794.69644873044513 0 794.69644873044513 -21.82098055382221 0 0 0 0 167.82770606231497 150.96258510633879 0 150.96258510633879 151.01207604222429 0 0 0 0 81.685837861412438 -20.153271492015332 0 -20.153271492015332 -0.0013608618611842573 0 0 0 0 81.587848852126626 -21.223137844328392 0 -21.223137844328392 1.1497345289863148 0 0 0 0 79.714601803396363 -20.270784356828173 0 -20.270784356828173 7.1913706518947969 0 0 0 0 79.490695469904608 -22.516815839407869 0 -22.516815839407869 3.3580942023908809 0 0 0 0 74.331224987166934 -20.683737666858978 0 -20.683737666858978 2.8863557560581734 0 0 0 0 -429.9437357679999 18.270653202917856 0 18.270653202917856 63.159488810284813 0 0 0 0 -223.61277053541926 1489.1249917895109 0 1489.1249917895109 652.05677572545892 0 0 0 0 2575.8960650526278 1960.0834021867586 0 1960.0834021867586 512.90078444686105 0 0 0 0 1993.417641910899 945.25389938876424 0 945.25389938876424 -25.935697051309489 0 0 0 0 2109.9651422240422 1021.3661515154813 0 1021.3661515154813 -341.5914085879557 0 0 0 0 3702.5564692612097 -349.41652640203233 0 -349.41652640203233 -393.75067309919348 0 0 0 0 4617.4335260408134 -449.12969378238199 0 -449.12969378238199 -496.44930104873947 0 0 0 0 4803.8723606489657 729.28391964723642 0 729.28391964723642 -312.62770314153227 0 0 0 0 70.378325599968377 -16.631690911492115 0 -16.631690911492115 1.9167233045957714 0 0 0 0 66.84649291941605 -11.142710682731366 0 -11.142710682731366 -7.4203803345051078 0 0 0 0 5434.1662380649359 -1986.755002180329 0 -1986.755002180329 2688.1432250891012 0 0 0 0 50.590379293833394 -16.320866817289602 0 -16.320866817289602 -0.025602872335539487 0 0 0 0 2496.5236285667056 4765.2044811322676 0 4765.2044811322676 1105.656760676346 0 0 0 0 34.156209911468693 -1.8359750029724324 0 -1.8359750029724324 -0.34087513552776261 0 0 0 0 2495.7745540855976 -1234.0905211956253 0 -1234.0905211956253 441.1354722287706 0 0 0 0 -623.11398515108158 3084.9595696570468 0 3084.9595696570468 205.19570167457641 0 0 0 0 38.276712400242616 11.606704501114621 0 11.606704501114621 2.8732972191649884 0 0 0 0 1864.5991406787507 -266.6741152297742 0 -266.6741152297742 -308.06079310132191 0 0 0 0 441.11210633212249 -950.99560321100614 0 -950.99560321100614 421.53314280098994 0 0 0 0 1779.4469646006182 388.83899907275247 0 388.83899907275247 -208.39764345658 0 0 0 0 1582.3764752235438 84.107699338153225 0 84.107699338153225 -385.35393802563021 0 0 0 0 1026.3056417954649 351.48551400479016 0 351.48551400479016 -203.84638237619072 0 0 0 0 1418.4602383945348 27.220718139166962 0 27.220718139166962 -123.31810952139449 0 0 0 0 1250.0992998900547 -232.4009542380536 0 -232.4009542380536 -308.69180741103764 0 0 0 0 1063.4387437116384 144.42007703691581 0 144.42007703691581 294.80698461054828 0 0 0 0 1019.3486092896783 183.20932723699511 0 183.20932723699511 -76.392195345903446 0 0 0 0 1068.0404654123049 147.10801002697036 0 147.10801002697036 -49.970531400014714 0 0 0 0 990.74260395366582 219.84971458272543 0 219.84971458272543 -12.610240178584434 0 0 0 0 970.57416512827331 153.07474996118265 0 153.07474996118265 -0.042443642186412944 0 0 0 0 1069.8468831536738 222.11572379274196 0 222.11572379274196 -95.946880844999214 0 0 0 0 991.07375623077678 225.32145396200235 0 225.32145396200235 -102.80199819957124 0 0 0 0 1016.6961895448476 203.57983130021023 0 203.57983130021023 -87.889112722953541 0 0 0 0 889.62733026937349 156.54119026256308 0 156.54119026256308 -79.55203629980258 0 0 0 0 1026.5828733748167 247.42504523281406 0 247.42504523281406 -84.999739698430858 0 0 0 0 1087.5217741134111 242.99680267342728 0 242.99680267342728 -84.776417831815081 0 0 0 0 1094.5427248741034 226.33704939862128 0 226.33704939862128 -105.29345660408097 0 0 0 0 1045.2816825362643 245.82694672649248 0 245.82694672649248 -53.921771837878055 0 0 0 0 1017.2820891107986 206.37288678035713 0 206.37288678035713 -101.46111676424016 0 0 0 0 1017.1457649111908 187.40300319291632 0 187.40300319291632 -59.660456243224601 0 0 0 0 1062.961536634044 184.38226217664896 0 184.38226217664896 -107.95403051004268 0 0 0 0 960.39000314749137 95.665515517043559 0 95.665515517043559 -97.20561504676698 0 0 0 0 1153.1040199916752 108.61231914873747 0 108.61231914873747 -162.44936928795096 0 0 0 0 881.50013995090012 -212.30413116385304 0 -212.30413116385304 -256.36773023510432 0 0 0 0 2.1613420955356446 1.6882123123506148 0 1.6882123123506148 -0.74045598360850473 0 0 0 0 941.31738440446497 93.309966423239814 0 93.309966423239814 -97.476867228429882 0 0 0 0 734.45867173619263 -22.816238424622803 0 -22.816238424622803 -32.982476373949766 0 0 0 0 1044.028949759806 4.1779271035716405 0 4.1779271035716405 -46.939185548968425 0 0 0 0 982.58148241311937 184.34372691464509 0 184.34372691464509 -57.040862081925042 0 0 0 0 880.12979228599579 186.46630105979773 0 186.46630105979773 -40.354852797445403 0 0 0 0 892.50298912889411 177.19719238121741 0 177.19719238121741 -65.368117651153966 0 0 0 0 1019.4346591169433 189.17937631221963 0 189.17937631221963 -97.448397809431867 0 0 0 0 860.19411879502877 236.14373674559187 0 236.14373674559187 -41.0682941903749 0 0 0 0 421.36727672699635 -10.518770118230719 0 -10.518770118230719 26.819123029224727 0 0 0 0 690.9184781575168 121.70003910614275 0 121.70003910614275 -28.572650465298011 0 0 0 0 697.05377976005548 113.65851389323325 0 113.65851389323325 -41.862038580762487 0 0 0 0 0.85823024806083481 2.7820035076186826 0 2.7820035076186826 -1.5197932910672787 0 0 0 0 80.651358809358499 -25.784318270066152 0 -25.784318270066152 34.697371694683852 0 0 0 0 357.54106531899015 72.256009243262866 0 72.256009243262866 22.57704109214778 0 0 0 0 811.65211083020404 -731.68382491131797 0 -731.68382491131797 305.17538240474823 0 0 0 0 -2.1182473324819 -2.8828840473651667 0 -2.8828840473651667 -1.9605694223920667 0 0 0 0 596.11214526894764 -491.89989758837993 0 -491.89989758837993 409.51885779728707 0 0 0 0 967.4052448317816 -547.14615586690468 0 -547.14615586690468 175.8988147447659 0 0 0 0 234.73349232989131 -30.22625778015739 0 -30.22625778015739 -45.611534518050405 0 0 0 0 1262.5869069428736 -535.52251154989494 0 -535.52251154989494 -88.538637656526816 0 0 0 0 10.819874057531706 -10.801785696229359 0 -10.801785696229359 79.246835775170609 0 0 0 0 349.66057597145846 -25.506185472996663 0 -25.506185472996663 -68.785334354390898 0 0 0 0 1.0649748033768702 -1.0469130477724491 0 -1.0469130477724491 -1.3059615316198385 0 0 0 0 1326.236804848726 -502.08922495207759 0 -502.08922495207759 -71.995177708160213 0 0 0 0 1284.0092350981431 -55.972661459838264 0 -55.972661459838264 -237.5736464469029 0 0 0 0 1329.1360843697767 -503.79256829815461 0 -503.79256829815461 -274.96360721700592 0 0 0 0 1391.3193421830656 -514.69275075327573 0 -514.69275075327573 -326.24431099683625 0 0 0 0 1283.0423770960479 -646.37780027069562 0 -646.37780027069562 -101.20556407152731 0 0 0 0 1246.1350839292318 -543.06201810269533 0 -543.06201810269533 136.29886492143851 0 0 0 0 1514.0181204436594 -947.45635173015364 0 -947.45635173015364 75.597718599228955 0 0 0 0 1276.5108786624696 -610.64993917282675 0 -610.64993917282675 -178.02471305363019 0 0 0 0 1446.3590169682284 -830.65727977120832 0 -830.65727977120832 -6.2594353106578353 0 0 0 0 1527.1655305791501 -709.01384609214438 0 -709.01384609214438 -425.50539228659102 0 0 0 0 1398.7936803295306 -376.18948569069903 0 -376.18948569069903 -776.76814030260766 0 0 0 0 1342.0497397695945 -63.632380405237051 0 -63.632380405237051 -624.06505432228619 0 0 0 0 3492.7468502736519 854.25394136944669 0 854.25394136944669 -1180.0480551166559 0 0 0 0 2593.9647560840385 -357.85421012904055 0 -357.85421012904055 -585.23181645487216 0 0 0 0 3501.9371783058232 -914.68507013398221 0 -914.68507013398221 -560.36349766125795 0 0 0 0 2340.0275133812247 -1170.7683866863317 0 -1170.7683866863317 116.08822494333141 0 0 0 0 2336.7452395317669 -1254.8186087509039 0 -1254.8186087509039 -240.38932314275007 0 0 0 0 979.98866920438013 -628.14785635258511 0 -628.14785635258511 308.38675412198666 0 0 0 0 921.59252007144005 -1374.5893194781195 0 -1374.5893194781195 1177.6503870387569 0 0 0 0 989.86274279427926 -836.96119798662835 0 -836.96119798662835 494.1703463291044 0 0 0 0 338.54103848279919 -470.59002148842745 0 -470.59002148842745 741.63601814728202 0 0 0 0 368.19406063332281 -17.349469615034423 0 -17.349469615034423 204.62919250467007 0 0 0 0 1113.8924583865737 -2213.2898633884988 0 -2213.2898633884988 3037.1897198166039 0 0 0 0 3492.6425908977953 -1986.55274558324 0 -1986.55274558324 95.47170034351187 0 0 0 0 3500.1620937414045 -79.914941754610012 0 -79.914941754610012 -236.00720226231695 0 0 0 0 232.38036530563841 -103.06500336658428 0 -103.06500336658428 -79.9211239715587 0 0 0 0 38.193352712713335 29.904334141200927 0 29.904334141200927 15.826330796989765 0 0 0 0 169.16178547402342 81.893180928723154 0 81.893180928723154 -216.61132568618632 0 0 0 0 12.181645750604973 -14.36230425423085 0 -14.36230425423085 -43.10526902106988 0 0 0 0 2518.9179560602788 -504.85296231843262 0 -504.85296231843262 21.430722798879543 0 0 0 0 3496.559838301182 -994.01391008456403 0 -994.01391008456403 198.11429927809485 0 0 0 0 14.147945944383025 6.2829189530012997 0 6.2829189530012997 -0.71083531261042321 0 0 0 0 12.801933227346222 3.0241901766837316 0 3.0241901766837316 -11.488867360881036 0 0 0 0 73.740003329089177 15.574558169761673 0 15.574558169761673 -190.03803379539272 0 0 0 0 602.27378306766241 -81.476664087215426 0 -81.476664087215426 -48.512468400481339 0 0 0 0 1037.8913388485234 -16.318807507678002 0 -16.318807507678002 -592.37238155722889 0 0 0 0 1081.6477529226104 -346.30558612044524 0 -346.30558612044524 132.63048596786143 0 0 0 0 901.27268386402284 -320.72038513610596 0 -320.72038513610596 141.36614205136993 0 0 0 0 1079.3057052968943 -311.04885069756574 0 -311.04885069756574 150.68874000452115 0 0 0 0 1314.8862945284127 -437.24214989882921 0 -437.24214989882921 99.999557354286026 0 0 0 0 1121.9723976764435 -233.49986396633949 0 -233.49986396633949 -115.11917302667598 0 0 0 0 1249.6564331722475 -339.76565306724297 0 -339.76565306724297 -141.16748744561886 0 0 0 0 1418.8211683668014 -344.40402927184039 0 -344.40402927184039 -404.99205233982366 0 0 0 0 1099.3997436991049 -330.59937211308011 0 -330.59937211308011 -201.12052927290415 0 0 0 0 1359.1081661200624 -237.08119354524126 0 -237.08119354524126 -178.15253307054354 0 0 0 0 1420.239328806987 -45.1960390742247 0 -45.1960390742247 -75.627836770043359 0 0 0 0 1734.9018587790051 -256.00378936466177 0 -256.00378936466177 -201.10478343234149 0 0 0 0 2275.404520746124 144.17310084084022 0 144.17310084084022 -42.637703999607766 0 0 0 0 1736.5693112747867 -697.60791498781009 0 -697.60791498781009 326.37089791085691 0 0 0 0 3375.0410723413443 -897.67596866126541 0 -897.67596866126541 323.91963355498581 0 0 0 0 13.180046570570681 9.4254676950232721 0 9.4254676950232721 9.5172697329703091 0 0 0 0 42.437502698994649 626.50965808760361 0 626.50965808760361 578.8673698527582 0 0 0 0 2741.654163167048 617.11671320199503 0 617.11671320199503 552.50615341070807 0 0 0 0 1513.0083269525203 422.04447175609585 0 422.04447175609585 1141.6615835732068 0 0 0 0 1246.0850100305215 420.3340926636522 0 420.3340926636522 723.9931233981074 0 0 0 0 1316.1469419546047 44.885904407194175 0 44.885904407194175 508.55489545835485 0 0 0 0 1040.4606060463193 149.87621231156845 0 149.87621231156845 370.08499137401861 0 0 0 0 1637.2494459925365 275.48353658207998 0 275.48353658207998 175.44665884169353 0 0 0 0 1618.2046060062712 266.55099217614838 0 266.55099217614838 485.24029118265435 0 0 0 0 1331.6695466807287 171.65215507035623 0 171.65215507035623 169.51930683319438 0 0 0 0 1571.0411584191097 232.83162293499856 0 232.83162293499856 -35.495972866753618 0 0 0 0 1193.2108119165277 97.121318886530389 0 97.121318886530389 -84.185810983385181 0 0 0 0 1109.6305746844446 133.46730874504715 0 133.46730874504715 -98.000310856091346 0 0 0 0 1271.6466739420139 198.00364157050649 0 198.00364157050649 -123.91345110627356 0 0 0 0 1170.2761130101717 321.68941660575831 0 321.68941660575831 -13.580159641133832 0 0 0 0 1233.3552693720831 416.78376926757574 0 416.78376926757574 303.27971657259786 0 0 0 0 1115.5547705531208 257.13646717955589 0 257.13646717955589 97.892149718428755 0 0 0 0 1025.0248985216604 268.3417214867743 0 268.3417214867743 111.55875719297512 0 0 0 0 995.17358724668156 259.70654426040437 0 259.70654426040437 3.0644058726425101 0 0 0 0 984.59273745062092 199.21584943154517 0 199.21584943154517 -3.7202430980869394 0 0 0 0 793.63136039546953 143.00050891164392 0 143.00050891164392 2.1603613208226307 0 0 0 0 739.65285716435756 149.73705178694308 0 149.73705178694308 176.55327385055375 0 0 0 0 886.49076798970782 253.93471595315964 0 253.93471595315964 112.15412833628397 0 0 0 0 833.35503518545738 191.40320585852896 0 191.40320585852896 194.08548054309358 0 0 0 0 635.52184153623239 181.37250250277202 0 181.37250250277202 275.30027812155777 0 0 0 0 1033.2752052174328 212.492628628891 0 212.492628628891 245.46125926886316 0 0 0 0 846.33186325482529 241.40954259233899 0 241.40954259233899 331.21615461140937 0 0 0 0 742.28311052712525 138.66282977634523 0 138.66282977634523 476.35144396519718 0 0 0 0 687.16334036655098 -19.004437557266499 0 -19.004437557266499 151.32985743037807 0 0 0 0 599.9063498174728 -118.9153318405281 0 -118.9153318405281 440.70656411293521 0 0 0 0 889.64160240332421 -24.046559603019432 0 -24.046559603019432 313.42672051970703 0 0 0 0 843.89425913781452 15.411407635613614 0 15.411407635613614 370.06512424406583 0 0 0 0 606.41124785890679 -115.44512489808005 0 -115.44512489808005 232.22707675297988 0 0 0 0 493.59926291903685 -255.71191162885728 0 -255.71191162885728 281.51719382643387 0 0 0 0 590.63550438428501 -127.38491661669559 0 -127.38491661669559 268.96659671814461 0 0 0 0 570.77528807456747 -30.688240975644646 0 -30.688240975644646 315.36942151331823 0 0 0 0 877.44861017526273 -159.43786223318261 0 -159.43786223318261 316.79834102797531 0 0 0 0 1035.7602076873009 178.21349631204475 0 178.21349631204475 153.33519458207525 0 0 0 0 764.45173031209561 320.16829899120739 0 320.16829899120739 198.21231939160816 0 0 0 0 1223.5210527457311 161.29073609574709 0 161.29073609574709 125.90922595673362 0 0 0 0 1240.8959492702925 465.22886099089664 0 465.22886099089664 -32.62354981556507 0 0 0 0 1498.6023324360231 -100.88899139320603 0 -100.88899139320603 305.2885746531183 0 0 0 0 1325.3645541138249 126.9360354209125 0 126.9360354209125 424.67384233509688 0 0 0 0 960.99824822891969 121.45736454053394 0 121.45736454053394 582.47462712290508 0 0 0 0 1079.4353322960014 -133.85683769431694 0 -133.85683769431694 442.82046722397081 0 0 0 0 1608.0965526504369 -234.79655192258747 0 -234.79655192258747 867.691170555795 0 0 0 0 2439.7153296869183 1.5341470766786642 0 1.5341470766786642 150.65881245930632 0 0 0 0 1789.7745442633804 1140.1164757087149 0 1140.1164757087149 256.21730929036039 0 0 0 0 1323.8180736709328 672.22164740562903 0 672.22164740562903 208.11346579528345 0 0 0 0 991.75122024730808 460.34235539624387 0 460.34235539624387 193.85139263454363 0 0 0 0 1653.5801705194772 375.52625688273196 0 375.52625688273196 -17.721729898466947 0 0 0 0 1488.929119934226 366.51230411516872 0 366.51230411516872 6.4898142289764564 0 0 0 0 1500.0855584199799 547.50213214176097 0 547.50213214176097 -126.42194536363581 0 0 0 0 1527.6199839469919 202.8298102924324 0 202.8298102924324 -517.47934067360927 0 0 0 0 1522.526728699333 456.25167507589674 0 456.25167507589674 -274.40417279225721 0 0 0 0 1343.6152880597583 363.80954384008191 0 363.80954384008191 -104.67416350622761 0 0 0 0 1640.1030582776802 554.74694396785196 0 554.74694396785196 -3.3455656590585932 0 0 0 0 1347.9181340244918 412.26032916254917 0 412.26032916254917 221.85688419954158 0 0 0 0 1087.9714050343027 474.65663423647038 0 474.65663423647038 209.28541920597081 0 0 0 0 2444.3783646989032 1092.641195229008 0 1092.641195229008 -474.55192348971855 0 0 0 0 1402.2630442714217 184.63547065608259 0 184.63547065608259 -84.291974014946732 0 0 0 0 1958.5453121715691 1235.0717595189158 0 1235.0717595189158 -628.49169778807254 0 0 0 0 3.6393240629529524 -0.061248153995990151 0 -0.061248153995990151 -6.9461534955642943 0 0 0 0 3499.9046987666552 166.28568457278399 0 166.28568457278399 -172.61565397767961 0 0 0 0 3401.3689311975904 148.43970343909717 0 148.43970343909717 -103.97076362643251 0 0 0 0 4.7985849553766311 -2.0054951429529666 0 -2.0054951429529666 -17.550442818088605 0 0 0 0 1104.2556927629412 483.93996469425269 0 483.93996469425269 158.69659724998564 0 0 0 0 1075.8302413233596 282.90414884575125 0 282.90414884575125 -209.89847255638597 0 0 0 0 181.952182314526 73.128461996629767 0 73.128461996629767 391.60540307383462 0 0 0 0 3499.7290675313016 64.52303520472978 0 64.52303520472978 -34.308567825347971 0 0 0 0 2.8850972424871602 -10.579476495089622 0 -10.579476495089622 -28.244502806261217 0 0 0 0 3351.1594693099614 -66.783520375319199 0 -66.783520375319199 -145.15180345814542 0 0 0 0 49.146872016965062 8.0949082999563871 0 8.0949082999563871 8.6570820585448018 0 0 0 0 15.500885889181518 -0.34809478294482687 0 -0.34809478294482687 22.422292530410232 0 0 0 0 13.32226578845075 4.0763193054224303 0 4.0763193054224303 13.692150638094063 0 0 0 0 -4.2383638674509712 14.605960589241022 0 14.605960589241022 25.443055002745496 0 0 0 0 13.186003281807643 1.2428779541855874 0 1.2428779541855874 20.484756256712899 0 0 0 0 18.850020804646192 11.15444061598464 0 11.15444061598464 28.816814270026498 0 0 0 0 19.871908140383312 7.4234856211724036 0 7.4234856211724036 22.064898589956726 0 0 0 0 37.649813793628709 -1.346236395730557 0 -1.346236395730557 23.850985672639581 0 0 0 0 65.673737985882326 16.715313232244171 0 16.715313232244171 25.255607850439674 0 0 0 0 -0.72686962432777591 1.4866059005846779 0 1.4866059005846779 4.7199784295827723 0 0 0 0 38.620913506481884 -6.2342055284498201 0 -6.2342055284498201 41.735189008541056 0 0 0 0 76.215045733646662 2.3861555279563547 0 2.3861555279563547 1.003436302931874 0 0 0 0 82.856189218509826 46.027193691456887 0 46.027193691456887 -38.933681753600013 0 0 0 0 65.999874167355301 78.317265926554228 0 78.317265926554228 64.095528915535397 0 0 0 0 40.502501873044821 37.629917200192267 0 37.629917200192267 6.9024341270096556 0 0 0 0 7.9896834782977564 17.690363743586715 0 17.690363743586715 10.937043590160577 0 0 0 0 70.450217988400254 -2.4374732432011115 0 -2.4374732432011115 10.477904117994512 0 0 0 0 -53.604852381155069 60.501244712133484 0 60.501244712133484 158.21440436919875 0 0 0 0 15.682602156233315 16.037572876506573 0 16.037572876506573 88.723883133981872 0 0 0 0 6.2426487486831022 1.7155528116264804 0 1.7155528116264804 -0.093824718261444673 0 0 0 0 85.989007826516172 70.149703425180633 0 70.149703425180633 5.8181434277958033 0 0 0 0 -0.26091219245250841 5.9967305415475991 0 5.9967305415475991 2.6766459350520533 0 0 0 0 8.8272033374523744 20.396109546041771 0 20.396109546041771 -21.435715434336771 0 0 0 0 90.437131230937666 22.807902583251234 0 22.807902583251234 37.004814934104616 0 0 0 0 -69.402565799668082 1.0986132150692356 0 1.0986132150692356 35.381606953043956 0 0 0 0 7.3155178809329868 2.8897981116231692 0 2.8897981116231692 0.030739879340283549 0 0 0 0 -23.973089620172686 17.857969159634649 0 17.857969159634649 -14.948682170781467 0 0 0 0 1.5725026871981527 1.4050356858529014 0 1.4050356858529014 -0.56308890992330163 0 0 0 0 31.374272925429977 1.9640086636291016 0 1.9640086636291016 -18.349003078138594 0 0 0 0 12.451053379651114 2.3583930570437293 0 2.3583930570437293 -0.64234457385027965 0 0 0 0 -42.731770093800151 -2.6611578962110798 0 -2.6611578962110798 -4.5773095615058992 0 0 0 0 18.323763426698861 -2.7956224247727732 0 -2.7956224247727732 -40.020807178441373 0 0 0 0 19.211976682257955 15.524430530329482 0 15.524430530329482 73.953897476562815 0 0 0 0 31.016597246538538 5.1351070999496731 0 5.1351070999496731 -1.7518203708647437 0 0 0 0 40.320838648534846 13.376228951366102 0 13.376228951366102 49.776757564996728 0 0 0 0 12.791865426042932 5.4866656368590156 0 5.4866656368590156 59.742146839693305 0 0 0 0 27.345986711268779 49.790176688687097 0 49.790176688687097 36.004276370504158 0 0 0 0 24.011345243707183 56.855691032794311 0 56.855691032794311 41.009600610505004 0 0 0 0 0.98979252089009151 1.3031234097698015 0 1.3031234097698015 -0.46008015378629263 0 0 0 0 32.547760005560121 -1.4577825155538449 0 -1.4577825155538449 -34.236647091612213 0 0 0 0 18.265881611807117 5.5816887192200113 0 5.5816887192200113 5.5953506809236035 0 0 0 0 110.59667879474 24.084785202738203 0 24.084785202738203 36.916652044272269 0 0 0 0 55.794094512239099 32.567797498588334 0 32.567797498588334 45.045919687341666 0 0 0 0 67.173680072533898 17.135655603109626 0 17.135655603109626 -30.560098469675722 0 0 0 0 25.33333695345209 48.897183247423357 0 48.897183247423357 30.110588688647113 0 0 0 0 -41.161235544313968 -38.005639388101827 0 -38.005639388101827 42.385387864254881 0 0 0 0 -9.9731699159516154 9.097678001901599 0 9.097678001901599 34.600688176467571 0 0 0 0 -6.6376626304409001 65.030470313998194 0 65.030470313998194 52.622698786195542 0 0 0 0 -13.878137910480206 -3.863887801749371 0 -3.863887801749371 12.348505439011451 0 0 0 0 -4.8862887480970585 -2.4192633542705271 0 -2.4192633542705271 13.800479881239708 0 0 0 0 -39.884878192970064 -15.879720526670098 0 -15.879720526670098 32.236041474412445 0 0 0 0 20.347243274736684 -14.073441778074084 0 -14.073441778074084 25.868478362232963 0 0 0 0 6.5830265521944966 -11.780584054388783 0 -11.780584054388783 93.892943529177501 0 0 0 0 -10.778309406079643 13.883791009099355 0 13.883791009099355 57.294569699073691 0 0 0 0 6.0379380418162327 8.323308626684593 0 8.323308626684593 24.028921163936118 0 0 0 0 3.0958514224330429 4.4356395276511194 0 4.4356395276511194 19.729149168197182 0 0 0 0 1.8045007137855009 -0.12700984713370644 0 -0.12700984713370644 25.023364388689401 0 0 0 0 7.952784467222159 -14.236623149100936 0 -14.236623149100936 72.034117971132218 0 0 0 0 8.3224012147550184 27.169499002516673 0 27.169499002516673 57.747083802118141 0 0 0 0 38.241860596208426 28.762800099769265 0 28.762800099769265 -7.1527466072111565 0 0 0 0 5.0558681985639424 3.940635321637501 0 3.940635321637501 -4.0710403532390984 0 0 0 0 15.866076472200803 11.017830544427852 0 11.017830544427852 63.300592002673966 0 0 0 0 19.983864060603082 -6.2282126542486367 0 -6.2282126542486367 122.38477395729933 0 0 0 0 10.458932338064187 12.495140788842946 0 12.495140788842946 67.677703261785609 0 0 0 0 20.512556143017719 18.51214476639143 0 18.51214476639143 41.984020706005367 0 0 0 0 14.390170022146776 32.282110691548951 0 32.282110691548951 57.398200283496408 0 0 0 0 735.81833315642143 196.33234612891033 0 196.33234612891033 6.9164381940659041 0 0 0 0 737.824656183755 169.39944280343479 0 169.39944280343479 -65.330277547153855 0 0 0 0 699.55647038934694 205.23999969269039 0 205.23999969269039 48.792283900199436 0 0 0 0 583.38730593991932 177.96628864175545 0 177.96628864175545 32.54142418588799 0 0 0 0 628.81894384179031 157.4388256949369 0 157.4388256949369 26.521761147966799 0 0 0 0 346.45827290811576 275.73771293931986 0 275.73771293931986 299.36047043063354 0 0 0 0 38.294631970726186 71.957736881052369 0 71.957736881052369 164.87166745090701 0 0 0 0 211.16987228486687 230.54140426108461 0 230.54140426108461 184.90923845114958 0 0 0 0 272.6997923697345 79.480525623964695 0 79.480525623964695 31.230331481465782 0 0 0 0 522.51253794346121 114.60223498419919 0 114.60223498419919 26.739817310721264 0 0 0 0 136.85265086038271 28.7019875174974 0 28.7019875174974 70.64822194705539 0 0 0 0 206.21415587316733 138.01012007434815 0 138.01012007434815 111.13636923867489 0 0 0 0 50.245989769115113 63.416289087876066 0 63.416289087876066 113.61267218407087 0 0 0 0 92.342949688943918 32.494939083791451 0 32.494939083791451 80.339929437855972 0 0 0 0 0.32931515821243806 -1.988032038010914 0 -1.988032038010914 1.1299680092162596 0 0 0 0 -44.015290226670913 -9.0804543935109905 0 -9.0804543935109905 90.197162198011256 0 0 0 0 208.97328879595443 192.89207681213088 0 192.89207681213088 231.44676895713155 0 0 0 0 -122.75336621331371 52.70105673806529 0 52.70105673806529 186.90568885850325 0 0 0 0 0.16156040759419454 3.2726373447172961 0 3.2726373447172961 18.801796285510168 0 0 0 0 0.75963277612282809 -0.6494673756547904 0 -0.6494673756547904 2.9887211233933613 0 0 0 0 308.1896333865443 -55.400628344185861 0 -55.400628344185861 -186.71084951541252 0 0 0 0 607.62604884185566 247.42709161083246 0 247.42709161083246 8.5096076761751647 0 0 0 0 726.79999665555079 114.38481197123156 0 114.38481197123156 93.478116435583388 0 0 0 0 581.50970323442016 -0.41565312492593876 0 -0.41565312492593876 -25.180135225071353 0 0 0 0 207.71155193047889 -65.434644935714459 0 -65.434644935714459 -2.4690184028704607 0 0 0 0 2.2099691521335956 0.95927945726709218 0 0.95927945726709218 6.0032002827792716 0 0 0 0 191.53364958858583 -88.933108455667934 0 -88.933108455667934 39.179348818538529 0 0 0 0 -113.46068054877105 25.736571846040533 0 25.736571846040533 18.333278807906481 0 0 0 0 -12.90378989969031 -99.164977290305615 0 -99.164977290305615 70.266595555804543 0 0 0 0 -129.62567168785608 -4.1358159561932553 0 -4.1358159561932553 93.309289243901731 0 0 0 0 -96.589536476240028 -61.128157832249599 0 -61.128157832249599 119.55274235746447 0 0 0 0 -34.149993467603053 -23.678411037174669 0 -23.678411037174669 129.20155558916667 0 0 0 0 14.58099527170998 0.031079817044428637 0 0.031079817044428637 112.09384480030803 0 0 0 0 -21.973621633718722 26.852178132132622 0 26.852178132132622 103.63392391241359 0 0 0 0 138.50178358171252 -48.675523552514733 0 -48.675523552514733 83.449500950627225 0 0 0 0 -9.7408334038918838 28.925161481606665 0 28.925161481606665 89.052058973756175 0 0 0 0 164.76432182111603 -5.9967593550693437 0 -5.9967593550693437 134.734708091014 0 0 0 0 215.83284641544014 -22.15469123575167 0 -22.15469123575167 130.1791857380731 0 0 0 0 523.81658023511409 48.517327052365545 0 48.517327052365545 210.16340093546478 0 0 0 0 341.31312658121897 -125.46978674113325 0 -125.46978674113325 112.59226030903301 0 0 0 0 14.119699786381631 4.4849543316790204 0 4.4849543316790204 2.5278300239227556 0 0 0 0 1.1037904652475845 5.9926182899798732 0 5.9926182899798732 19.694505872386799 0 0 0 0 5.0192544271430961 48.922299463529583 0 48.922299463529583 -9.3784807608549272 0 0 0 0 6.4768198514988171 9.966523731360823 0 9.966523731360823 16.41737952990654 0 0 0 0 11.212084313854575 8.5793479162030053 0 8.5793479162030053 9.3462752755009433 0 0 0 0 12.371776011971633 14.898244630423234 0 14.898244630423234 11.684467849396004 0 0 0 0 12.547256359393941 4.9576550984456844 0 4.9576550984456844 15.248542219593219 0 0 0 0 13.013729578291532 6.3172334154078271 0 6.3172334154078271 11.156382213735014 0 0 0 0 -3.4755765552108642 7.2890497568682804 0 7.2890497568682804 14.034464970789713 0 0 0 0 0.31653981572128487 7.0808567421199928 0 7.0808567421199928 35.468637652440904 0 0 0 0 3.3468538077722769 5.4999119115709618 0 5.4999119115709618 17.265090631084604 0 0 0 0 5.9634370335708837 9.3266765384170043 0 9.3266765384170043 14.469602468441611 0 0 0 0 9.1784321902086958 1.9452048853700035 0 1.9452048853700035 18.844033165090877 0 0 0 0 -216.34254265789059 175.71522750601162 0 175.71522750601162 -187.76601382304943 0 0 0 0 1.1740733611541145 6.6908985421996334 0 6.6908985421996334 20.012366568657953 0 0 0 0 -216.07007845847693 -23.346848330522789 0 -23.346848330522789 90.386469768191091 0 0 0 0 12.552280104078818 1.1178644948195142 0 1.1178644948195142 17.317632900815624 0 0 0 0 -137.6692560731899 -41.116295893835741 0 -41.116295893835741 -47.206102374735565 0 0 0 0 12.532344784871384 6.2698177726052791 0 6.2698177726052791 20.876873660599813 0 0 0 0 13.722603217145661 3.3218323628052531 0 3.3218323628052531 16.445489163273805 0 0 0 0 8.6985362459636235 5.6084652256114396 0 5.6084652256114396 15.785364547042263 0 0 0 0 -148.86851227884199 132.60743892326363 0 132.60743892326363 80.366343876594328 0 0 0 0 18.672331291149021 9.4724982271247882 0 9.4724982271247882 22.525696769568754 0 0 0 0 17.626482593172113 5.6951067875454555 0 5.6951067875454555 20.37766637900495 0 0 0 0 -206.41266337385605 81.678252004099221 0 81.678252004099221 125.90547973159664 0 0 0 0 35.389312665196485 -49.270058087460711 0 -49.270058087460711 134.07317874117689 0 0 0 0 3.0687527533047358 7.6492582569412377 0 7.6492582569412377 21.881710872184211 0 0 0 0 -153.94967708662443 41.232544650590626 0 41.232544650590626 151.77657899620863 0 0 0 0 -133.59559174781316 26.436627842759663 0 26.436627842759663 117.64255349488121 0 0 0 0 -105.8327714568004 0.83418765277747298 0 0.83418765277747298 131.84113846704622 0 0 0 0 -97.670417181914672 75.30993101596232 0 75.30993101596232 111.53482809150955 0 0 0 0 -46.720536957211152 131.48901953431005 0 131.48901953431005 -45.767975614395255 0 0 0 0 -7.380893492285395 28.61308518093756 0 28.61308518093756 77.368553508144942 0 0 0 0 84.045154790757806 42.695361372440743 0 42.695361372440743 -35.597682082190659 0 0 0 0 -48.969861885736464 -5.0470417684490485 0 -5.0470417684490485 98.889952946348558 0 0 0 0 59.642531760960992 12.109560889263605 0 12.109560889263605 -17.1724336088987 0 0 0 0 64.975312956081325 11.76576290348487 0 11.76576290348487 -18.673860719994082 0 0 0 0 5.3909099937477691 9.6841110026362003 0 9.6841110026362003 19.295187410346031 0 0 0 0 -0.72019858941172288 -0.47572411899770373 0 -0.47572411899770373 4.2235215913685771 0 0 0 0 56.375637963225017 -22.522830433952436 0 -22.522830433952436 77.347344156369218 0 0 0 0 68.85241239820607 -19.01083106846454 0 -19.01083106846454 -149.39299391852956 0 0 0 0 41.671841126604704 -140.54395961840555 0 -140.54395961840555 1.3260040887071227 0 0 0 0 21.81662491113093 -154.51959095680195 0 -154.51959095680195 128.41225314049279 0 0 0 0 -40.393903272226453 -33.685259564781859 0 -33.685259564781859 136.17641307426265 0 0 0 0 138.65723888078355 -196.50648972808426 0 -196.50648972808426 217.60917179518583 0 0 0 0 127.84392858180217 -23.365601548584891 0 -23.365601548584891 14.555432817172459 0 0 0 0 1.0430735597306011 4.1481038210336436 0 4.1481038210336436 15.887224112465866 0 0 0 0 373.36725319849211 -160.50665451217492 0 -160.50665451217492 294.59546895213089 0 0 0 0 348.28041194204707 -91.956294126875036 0 -91.956294126875036 123.23595171949592 0 0 0 0 148.47462017754151 -128.19908399583301 0 -128.19908399583301 176.48172326048393 0 0 0 0 161.55167028008145 -70.899481866968017 0 -70.899481866968017 40.694553213683093 0 0 0 0 191.02543227298202 -193.3759997370752 0 -193.3759997370752 252.29727471200567 0 0 0 0 183.58092191119795 -112.62070659949291 0 -112.62070659949291 109.22199668445501 0 0 0 0 359.85802718577179 -214.63743484836118 0 -214.63743484836118 195.28397081995058 0 0 0 0 361.45105791073729 -186.26536514289432 0 -186.26536514289432 358.95882609016894 0 0 0 0 310.2817596777968 -266.82940471725988 0 -266.82940471725988 268.06776802040372 0 0 0 0 217.67574327663897 -232.66338629681104 0 -232.66338629681104 303.20486501195865 0 0 0 0 225.63331167744036 -222.14273502367473 0 -222.14273502367473 154.14187386831054 0 0 0 0 226.4691267256203 -208.1567464334567 0 -208.1567464334567 232.55153585226424 0 0 0 0 332.24288619255094 -214.66955921309182 0 -214.66955921309182 317.10471271956408 0 0 0 0 233.36530726595083 -299.8421312088746 0 -299.8421312088746 280.66599570730625 0 0 0 0 0.63294104326624279 1.1024443399467856 0 1.1024443399467856 5.777641510914294 0 0 0 0 158.92611180312815 30.139460836896831 0 30.139460836896831 57.857603833519875 0 0 0 0 328.62996523360562 -311.69655893166009 0 -311.69655893166009 342.71216830269543 0 0 0 0 190.02998872705211 -271.86738184237856 0 -271.86738184237856 319.56294040590274 0 0 0 0 301.4567375457118 -227.24497350798424 0 -227.24497350798424 86.172976495342482 0 0 0 0 217.47140748974925 -189.54510828567925 0 -189.54510828567925 350.80974794935008 0 0 0 0 194.10440208465297 -213.41017297335921 0 -213.41017297335921 532.43913703746739 0 0 0 0 8.8320267190429149 -130.48311033546202 0 -130.48311033546202 55.385933471741225 0 0 0 0 -14.867636871313152 -197.48969973787183 0 -197.48969973787183 779.70391056382414 0 0 0 0 153.02923767028551 3.7129733266478979 0 3.7129733266478979 -55.557861637385486 0 0 0 0 -230.02467905222147 73.485170682785196 0 73.485170682785196 251.47034295916453 0 0 0 0 1.02864413558639 1.8231540439144283 0 1.8231540439144283 3.8029504090641333 0 0 0 0 18.453936052259451 -29.418598658760715 0 -29.418598658760715 -45.794955803001585 0 0 0 0 -1.9645684591523604 30.982476302648593 0 30.982476302648593 20.5932593296302 0 0 0 0 -90.94678816801752 100.06440142834298 0 100.06440142834298 330.48872254726984 0 0 0 0 1.4689686868367602 4.1277009739331447 0 4.1277009739331447 10.625646436426152 0 0 0 0 43.025475412665401 -76.767668676615344 0 -76.767668676615344 -40.752956594331891 0 0 0 0 3.8941823645255056 6.4154380031451268 0 6.4154380031451268 13.328685555266404 0 0 0 0 7.6992803344926131 6.2193915836597711 0 6.2193915836597711 7.6032290893198518 0 0 0 0 -3.9039183446802781 -18.517590002807992 0 -18.517590002807992 32.37326337285981 0 0 0 0 -22.001611397601664 56.688228334684368 0 56.688228334684368 1.5212648818969399 0 0 0 0 12.329309813070722 23.234647075123007 0 23.234647075123007 17.916346694163622 0 0 0 0 20.278195010090712 3.4574452213710174 0 3.4574452213710174 23.681962759880662 0 0 0 0 39.427702972756379 7.581323280943252 0 7.581323280943252 23.074434320580622 0 0 0 0 9.9472784727549879 2.1342865289661859 0 2.1342865289661859 29.132408842583573 0 0 0 0 71.849581704911543 -17.989035658466491 0 -17.989035658466491 13.649543414516756 0 0 0 0 64.627607032678497 -34.473827748378881 0 -34.473827748378881 -17.790736341148659 0 0 0 0 7.3757166693345955 -11.855708156277828 0 -11.855708156277828 23.395286563336725 0 0 0 0 82.888438364352623 5.6960934979142621 0 5.6960934979142621 14.680777449298148 0 0 0 0 41.571416673919884 14.518145078162888 0 14.518145078162888 38.992105563274322 0 0 0 0 95.354598768622964 -9.3887584104641064 0 -9.3887584104641064 31.019410435513691 0 0 0 0 34.223892483736563 -15.079775628027846 0 -15.079775628027846 22.191770325848665 0 0 0 0 78.903264308035432 -68.372297754610372 0 -68.372297754610372 -72.325187635346992 0 0 0 0 78.664127666168497 -51.583535548961663 0 -51.583535548961663 -3.2237431077637666 0 0 0 0 72.358031530195149 -196.84889033555646 0 -196.84889033555646 -83.478722958690923 0 0 0 0 -133.29066095817689 -116.1885450164873 0 -116.1885450164873 2.0220231162347773 0 0 0 0 81.757458195119398 -73.934183796639445 0 -73.934183796639445 -38.652864475893693 0 0 0 0 1.2159247337953261 -10.095220266036264 0 -10.095220266036264 10.611557844446835 0 0 0 0 49.493798166884517 11.45664348755372 0 11.45664348755372 -0.90011171517016919 0 0 0 0 15.368186242056538 9.0101154582924465 0 9.0101154582924465 8.7987789196168364 0 0 0 0 -239.38681252143579 -48.078183483462354 0 -48.078183483462354 8.1909342553560975 0 0 0 0 3.6721531597766557 -3.6266398747950888 0 -3.6266398747950888 0.53107266595507596 0 0 0 0 162.14630973979365 -133.30361724530849 0 -133.30361724530849 -99.263197589521951 0 0 0 0 -1078.0637381621345 -636.45494306379624 0 -636.45494306379624 -387.57957924293805 0 0 0 0 61.886811317643151 -69.775018548838489 0 -69.775018548838489 -119.26434783776631 0 0 0 0 490.51665413315641 289.2318698228537 0 289.2318698228537 -353.48973402228023 0 0 0 0 49.019549497272237 -172.05045701841209 0 -172.05045701841209 1099.3363147485779 0 0 0 0 504.50577201648866 528.57316814985393 0 528.57316814985393 414.58663915080797 0 0 0 0 -440.7223789696327 506.27213326242509 0 506.27213326242509 95.994376576021011 0 0 0 0 373.70882159311441 -450.05589227180644 0 -450.05589227180644 473.9568063499828 0 0 0 0 1.0713961669574275 3.4649588982037187 0 3.4649588982037187 4.1936379027190931 0 0 0 0 262.07820265645569 -253.77114048578483 0 -253.77114048578483 131.27706309963742 0 0 0 0 2.243064248492594 2.6491826447442293 0 2.6491826447442293 11.257013179419555 0 0 0 0 -4.6484273953610682 -314.95064883052942 0 -314.95064883052942 895.00457884356433 0 0 0 0 -391.73791642216383 289.19005886316864 0 289.19005886316864 706.86308108332344 0 0 0 0 296.63669281059992 -205.1439147559575 0 -205.1439147559575 241.65898564883571 0 0 0 0 -221.8347698087382 -594.22315003711105 0 -594.22315003711105 666.22649672549994 0 0 0 0 725.26510681182845 -283.08109107130304 0 -283.08109107130304 -511.64920610559693 0 0 0 0 1.8511029952642275 33.650846832871366 0 33.650846832871366 -34.49314876711145 0 0 0 0 -2.0926289724721414 -7.6993899136298136 0 -7.6993899136298136 1.0143342017102346 0 0 0 0 -787.0788840361638 -44.465133468624572 0 -44.465133468624572 422.78937279637864 0 0 0 0 -0.065827044303659932 -42.281731179387975 0 -42.281731179387975 125.65123874837991 0 0 0 0 -2.7686239072769112 2.8101382683698546 0 2.8101382683698546 13.183895863896048 0 0 0 0 -31.066724293945299 6.9206001928190801 0 6.9206001928190801 3.0393831596392147 0 0 0 0 -3.8656431908556144 -4.3553082069058462 0 -4.3553082069058462 -4.4822742795938506 0 0 0 0 -17.387760870042257 -14.52203286635563 0 -14.52203286635563 15.068245321421159 0 0 0 0 -3.4573713987192605 -14.126173796098101 0 -14.126173796098101 0.45092483401447225 0 0 0 0 -16.048317363922251 -23.168296438855265 0 -23.168296438855265 99.955313350907545 0 0 0 0 1.5935759767598938 -2.1709472842803734 0 -2.1709472842803734 11.932616940074865 0 0 0 0 -10.579384116361325 -0.33942872359142484 0 -0.33942872359142484 41.885476213846687 0 0 0 0 2.8949470181250945 -58.572518321614666 0 -58.572518321614666 54.617745027676079 0 0 0 0 -1.6087343957460689 -40.237865546600275 0 -40.237865546600275 6.2830293486614437 0 0 0 0 13.579004712388269 -60.937628782732361 0 -60.937628782732361 29.143398900187321 0 0 0 0 282.77851577744877 -100.7018627962095 0 -100.7018627962095 55.459675674427743 0 0 0 0 47.566290701127855 3.1679432306891613 0 3.1679432306891613 172.73568722281641 0 0 0 0 43.93607186445297 -34.011926524732075 0 -34.011926524732075 57.053091563028943 0 0 0 0 -16.230571019885247 14.329538094835357 0 14.329538094835357 40.292204620079133 0 0 0 0 36.836405480433314 -70.667473428991627 0 -70.667473428991627 43.947026489512155 0 0 0 0 68.788716685521649 -59.052836656677982 0 -59.052836656677982 47.403152383272783 0 0 0 0 9.0068183969915765 -3.8593795747021611 0 -3.8593795747021611 -1.3135933865268503 0 0 0 0 133.90942270204323 -36.45480758532031 0 -36.45480758532031 -24.32136877490268 0 0 0 0 101.44801368162734 312.93176820435758 0 312.93176820435758 -395.08254222334222 0 0 0 0 176.37406298168935 -369.64561254534181 0 -369.64561254534181 396.78450549740307 0 0 0 0 -17.001227535089129 -376.12121764392271 0 -376.12121764392271 411.27528329831205 0 0 0 0 -286.85895722689747 -1.4749930111264291 0 -1.4749930111264291 216.27687391018537 0 0 0 0 67.857632660627132 123.46170031595568 0 123.46170031595568 381.45070425844642 0 0 0 0 430.95855380950525 -261.3764833215605 0 -261.3764833215605 302.33402112250366 0 0 0 0 430.89453881453665 -119.11663993427145 0 -119.11663993427145 -38.692390416388491 0 0 0 0 309.72335105912498 235.02890449944624 0 235.02890449944624 -487.26358742135426 0 0 0 0 295.71616826033278 -455.59346844179072 0 -455.59346844179072 598.00211924787516 0 0 0 0 5.056410910552728 -1.3749369558136353 0 -1.3749369558136353 -0.092409182702028261 0 0 0 0 324.1949163908539 -315.79541350658667 0 -315.79541350658667 210.38122515943894 0 0 0 0 467.55115218695209 -286.26777255523746 0 -286.26777255523746 223.82561763487422 0 0 0 0 378.57256195551599 -244.29673870003535 0 -244.29673870003535 208.9766254773813 0 0 0 0 347.22229531897756 -245.47080445977505 0 -245.47080445977505 378.61233569134612 0 0 0 0 624.06111606366176 -135.04025082306407 0 -135.04025082306407 255.20068305635607 0 0 0 0 344.31022466236118 -222.4393089159592 0 -222.4393089159592 199.75469027776319 0 0 0 0 2.4930920170012314 0.35611328703237533 0 0.35611328703237533 -0.23228017152687302 0 0 0 0 164.28191310576949 -349.12198375029641 0 -349.12198375029641 112.17546349187245 0 0 0 0 228.60031491407062 63.149826269371005 0 63.149826269371005 -197.25250472936091 0 0 0 0 10.119405992954853 7.8228080630507293 0 7.8228080630507293 76.043788830545338 0 0 0 0 311.59714852245088 -299.29647657503085 0 -299.29647657503085 169.04523237748685 0 0 0 0 409.3942080624729 -236.24289084140023 0 -236.24289084140023 -121.37419151716972 0 0 0 0 238.26467255534965 -325.08157379358119 0 -325.08157379358119 -131.03362964474127 0 0 0 0 73.119259763610899 -57.46407020134734 0 -57.46407020134734 -357.84318601599136 0 0 0 0 39.496609344379976 149.42457349875326 0 149.42457349875326 -538.78802048832449 0 0 0 0 232.73161620300311 12.480776041971724 0 12.480776041971724 -327.44133930909447 0 0 0 0 129.58913683285937 118.78823986193379 0 118.78823986193379 -564.51290593222166 0 0 0 0 -15.618508487386862 -47.631730321307373 0 -47.631730321307373 -241.44408695039976 0 0 0 0 297.32313937886647 -244.8779637069147 0 -244.8779637069147 160.93777296632464 0 0 0 0 -14.010560530041403 -75.946998701284087 0 -75.946998701284087 164.80170379676747 0 0 0 0 681.47422239885782 -515.0380964813703 0 -515.0380964813703 104.79474934258258 0 0 0 0 459.53352039372839 -436.90438573888383 0 -436.90438573888383 113.59597915554838 0 0 0 0 541.95329258331913 -261.29119264214921 0 -261.29119264214921 -126.5014418687349 0 0 0 0 453.35261395626731 -259.73945169083532 0 -259.73945169083532 -372.10687571707444 0 0 0 0 421.20765768890851 -339.73545745614848 0 -339.73545745614848 -129.62745628159479 0 0 0 0 503.73639186815126 -321.34023185863379 0 -321.34023185863379 -134.35326124078716 0 0 0 0 506.06444689195632 -253.3590400414482 0 -253.3590400414482 -7.3570912139318807 0 0 0 0 311.35868455303716 -117.43421586710565 0 -117.43421586710565 -99.509030804516613 0 0 0 0 645.01629868943201 -246.82847882022722 0 -246.82847882022722 -465.22548876372173 0 0 0 0 785.58519085322223 129.7817252883068 0 129.7817252883068 13.73645989985323 0 0 0 0 447.76988055999391 -292.01926101309323 0 -292.01926101309323 -449.77904416835509 0 0 0 0 -57.092543937258597 200.12923602069236 0 200.12923602069236 778.47341579245585 0 0 0 0 10.040326633676813 3.018589085939106 0 3.018589085939106 0.41473744127291329 0 0 0 0 248.20323258276039 188.00100638225501 0 188.00100638225501 -165.97302514016974 0 0 0 0 249.90282992525317 511.25581613900476 0 511.25581613900476 392.04312726498313 0 0 0 0 851.0029248957253 -307.36029263603996 0 -307.36029263603996 -8.4609470176945933 0 0 0 0 61.733157742506592 -96.153311041915686 0 -96.153311041915686 -715.2361288378886 0 0 0 0 21.825398339102321 152.94412684130322 0 152.94412684130322 -35.399814297824378 0 0 0 0 26.840504423436244 8.014416649875109 0 8.014416649875109 -0.16822531853186462 0 0 0 0 170.88726580463117 145.10300039329127 0 145.10300039329127 -950.50056336104092 0 0 0 0 -229.25712085681153 237.04159966120847 0 237.04159966120847 -497.1758276496509 0 0 0 0 -311.06887565457146 -50.452615186848334 0 -50.452615186848334 -427.1296571962157 0 0 0 0 32.906098681734875 -351.47365536796838 0 -351.47365536796838 -346.9262896250541 0 0 0 0 -125.64015067886794 -262.13398914886307 0 -262.13398914886307 -342.99611528128878 0 0 0 0 190.19226465453539 -167.42434091585329 0 -167.42434091585329 -440.15716243651423 0 0 0 0 11.400929816882126 163.12669250845192 0 163.12669250845192 286.57211886961488 0 0 0 0 128.09564228152885 282.85874186894364 0 282.85874186894364 -102.1265019511975 0 0 0 0 146.38648768543499 -47.419203167123953 0 -47.419203167123953 189.62521196179679 0 0 0 0 -22.116091022951878 207.49196707401862 0 207.49196707401862 262.22686393165452 0 0 0 0 24.012616487976629 -54.662212601855117 0 -54.662212601855117 -169.03573246249499 0 0 0 0 1.1877135944862118 3.3210582509411246 0 3.3210582509411246 -0.79664681114645908 0 0 0 0 81.198035129833443 48.589726556094774 0 48.589726556094774 -167.79056018646986 0 0 0 0 21.218908857234055 156.17524571251215 0 156.17524571251215 -67.251570450419877 0 0 0 0 179.98593212904962 292.52169098080776 0 292.52169098080776 -558.31812873431318 0 0 0 0 12.058755956921232 -25.964868315947001 0 -25.964868315947001 31.368375302721006 0 0 0 0 119.60387097481498 12.168357232593905 0 12.168357232593905 -0.44343969262453653 0 0 0 0 8.4844487454538466 175.54281221549996 0 175.54281221549996 -275.46104224645376 0 0 0 0 -274.9817119520776 113.92628417192708 0 113.92628417192708 311.98593712779115 0 0 0 0 -7.1390208261655062 -44.232005647843181 0 -44.232005647843181 -88.700559467984192 0 0 0 0 -41.630631667008856 96.928225371957524 0 96.928225371957524 -140.42834894114981 0 0 0 0 538.71448499410326 100.42383296168362 0 100.42383296168362 -944.8144595274764 0 0 0 0 121.21584680694582 10.49718021086702 0 10.49718021086702 -0.67900845502084195 0 0 0 0 205.78622970329889 95.404942375074754 0 95.404942375074754 -128.0116701732054 0 0 0 0 9.3603814971647807 -15.568244297865306 0 -15.568244297865306 65.241378156306382 0 0 0 0 59.53698234948024 106.07707011186471 0 106.07707011186471 -32.174578115549139 0 0 0 0 248.36285159210092 42.488781378480979 0 42.488781378480979 -205.32395223416194 0 0 0 0 40.969513283675042 70.172725292601285 0 70.172725292601285 39.475045178147681 0 0 0 0 114.68009339530965 7.7491824705572583 0 7.7491824705572583 -0.33139549304963456 0 0 0 0 237.9112367150592 -82.368972844349287 0 -82.368972844349287 -579.75776849427336 0 0 0 0 91.694283218934288 -216.87100893920066 0 -216.87100893920066 -9.2920704521189919 0 0 0 0 103.80997143610804 6.8607799750999217 0 6.8607799750999217 0.29491001378209813 0 0 0 0 59.174813985133369 16.642717940129955 0 16.642717940129955 129.53290775570321 0 0 0 0 61.955800245323189 -89.292790664493623 0 -89.292790664493623 -19.929749701239871 0 0 0 0 60.535937477936386 -84.842038062062443 0 -84.842038062062443 -29.940111629975718 0 0 0 0 104.44215086445911 -120.58439452083906 0 -120.58439452083906 -330.31089097914287 0 0 0 0 11.40546799585718 -128.74940055279382 0 -128.74940055279382 26.647388389004391 0 0 0 0 39.247809554246487 -116.84519158056105 0 -116.84519158056105 -35.391955433335681 0 0 0 0 56.138204145914642 -86.079109660401514 0 -86.079109660401514 19.963593907788209 0 0 0 0 27.962133712368086 -93.105596167029944 0 -93.105596167029944 21.606475587396289 0 0 0 0 5.611183896741295 -78.252852377352298 0 -78.252852377352298 13.004039112913688 0 0 0 0 -6.0400719604053847 -62.77506518111128 0 -62.77506518111128 136.42317625444196 0 0 0 0 -6.2431211243820144 -67.080308207748772 0 -67.080308207748772 46.696824543157504 0 0 0 0 4.9675601094786543 -92.608572455445682 0 -92.608572455445682 78.258374320109851 0 0 0 0 44.796539260867576 -116.25649850634977 0 -116.25649850634977 59.504707648327781 0 0 0 0 45.373563717213983 -147.43758133415895 0 -147.43758133415895 173.25253559730558 0 0 0 0 130.75580682593136 36.106084471783504 0 36.106084471783504 371.93897823268469 0 0 0 0 12.051874566422384 -101.25000952922116 0 -101.25000952922116 52.759713490279069 0 0 0 0 835.34151619858676 2099.026678357779 0 2099.026678357779 3434.8321803387748 0 0 0 0 3495.4496073115915 2441.4291322220197 0 2441.4291322220197 1102.4171848632448 0 0 0 0 85.865669924147369 935.5949919289078 0 935.5949919289078 1878.5687887676122 0 0 0 0 1282.6108360183352 2126.1463676486933 0 2126.1463676486933 1311.4958713130231 0 0 0 0 659.68247232590511 1524.3057946993511 0 1524.3057946993511 737.33052026570044 0 0 0 0 449.22686004245043 1541.8774437200354 0 1541.8774437200354 737.35580358727168 0 0 0 0 1728.4908902544776 1133.3919025601633 0 1133.3919025601633 177.88178393782457 0 0 0 0 3492.0564460869573 1646.4055773744115 0 1646.4055773744115 -336.0285103748746 0 0 0 0 1493.3327753430858 -24.261804703623056 0 -24.261804703623056 -1732.154077596573 0 0 0 0 1581.5696621444513 2231.5465830122366 0 2231.5465830122366 913.8100968117817 0 0 0 0 11.668926400641141 6.2815232523700821 0 6.2815232523700821 -2.3081714069257453 0 0 0 0 3494.5319923593697 1792.4598121716288 0 1792.4598121716288 -1041.7954291616484 0 0 0 0 245.62911712731875 890.46959303229835 0 890.46959303229835 -411.92188057907703 0 0 0 0 11.400049686677733 5.4957801240124482 0 5.4957801240124482 -2.2095354216656755 0 0 0 0 942.52547956954368 1910.4104277709416 0 1910.4104277709416 873.47543527838161 0 0 0 0 893.81363884439997 -409.00630650930077 0 -409.00630650930077 -1763.6947203875934 0 0 0 0 1701.1493359121014 739.5979431113808 0 739.5979431113808 -823.63027833064086 0 0 0 0 1677.2577422801405 836.34647760933365 0 836.34647760933365 -69.292105040355182 0 0 0 0 801.64126747703631 350.71407480023709 0 350.71407480023709 207.73612526633576 0 0 0 0 1627.6793454199124 1119.0429470814404 0 1119.0429470814404 239.55313350715812 0 0 0 0 388.71605472292504 617.3373634966182 0 617.3373634966182 79.506578558970205 0 0 0 0 60.678923624902382 228.5245742728016 0 228.5245742728016 318.70658489268112 0 0 0 0 868.58409215265419 1361.5775445755826 0 1361.5775445755826 811.86351187133209 0 0 0 0 99.158823238911282 639.27323284800877 0 639.27323284800877 153.42429093772307 0 0 0 0 307.38954020485107 -154.5451131121506 0 -154.5451131121506 -717.16205044381104 0 0 0 0 71.009842600382399 51.627859913959639 0 51.627859913959639 -503.48194153202468 0 0 0 0 -103.34855374912149 145.51086112772782 0 145.51086112772782 -539.17327034329651 0 0 0 0 27.054777901015768 -60.108886583164633 0 -60.108886583164633 -125.07058656728532 0 0 0 0 673.86238212972239 489.89472920238603 0 489.89472920238603 93.414079261436626 0 0 0 0 3.3179047877093524 2.2971570965361785 0 2.2971570965361785 -0.93770156185558995 0 0 0 0 956.04329130086262 730.88361627515587 0 730.88361627515587 363.02460733503585 0 0 0 0 637.95662406629162 223.71472393801898 0 223.71472393801898 189.94609473021455 0 0 0 0 447.8593642777123 332.59434118776085 0 332.59434118776085 160.60976173730705 0 0 0 0 -77.932932017472922 41.79524763494868 0 41.79524763494868 157.30341181815731 0 0 0 0 204.42912704625996 -153.07616564252123 0 -153.07616564252123 216.71397796821236 0 0 0 0 361.40520918870607 -48.314382814538305 0 -48.314382814538305 269.87302600967428 0 0 0 0 -70.091441702228622 64.96930822375522 0 64.96930822375522 76.091889052648966 0 0 0 0 68.562269792768348 9.491612680822243 0 9.491612680822243 -289.49883342308181 0 0 0 0 302.14889975422193 -93.641241841363239 0 -93.641241841363239 -342.57082748867452 0 0 0 0 5.2515190714466087 1.2137384979620514 0 1.2137384979620514 -0.9313565655006919 0 0 0 0 -95.766656593012158 19.951986240149154 0 19.951986240149154 -13.681022634231738 0 0 0 0 74.899416353036941 -127.93689923532237 0 -127.93689923532237 -411.74062643997263 0 0 0 0 -103.68935760081513 -33.041676708237446 0 -33.041676708237446 -447.61568782531776 0 0 0 0 61.299495229905006 -55.563886072898072 0 -55.563886072898072 -694.76979548748409 0 0 0 0 -92.247430444571364 50.710551640067251 0 50.710551640067251 -299.48664567816445 0 0 0 0 65.531887779186945 33.75027711436735 0 33.75027711436735 -505.5479726659587 0 0 0 0 -141.13521482520446 46.727257435610454 0 46.727257435610454 -506.36204538197109 0 0 0 0 38.715748029680356 11.578438679518394 0 11.578438679518394 0.0062872988895652515 0 0 0 0 68.941846515146608 113.1473660572226 0 113.1473660572226 -852.12515233328782 0 0 0 0 32.970659265090944 76.461944633551298 0 76.461944633551298 -112.96437695633847 0 0 0 0 75.915058271333692 83.784219662452415 0 83.784219662452415 -143.74188450093135 0 0 0 0 26.735547842734377 73.570807862124639 0 73.570807862124639 -93.25205206209057 0 0 0 0 13.8416866465559 83.649583204447481 0 83.649583204447481 -100.88721961582689 0 0 0 0 1.9545861048479765 4.2367782129652145 0 4.2367782129652145 -1.2751246595760668 0 0 0 0 46.499011320639511 89.055637403662814 0 89.055637403662814 -125.24469274020339 0 0 0 0 49.889132552940282 62.960675643067589 0 62.960675643067589 -102.80551296317822 0 0 0 0 51.281974773322872 52.186527202676189 0 52.186527202676189 -1.1308004979518955 0 0 0 0 77.478299976355629 105.16290656083129 0 105.16290656083129 -117.82326754251562 0 0 0 0 78.349875278501713 142.56769015650048 0 142.56769015650048 -170.95125665360956 0 0 0 0 975.36999108246528 -47.707693931834001 0 -47.707693931834001 -677.90247339368136 0 0 0 0 107.80933135616434 10.988957190033242 0 10.988957190033242 -0.36845405925446723 0 0 0 0 -234.70349576565241 -26.813475756815421 0 -26.813475756815421 263.6733895988271 0 0 0 0 -18.465643508254288 -56.627959153379948 0 -56.627959153379948 -99.918951731482593 0 0 0 0 89.938274541975261 93.203424953712101 0 93.203424953712101 -137.52303526742844 0 0 0 0 1.3816843401364167 72.307537514779142 0 72.307537514779142 65.739302432598834 0 0 0 0 86.977805480709719 8.6893310678858402 0 8.6893310678858402 0.1633332731719534 0 0 0 0 86.370621849804593 -121.00057776807364 0 -121.00057776807364 -189.6046865231811 0 0 0 0 75.173183767652972 -67.989356896681528 0 -67.989356896681528 -47.120126363456791 0 0 0 0 0.64487153922163998 -56.814717678473073 0 -56.814717678473073 93.347720770890419 0 0 0 0 63.356627499051683 -26.61298644692306 0 -26.61298644692306 4.859007382110974 0 0 0 0 128.19433735538769 78.701930515497565 0 78.701930515497565 -237.71782560772999 0 0 0 0 52.728950156353676 21.51642329847266 0 21.51642329847266 86.808649033705024 0 0 0 0 -31.52423708387505 50.022249142454143 0 50.022249142454143 98.610133912985134 0 0 0 0 1.3346246863099509 3.1156591058388594 0 3.1156591058388594 -0.99508058993167625 0 0 0 0 151.38281808785541 -16.921543135451429 0 -16.921543135451429 -337.40382382214011 0 0 0 0 155.57270104900817 123.75574073318438 0 123.75574073318438 -232.65010586097571 0 0 0 0 45.222993396028812 14.476180980815538 0 14.476180980815538 0.052253374084496484 0 0 0 0 299.11139450914197 49.739445417367506 0 49.739445417367506 -1000.2464561118913 0 0 0 0 44.652280731275823 69.883029120919531 0 69.883029120919531 -381.71766870058394 0 0 0 0 40.544614011422453 16.306430369574564 0 16.306430369574564 0.79120588050431562 0 0 0 0 521.02802248936496 514.4394369979741 0 514.4394369979741 -536.07266822577139 0 0 0 0 -147.19521669883761 121.27601468293312 0 121.27601468293312 -91.375412375258037 0 0 0 0 1.7236943118914496 -10.165546065685021 0 -10.165546065685021 -91.984653410711644 0 0 0 0 44.906785343864613 96.094557787301028 0 96.094557787301028 -44.296654778920242 0 0 0 0 64.380136763975315 7.6342274497680602 0 7.6342274497680602 0.42559024828500469 0 0 0 0 120.06122403256268 -14.628169296706652 0 -14.628169296706652 -60.976592012824085 0 0 0 0 73.319557042115775 -90.815567013216508 0 -90.815567013216508 4.0396789017264609 0 0 0 0 -27.08505025053455 2.9906201685955409 0 2.9906201685955409 193.93965210884744 0 0 0 0 -38.958451548678568 -27.036003314203612 0 -27.036003314203612 218.08135275601666 0 0 0 0 24.615432349353796 -75.339719427430452 0 -75.339719427430452 -25.431798929676177 0 0 0 0 46.588195702381199 -49.08861971494872 0 -49.08861971494872 -52.562378988718365 0 0 0 0 42.933243168678018 50.66989468215769 0 50.66989468215769 65.775223939177607 0 0 0 0 27.038851547339618 -53.483314775701224 0 -53.483314775701224 -15.238909215890772 0 0 0 0 45.384737613726656 7.8253180740523902 0 7.8253180740523902 0.97122884849404079 0 0 0 0 -7.8674931503192056 -3.4500038174290921 0 -3.4500038174290921 124.45687117191454 0 0 0 0 96.332271265924646 -96.324318802886069 0 -96.324318802886069 -35.808273862057604 0 0 0 0 15.393646309263829 11.901379776674958 0 11.901379776674958 10.122939340011943 0 0 0 0 24.107491374124947 19.276735330847401 0 19.276735330847401 240.15727939987778 0 0 0 0 9.8064398232363601 51.663018567642851 0 51.663018567642851 358.43738454308379 0 0 0 0 -13.478971755466773 -133.92987759578722 0 -133.92987759578722 168.58523287170937 0 0 0 0 -20.345365426932403 -91.921931988551478 0 -91.921931988551478 443.29477933581063 0 0 0 0 22.107406897557667 -90.876540456600026 0 -90.876540456600026 28.477965170744497 0 0 0 0 17.334869738777343 -68.551817902152663 0 -68.551817902152663 23.508452457430593 0 0 0 0 10.590042460738914 -79.342908715784574 0 -79.342908715784574 94.270321249702363 0 0 0 0 57.95138564381341 -176.21087112588907 0 -176.21087112588907 68.829781278133865 0 0 0 0 443.42076325751987 -237.32777837027473 0 -237.32777837027473 507.03928986457873 0 0 0 0 7.1337606951757309 2.6791435644394355 0 2.6791435644394355 0.24268327063664311 0 0 0 0 59.638149074991816 766.65382992120374 0 766.65382992120374 -102.57454708994152 0 0 0 0 137.47046250026324 -327.67174853544765 0 -327.67174853544765 32.572679600008904 0 0 0 0 3082.1067053287916 751.28689167314565 0 751.28689167314565 -106.8897054390462 0 0 0 0 3493.4804205940891 319.2903617442127 0 319.2903617442127 -9.9525355589492079 0 0 0 0 1034.9003416197447 569.70721982655368 0 569.70721982655368 335.84970356632203 0 0 0 0 4.3725294400172317 4.7125340178249076 0 4.7125340178249076 4.051212845411575 0 0 0 0 1763.1155142894859 609.45322840783922 0 609.45322840783922 89.935076113098603 0 0 0 0 3067.1884882953564 -332.22573178210769 0 -332.22573178210769 -281.35697676294308 0 0 0 0 1444.1315011969346 -700.20400467200102 0 -700.20400467200102 -143.63511780343143 0 0 0 0 71.066584133572178 130.19754383869727 0 130.19754383869727 -204.10129762224653 0 0 0 0 8.095948021137815 4.471242496440567 0 4.471242496440567 3.6715465945643504 0 0 0 0 3499.3129147544714 -1182.6824595455616 0 -1182.6824595455616 -90.604858884553821 0 0 0 0 160.01291241066065 -35.269525586711595 0 -35.269525586711595 -43.253977109354352 0 0 0 0 -146.79013689071871 -201.51113614463279 0 -201.51113614463279 -65.424363466844738 0 0 0 0 17.053342096328691 10.639237537363236 0 10.639237537363236 3.4116809827077321 0 0 0 0 663.14962680999452 8.5651018782070807 0 8.5651018782070807 -550.90294756797527 0 0 0 0 3437.4280586403474 1408.281284506395 0 1408.281284506395 137.22272850315218 0 0 0 0 1922.3505228068489 -1240.7803923256999 0 -1240.7803923256999 173.7234604637969 0 0 0 0 3494.7518826157275 -188.65476130294357 0 -188.65476130294357 -750.9069077342275 0 0 0 0 991.74079584254287 256.46833323166805 0 256.46833323166805 -267.06722063399411 0 0 0 0 660.00188039578279 -379.39788049394838 0 -379.39788049394838 -40.244927371680042 0 0 0 0 -162.72964555945327 158.33711005719567 0 158.33711005719567 387.62977756563544 0 0 0 0 -224.92644389108955 -12.168509889146719 0 -12.168509889146719 87.146928473657908 0 0 0 0 370.40871183157651 222.48164226071435 0 222.48164226071435 -137.28131220975047 0 0 0 0 79.46572012138131 -661.21776877631601 0 -661.21776877631601 590.59656230282042 0 0 0 0 3482.0113152020613 108.77446065223069 0 108.77446065223069 -246.94970095972738 0 0 0 0 6.3634287848113757 -3.7900225588814092 0 -3.7900225588814092 3.2974248851180152 0 0 0 0 9.3089117439544538 -0.76212773184768867 0 -0.76212773184768867 1.5529261981569054 0 0 0 0 57.747773778381088 -114.19797098352581 0 -114.19797098352581 248.58115995279297 0 0 0 0 1026.9166076145775 696.78927678156163 0 696.78927678156163 492.0132866056984 0 0 0 0 3498.6980421543485 -713.60756103902099 0 -713.60756103902099 -486.00156919766829 0 0 0 0 3490.2027790079342 -715.64480066154465 0 -715.64480066154465 -484.77438361597984 0 0 0 0 91.22426017934049 -80.650321675907776 0 -80.650321675907776 -155.86922966797943 0 0 0 0 95.51230474132899 -78.788421941291347 0 -78.788421941291347 -187.68271316737923 0 0 0 0 82.730158322814532 -78.088226841504223 0 -78.088226841504223 -152.68435251579797 0 0 0 0 80.34379111922317 -86.431881315321078 0 -86.431881315321078 -94.843676623328292 0 0 0 0 54.742665346930153 -144.28813242657523 0 -144.28813242657523 -97.473632135952528 0 0 0 0 181.66581482674519 -219.85315430522559 0 -219.85315430522559 -284.17251286028221 0 0 0 0 176.09995393626014 -52.122955448375023 0 -52.122955448375023 -379.06877474812978 0 0 0 0 17.132061218138247 0.19927746650343892 0 0.19927746650343892 0.31277051254804022 0 0 0 0 19.72513982901728 108.43502588554009 0 108.43502588554009 -301.16466146584969 0 0 0 0 57.647240902915655 -22.479556332233869 0 -22.479556332233869 -64.326045579558922 0 0 0 0 5.9645679953391664 -11.640786837690484 0 -11.640786837690484 -13.42101175690027 0 0 0 0 34.523446443112334 1.986885756469519 0 1.986885756469519 -88.634445870129866 0 0 0 0 65.989173061661859 -7.765613015289091 0 -7.765613015289091 -295.08223191552975 0 0 0 0 28.270491486428995 -16.799482188191618 0 -16.799482188191618 -0.00050647552237514937 0 0 0 0 33.219288420455996 87.624828915402674 0 87.624828915402674 -86.857020041791202 0 0 0 0 18.445366980691198 -6.9080641795627944 0 -6.9080641795627944 3.1012046638750221 0 0 0 0 38.608226541184777 -20.181546127287092 0 -20.181546127287092 -2.4525836509402126 0 0 0 0 29.509815878773225 17.013160340962031 0 17.013160340962031 23.019845391501349 0 0 0 0 14.665668547133642 -7.6367178818163701 0 -7.6367178818163701 4.0933812161032108 0 0 0 0 7.2429514760200817 -6.3036681679521074 0 -6.3036681679521074 1.4721934310107012 0 0 0 0 83.13007530775576 -249.48860299972102 0 -249.48860299972102 -169.89600565543674 0 0 0 0 124.18012289858598 -25.211868553143404 0 -25.211868553143404 -14.17140515421147 0 0 0 0 0.16226079423331896 0.83182933891266586 0 0.83182933891266586 0.15416407729184645 0 0 0 0 -275.47446695820418 -2.8469157683890671 0 -2.8469157683890671 64.614559041002394 0 0 0 0 50.784305915811274 -83.710357872316308 0 -83.710357872316308 -98.413388904882822 0 0 0 0 -123.69503603778503 -23.360683954187607 0 -23.360683954187607 -119.27856299637369 0 0 0 0 -56.773684289844823 -1.03865561341172 0 -1.03865561341172 0.7547616040246794 0 0 0 0 0.21476063703084947 38.670135698835111 0 38.670135698835111 -88.688985188005063 0 0 0 0 -25.151729406035884 -4.4137658144275633 0 -4.4137658144275633 -4.4560766703368699 0 0 0 0 47.992544228567397 -7.0276129804584144 0 -7.0276129804584144 -1.43895598217112 0 0 0 0 75.453781206235362 -115.70484759571406 0 -115.70484759571406 -20.77762079364652 0 0 0 0 9.6582211817288339 -5.5075526235103727 0 -5.5075526235103727 0.91213108602852078 0 0 0 0 -2.991850806414007 -8.7984219100840466 0 -8.7984219100840466 2.5526309988479854 0 0 0 0 81.015979694413545 -14.720175000117365 0 -14.720175000117365 -193.50888751975936 0 0 0 0 92.072354124480626 -48.867146640850592 0 -48.867146640850592 -216.78661365723605 0 0 0 0 134.64150276343571 -47.990370127876531 0 -47.990370127876531 -217.97018413613591 0 0 0 0 21.127777623783913 -30.466538730521734 0 -30.466538730521734 -183.82927645489008 0 0 0 0 21.034712129228865 -117.21386618638724 0 -117.21386618638724 -288.32914536071314 0 0 0 0 8.0983421155100075 4.1385245637311243 0 4.1385245637311243 -4.6244271544988695 0 0 0 0 19.142401751210855 8.9910069071603402 0 8.9910069071603402 -180.51381988663297 0 0 0 0 -0.034346727843512781 -67.728267077076339 0 -67.728267077076339 -59.724812677107131 0 0 0 0 10.459693178534508 -27.353469538809691 0 -27.353469538809691 -54.531910921497513 0 0 0 0 58.341892865792033 -49.390169438031535 0 -49.390169438031535 -87.486780622979325 0 0 0 0 50.785788861205219 -49.078976202915726 0 -49.078976202915726 -87.499016642540482 0 0 0 0 71.764952985104173 -45.331583411641873 0 -45.331583411641873 -160.97802872720126 0 0 0 0 87.63219294022565 -59.496889186220784 0 -59.496889186220784 -197.2909016073686 0 0 0 0 49.329274812276708 -14.053581640084758 0 -14.053581640084758 -184.36440218175653 0 0 0 0 34.981311988059659 -6.9172254506095054 0 -6.9172254506095054 1.0259984996876452 0 0 0 0 221.62683087982441 -20.958721640955559 0 -20.958721640955559 -4.0394066466987937 0 0 0 0 42.792904745758278 -18.477910879390606 0 -18.477910879390606 -183.92190839595582 0 0 0 0 83.126345324577414 -41.033271641924102 0 -41.033271641924102 -182.30506625375722 0 0 0 0 0.076239488058490679 6.5012425699952701 0 6.5012425699952701 -70.438634663955952 0 0 0 0 0.39869275469177978 2.8559799986483831 0 2.8559799986483831 6.1798915030816097 0 0 0 0 393.38448922942189 -14.793749957459568 0 -14.793749957459568 -22.829363529436705 0 0 0 0 93.653634819248964 475.70460904366149 0 475.70460904366149 23.893623345788001 0 0 0 0 80.140362460821052 27.488039187096092 0 27.488039187096092 315.36224936760277 0 0 0 0 22.779720707829256 -571.20750585146493 0 -571.20750585146493 304.70034711404742 0 0 0 0 351.63072337421181 141.06485893057561 0 141.06485893057561 26.357025139870757 0 0 0 0 0.91176756667579539 0.6128984864396223 0 0.6128984864396223 0.96184484600263342 0 0 0 0 247.92385904124785 24.495480182873962 0 24.495480182873962 1.4680869586693461 0 0 0 0 214.48880877913916 -42.219267738170515 0 -42.219267738170515 -5.9511621429655861 0 0 0 0 -0.21750254417409032 -2.6455825637076025 0 -2.6455825637076025 4.7931826133062359 0 0 0 0 8.0240006642820845 17.580263967454016 0 17.580263967454016 49.647529558189035 0 0 0 0 -8.874608699638884 -12.43561024716297 0 -12.43561024716297 39.078805882445067 0 0 0 0 35.414099870980863 10.271854905800183 0 10.271854905800183 3.7857566773845974 0 0 0 0 227.29185407983096 31.924724850265648 0 31.924724850265648 -8.2752021312489887 0 0 0 0 70.303852489309975 65.540937600045709 0 65.540937600045709 60.984484808036996 0 0 0 0 66.491585460430542 2.9773323844851802 0 2.9773323844851802 20.066701864499009 0 0 0 0 79.976002562612848 -51.388560072041741 0 -51.388560072041741 121.30523532853545 0 0 0 0 11.741242738330914 7.5025595024743446 0 7.5025595024743446 14.10643889776216 0 0 0 0 -5.1679592749665062 -320.43696115526166 0 -320.43696115526166 -60.37330471115456 0 0 0 0 10.611431182816361 4.9135866966714907 0 4.9135866966714907 -1.0104716607739874 0 0 0 0 50.249436655980389 15.569473600279707 0 15.569473600279707 -85.800860362730077 0 0 0 0 50.836451080576808 39.952707281166568 0 39.952707281166568 -52.035125370481182 0 0 0 0 -39.997379688731598 28.428221213285269 0 28.428221213285269 -19.941862130901882 0 0 0 0 -61.416883413545293 79.292319050601009 0 79.292319050601009 117.47216484687124 0 0 0 0 -55.806271689267305 144.49370340780797 0 144.49370340780797 162.41883324998912 0 0 0 0 -55.513496614466931 127.07410659945162 0 127.07410659945162 57.992419243783843 0 0 0 0 -364.45900983051251 31.628375890111215 0 31.628375890111215 85.564495044821513 0 0 0 0 22.453104539027642 -3.3381451444404906 0 -3.3381451444404906 0.56089916334386736 0 0 0 0 9.8950301241291214 0.66649772973126575 0 0.66649772973126575 -0.61579419944119596 0 0 0 0 80.679727791139157 134.9003697221637 0 134.9003697221637 -174.29634246410492 0 0 0 0 55.913324871264194 -86.441161893553527 0 -86.441161893553527 -56.750772480518833 0 0 0 0 19.452454220692744 51.95340716054352 0 51.95340716054352 16.01859669796977 0 0 0 0 -15.065150780588738 -70.100119456433163 0 -70.100119456433163 -12.877239280761216 0 0 0 0 -916.39780997202615 39.134116204923771 0 39.134116204923771 257.07030386830991 0 0 0 0 171.33675928972661 214.43306470540449 0 214.43306470540449 266.86705307414644 0 0 0 0 562.20814931450877 10.270929685642386 0 10.270929685642386 85.956811895809551 0 0 0 0 3.4862631238075821 1.2194483595533061 0 1.2194483595533061 -0.28327571466800949 0 0 0 0 18.187412856826541 53.939060000335331 0 53.939060000335331 111.81921196783696 0 0 0 0 194.02332416426725 95.9123853187848 0 95.9123853187848 -63.391960702217148 0 0 0 0 41.181517414294149 136.4575776377946 0 136.4575776377946 102.17788023768298 0 0 0 0 36.462270962885668 103.56694796320767 0 103.56694796320767 53.88294648801093 0 0 0 0 328.08094492610689 81.82620401061331 0 81.82620401061331 -1.231023287949256 0 0 0 0 158.16176489698773 -49.054422964931746 0 -49.054422964931746 -86.344739866113741 0 0 0 0 7.5811026041783975 -0.98815335514924119 0 -0.98815335514924119 0.4961131993599831 0 0 0 0 504.03273893565347 -21.810513666648205 0 -21.810513666648205 50.900472467904819 0 0 0 0 1031.7223308129469 76.648568534349124 0 76.648568534349124 245.14514359832492 0 0 0 0 313.57563152534931 -9.2187617466718166 0 -9.2187617466718166 113.20558743292509 0 0 0 0 280.69817547206912 -29.591050938490071 0 -29.591050938490071 361.8666050694286 0 0 0 0 257.77938806582824 -124.31303608478407 0 -124.31303608478407 57.778377870517033 0 0 0 0 260.11841097669839 19.926564385598812 0 19.926564385598812 -73.885971682731906 0 0 0 0 260.95357779437893 78.402099703873645 0 78.402099703873645 -248.05129624387882 0 0 0 0 229.36034197944537 167.57966616152271 0 167.57966616152271 -145.65305271854959 0 0 0 0 215.60172940452321 137.83754358061105 0 137.83754358061105 -103.8239544004673 0 0 0 0 725.12663377895501 -396.13485441266084 0 -396.13485441266084 -143.5263433568598 0 0 0 0 550.60850744281925 361.77072612868869 0 361.77072612868869 44.01207696127949 0 0 0 0 194.0688541119016 165.32589819290797 0 165.32589819290797 38.234815927862655 0 0 0 0 91.234828661621577 53.631873386281995 0 53.631873386281995 -76.199094312891702 0 0 0 0 38.765310751618017 28.252671693579941 0 28.252671693579941 -43.449605325945413 0 0 0 0 16.806588596632459 8.5565143651265458 0 8.5565143651265458 -0.75611650339906333 0 0 0 0 -2.8569704536093923 19.246278157950655 0 19.246278157950655 52.314407904969926 0 0 0 0 82.922267440921132 218.44677941148734 0 218.44677941148734 303.40256364374545 0 0 0 0 5.7784993938100513 2.4947882357397866 0 2.4947882357397866 1.5246426020158541 0 0 0 0 274.43848536626683 -411.56446105001714 0 -411.56446105001714 495.07838682636839 0 0 0 0 365.46650205247397 -497.15800048667984 0 -497.15800048667984 -80.293088159446597 0 0 0 0 531.31628717655076 -63.481377278522814 0 -63.481377278522814 -87.823184076121834 0 0 0 0 221.48314559517257 -253.66336821439404 0 -253.66336821439404 25.098861527979352 0 0 0 0 8.6465723694148195 0.48008399285228798 0 0.48008399285228798 0.60157843641534825 0 0 0 0 333.32643743569952 -91.539887616605824 0 -91.539887616605824 -156.25952302742098 0 0 0 0 77.00108901142994 -16.347143989659571 0 -16.347143989659571 386.62285604707267 0 0 0 0 237.59796460928283 -257.50084720129507 0 -257.50084720129507 119.40485724407336 0 0 0 0 -5.3203978579831528 79.520129427027257 0 79.520129427027257 49.155973213875853 0 0 0 0 43.453352758668771 29.058074389375264 0 29.058074389375264 0.58950655863018131 0 0 0 0 101.35518291781 60.895244253579023 0 60.895244253579023 -99.15098301485159 0 0 0 0 82.932277773396891 -14.976414729858732 0 -14.976414729858732 30.825860121889093 0 0 0 0 85.648721490506887 -24.399175901426162 0 -24.399175901426162 3.7888428841653194 0 0 0 0 88.850642782008435 229.30132288684194 0 229.30132288684194 -151.63572317768504 0 0 0 0 17.064197166513623 72.351633264986475 0 72.351633264986475 31.663213350077513 0 0 0 0 95.874024818853286 35.326960090330203 0 35.326960090330203 -21.135702794829399 0 0 0 0 40.635147128939167 38.358226329836668 0 38.358226329836668 11.593947744250451 0 0 0 0 85.159362018917363 43.014534790075473 0 43.014534790075473 107.8258271459174 0 0 0 0 230.90823988032025 55.589822570709941 0 55.589822570709941 5.4045180421049963 0 0 0 0 143.886071633553 -36.952480633567518 0 -36.952480633567518 47.734834166732924 0 0 0 0 75.074722018314333 6.664186846799879 0 6.664186846799879 20.835307197028214 0 0 0 0 220.38254279453213 54.057826944365615 0 54.057826944365615 -8.9565379187894223 0 0 0 0 135.73494217066991 127.73757283131181 0 127.73757283131181 49.126919984541587 0 0 0 0 115.01683939528493 81.53907510683851 0 81.53907510683851 -30.501334031703436 0 0 0 0 8.165931294520643 -6.538540187354398 0 -6.538540187354398 -1.4519696767013555 0 0 0 0 54.146474414372278 46.136414177623635 0 46.136414177623635 115.89598691542668 0 0 0 0 214.57724334174293 -51.040058910343717 0 -51.040058910343717 2.2745848347093442 0 0 0 0 136.60037540458325 40.238667548463866 0 40.238667548463866 3.6740543557181411 0 0 0 0 33.398761770516657 -23.465773328331565 0 -23.465773328331565 -4.765844361153416 0 0 0 0 116.358752385598 -46.386833541276495 0 -46.386833541276495 9.7903547212358717 0 0 0 0 88.255593466123173 9.132763740078417 0 9.132763740078417 -8.0034690882752102 0 0 0 0 120.97739865704261 25.702414843234806 0 25.702414843234806 -9.475149234531159 0 0 0 0 112.32418059471274 44.886837616717656 0 44.886837616717656 -2.6991644367113992 0 0 0 0 46.667870117226492 39.702201719916445 0 39.702201719916445 17.374634698814241 0 0 0 0 43.814375193218893 666.79965248687142 0 666.79965248687142 313.46399301467409 0 0 0 0 70.571183347625265 -42.398353764991498 0 -42.398353764991498 23.397039412560844 0 0 0 0 38.174129029166849 -20.707664188772227 0 -20.707664188772227 -2.40964283736092 0 0 0 0 111.21490104772056 9.5972115485405425 0 9.5972115485405425 -12.017863365503217 0 0 0 0 92.894724912071979 14.292197563111358 0 14.292197563111358 -10.423626198361944 0 0 0 0 46.959282229792734 45.212158224324412 0 45.212158224324412 21.88901288560578 0 0 0 0 101.106214883951 25.061069509585764 0 25.061069509585764 -3.5221925401438057 0 0 0 0 91.372907282277083 -1.3418050276377755 0 -1.3418050276377755 1.0512207945283798 0 0 0 0 61.599466188421502 28.147959351148302 0 28.147959351148302 -3.5608666088464282 0 0 0 0 59.956329598523098 24.500459309246082 0 24.500459309246082 -5.8176908606365032 0 0 0 0 59.931309459252525 15.01443867829785 0 15.01443867829785 3.5514898028227875 0 0 0 0 86.833959817915456 8.1420857219441132 0 8.1420857219441132 -7.2663260132076175 0 0 0 0 87.736593883837486 8.1034169076024227 0 8.1034169076024227 -8.9661036680274719 0 0 0 0 86.220863528164045 7.1086208755366442 0 7.1086208755366442 -8.1975905544745729 0 0 0 0 43.087081733866398 40.716170003243036 0 40.716170003243036 -25.251974784859385 0 0 0 0 58.722897752684389 15.625135370884118 0 15.625135370884118 1.6926023662152805 0 0 0 0 62.991545903572842 21.491088217050788 0 21.491088217050788 -14.610036106884024 0 0 0 0 12.947091429076858 2.1728383798643947 0 2.1728383798643947 -1.7901855071007551 0 0 0 0 30.153775346143448 -5.7112495528832028 0 -5.7112495528832028 23.391504615528902 0 0 0 0 68.196292856864545 76.805098257565291 0 76.805098257565291 -44.743400157557744 0 0 0 0 67.365416585867024 97.806722581368035 0 97.806722581368035 5.0857243910761554 0 0 0 0 104.67127292804435 53.901658165816002 0 53.901658165816002 -30.385408390902455 0 0 0 0 155.1613895446535 39.552738440491112 0 39.552738440491112 -100.81268724475439 0 0 0 0 111.47781686508279 26.504804134369977 0 26.504804134369977 -95.386422816019376 0 0 0 0 84.052224283969736 -7.2668427471737118 0 -7.2668427471737118 -36.20115413987287 0 0 0 0 61.225735501402141 15.735566513641643 0 15.735566513641643 -7.7417467951302115 0 0 0 0 108.48925370048437 15.420702547448926 0 15.420702547448926 -10.6220607149844 0 0 0 0 86.741719040642238 3.0451706449473761 0 3.0451706449473761 0.92439925311839488 0 0 0 0 36.189903612181297 -100.45697594368772 0 -100.45697594368772 -90.651206731798396 0 0 0 0 154.99387259138712 -10.021799722424589 0 -10.021799722424589 -214.3521234687837 0 0 0 0 186.6984892888222 17.663285254907635 0 17.663285254907635 -191.74052965988108 0 0 0 0 3023.7237606642066 717.17063882371622 0 717.17063882371622 170.49337052464855 0 0 0 0 12.317003253053972 -17.993733523573887 0 -17.993733523573887 3.6219610040517143 0 0 0 0 8.6902229633060415 -170.23965990529712 0 -170.23965990529712 -241.80081746506761 0 0 0 0 3497.7795747188834 560.02028731130031 0 560.02028731130031 -347.19794532041897 0 0 0 0 2232.5863985470514 316.05544735818887 0 316.05544735818887 -289.74155947332179 0 0 0 0 2836.8349274783286 -1007.3583158989422 0 -1007.3583158989422 284.66977614553775 0 0 0 0 3501.2995758455095 -168.85825877743079 0 -168.85825877743079 609.70654908979702 0 0 0 0 3537.2851326568934 -228.09583754044084 0 -228.09583754044084 -300.70740822742431 0 0 0 0 1589.5499617826326 -623.69177918961009 0 -623.69177918961009 319.50419582439343 0 0 0 0 23.044886604300515 -20.273867883976322 0 -20.273867883976322 1.6401891324396427 0 0 0 0 24.868449638023776 19.655165490256366 0 19.655165490256366 13.524382940528312 0 0 0 0 -303.3919955981537 -249.47542607732868 0 -249.47542607732868 483.55882576926069 0 0 0 0 11.552445005769719 -3.4016769444453026 0 -3.4016769444453026 6.3473616178504413 0 0 0 0 483.75894512006926 724.0094511501685 0 724.0094511501685 143.75813404315002 0 0 0 0 2134.5511600594755 708.49900985132319 0 708.49900985132319 -132.65324244316542 0 0 0 0 15.232950450269847 -1.939018483472708 0 -1.939018483472708 1.4623674733785421 0 0 0 0 3477.4089352717929 -540.62430783493414 0 -540.62430783493414 -91.017627109461102 0 0 0 0 59.740254622913199 -43.488462498202125 0 -43.488462498202125 51.714289920023475 0 0 0 0 67.132009306922555 -24.267749495974044 0 -24.267749495974044 -4.7260203985606495 0 0 0 0 81.267700597843941 -63.106145411601346 0 -63.106145411601346 82.019451939060104 0 0 0 0 137.6757278147561 -12.536657960927414 0 -12.536657960927414 -23.594520173012519 0 0 0 0 161.04103157344616 2.9758686578533116 0 2.9758686578533116 -22.903897526923174 0 0 0 0 27.51383586686643 8.6733907353830091 0 8.6733907353830091 4.8547863990672795 0 0 0 0 54.004138787477132 -6.6075475771763195 0 -6.6075475771763195 11.721375001062142 0 0 0 0 68.260491943976376 17.96903659982263 0 17.96903659982263 -30.897279909866029 0 0 0 0 32.515776783905267 12.424268090411601 0 12.424268090411601 6.7204536247991236 0 0 0 0 55.074366763274156 -9.9924244806877596 0 -9.9924244806877596 14.941920251517558 0 0 0 0 53.94576210276864 -13.842846617145824 0 -13.842846617145824 -20.192523193308261 0 0 0 0 42.200801097189924 -2.3553124324680397 0 -2.3553124324680397 -30.61063642461886 0 0 0 0 20.513372249039762 11.655419195092431 0 11.655419195092431 6.319969447072312 0 0 0 0 46.2007502377528 34.816978861740836 0 34.816978861740836 -104.22418103708242 0 0 0 0 65.878330927960633 -40.51658224195819 0 -40.51658224195819 -62.831691765384903 0 0 0 0 24.351103862107266 -76.972000650173158 0 -76.972000650173158 24.554817528129092 0 0 0 0 85.518832812933397 -39.813584467542682 0 -39.813584467542682 -70.618679879974025 0 0 0 0 124.62717880557648 28.3834040391977 0 28.3834040391977 -31.524081808571736 0 0 0 0 99.215932774568955 29.978342935537427 0 29.978342935537427 -53.819816585086528 0 0 0 0 94.476578237001377 -29.62490854731243 0 -29.62490854731243 -1.6841027332609428 0 0 0 0 29.608876893714751 98.133652046789138 0 98.133652046789138 -147.28790836681037 0 0 0 0 20.837419746483647 6.3516457913452768 0 6.3516457913452768 -57.191002408523559 0 0 0 0 13.259059814735679 7.0335303278885277 0 7.0335303278885277 3.7265022904828413 0 0 0 0 158.42792315375482 -78.466009468236052 0 -78.466009468236052 85.001884841779656 0 0 0 0 -44.532804915634188 13.525488833522729 0 13.525488833522729 -30.643818088990656 0 0 0 0 77.18908794594563 83.322236482412762 0 83.322236482412762 2.137080160799087 0 0 0 0 -188.24322682971251 -429.71552975834675 0 -429.71552975834675 69.016226274299697 0 0 0 0 16.016553017975639 194.24442039700449 0 194.24442039700449 -14.961893115596013 0 0 0 0 268.92547676190225 169.03030533999618 0 169.03030533999618 -27.803662087401335 0 0 0 0 450.89242276662117 -39.525470574615611 0 -39.525470574615611 -87.96557398683143 0 0 0 0 1217.2071945124699 15.073300505485122 0 15.073300505485122 -197.37940775486231 0 0 0 0 212.04499275587659 -161.43948471676708 0 -161.43948471676708 161.02570732953404 0 0 0 0 -39.822177036799985 22.028698983963523 0 22.028698983963523 311.85713053485563 0 0 0 0 -72.295786362799845 -242.88363864092253 0 -242.88363864092253 -63.059088986458733 0 0 0 0 0.62075562309040322 0.85646963282130173 0 0.85646963282130173 -3.4584252426801774 0 0 0 0 320.16355412425082 5.5346595106723839 0 5.5346595106723839 31.995080673199936 0 0 0 0 276.80453214524459 -146.94077105373708 0 -146.94077105373708 234.82457316217392 0 0 0 0 167.56180442896857 -9.0563146193428423 0 -9.0563146193428423 75.920601435029766 0 0 0 0 3.8816990152752027 2.7814054608815368 0 2.7814054608815368 2.0984572591202877 0 0 0 0 -99.480030481605354 24.815701720745039 0 24.815701720745039 129.00043644415518 0 0 0 0 72.056299261403183 -161.5654071627572 0 -161.5654071627572 249.6440546474754 0 0 0 0 -50.587979988938969 72.506476210876542 0 72.506476210876542 86.362831419327904 0 0 0 0 -6.4877598408493213 46.132625917401697 0 46.132625917401697 100.53140957164595 0 0 0 0 -12.667749279487907 98.459373432375742 0 98.459373432375742 34.207972117041663 0 0 0 0 -23.500287606872007 50.543468913208926 0 50.543468913208926 104.93671026856714 0 0 0 0 127.76909329886621 -0.72370359415367602 0 -0.72370359415367602 -52.65904716315481 0 0 0 0 -35.595845421173635 7.7070907933857029 0 7.7070907933857029 133.55994897533901 0 0 0 0 109.93235096454373 -39.721550536141194 0 -39.721550536141194 26.232102873228087 0 0 0 0 -13.595324708678163 -50.306983349624829 0 -50.306983349624829 -67.63930627403397 0 0 0 0 63.321978736519668 38.237372041125354 0 38.237372041125354 -85.458650812916403 0 0 0 0 -2.0180686583487244 3.9965838990594627 0 3.9965838990594627 -9.3113788077347532 0 0 0 0 88.622318703995916 48.38138762598237 0 48.38138762598237 -39.656859950128819 0 0 0 0 67.163943939905948 29.390701475710785 0 29.390701475710785 9.3721403035840467 0 0 0 0 75.339875280678825 40.680786661972888 0 40.680786661972888 3.9385234615997433 0 0 0 0 184.13512808631276 78.870521437351726 0 78.870521437351726 3.9368631796852469 0 0 0 0 204.44091296870465 -48.92237293226367 0 -48.92237293226367 36.968275405438249 0 0 0 0 127.81798984862144 -17.721747266598072 0 -17.721747266598072 -9.4740987938266699 0 0 0 0 113.69877790128157 11.169025330562818 0 11.169025330562818 -29.793729813747518 0 0 0 0 63.602928893493299 48.059744223605207 0 48.059744223605207 -72.080207409577497 0 0 0 0 49.264868279005896 11.067341082181827 0 11.067341082181827 -10.848037057253805 0 0 0 0 42.643955986358378 35.352252155963797 0 35.352252155963797 -28.026952357667142 0 0 0 0 1.5949505504549819 10.766770647657321 0 10.766770647657321 -16.67817759923518 0 0 0 0 21.188274210016971 -11.90247498407507 0 -11.90247498407507 -31.988177168066954 0 0 0 0 38.44430526422002 16.829029162882307 0 16.829029162882307 -10.384299649034347 0 0 0 0 20.901842937648325 31.404844253951069 0 31.404844253951069 -10.187387189604653 0 0 0 0 29.934445949159453 49.931544294540572 0 49.931544294540572 -34.552534085767547 0 0 0 0 51.560233951826376 45.641458844278532 0 45.641458844278532 49.38171695967344 0 0 0 0 43.473783232180246 3.1366395587797058 0 3.1366395587797058 -9.1410130458592889 0 0 0 0 12.087370461144019 -44.322661141674871 0 -44.322661141674871 233.55661603132285 0 0 0 0 96.919842937695648 -83.404533094196267 0 -83.404533094196267 59.527465347564828 0 0 0 0 107.14943949902954 -203.2262876097243 0 -203.2262876097243 288.31938273302535 0 0 0 0 93.42452796903126 -115.38531957303303 0 -115.38531957303303 98.878335509800309 0 0 0 0 56.597622388550008 -46.526616954393148 0 -46.526616954393148 78.878505326872983 0 0 0 0 117.2089835188558 -85.958137588202987 0 -85.958137588202987 56.369505512580872 0 0 0 0 132.0808794872155 -65.655927806364843 0 -65.655927806364843 33.811159738090737 0 0 0 0 267.77583279226928 -120.16691437333634 0 -120.16691437333634 41.245362091863853 0 0 0 0 1.0918944737002203 1.8239038512225534 0 1.8239038512225534 -0.37421871547170049 0 0 0 0 77.673128119424291 -74.343284499982019 0 -74.343284499982019 -86.018922565955336 0 0 0 0 92.575132902789392 -4.2699544772037967 0 -4.2699544772037967 19.120020565755567 0 0 0 0 66.003151436947746 12.600743822614303 0 12.600743822614303 -3.4211224681355916 0 0 0 0 91.414728040712362 37.552803959324365 0 37.552803959324365 -75.11444630677488 0 0 0 0 93.28384087876475 -31.284801628598188 0 -31.284801628598188 -30.943897041368928 0 0 0 0 55.265482898087171 7.9377880840469359 0 7.9377880840469359 -5.5155965192262189 0 0 0 0 103.97759615828272 -75.675345715084546 0 -75.675345715084546 61.684665973445703 0 0 0 0 82.373170501468849 -78.825987534724504 0 -78.825987534724504 74.115259548678409 0 0 0 0 161.46441291613837 -118.82801590522786 0 -118.82801590522786 41.209145631984597 0 0 0 0 112.11636681236106 10.341624313614318 0 10.341624313614318 -106.88685431234853 0 0 0 0 71.936753807400208 19.902566045885735 0 19.902566045885735 -1.7216193663649102 0 0 0 0 15.741596171276083 -0.050999400618771062 0 -0.050999400618771062 -1.9783458201401807 0 0 0 0 73.112716248007928 6.6925705098061599 0 6.6925705098061599 6.7105744259549738 0 0 0 0 125.38856171540465 4.644223370980967 0 4.644223370980967 -41.72651656125629 0 0 0 0 71.527836245972139 8.5873086979610207 0 8.5873086979610207 7.0622499757855621 0 0 0 0 41.34376802611439 98.450460632886916 0 98.450460632886916 -153.06510636493954 0 0 0 0 39.728413684361385 12.813165739231668 0 12.813165739231668 -1.1398950770644345 0 0 0 0 67.458201801891846 -1.4204733055031511 0 -1.4204733055031511 -8.8502351707841171 0 0 0 0 75.266181028866413 -8.9903709336410884 0 -8.9903709336410884 13.11825515814553 0 0 0 0 169.45966794301057 -22.454219159315585 0 -22.454219159315585 -27.161699783348013 0 0 0 0 42.06478727459853 -0.72393794507365783 0 -0.72393794507365783 5.0141569854727095 0 0 0 0 -1.116778129773266 0.17479645240024411 0 0.17479645240024411 -1.1370011487792624 0 0 0 0 58.520438928586373 -2.4146576218221298 0 -2.4146576218221298 -6.1218036539613649 0 0 0 0 48.94500538765169 -12.818424963988377 0 -12.818424963988377 4.7968420746556149 0 0 0 0 0.42897753488754731 0.21543406594366843 0 0.21543406594366843 -0.54456598457063876 0 0 0 0 108.35021268639593 -22.359535282325851 0 -22.359535282325851 18.818333559601797 0 0 0 0 176.51054258538352 -45.066795600556929 0 -45.066795600556929 -10.441332711171981 0 0 0 0 66.35381639260504 -2.2276877436968334 0 -2.2276877436968334 2.6528363133229504 0 0 0 0 54.11594314685135 -2.6760865621384937 0 -2.6760865621384937 9.6037812137384435 0 0 0 0 19.794202294826743 -12.721458564191863 0 -12.721458564191863 4.8729900709233567 0 0 0 0 57.162671834935281 -1.2366022900363021 0 -1.2366022900363021 9.223593313924539 0 0 0 0 72.686482437347877 7.2760288985633679 0 7.2760288985633679 -1.6050216682995142 0 0 0 0 8.951700340349916 -13.78672824240595 0 -13.78672824240595 1.4669235686899968 0 0 0 0 47.699733330204253 -8.2561751017548772 0 -8.2561751017548772 1.8832324914615128 0 0 0 0 45.196465408171207 -9.4326292842569046 0 -9.4326292842569046 5.0012016323735224 0 0 0 0 40.044315034164356 -6.4635247753493559 0 -6.4635247753493559 1.8488195302691111 0 0 0 0 64.57369740462309 6.0691454247842103 0 6.0691454247842103 12.518220028226096 0 0 0 0 76.008544659413928 13.117975781965811 0 13.117975781965811 4.4407047224558482 0 0 0 0 16.462739995406082 -10.827378648052527 0 -10.827378648052527 -1.5338117893450196 0 0 0 0 27.981831815588521 -8.00226910659336 0 -8.00226910659336 3.6452157920591617 0 0 0 0 30.351781142035179 -4.9748145270027635 0 -4.9748145270027635 4.4298739466769916 0 0 0 0 38.103458323099403 -9.3431397299428909 0 -9.3431397299428909 3.1719650729621662 0 0 0 0 38.10096924753816 -11.211989931137282 0 -11.211989931137282 17.56308715178011 0 0 0 0 38.920979165697645 -9.2840456479204931 0 -9.2840456479204931 4.0891166936068259 0 0 0 0 38.377659404439328 -8.8043599469609717 0 -8.8043599469609717 3.9392575098099769 0 0 0 0 34.285058914500041 -4.2582244391508652 0 -4.2582244391508652 8.2673932564122197 0 0 0 0 41.447910292797587 -30.036603323164442 0 -30.036603323164442 5.982239347573568 0 0 0 0 23.646229432083075 -13.611126103705722 0 -13.611126103705722 6.2426262365662577 0 0 0 0 23.624079683339005 -2.1317194757343714 0 -2.1317194757343714 9.0029969367335525 0 0 0 0 4.7167120416423813 -6.3851674338968412 0 -6.3851674338968412 0.13356780694896631 0 0 0 0 47.801883214797726 -20.230530028288484 0 -20.230530028288484 5.8896690895767279 0 0 0 0 49.85989186812526 -9.3819657717530163 0 -9.3819657717530163 -0.26098808751567049 0 0 0 0 31.543592838035693 -6.7708912503212559 0 -6.7708912503212559 0.10661055792297702 0 0 0 0 46.38856356197175 -13.479450183843937 0 -13.479450183843937 -1.3526928022320135 0 0 0 0 43.454978539026342 -14.677722263573855 0 -14.677722263573855 1.266859795822711 0 0 0 0 43.279147614666726 -14.542629285708244 0 -14.542629285708244 1.8983883457135562 0 0 0 0 43.328809503943376 -13.374103738868371 0 -13.374103738868371 4.7320034374340594 0 0 0 0 18.646028742215549 -6.7357353036093173 0 -6.7357353036093173 4.5095257262460109 0 0 0 0 15.594059682446641 -10.32931987597226 0 -10.32931987597226 5.3239348961465112 0 0 0 0 14.364688481397836 -4.4543305487927647 0 -4.4543305487927647 0.71268246792352175 0 0 0 0 14.068377629721461 -7.4902539836306161 0 -7.4902539836306161 4.7144580547553705 0 0 0 0 23.852867553790105 -11.86771113302451 0 -11.86771113302451 1.2543655282938744 0 0 0 0 25.345618493527581 -10.862796280921884 0 -10.862796280921884 0.9928626531846021 0 0 0 0 23.298143272160814 -7.6534798760901595 0 -7.6534798760901595 2.2929426732030151 0 0 0 0 13.267909556914674 -5.9481040208074774 0 -5.9481040208074774 3.8241220077557045 0 0 0 0 19.446558884268597 -6.9973471331940118 0 -6.9973471331940118 4.0882055404301809 0 0 0 0 12.125409626177316 -14.630476159877162 0 -14.630476159877162 3.3777406678800617 0 0 0 0 14.219816665464108 -9.0948967452096774 0 -9.0948967452096774 5.2479571501477054 0 0 0 0 2.6425095899357984 -23.598879939009407 0 -23.598879939009407 35.403054625801587 0 0 0 0 29.185718779363469 -42.049586717045258 0 -42.049586717045258 45.441046583847765 0 0 0 0 17.558238550093719 -8.4270150433282183 0 -8.4270150433282183 -3.3838596047255942 0 0 0 0 16.864131701135193 -13.033036945394997 0 -13.033036945394997 2.7642056317977222 0 0 0 0 19.146341477451642 -14.322445689849701 0 -14.322445689849701 8.317834627486036 0 0 0 0 12.75171463082205 -3.7574686199498633 0 -3.7574686199498633 -7.7925525479480209 0 0 0 0 15.975337762192339 -8.6764177470423078 0 -8.6764177470423078 2.9009750947648172 0 0 0 0 5.0556513938990708 -2.6418034327385804 0 -2.6418034327385804 0.88004389814773631 0 0 0 0 24.509928682426107 -7.80189499614346 0 -7.80189499614346 0.89728152976977071 0 0 0 0 30.370091852615587 -40.943316596318709 0 -40.943316596318709 34.051679316699506 0 0 0 0 72.683131028483331 -28.879238486903233 0 -28.879238486903233 -30.632764813303083 0 0 0 0 3.5701539016074904 -5.4898875816375146 0 -5.4898875816375146 -2.8353210684471493 0 0 0 0 39.26834983563549 -41.825334887024724 0 -41.825334887024724 -41.030151163314031 0 0 0 0 11.574814550644078 30.921778485256226 0 30.921778485256226 -46.355066136237248 0 0 0 0 -0.6106107750697376 -0.089837907898896674 0 -0.089837907898896674 -0.10668066680828869 0 0 0 0 48.044257543544518 -11.177974097586684 0 -11.177974097586684 0.3367722111406124 0 0 0 0 45.284860264639065 -14.677074561284826 0 -14.677074561284826 -1.3473877566830197 0 0 0 0 32.594951426333864 -10.864210646160245 0 -10.864210646160245 -0.056489300854650537 0 0 0 0 34.191308434943494 -9.0160614434332729 0 -9.0160614434332729 -2.3670037536085147 0 0 0 0 37.246393927765894 -10.265703415550149 0 -10.265703415550149 -3.5722028797780467 0 0 0 0 21.22682944150074 -2.1662681945874738 0 -2.1662681945874738 -4.8851916629465109 0 0 0 0 31.31098202454541 -11.533172105857204 0 -11.533172105857204 4.3638991891612022 0 0 0 0 33.226746594078577 -8.2149851433102867 0 -8.2149851433102867 -4.236685498355655 0 0 0 0 18.39930584387173 -0.49025933505732056 0 -0.49025933505732056 -6.9813194062606705 0 0 0 0 23.191116032097497 -4.4901195222694756 0 -4.4901195222694756 -6.2039415429304858 0 0 0 0 55.024844272595146 -15.04137901043282 0 -15.04137901043282 11.260332956810089 0 0 0 0 55.035557251147111 -15.047366157035412 0 -15.047366157035412 0.38629077418954694 0 0 0 0 22.310936121827972 -8.7076093595562725 0 -8.7076093595562725 -10.3621465694916 0 0 0 0 45.181046313746634 5.6408318402959061 0 5.6408318402959061 -8.8214144691474701 0 0 0 0 36.074857518168756 -2.8160700873413589 0 -2.8160700873413589 -4.9832917180938239 0 0 0 0 37.346605800703401 6.3866019808306191 0 6.3866019808306191 -6.834265952952137 0 0 0 0 47.865842996383435 3.7331419971628748 0 3.7331419971628748 -8.6496072824570547 0 0 0 0 46.51050824171034 4.812428487679199 0 4.812428487679199 -1.3400618015745067 0 0 0 0 15.559817888105577 -12.990235437524831 0 -12.990235437524831 -5.1655044540726607 0 0 0 0 44.965583555786907 -4.9472891961438563 0 -4.9472891961438563 -6.9945695527721909 0 0 0 0 43.985398987413646 -1.5349950542108672 0 -1.5349950542108672 -7.472656351059868 0 0 0 0 49.793796543912322 -7.18467611320375 0 -7.18467611320375 -4.7102656626452699 0 0 0 0 29.07588914594352 10.043429464263546 0 10.043429464263546 -2.4596921853508871 0 0 0 0 20.265256614977261 3.716975579020982 0 3.716975579020982 -7.0336296103851055 0 0 0 0 35.432824635408281 -5.3431807494533743 0 -5.3431807494533743 -10.953867975441749 0 0 0 0 35.378362201416166 -6.8358430657235658 0 -6.8358430657235658 -10.594421823947641 0 0 0 0 43.140981801168095 -8.3128720761379711 0 -8.3128720761379711 -18.464834469321591 0 0 0 0 22.200328455832533 -16.657247399243406 0 -16.657247399243406 -9.9382822318294437 0 0 0 0 21.734729633210193 -5.7267880111226503 0 -5.7267880111226503 -5.4439776009427412 0 0 0 0 29.609742393691704 -9.0159442295090457 0 -9.0159442295090457 -4.3606281309462247 0 0 0 0 9.8747662312704243 -3.824391067057423 0 -3.824391067057423 -4.3525814555724542 0 0 0 0 38.838590973882674 -5.2983291456539519 0 -5.2983291456539519 -7.3163831342308185 0 0 0 0 68.173888791181525 -4.0884088753409102 0 -4.0884088753409102 -20.153021419686013 0 0 0 0 13.159826312414225 -26.388266403641808 0 -26.388266403641808 9.127543794895189 0 0 0 0 9.7670015611517726 -5.4859828292120376 0 -5.4859828292120376 -1.6259577867912243 0 0 0 0 37.65120226439285 -2.4660455608728284 0 -2.4660455608728284 -0.21399599773880595 0 0 0 0 33.19644359486847 -50.289022762347599 0 -50.289022762347599 28.196240787010424 0 0 0 0 25.639623783674324 -24.832738761333772 0 -24.832738761333772 22.905861053650771 0 0 0 0 30.123056338370588 -27.72904553100944 0 -27.72904553100944 3.2742509848444854 0 0 0 0 31.538722620987755 -24.473848093674803 0 -24.473848093674803 -6.5329388749399868 0 0 0 0 25.07655034241543 -24.674340953417534 0 -24.674340953417534 3.6489908465277665 0 0 0 0 21.656336172974989 -34.990164520571 0 -34.990164520571 3.1830685588890901 0 0 0 0 40.721924954825226 -32.284759194553892 0 -32.284759194553892 3.1624241274100626 0 0 0 0 57.01058744340844 -43.156313748923139 0 -43.156313748923139 -33.540192731822117 0 0 0 0 34.701899687916935 -20.80637533799942 0 -20.80637533799942 6.2629220577399991 0 0 0 0 68.853118347455165 -26.339511179590431 0 -26.339511179590431 -30.738100140633378 0 0 0 0 23.122587513600593 -31.668863431610134 0 -31.668863431610134 -7.9560287712542959 0 0 0 0 31.725192447790583 -18.062209290577371 0 -18.062209290577371 7.171300094705412 0 0 0 0 13.424351088710864 -46.538802530378618 0 -46.538802530378618 -29.263841455900774 0 0 0 0 8.2527730763977161 -30.428177270368849 0 -30.428177270368849 -1.0107862535095364 0 0 0 0 11.6803072256007 -27.277252121004949 0 -27.277252121004949 -5.5908078379558219 0 0 0 0 13.991449037647726 -51.581073845677345 0 -51.581073845677345 14.31853468155748 0 0 0 0 73.771909233078986 -27.762931903478687 0 -27.762931903478687 4.0409786290658758 0 0 0 0 170.72680953033705 -111.63457559759803 0 -111.63457559759803 -41.098867687651591 0 0 0 0 9.6528021569016182 -11.111864717827146 0 -11.111864717827146 -2.0560511297498918 0 0 0 0 86.937998223256727 -46.138617593149831 0 -46.138617593149831 12.97150273747333 0 0 0 0 -89.758878645196091 -143.16931023293364 0 -143.16931023293364 193.54411433941732 0 0 0 0 87.674663031481032 34.696140353636338 0 34.696140353636338 -131.3471333560833 0 0 0 0 67.884063587534911 -51.825892578248045 0 -51.825892578248045 -0.063825178948718531 0 0 0 0 0.4307298370913486 39.725607553880991 0 39.725607553880991 -117.02359398977387 0 0 0 0 66.047870615740976 -3.7138200250083173 0 -3.7138200250083173 -12.880813777297135 0 0 0 0 6.6051397460617807 -1.1947490360789246 0 -1.1947490360789246 -2.7527256751691418 0 0 0 0 2.0376124382612772 -2.3518505011008699 0 -2.3518505011008699 0.98017199429100188 0 0 0 0 2.4352712466104371 -12.592212728048352 0 -12.592212728048352 -16.15862500634892 0 0 0 0 67.00046123865468 -21.25911022145192 0 -21.25911022145192 0.046560866020399772 0 0 0 0 70.217733054720156 -30.53816853854471 0 -30.53816853854471 -28.501288194760491 0 0 0 0 178.0661933388019 11.580907406041831 0 11.580907406041831 -56.17068708246461 0 0 0 0 -37.914257837255718 187.96635278047142 0 187.96635278047142 -153.2059433381819 0 0 0 0 70.987456075195951 -113.01591217929627 0 -113.01591217929627 59.544369163707415 0 0 0 0 76.867358436699305 -101.51231661032728 0 -101.51231661032728 -51.220429558281467 0 0 0 0 23.535823177337079 -89.29448166556972 0 -89.29448166556972 69.709322179254059 0 0 0 0 9.8572047101970384 94.666568243580969 0 94.666568243580969 -186.88951490733984 0 0 0 0 244.42364402663588 -126.23107067954879 0 -126.23107067954879 -232.67803673939125 0 0 0 0 92.34483935429671 -44.127990051862525 0 -44.127990051862525 -63.077640804631301 0 0 0 0 45.307369099278731 -24.736587373255134 0 -24.736587373255134 -45.085342987192234 0 0 0 0 0.43188198900875108 -12.281557965421168 0 -12.281557965421168 -16.161922245731756 0 0 0 0 26.865026823816152 -27.023086452479333 0 -27.023086452479333 -1.3875183980760255 0 0 0 0 86.309612101395373 -82.398662375277667 0 -82.398662375277667 -17.163812590216367 0 0 0 0 26.680980297294809 -24.423991659748253 0 -24.423991659748253 -4.8701868735441849 0 0 0 0 16.103166255026736 -41.592554711802904 0 -41.592554711802904 -25.327046898780509 0 0 0 0 27.228315399541927 -19.474030615382457 0 -19.474030615382457 0.047254010543489988 0 0 0 0 23.442162863076589 -24.378883297585059 0 -24.378883297585059 -2.9114320754875962 0 0 0 0 21.347647280123056 -25.18753859965306 0 -25.18753859965306 -1.8624595827362622 0 0 0 0 27.326768380335125 -24.314972450224971 0 -24.314972450224971 -3.3967919213010518 0 0 0 0 25.397380845026419 -22.316452124228618 0 -22.316452124228618 -1.1629287742078276 0 0 0 0 27.587659434946545 -26.852185556319967 0 -26.852185556319967 -0.60309680949236366 0 0 0 0 25.808005853958093 -26.981258369164038 0 -26.981258369164038 7.2215440642635258 0 0 0 0 31.236607102071048 -41.29229077345461 0 -41.29229077345461 -0.2515390798947692 0 0 0 0 21.806321820013181 -22.980946032177286 0 -22.980946032177286 -1.6084596720408513 0 0 0 0 23.466540239328246 -12.416577157250835 0 -12.416577157250835 2.6442879846716152 0 0 0 0 20.14631860308964 -24.77541230650964 0 -24.77541230650964 -2.9636186930182049 0 0 0 0 17.679165110312624 -20.45237833226016 0 -20.45237833226016 -2.7403473367312046 0 0 0 0 1.2305060899121187 -7.103313077093004 0 -7.103313077093004 -10.30788729541232 0 0 0 0 30.97186340908479 -37.852291812040875 0 -37.852291812040875 310.63921554622448 0 0 0 0 -197.35606134944862 1173.7281533275234 0 1173.7281533275234 -710.49344895082095 0 0 0 0 -66.185846125945318 -829.72713402246245 0 -829.72713402246245 -135.60184681565943 0 0 0 0 4.6745091527086551 -1.1937693967625655 0 -1.1937693967625655 2.001418124604684 0 0 0 0 875.13337259208311 -1142.4944375841951 0 -1142.4944375841951 -35.629449348806702 0 0 0 0 1977.9389587744154 929.74564903407213 0 929.74564903407213 -732.09437590447351 0 0 0 0 253.99997288797749 526.44888891149003 0 526.44888891149003 674.76414891118861 0 0 0 0 1490.2007061005636 -448.19541180934732 0 -448.19541180934732 -201.38612305757852 0 0 0 0 480.19195178386144 209.0884950919708 0 209.0884950919708 -10.190806274796614 0 0 0 0 1568.6584545590831 468.09478361164065 0 468.09478361164065 38.465465865686383 0 0 0 0 -562.66733483703638 -151.36285745280611 0 -151.36285745280611 240.87718065932859 0 0 0 0 30.113205354923252 244.89694956448841 0 244.89694956448841 91.900081080752443 0 0 0 0 -15.757425276377489 74.932991580073121 0 74.932991580073121 -23.55201477531682 0 0 0 0 -0.63715006300543209 0.78877397758859935 0 0.78877397758859935 -0.50823317926362321 0 0 0 0 91.89925047883662 115.14265660431965 0 115.14265660431965 -213.51117938740936 0 0 0 0 105.35915378805385 71.313058599505439 0 71.313058599505439 -131.35170907165593 0 0 0 0 819.94640974633512 -333.82015697299039 0 -333.82015697299039 -194.97034840285863 0 0 0 0 1135.1083015517224 -284.60696924115382 0 -284.60696924115382 -199.81234079649948 0 0 0 0 237.20931750205455 -49.901232956013928 0 -49.901232956013928 -178.11434589275996 0 0 0 0 33.278796433321986 -30.687189608726044 0 -30.687189608726044 -13.563479569243896 0 0 0 0 21.945871543087833 3.5960787535686052 0 3.5960787535686052 8.1206963922880959 0 0 0 0 36.759422124012417 -23.15027586863846 0 -23.15027586863846 -1.6749919486259017 0 0 0 0 26.185859128756221 -19.04721687301863 0 -19.04721687301863 12.482357866931075 0 0 0 0 19.785190635170693 67.426713007563194 0 67.426713007563194 -21.449913006997576 0 0 0 0 -81.318140569796583 17.196054222572229 0 17.196054222572229 41.730103121824868 0 0 0 0 39.226538521924567 -10.027458375757362 0 -10.027458375757362 13.39109387803353 0 0 0 0 29.746668137389165 -22.401243820990381 0 -22.401243820990381 14.398318606608681 0 0 0 0 -70.383804664470517 -53.295109341520401 0 -53.295109341520401 24.571600785391638 0 0 0 0 -15.757329725632189 -37.342259323474991 0 -37.342259323474991 20.664230438174968 0 0 0 0 2.2581834884587444 -3.5709403614758068 0 -3.5709403614758068 5.4742775084078854 0 0 0 0 16.584766140973443 -11.007174193268838 0 -11.007174193268838 7.6341405251916967 0 0 0 0 17.280932149491946 20.210275063233212 0 20.210275063233212 -2.2102479923373721 0 0 0 0 8.9582458582935942 48.996747049769851 0 48.996747049769851 51.435162704496179 0 0 0 0 1.5042546456539156 4.4308515458793618 0 4.4308515458793618 -0.57159780597756082 0 0 0 0 41.436111170859419 -47.746327065563719 0 -47.746327065563719 -63.318655027544992 0 0 0 0 19.531881719155901 6.7636601405661789 0 6.7636601405661789 1.5801896972860376 0 0 0 0 26.595314427349543 7.1605664558916544 0 7.1605664558916544 -76.124811651758137 0 0 0 0 16.683059562902457 -21.328595285934966 0 -21.328595285934966 -11.965608588087889 0 0 0 0 14.419277198003222 -6.520126148082106 0 -6.520126148082106 4.547226414201508 0 0 0 0 24.726181099123949 -17.720823820822673 0 -17.720823820822673 -10.878090358984991 0 0 0 0 15.79634733557222 -9.2146638653630131 0 -9.2146638653630131 4.0910743889051071 0 0 0 0 753.49481496370117 -299.07636182519968 0 -299.07636182519968 -105.72321960474255 0 0 0 0 144.7654917034879 -36.883894347609498 0 -36.883894347609498 -41.714434895235172 0 0 0 0 -0.34329461791367155 -1.2491394334750616 0 -1.2491394334750616 0.036581836724657535 0 0 0 0 32.745405558456468 -20.663711218657909 0 -20.663711218657909 40.237471507578448 0 0 0 0 37.991707820519878 3.3055830292514656 0 3.3055830292514656 7.3012414097729561 0 0 0 0 8.966990407103367 9.5812552012075685 0 9.5812552012075685 13.704838305775411 0 0 0 0 39.868920441303089 -1.5863252677900164 0 -1.5863252677900164 -7.4166113760202279 0 0 0 0 103.89690210288143 205.63199117312615 0 205.63199117312615 -4.957074321627033 0 0 0 0 -31.783315537119165 -76.199655870281276 0 -76.199655870281276 67.234497032726836 0 0 0 0 19.27949110170649 7.4435583830405161 0 7.4435583830405161 1.7430509962251364 0 0 0 0 16.902316416237227 19.368480244327657 0 19.368480244327657 22.269303334403958 0 0 0 0 30.652870414278368 34.484206514640846 0 34.484206514640846 -19.483028478827691 0 0 0 0 0.2048054041993117 -2.9464597836971205 0 -2.9464597836971205 1.5776339744624117 0 0 0 0 529.1346615216089 -327.33511111584539 0 -327.33511111584539 188.21707721383291 0 0 0 0 651.74564643478561 -340.53909980696176 0 -340.53909980696176 125.86415136761934 0 0 0 0 720.68753310255579 -225.57347566492581 0 -225.57347566492581 83.222304014399469 0 0 0 0 443.39945509184417 -378.84345505287092 0 -378.84345505287092 4.9789291332162975 0 0 0 0 387.43906028336551 -194.90346198307816 0 -194.90346198307816 78.827565475348365 0 0 0 0 390.00654393615196 -259.18676554559897 0 -259.18676554559897 130.68531647405189 0 0 0 0 586.47998116962754 -277.12230957830934 0 -277.12230957830934 131.82266036869441 0 0 0 0 500.4933567382518 -213.88796864208399 0 -213.88796864208399 113.92330718673475 0 0 0 0 329.90990574294483 -109.6357319624226 0 -109.6357319624226 133.00295592827831 0 0 0 0 494.18682265599773 -143.76101850784062 0 -143.76101850784062 124.69587479120128 0 0 0 0 257.24872238306216 39.169100633682092 0 39.169100633682092 119.57208720948347 0 0 0 0 434.52201656604575 14.845356082461649 0 14.845356082461649 112.3009377812823 0 0 0 0 367.42935968969687 -42.016123921192047 0 -42.016123921192047 113.89372331471441 0 0 0 0 281.65786555330851 -114.75067266179735 0 -114.75067266179735 95.047734345112076 0 0 0 0 164.05172560640767 -27.319696855625807 0 -27.319696855625807 114.31158388179347 0 0 0 0 333.40299927456454 -89.456127721285156 0 -89.456127721285156 98.717081594513274 0 0 0 0 192.56638098453442 -279.90390035270889 0 -279.90390035270889 70.500406805521379 0 0 0 0 185.34091574653576 -43.93424844702853 0 -43.93424844702853 64.300183307968837 0 0 0 0 117.31662795972807 -103.87303844268513 0 -103.87303844268513 19.495735044564299 0 0 0 0 -16.73807539590598 -134.43781846147749 0 -134.43781846147749 -130.79016266731151 0 0 0 0 5.5666885729269779 0.33246077484545822 0 0.33246077484545822 -42.029672435079192 0 0 0 0 79.769543572791463 -17.586310020302108 0 -17.586310020302108 -187.82159784534088 0 0 0 0 96.99833718764603 -512.55039404787567 0 -512.55039404787567 69.492683112764553 0 0 0 0 53.839374181108724 -237.61691782205571 0 -237.61691782205571 -6.327570887530328 0 0 0 0 885.37703604645503 -675.7459675805535 0 -675.7459675805535 -10.476671906328193 0 0 0 0 715.84328336749059 -441.75578483486879 0 -441.75578483486879 -125.94845518908551 0 0 0 0 710.22744572949443 -426.34636753347939 0 -426.34636753347939 -16.162115818241546 0 0 0 0 880.36315346036463 -479.51323965969368 0 -479.51323965969368 -202.7411894633824 0 0 0 0 192.69178517929959 -173.12550434087007 0 -173.12550434087007 15.732986352053558 0 0 0 0 260.29510670656509 173.68065693437347 0 173.68065693437347 80.723902622747104 0 0 0 0 190.51450335544087 173.2461269301582 0 173.2461269301582 93.196589907167436 0 0 0 0 165.66155404118035 149.73052860410689 0 149.73052860410689 81.27722358996084 0 0 0 0 170.79141718326036 185.58093678081582 0 185.58093678081582 118.65192581852898 0 0 0 0 177.91430454157762 189.49190798612244 0 189.49190798612244 114.40424568045182 0 0 0 0 163.72885692210821 190.46826863294291 0 190.46826863294291 125.90383248045509 0 0 0 0 158.78062740864334 197.72603024399132 0 197.72603024399132 116.11266659115734 0 0 0 0 202.06971640017491 147.5280664425909 0 147.5280664425909 121.73597089965187 0 0 0 0 123.31028858710397 145.25258402414102 0 145.25258402414102 125.02379309099842 0 0 0 0 198.37064205786191 144.46747253906415 0 144.46747253906415 133.64447314636163 0 0 0 0 201.33400883129434 142.99097308897262 0 142.99097308897262 126.8360270498797 0 0 0 0 261.52382917357772 39.724959088252717 0 39.724959088252717 112.28545792862951 0 0 0 0 200.06038415751209 147.38794890839745 0 147.38794890839745 129.03981014936153 0 0 0 0 197.94672794969881 67.619400233513204 0 67.619400233513204 101.8726701283158 0 0 0 0 123.02597433015126 35.071454677627116 0 35.071454677627116 89.560021530267477 0 0 0 0 54.186450764918618 77.898095592295192 0 77.898095592295192 67.157701082213862 0 0 0 0 78.814523517538873 22.757246206424043 0 22.757246206424043 -34.525461513832852 0 0 0 0 -36.017254782249438 -24.655171847789461 0 -24.655171847789461 -18.325419171082444 0 0 0 0 17.428223405684776 113.23053413229513 0 113.23053413229513 98.934325568649911 0 0 0 0 76.084877526339369 93.892003142977273 0 93.892003142977273 34.638290725047227 0 0 0 0 113.66461627985882 125.45320853837757 0 125.45320853837757 81.933205044161241 0 0 0 0 118.12261806847937 153.0052703355276 0 153.0052703355276 116.38423699807936 0 0 0 0 81.821003360425948 166.8705144254684 0 166.8705144254684 132.94458948483316 0 0 0 0 140.3408807774349 195.46488314329645 0 195.46488314329645 123.15137647186657 0 0 0 0 96.642990858787925 206.27716689720455 0 206.27716689720455 215.34550655623752 0 0 0 0 28.168400760934674 121.72082385735689 0 121.72082385735689 146.86791978692963 0 0 0 0 210.75689580634207 256.80120426085705 0 256.80120426085705 313.10947333553372 0 0 0 0 189.643123691234 193.53558905306431 0 193.53558905306431 138.711997500287 0 0 0 0 312.31217862076164 141.81728092008836 0 141.81728092008836 227.97675449694361 0 0 0 0 210.06287565788352 236.60061015528981 0 236.60061015528981 133.04342585061477 0 0 0 0 134.85230412006376 201.48634387223808 0 201.48634387223808 164.02209983457396 0 0 0 0 116.91376440603563 -22.110666516793572 0 -22.110666516793572 286.76449508622932 0 0 0 0 236.27491824701065 -254.77357187645407 0 -254.77357187645407 114.62996923783919 0 0 0 0 206.00638962601806 -147.87453526915851 0 -147.87453526915851 -250.49403835177964 0 0 0 0 2.4755504567783646 -145.31292983294497 0 -145.31292983294497 25.142580698515303 0 0 0 0 151.86848870695076 -50.478059303591635 0 -50.478059303591635 -17.565948026886872 0 0 0 0 95.801313118223334 32.655903734868389 0 32.655903734868389 147.70477748822634 0 0 0 0 113.65408879061215 123.70385613375515 0 123.70385613375515 356.2249852168693 0 0 0 0 19.393061147688371 -35.584546543337396 0 -35.584546543337396 -58.477231482949719 0 0 0 0 15.425195790302496 76.684508460563393 0 76.684508460563393 132.68632436779717 0 0 0 0 -35.63542337675284 -170.62764067835505 0 -170.62764067835505 -196.83069850578704 0 0 0 0 -37.648083571772077 -63.038778229354648 0 -63.038778229354648 -17.527167804597866 0 0 0 0 22.07788595502825 -129.96456396552139 0 -129.96456396552139 50.392968468031313 0 0 0 0 29.9088825169747 -201.92417837127005 0 -201.92417837127005 -178.92326634990968 0 0 0 0 -110.33413837166154 -141.13196400424704 0 -141.13196400424704 -203.22273406911381 0 0 0 0 -39.690150960392202 -269.45426272268105 0 -269.45426272268105 -342.78327925545227 0 0 0 0 -73.326537003142221 -171.60059348129471 0 -171.60059348129471 -189.73087487939665 0 0 0 0 -3.1564691514522565 -168.73783334644872 0 -168.73783334644872 -489.14194484197878 0 0 0 0 -47.992339224512762 -240.06639647958218 0 -240.06639647958218 -377.51377879287156 0 0 0 0 -65.086250206154546 -124.7017219592351 0 -124.7017219592351 -382.10532774320654 0 0 0 0 -93.469682656919758 -161.70959669689682 0 -161.70959669689682 -218.90550370857 0 0 0 0 -23.384784034262339 -115.90334966212322 0 -115.90334966212322 -237.16572925862442 0 0 0 0 -42.820726733260017 29.497064145496552 0 29.497064145496552 82.173179580675651 0 0 0 0 32.894246892579758 -12.283118732864523 0 -12.283118732864523 -137.8441227653484 0 0 0 0 -67.245648427436208 -52.125517875375408 0 -52.125517875375408 -27.378103910765276 0 0 0 0 -74.316784932863357 -95.056700081109739 0 -95.056700081109739 -102.07073042513366 0 0 0 0 5.2210003693626277 -111.05363497723101 0 -111.05363497723101 -325.04405976721137 0 0 0 0 -52.181916569308214 -136.3071659650243 0 -136.3071659650243 -208.77257938068396 0 0 0 0 -1.7798152444406696 -244.12346655743352 0 -244.12346655743352 -496.96236873096632 0 0 0 0 -114.1852965785165 -197.06205135951654 0 -197.06205135951654 -297.46299472297966 0 0 0 0 -115.94135959599953 57.919017830196708 0 57.919017830196708 -139.64485226452643 0 0 0 0 -275.60733747209815 -102.4251146694553 0 -102.4251146694553 195.01601019458303 0 0 0 0 -179.60473127485329 -17.960237318820759 0 -17.960237318820759 225.04025275640106 0 0 0 0 -111.24159158517796 -90.122430700977475 0 -90.122430700977475 255.65981359479201 0 0 0 0 -179.90189922440004 -12.618696391759386 0 -12.618696391759386 285.23442482915198 0 0 0 0 173.07316705427002 -134.0817134451986 0 -134.0817134451986 144.05123675745108 0 0 0 0 157.94932145295388 -160.04532711336924 0 -160.04532711336924 150.28336420467258 0 0 0 0 1.0701441239081362 -1.0777300692285969 0 -1.0777300692285969 -0.092061479711336602 0 0 0 0 107.0586145351117 -70.901083933564678 0 -70.901083933564678 -4.174220159291508 0 0 0 0 89.278871010843432 86.36415563176979 0 86.36415563176979 204.19529841804376 0 0 0 0 218.41568323710453 -291.95132786628983 0 -291.95132786628983 26.091298106041904 0 0 0 0 -43.180973595993237 -353.39509670326186 0 -353.39509670326186 -533.33050258167691 0 0 0 0 55.342295882051914 -22.446783095328179 0 -22.446783095328179 7.2482992747763584 0 0 0 0 -80.668491710486705 127.30040271992675 0 127.30040271992675 -87.423970093081834 0 0 0 0 -237.45317563230856 -290.79208101164795 0 -290.79208101164795 -316.25998075208491 0 0 0 0 14.19789379393842 -248.28671031064846 0 -248.28671031064846 -317.96760010846583 0 0 0 0 -185.55619322413622 -82.842962822032291 0 -82.842962822032291 -452.34686525192569 0 0 0 0 92.611505255777956 -158.74647142870663 0 -158.74647142870663 -712.8194517600291 0 0 0 0 43.652172436093679 66.101910595473782 0 66.101910595473782 42.224288584196984 0 0 0 0 -15.221611408866011 59.329938218785628 0 59.329938218785628 63.398310219232371 0 0 0 0 -59.44743350495628 19.109114481008874 0 19.109114481008874 61.051670278292477 0 0 0 0 50.323276803799672 -67.419864818232782 0 -67.419864818232782 53.073419249871222 0 0 0 0 23.140452741150511 11.797860195933936 0 11.797860195933936 19.686747128171646 0 0 0 0 111.44464911355681 -402.66575087881142 0 -402.66575087881142 -691.65929828187484 0 0 0 0 -34.393965074657899 5.7582310115494693 0 5.7582310115494693 29.580570974426337 0 0 0 0 6.4372525259096989 1.8393334830830206 0 1.8393334830830206 6.6711857491322348 0 0 0 0 50.953686810626863 -13.121220762328267 0 -13.121220762328267 6.0996913536195425 0 0 0 0 -80.360518479246821 -419.35402845419071 0 -419.35402845419071 -470.21922105117301 0 0 0 0 59.82473323274462 -190.93094195199524 0 -190.93094195199524 -322.95006789506851 0 0 0 0 113.38310201221248 -248.15567931789724 0 -248.15567931789724 -415.93260384027599 0 0 0 0 132.04290785619287 -328.26164156821653 0 -328.26164156821653 -552.49139633636389 0 0 0 0 133.86311263974858 -314.8282922991566 0 -314.8282922991566 -471.1564236654126 0 0 0 0 70.699138738978945 -194.64116830138778 0 -194.64116830138778 -214.66832396871041 0 0 0 0 59.090538538720921 -104.5494958500592 0 -104.5494958500592 -460.91800298823773 0 0 0 0 210.92163867874115 -250.92270181219897 0 -250.92270181219897 -426.88482155184556 0 0 0 0 -294.90149588613303 -610.54400990089675 0 -610.54400990089675 130.336832495002 0 0 0 0 -172.04098373164743 598.19789701472735 0 598.19789701472735 321.57408395008133 0 0 0 0 568.04667129356676 182.07303292241295 0 182.07303292241295 33.198290494689616 0 0 0 0 1129.4712662554302 398.27628141528203 0 398.27628141528203 64.603737659962007 0 0 0 0 1129.3743842699259 156.32730188174833 0 156.32730188174833 -0.4644222561187803 0 0 0 0 1798.6590508733243 403.27460823238971 0 403.27460823238971 -102.31271600453874 0 0 0 0 1795.4591934889759 403.19954717313703 0 403.19954717313703 12.568977197471497 0 0 0 0 9.8558087627443953 -4.1861777012984902 0 -4.1861777012984902 -1.8953692026969442 0 0 0 0 2192.7520012108289 -52.506803994188886 0 -52.506803994188886 47.238083792325511 0 0 0 0 1145.4540540006201 670.09641962895603 0 670.09641962895603 -76.790498072552282 0 0 0 0 1279.8210529043827 960.5895262344452 0 960.5895262344452 -232.93442192518705 0 0 0 0 23.829449363885178 -6.3304746401173357 0 -6.3304746401173357 0.98468976076277137 0 0 0 0 1660.8667234763634 733.90299093261467 0 733.90299093261467 -163.89740602529628 0 0 0 0 42.79894559083732 -592.14437837465084 0 -592.14437837465084 55.33612291409986 0 0 0 0 2165.6575410554251 382.94697548477529 0 382.94697548477529 -333.18527438907495 0 0 0 0 -63.483631029595017 58.600292585723054 0 58.600292585723054 -266.36384994584751 0 0 0 0 84.175403276022735 -108.43947108139264 0 -108.43947108139264 -315.18301416018448 0 0 0 0 -96.297697537907879 -164.42461750413213 0 -164.42461750413213 -277.51434796546084 0 0 0 0 102.15268140438002 -224.30756121681611 0 -224.30756121681611 -660.40469053747643 0 0 0 0 58.774772826413937 -25.902475640481271 0 -25.902475640481271 -204.14438967787828 0 0 0 0 13.989433253062543 -78.432742215317376 0 -78.432742215317376 -412.27083366955412 0 0 0 0 -152.83821727166287 -375.20160777470119 0 -375.20160777470119 -336.61459112309103 0 0 0 0 57.358795094752679 -23.087505134564914 0 -23.087505134564914 7.8442124142591894 0 0 0 0 -446.22936488774394 -152.1911733868526 0 -152.1911733868526 84.723323910930958 0 0 0 0 50.783840930629928 -19.15579848244213 0 -19.15579848244213 5.084200143617565 0 0 0 0 259.19386569294147 -701.14866454372464 0 -701.14866454372464 -863.61288853551309 0 0 0 0 38.155104550045507 67.022160690344208 0 67.022160690344208 -430.71710183427967 0 0 0 0 290.70667809781298 -338.60836430021163 0 -338.60836430021163 52.628738668906408 0 0 0 0 -109.60939980119474 53.966268795325732 0 53.966268795325732 405.9320932039027 0 0 0 0 2.2870646506326011 -191.33189431160201 0 -191.33189431160201 63.175944838885698 0 0 0 0 559.49908010457511 105.32338547819745 0 105.32338547819745 237.68987547089864 0 0 0 0 -258.43147225803477 -22.844493759209399 0 -22.844493759209399 277.62736295120294 0 0 0 0 -206.73430379750789 -168.30957255607063 0 -168.30957255607063 138.30320965670307 0 0 0 0 7.898897087223304 -51.88682940083163 0 -51.88682940083163 254.58874544180071 0 0 0 0 36.954774973333514 -38.592685709410617 0 -38.592685709410617 222.35634726466196 0 0 0 0 -224.86127316857164 2.6412466389492693 0 2.6412466389492693 349.11917196053173 0 0 0 0 -223.11655881661136 -24.098340246180214 0 -24.098340246180214 260.29561460449077 0 0 0 0 -8.1231891056741006 -42.978476680563745 0 -42.978476680563745 363.50889348129567 0 0 0 0 36.787985545153788 -56.95606858024712 0 -56.95606858024712 273.82461022273856 0 0 0 0 437.35569651626065 145.21719922163538 0 145.21719922163538 309.86895627390072 0 0 0 0 513.66985867382391 -94.25343388925603 0 -94.25343388925603 269.72366683226574 0 0 0 0 672.00820564844253 15.407251288336283 0 15.407251288336283 201.55289437595638 0 0 0 0 973.40660126323201 15.41866446727272 0 15.41866446727272 147.02734208519178 0 0 0 0 1233.1693319199048 -410.20347857232787 0 -410.20347857232787 221.27383325405026 0 0 0 0 1412.2622702334702 105.39147111854254 0 105.39147111854254 176.24761623697123 0 0 0 0 564.42854669432927 72.698524626933704 0 72.698524626933704 450.96162118241 0 0 0 0 1709.8544431136688 636.65956084638424 0 636.65956084638424 290.52504969001711 0 0 0 0 521.78729934297553 -15.715330042640744 0 -15.715330042640744 711.97787814480671 0 0 0 0 -543.58388185227159 559.63247878937818 0 559.63247878937818 121.81920013815943 0 0 0 0 2.9099377068878773 2.5413382549932564 0 2.5413382549932564 1.1249429841145844 0 0 0 0 12.358033707954746 -317.85874073709965 0 -317.85874073709965 140.01714960754225 0 0 0 0 2485.2257267223267 -402.42662871235279 0 -402.42662871235279 -31.394895449840988 0 0 0 0 1235.8795167069093 219.96221030288439 0 219.96221030288439 325.64050209699781 0 0 0 0 1688.2322060007828 1163.7413587977308 0 1163.7413587977308 41.705565548361619 0 0 0 0 12.856336760005544 4.8293202276307738 0 4.8293202276307738 2.4080109519031119 0 0 0 0 1117.624202688894 -314.48298257788974 0 -314.48298257788974 166.06577224577632 0 0 0 0 1163.0341440844568 -365.92392835121655 0 -365.92392835121655 198.43487561540678 0 0 0 0 1215.5674090748071 -124.44884114823321 0 -124.44884114823321 23.031681292239227 0 0 0 0 1001.2890920565251 -336.8530652181887 0 -336.8530652181887 375.65255252634597 0 0 0 0 1139.8643884982012 -163.04021450750588 0 -163.04021450750588 280.85379122228005 0 0 0 0 872.58111211096548 -252.63901695152799 0 -252.63901695152799 283.20207739845137 0 0 0 0 940.63685022107165 -721.64332203139293 0 -721.64332203139293 467.61698293932932 0 0 0 0 1182.4939670191998 -831.51396548273669 0 -831.51396548273669 497.61563686016598 0 0 0 0 1.4322805500491995 -0.078833058251666088 0 -0.078833058251666088 2.852059525060973 0 0 0 0 1149.5371541974018 -400.43562313098846 0 -400.43562313098846 195.28581433820545 0 0 0 0 1501.1400123981803 -532.88849731555911 0 -532.88849731555911 236.76733743569639 0 0 0 0 886.35387333635526 -514.36731577883484 0 -514.36731577883484 323.58843088668436 0 0 0 0 891.28777598497982 -367.52899816320678 0 -367.52899816320678 222.30490116429155 0 0 0 0 970.70108308638009 -396.851484579096 0 -396.851484579096 227.6121708978244 0 0 0 0 685.95567146669782 -196.87008132758183 0 -196.87008132758183 245.8509879499652 0 0 0 0 890.5143686263491 -167.25140483688392 0 -167.25140483688392 212.69597251145933 0 0 0 0 739.32584614762209 -171.08819213601069 0 -171.08819213601069 198.22564305944616 0 0 0 0 515.49028379857191 -127.97968781332384 0 -127.97968781332384 240.38285698787968 0 0 0 0 637.29624387386139 -262.90142578954874 0 -262.90142578954874 262.48756038302145 0 0 0 0 748.91824292712977 -343.89658707454635 0 -343.89658707454635 300.38464990641842 0 0 0 0 496.90063410978473 -54.22066605063992 0 -54.22066605063992 206.71955219072333 0 0 0 0 430.61337614098193 97.342787041270185 0 97.342787041270185 114.91641953520957 0 0 0 0 410.88372412657918 46.452280934632654 0 46.452280934632654 171.79638589044725 0 0 0 0 635.81544226554252 -117.59550918853347 0 -117.59550918853347 232.69416665765857 0 0 0 0 645.37745279677256 -23.141212764430634 0 -23.141212764430634 173.77427650635946 0 0 0 0 557.50358475430221 48.678958882102506 0 48.678958882102506 155.87174114263507 0 0 0 0 459.92695726052625 -58.006291409182268 0 -58.006291409182268 240.79107029965598 0 0 0 0 791.03982113435632 -217.60387919528512 0 -217.60387919528512 265.19975619496336 0 0 0 0 775.1482329675182 -77.8921925678344 0 -77.8921925678344 208.73337385405648 0 0 0 0 1128.9849978409111 -291.65716978104228 0 -291.65716978104228 207.23152788745756 0 0 0 0 969.73401543662931 -179.14063567692199 0 -179.14063567692199 154.28922410342602 0 0 0 0 708.8601572042935 -118.5148526767457 0 -118.5148526767457 176.17670192102378 0 0 0 0 673.11158688470005 12.874297086422757 0 12.874297086422757 186.68380169372813 0 0 0 0 201.82956776210631 95.061566894102725 0 95.061566894102725 276.36514561987036 0 0 0 0 76.061751711051329 138.59645579322842 0 138.59645579322842 119.3482818563042 0 0 0 0 61.43622630437676 -79.483450342951073 0 -79.483450342951073 88.167658406344344 0 0 0 0 476.25931335706628 12.588100924446735 0 12.588100924446735 83.439748219567264 0 0 0 0 -101.20028926996747 1.6319377077224999 0 1.6319377077224999 235.17388800337358 0 0 0 0 -220.93994723120704 -126.24503975584685 0 -126.24503975584685 124.60430152111076 0 0 0 0 -107.34096553068957 180.92413926444715 0 180.92413926444715 -216.65692566890993 0 0 0 0 -481.25408995232647 -46.752677496178194 0 -46.752677496178194 47.069358936803837 0 0 0 0 -49.701418295302574 30.539821199375183 0 30.539821199375183 99.015232412932164 0 0 0 0 105.02266687930751 158.34143796599983 0 158.34143796599983 -61.270618999883936 0 0 0 0 -154.67800490569789 129.46186412322095 0 129.46186412322095 84.10661929802518 0 0 0 0 -139.50184140890588 56.148039998816103 0 56.148039998816103 4.0390225069322696 0 0 0 0 272.73812542927044 108.63368343886305 0 108.63368343886305 194.73538617424038 0 0 0 0 390.98335418894567 -6.2497540838303394 0 -6.2497540838303394 173.22170865180487 0 0 0 0 239.61697558504238 36.623947211131053 0 36.623947211131053 41.154957092327095 0 0 0 0 102.67803881881264 153.71562737751537 0 153.71562737751537 148.88122394136462 0 0 0 0 252.38352056220901 103.64066550490679 0 103.64066550490679 174.28329592434875 0 0 0 0 265.12232166401554 108.54404175454692 0 108.54404175454692 63.41977861518717 0 0 0 0 168.87657689138723 225.57350421899355 0 225.57350421899355 88.631481726751645 0 0 0 0 107.67496964626116 178.648192917507 0 178.648192917507 76.749890222924478 0 0 0 0 146.92353503661434 195.74060588156772 0 195.74060588156772 109.11941621495134 0 0 0 0 264.29972156167423 123.62659299236429 0 123.62659299236429 111.07302007505496 0 0 0 0 101.07839691424306 192.7176748778993 0 192.7176748778993 48.964006496039929 0 0 0 0 -101.36346039545242 42.821891841588695 0 42.821891841588695 8.5591912288546155 0 0 0 0 370.80885383538407 246.4510319876631 0 246.4510319876631 23.738875321283558 0 0 0 0 0.31217596440277617 1.247734902991354 0 1.247734902991354 6.2461965990463284 0 0 0 0 198.06080588971327 142.74268646354699 0 142.74268646354699 -36.352888011973846 0 0 0 0 120.05891829260509 272.20421037247206 0 272.20421037247206 107.72456732292994 0 0 0 0 222.83634691255429 386.00657087218747 0 386.00657087218747 219.53034940735415 0 0 0 0 160.24195420715841 203.18779138769264 0 203.18779138769264 106.34866914315626 0 0 0 0 125.63721798999904 255.4178416238874 0 255.4178416238874 62.810876912609046 0 0 0 0 88.313717906934471 245.74580877737276 0 245.74580877737276 145.33762078175278 0 0 0 0 87.701254151412286 256.13302490102706 0 256.13302490102706 113.81094448221461 0 0 0 0 30.587646804222459 192.05401008984336 0 192.05401008984336 107.43324223718173 0 0 0 0 134.93628337348491 139.32644857800005 0 139.32644857800005 65.164648642332395 0 0 0 0 133.08103985738489 100.7530279643895 0 100.7530279643895 -33.537596587861117 0 0 0 0 253.77416104030999 80.789903327973661 0 80.789903327973661 83.702683660821549 0 0 0 0 373.19933920112089 36.948663871523422 0 36.948663871523422 58.973855338892918 0 0 0 0 177.83584993963723 1.9424388352094866 0 1.9424388352094866 53.609130868093416 0 0 0 0 329.63309724102874 36.242766959886467 0 36.242766959886467 -124.48704139012915 0 0 0 0 349.57659495443659 -163.5262214304372 0 -163.5262214304372 158.97851675147831 0 0 0 0 271.2887402091601 68.889302688791872 0 68.889302688791872 91.180699589900541 0 0 0 0 302.40045725184609 -81.677821941716502 0 -81.677821941716502 238.15605235839848 0 0 0 0 499.28395165489201 -88.232977344936444 0 -88.232977344936444 180.42384358647723 0 0 0 0 447.71603507562759 -219.26878730390695 0 -219.26878730390695 427.17354375304603 0 0 0 0 736.25212680680488 -392.6700958161432 0 -392.6700958161432 343.19732036794812 0 0 0 0 698.17392479244154 -297.86598755422892 0 -297.86598755422892 295.05707771083598 0 0 0 0 674.75842521295999 -232.09540850251506 0 -232.09540850251506 265.29792390652074 0 0 0 0 440.94150158300909 -139.72486375353219 0 -139.72486375353219 304.92445891287571 0 0 0 0 557.46439815007761 -93.711432703452829 0 -93.711432703452829 210.94719467014329 0 0 0 0 411.52877969355814 30.297557819433337 0 30.297557819433337 182.95837948363987 0 0 0 0 256.09532999369549 135.93881082608095 0 135.93881082608095 156.24322778286682 0 0 0 0 417.30519841326168 38.774833016840603 0 38.774833016840603 143.9999979926306 0 0 0 0 233.28419973402561 87.694139433948749 0 87.694139433948749 149.5254756403956 0 0 0 0 386.72483987584565 3.9456980915329041 0 3.9456980915329041 154.96284671928697 0 0 0 0 20.796760398028709 34.410768682477794 0 34.410768682477794 11.480593784853681 0 0 0 0 42.677229874694603 19.773780204636637 0 19.773780204636637 -2.9019618104368874 0 0 0 0 38.254679799684709 23.526178812887224 0 23.526178812887224 -4.1631634063044203 0 0 0 0 25.333486479621946 17.384407228327476 0 17.384407228327476 17.345311436712983 0 0 0 0 -22.399715565021324 22.170222013986404 0 22.170222013986404 34.026634827301791 0 0 0 0 40.608179615512199 54.980121189617421 0 54.980121189617421 5.0323482978576521 0 0 0 0 -3.2670153832950746 32.576999300228636 0 32.576999300228636 45.300592308014984 0 0 0 0 -23.151473777585352 30.718528653491859 0 30.718528653491859 45.963114938511353 0 0 0 0 -8.9956096816786157 59.337323763655604 0 59.337323763655604 7.4440578644998823 0 0 0 0 23.052289041090262 44.083224109809635 0 44.083224109809635 -8.9548906581626397 0 0 0 0 22.785812541658338 20.089764496191826 0 20.089764496191826 16.412042618511226 0 0 0 0 35.47239260295828 9.4397820370398904 0 9.4397820370398904 -1.4587973973657427 0 0 0 0 51.32153952022054 31.480290502736352 0 31.480290502736352 -17.733144082104957 0 0 0 0 179.79108555211315 43.026687616011259 0 43.026687616011259 23.099622053477106 0 0 0 0 58.068919184057449 82.721681648151389 0 82.721681648151389 48.544147041339784 0 0 0 0 63.317357105170231 24.606082480120676 0 24.606082480120676 64.858489635780643 0 0 0 0 96.366155415837966 -4.875303109254105 0 -4.875303109254105 -3.8865689954718619 0 0 0 0 -0.1380349849437259 -0.03625294752487207 0 -0.03625294752487207 1.9917050155061489 0 0 0 0 -144.48064067073938 -39.591850703384807 0 -39.591850703384807 200.73430145735392 0 0 0 0 -305.03873436331196 131.68738768580829 0 131.68738768580829 71.187439695666399 0 0 0 0 -0.069234601989059286 3.0707218171204502 0 3.0707218171204502 1.623067981771154 0 0 0 0 42.824522356364469 9.013913967839926 0 9.013913967839926 -4.3594323287920815 0 0 0 0 0.28951917890040946 2.7856276950115699 0 2.7856276950115699 3.8785541749222681 0 0 0 0 -17.366734537965385 45.512452211301934 0 45.512452211301934 -57.908168138494148 0 0 0 0 6.0028007773816867 7.2318420469151263 0 7.2318420469151263 -8.0390172340666197 0 0 0 0 19.084801472701656 19.20467956043467 0 19.20467956043467 -4.3570730409262524 0 0 0 0 -183.64073492226453 92.638243201742625 0 92.638243201742625 70.462313801187975 0 0 0 0 -9.8539978288372367 44.666839112450077 0 44.666839112450077 0.92879099314586711 0 0 0 0 -5.6453024860957157 35.064357020741483 0 35.064357020741483 -16.751165908634903 0 0 0 0 0.74324937456383111 6.1682144830347099 0 6.1682144830347099 15.313654716306925 0 0 0 0 34.629228101690387 6.1339735217040925 0 6.1339735217040925 -90.551227156039658 0 0 0 0 25.431277236269125 -20.973779401514207 0 -20.973779401514207 16.210129038016021 0 0 0 0 -78.043123605746587 33.954092744049603 0 33.954092744049603 221.50787702403704 0 0 0 0 -58.520881383119558 -23.885360478662278 0 -23.885360478662278 191.26632729143284 0 0 0 0 21.770387130440213 -72.068750413959378 0 -72.068750413959378 74.566430980447421 0 0 0 0 -2.7682851053350035 0.92290492948128744 0 0.92290492948128744 3.2824919937512593 0 0 0 0 22.297890880265186 57.140803863050905 0 57.140803863050905 51.489392998873427 0 0 0 0 -59.483253461651657 39.064282307300502 0 39.064282307300502 85.932230820527366 0 0 0 0 52.530099037685432 38.765041284411609 0 38.765041284411609 16.279294437886847 0 0 0 0 -7.4886626925014497 10.705280893094105 0 10.705280893094105 9.9644799601046419 0 0 0 0 5.9230594681191064 6.2532509449406852 0 6.2532509449406852 0.90439243557646964 0 0 0 0 7.9930800613765314 28.885961958724579 0 28.885961958724579 13.613221528178201 0 0 0 0 -1.6524037710260018 48.184229412474224 0 48.184229412474224 17.934067498042623 0 0 0 0 20.475308108805621 41.074666323059319 0 41.074666323059319 -16.088406430192379 0 0 0 0 19.893888420517342 22.054939716339955 0 22.054939716339955 16.043969046375462 0 0 0 0 -0.88504516507964581 28.700440707766688 0 28.700440707766688 20.006928183625178 0 0 0 0 23.03890050706832 37.092564642828847 0 37.092564642828847 21.832004190374619 0 0 0 0 18.300843727738538 26.846389643911834 0 26.846389643911834 38.934357396054281 0 0 0 0 2.167020778371807 31.848059449600441 0 31.848059449600441 42.345225479104329 0 0 0 0 8.437486047238167 4.5138543921155794 0 4.5138543921155794 2.5131432029439633 0 0 0 0 -3.3152311799675687 9.4877635724301186 0 9.4877635724301186 18.285508030321214 0 0 0 0 20.687099394235702 18.341106651233986 0 18.341106651233986 60.665333811267828 0 0 0 0 45.398329709227255 39.177594375235003 0 39.177594375235003 33.354954737108756 0 0 0 0 70.960912298032781 48.14569908743033 0 48.14569908743033 52.391292130162128 0 0 0 0 21.709263710443338 38.710754011480503 0 38.710754011480503 105.52664875324035 0 0 0 0 45.475519998683012 40.403772552433111 0 40.403772552433111 50.039491603375041 0 0 0 0 72.638272528125526 35.088656735603081 0 35.088656735603081 23.389239770406675 0 0 0 0 76.557763324307416 41.592076854778611 0 41.592076854778611 20.606833380848911 0 0 0 0 22.493902498650641 35.75108537999327 0 35.75108537999327 33.683990348091356 0 0 0 0 52.760322399764846 33.664410736788 0 33.664410736788 4.5874706628346757 0 0 0 0 70.435932846950891 22.089755569441678 0 22.089755569441678 0.52176438948708892 0 0 0 0 51.669245536686503 31.97599938000576 0 31.97599938000576 17.536097718401834 0 0 0 0 96.035369823363908 46.507574705598586 0 46.507574705598586 35.015712455440735 0 0 0 0 64.175458358047763 71.125441607175162 0 71.125441607175162 -3.6952965484542801 0 0 0 0 29.533879257622175 87.922563522055043 0 87.922563522055043 -11.804441646008399 0 0 0 0 8.0391417156651954 5.2244062328647232 0 5.2244062328647232 6.8920076195699025 0 0 0 0 107.66510808373278 -13.610093945480003 0 -13.610093945480003 32.553639803572878 0 0 0 0 65.903126728720963 12.546627765919766 0 12.546627765919766 34.285799312380277 0 0 0 0 33.319614254464682 6.770303552856376 0 6.770303552856376 -8.0877163146355624 0 0 0 0 42.560413826053264 46.430224602532689 0 46.430224602532689 47.93695506907352 0 0 0 0 45.302276476169936 66.135033263755759 0 66.135033263755759 134.93961745217507 0 0 0 0 2.5212270979179436 -5.0646767176286698 0 -5.0646767176286698 -3.6689173358888221 0 0 0 0 27.21377405650199 16.606393699435365 0 16.606393699435365 4.1703474653522923 0 0 0 0 22.123394346053828 17.228792882625839 0 17.228792882625839 19.280272792173037 0 0 0 0 81.613567258995317 19.395646805543038 0 19.395646805543038 33.628465106548902 0 0 0 0 1.5021333072945708 38.187415198143754 0 38.187415198143754 -0.4894162178568422 0 0 0 0 57.186301969108172 53.931278655845745 0 53.931278655845745 1.6482203229224979 0 0 0 0 24.846601012675819 19.624278527192018 0 19.624278527192018 11.432784982611338 0 0 0 0 92.311294803366764 39.552754333041776 0 39.552754333041776 10.655812603830782 0 0 0 0 29.808862716035947 35.91138028453247 0 35.91138028453247 74.899074669116089 0 0 0 0 66.961000497467467 31.871645042849195 0 31.871645042849195 -28.740189005347929 0 0 0 0 33.341231605430949 16.748161223897114 0 16.748161223897114 86.252876142975765 0 0 0 0 -47.251100235465856 138.48190544103409 0 138.48190544103409 -0.63234472009571618 0 0 0 0 60.269285959420586 30.56344668254745 0 30.56344668254745 10.391114495913197 0 0 0 0 314.29632627528918 577.26073964980969 0 577.26073964980969 -297.46109808090569 0 0 0 0 74.42686973192373 30.226701364612161 0 30.226701364612161 7.5365296990012656 0 0 0 0 45.253632767640738 -26.807605701906596 0 -26.807605701906596 77.897352774472893 0 0 0 0 -97.991356288766838 48.574554033793447 0 48.574554033793447 164.7912127612949 0 0 0 0 55.1807095428303 27.57266083012928 0 27.57266083012928 30.371754904806949 0 0 0 0 52.58677938587789 -11.778157400815417 0 -11.778157400815417 61.748566003873748 0 0 0 0 58.042029860816001 -11.616327190459856 0 -11.616327190459856 5.5060582257847273 0 0 0 0 45.227570315008052 -0.16368161954596872 0 -0.16368161954596872 -76.13159900417304 0 0 0 0 59.050689643790975 -8.118255550043159 0 -8.118255550043159 -33.334910614516048 0 0 0 0 35.961995151155861 17.977296579965696 0 17.977296579965696 -14.820908593364948 0 0 0 0 64.590078504530538 20.046505986671946 0 20.046505986671946 -52.26660401193476 0 0 0 0 -6.0793293513561366 29.959226866692916 0 29.959226866692916 -52.093815689677285 0 0 0 0 -61.141929759076447 231.89965105566262 0 231.89965105566262 51.668334187928849 0 0 0 0 25.146899564602222 10.504340323705428 0 10.504340323705428 3.9409894092258124 0 0 0 0 159.04333862439671 19.180787721729757 0 19.180787721729757 115.17918087890939 0 0 0 0 -109.84201118997589 272.07837896596357 0 272.07837896596357 211.00269542481692 0 0 0 0 337.34212031547213 89.760494848347662 0 89.760494848347662 21.304757720145062 0 0 0 0 238.87261825805035 -189.84059247538198 0 -189.84059247538198 -82.228967979752269 0 0 0 0 -16.828742694007815 -37.089193358106058 0 -37.089193358106058 -103.24388235173319 0 0 0 0 69.275968052781536 3.9612992770726123 0 3.9612992770726123 -241.93671368333798 0 0 0 0 45.904985422766913 8.5855713266359999 0 8.5855713266359999 -63.576117760835587 0 0 0 0 41.90002001175128 15.130642765871769 0 15.130642765871769 4.8684698998288436 0 0 0 0 59.213079258293874 30.068394854369672 0 30.068394854369672 -99.796686684421729 0 0 0 0 46.498957560655981 65.09477113395792 0 65.09477113395792 -110.69794131587605 0 0 0 0 19.657646977429977 33.271135288347068 0 33.271135288347068 -28.779002077207565 0 0 0 0 25.034158668921009 9.3626455116818761 0 9.3626455116818761 -67.893437581784383 0 0 0 0 27.596171318931738 7.0039204707454701 0 7.0039204707454701 -82.891499309462233 0 0 0 0 3.8969917304202681 -29.69838198855723 0 -29.69838198855723 -87.613058099281261 0 0 0 0 17.895867486702628 -7.2516408515130024 0 -7.2516408515130024 -47.180895277717354 0 0 0 0 17.712671845714794 -13.805011620430378 0 -13.805011620430378 -69.371402142256557 0 0 0 0 33.987366280925926 19.816923952474099 0 19.816923952474099 -55.698913136921874 0 0 0 0 33.637142863488407 9.5879049267841765 0 9.5879049267841765 -35.892503622711956 0 0 0 0 28.614110113223433 -1.7496576844223455 0 -1.7496576844223455 -61.257923437904537 0 0 0 0 44.468092977898777 12.205056091321239 0 12.205056091321239 -32.305557071307703 0 0 0 0 44.354715797089739 13.607664318671596 0 13.607664318671596 -47.234840270721179 0 0 0 0 46.328956565354019 15.126755206185408 0 15.126755206185408 -46.562613079704533 0 0 0 0 33.988162216250203 19.44740953668952 0 19.44740953668952 -39.804802915950859 0 0 0 0 48.433523697560304 30.926904215002651 0 30.926904215002651 -80.399137821954355 0 0 0 0 48.854100856173318 41.942080133682339 0 41.942080133682339 -56.730227130297862 0 0 0 0 214.67143926759309 6.4249910063695097 0 6.4249910063695097 -171.03913615835791 0 0 0 0 54.661150471574558 18.924436977859251 0 18.924436977859251 6.7549380669189638 0 0 0 0 81.810902281643251 28.01157163673161 0 28.01157163673161 6.6072374733901897 0 0 0 0 86.521870709026189 26.524622156329542 0 26.524622156329542 -70.291665240341899 0 0 0 0 161.27101944590686 55.950169786995502 0 55.950169786995502 -150.2078475790081 0 0 0 0 148.55610794356107 72.702682922228405 0 72.702682922228405 -125.95529246130351 0 0 0 0 149.3915624186908 -106.73540165644285 0 -106.73540165644285 -226.94461532509104 0 0 0 0 10.744281248498737 122.70006375679395 0 122.70006375679395 -33.930764798460935 0 0 0 0 160.2483030506819 -7.4564002435021166 0 -7.4564002435021166 -368.63014149484616 0 0 0 0 46.969097288008925 184.87850028008563 0 184.87850028008563 -206.80395451329878 0 0 0 0 239.30089215969565 44.389921022336239 0 44.389921022336239 -664.58510980983101 0 0 0 0 -115.41252639472077 69.127056765993984 0 69.127056765993984 116.80532704955249 0 0 0 0 34.910271136759548 285.12759645293113 0 285.12759645293113 380.96020315268652 0 0 0 0 -103.12353900635935 -430.64514210892366 0 -430.64514210892366 112.51472435594587 0 0 0 0 94.831542650703341 19.518656503221791 0 19.518656503221791 -15.80449978685283 0 0 0 0 94.584571418815983 -3.8574791480347557 0 -3.8574791480347557 -29.001098910219298 0 0 0 0 73.467265046027023 -22.219965752857206 0 -22.219965752857206 -36.198193973255911 0 0 0 0 61.783410538089811 3.4179414650006947 0 3.4179414650006947 -9.8248734466892529 0 0 0 0 97.574818246997893 -15.155053675453928 0 -15.155053675453928 -63.563456327757649 0 0 0 0 113.3568387480118 -30.604064662111341 0 -30.604064662111341 -51.440912784134525 0 0 0 0 81.926172664032563 29.380334091906278 0 29.380334091906278 6.9579965896344946 0 0 0 0 74.835101254517213 -46.071249317011279 0 -46.071249317011279 -35.507393423911708 0 0 0 0 149.8693984549318 -60.225327251180715 0 -60.225327251180715 -34.532157657849893 0 0 0 0 144.660086169034 -27.93060482680653 0 -27.93060482680653 -17.220373710908461 0 0 0 0 68.175886956058093 -22.115630150336074 0 -22.115630150336074 -33.974058088435413 0 0 0 0 32.202967577526579 16.705785326219484 0 16.705785326219484 -45.858183049096624 0 0 0 0 53.486561065641581 -22.470705155542419 0 -22.470705155542419 -22.474913225489217 0 0 0 0 -145.69900447459804 232.47067719781262 0 232.47067719781262 53.021072291219753 0 0 0 0 41.929305077224853 40.196554906508936 0 40.196554906508936 -99.451135860252634 0 0 0 0 -16.424761169648264 29.414134512240707 0 29.414134512240707 -32.679116469332712 0 0 0 0 7.6845620840729509 3.720862785328201 0 3.720862785328201 2.0778452316658171 0 0 0 0 182.67270753529738 -85.024140184805219 0 -85.024140184805219 23.504968549279511 0 0 0 0 10.503000904711371 -55.51218056605876 0 -55.51218056605876 31.553841572205783 0 0 0 0 331.08010390927575 304.72096061949048 0 304.72096061949048 337.34643772251366 0 0 0 0 374.35278214080608 6.7086446210360009 0 6.7086446210360009 -21.496280831181139 0 0 0 0 147.91121545950227 126.44658198485286 0 126.44658198485286 45.849805144667698 0 0 0 0 238.99713275439717 -9.4498188751458656 0 -9.4498188751458656 -62.269311855374326 0 0 0 0 66.392059292767954 44.007723554722816 0 44.007723554722816 -36.105300390956472 0 0 0 0 36.60222639683343 130.83970903598538 0 130.83970903598538 236.46459988668903 0 0 0 0 134.35219202297594 69.153109424382819 0 69.153109424382819 56.977283844978501 0 0 0 0 -10.775703292536491 22.698511183197297 0 22.698511183197297 24.42141892725158 0 0 0 0 -20.209507653569744 34.019710314258646 0 34.019710314258646 75.753981886395195 0 0 0 0 -21.02101793750262 10.584674745698749 0 10.584674745698749 17.785478202109516 0 0 0 0 18.583280356572402 9.4287478525164516 0 9.4287478525164516 13.9755821180892 0 0 0 0 58.786710212545586 -25.093438868892804 0 -25.093438868892804 -21.95451891589255 0 0 0 0 33.780118752933049 60.155442677036262 0 60.155442677036262 45.449057518548216 0 0 0 0 70.821191874664464 120.31058815594491 0 120.31058815594491 38.174891041559022 0 0 0 0 39.183768763759872 66.808584859685652 0 66.808584859685652 -43.079833719972157 0 0 0 0 17.341469621028679 -2.0494259725815525 0 -2.0494259725815525 -13.829342255109188 0 0 0 0 74.984437993400206 -85.72029094060963 0 -85.72029094060963 -147.66861019902763 0 0 0 0 78.209397809493126 26.991025789942448 0 26.991025789942448 7.0146437119916394 0 0 0 0 121.79653361568489 -393.85311853101553 0 -393.85311853101553 193.860612574691 0 0 0 0 1295.7478188083478 198.40813363706138 0 198.40813363706138 353.57503802309202 0 0 0 0 1023.3272767898598 -1032.4127882032271 0 -1032.4127882032271 1644.6623297100086 0 0 0 0 1393.7888706478916 -903.58889142045746 0 -903.58889142045746 -190.03348053782065 0 0 0 0 522.87051286043788 -301.98935584409037 0 -301.98935584409037 628.62572649681715 0 0 0 0 -208.96844789725583 596.41066467959342 0 596.41066467959342 277.29177898308808 0 0 0 0 639.36828505267476 -457.86875787159033 0 -457.86875787159033 -432.43028993031294 0 0 0 0 -25.275894364003761 -346.90933632803103 0 -346.90933632803103 495.60096092920776 0 0 0 0 415.13876420607266 -217.39989395878547 0 -217.39989395878547 -450.50479482765513 0 0 0 0 11.602025075770328 -6.7039143992266013 0 -6.7039143992266013 3.2433307210820566 0 0 0 0 153.24899159099004 -594.92875957231547 0 -594.92875957231547 822.13135949874243 0 0 0 0 313.46171105875692 135.55141275761707 0 135.55141275761707 42.585874568967029 0 0 0 0 813.22884313178838 -733.68789456732588 0 -733.68789456732588 343.52148096006295 0 0 0 0 207.19757666167425 -321.39879865830699 0 -321.39879865830699 201.79109602670098 0 0 0 0 44.989593698650538 -0.099605179745644534 0 -0.099605179745644534 -0.83487183957376376 0 0 0 0 625.52148836727429 -318.08320082772025 0 -318.08320082772025 -157.70171515399124 0 0 0 0 63.226500408465654 -833.76545407446588 0 -833.76545407446588 1306.4466046101754 0 0 0 0 160.04147559233388 -408.10233769576598 0 -408.10233769576598 472.30158347080805 0 0 0 0 248.20266945004732 184.68079508112214 0 184.68079508112214 75.607789759927982 0 0 0 0 16.849996740850486 -3.6560163844977716 0 -3.6560163844977716 -0.63485826501927622 0 0 0 0 43.547225416441506 -51.656959437571913 0 -51.656959437571913 53.642268593983772 0 0 0 0 2.4168981112062085 6.2546286586999429 0 6.2546286586999429 9.9954371884681485 0 0 0 0 76.2101532538436 55.026128971137041 0 55.026128971137041 97.851867200024572 0 0 0 0 852.74655614930089 -120.02826677789744 0 -120.02826677789744 11.126295272002977 0 0 0 0 293.94174490595469 26.019759274054195 0 26.019759274054195 4.3022302587423837 0 0 0 0 -5.9473154693041579 -114.76443140294009 0 -114.76443140294009 985.93315681491367 0 0 0 0 494.73220850089274 -588.74017829221873 0 -588.74017829221873 465.87808386835195 0 0 0 0 -41.376507299675723 -182.16542222966427 0 -182.16542222966427 467.10667505282436 0 0 0 0 -58.879869691721979 -241.35209443221584 0 -241.35209443221584 343.1699159844211 0 0 0 0 41.318564478213375 -278.12463777724997 0 -278.12463777724997 261.70794005026119 0 0 0 0 14.922492764388153 -288.72591628419173 0 -288.72591628419173 356.55899944709745 0 0 0 0 -265.46083794252263 -162.31187140139286 0 -162.31187140139286 405.04819793875095 0 0 0 0 -0.28419098824815592 -189.58514922979441 0 -189.58514922979441 53.583601532807734 0 0 0 0 -8.0453168339663534 -8.1184363826381514 0 -8.1184363826381514 49.88249906795977 0 0 0 0 -2.2194523499804006 -4.519197405077219 0 -4.519197405077219 2.1810327212750833 0 0 0 0 -163.16916789699462 -76.060260497321906 0 -76.060260497321906 -15.331905384211211 0 0 0 0 -59.327670053942711 -3.923154663673813 0 -3.923154663673813 31.993573964909956 0 0 0 0 -215.93878954311003 135.47683318074766 0 135.47683318074766 302.2650301877909 0 0 0 0 103.36133069299103 225.56538094019868 0 225.56538094019868 71.514958364905169 0 0 0 0 -48.666438838656177 82.1516954871895 0 82.1516954871895 -41.073991715366901 0 0 0 0 63.059884743925068 75.725871152317268 0 75.725871152317268 -81.836374156536294 0 0 0 0 -47.196981149718567 33.673650377126563 0 33.673650377126563 -13.371567734582641 0 0 0 0 1060.597282083545 -527.47614167312963 0 -527.47614167312963 200.78887364104389 0 0 0 0 473.37256457345939 435.70369314499453 0 435.70369314499453 376.01588055791638 0 0 0 0 133.66833901217524 108.02040861810248 0 108.02040861810248 75.965446144291946 0 0 0 0 72.861069821177807 -25.417719084353394 0 -25.417719084353394 -292.17546943920343 0 0 0 0 462.60865596177609 21.675811750389585 0 21.675811750389585 -630.48288781045994 0 0 0 0 233.51441633202194 226.88240092791875 0 226.88240092791875 -66.022849959017094 0 0 0 0 30.241164823193685 41.893150673675336 0 41.893150673675336 -216.02430885377134 0 0 0 0 -207.3704283504776 -320.55212126308834 0 -320.55212126308834 -406.65673427688807 0 0 0 0 8.7800393271085326 -0.21137150722346121 0 -0.21137150722346121 -4.3252446401711495 0 0 0 0 -353.26990859335638 -171.55613755833474 0 -171.55613755833474 190.09584499383581 0 0 0 0 33.916054820203982 -14.701756337285833 0 -14.701756337285833 -0.39646376481042989 0 0 0 0 26.539080737173208 -28.775273413214563 0 -28.775273413214563 -24.778159886116555 0 0 0 0 124.3484087697143 -78.290214008927251 0 -78.290214008927251 -238.91965585009893 0 0 0 0 19.374859995231986 -17.3862143579696 0 -17.3862143579696 4.362504611889972 0 0 0 0 33.795910011300293 -18.32671341058284 0 -18.32671341058284 -35.762390214966331 0 0 0 0 33.317404396955681 -31.731983490263246 0 -31.731983490263246 -1.4632901320105702 0 0 0 0 23.917392432384077 -12.618160970544295 0 -12.618160970544295 -32.780814481205198 0 0 0 0 12.798284120624658 -1.9100463480858494 0 -1.9100463480858494 -8.1505142865315676 0 0 0 0 19.673373478646681 -26.224773358470884 0 -26.224773358470884 -13.73469531795422 0 0 0 0 13.219656172819615 -11.537339138594888 0 -11.537339138594888 -17.258706223102749 0 0 0 0 29.139024661648364 -25.036947637607682 0 -25.036947637607682 -19.902499150995936 0 0 0 0 1.1772133567901619 -36.293074238486895 0 -36.293074238486895 1.2354031969916832 0 0 0 0 3.1585538657214371 -10.412986832575825 0 -10.412986832575825 -22.075045800979002 0 0 0 0 -12.525956540659536 15.535478290852552 0 15.535478290852552 -56.644938350872508 0 0 0 0 100.64257790971897 -52.780948419752235 0 -52.780948419752235 -54.237819198185662 0 0 0 0 -4.8211855014454841 -11.887618155042492 0 -11.887618155042492 -1.4009148007789456 0 0 0 0 10.859216392644157 18.404912962732169 0 18.404912962732169 -138.01785453743651 0 0 0 0 27.875510805080694 -21.184150835484829 0 -21.184150835484829 0.494721712836804 0 0 0 0 35.728345895659004 -41.783020323387063 0 -41.783020323387063 -23.508723643606913 0 0 0 0 34.687454700964736 -36.216515193751093 0 -36.216515193751093 -9.1843502859805994 0 0 0 0 18.863102585499291 -23.157798720034293 0 -23.157798720034293 -19.738362469195181 0 0 0 0 41.278913151785673 -31.365883591254715 0 -31.365883591254715 -18.657251717833674 0 0 0 0 74.111269710789202 -82.574862221575927 0 -82.574862221575927 20.182361993725607 0 0 0 0 76.514935585317289 -92.673873647758228 0 -92.673873647758228 -21.654206631104444 0 0 0 0 50.915609967225464 -35.925754527263962 0 -35.925754527263962 -21.915551098678407 0 0 0 0 -8.941925445165289 -28.197839630485333 0 -28.197839630485333 -10.853180052251236 0 0 0 0 7.1472658876429591 -30.196647184463998 0 -30.196647184463998 -17.864870181106134 0 0 0 0 128.93818952606671 -61.421244838447251 0 -61.421244838447251 -108.41781592152506 0 0 0 0 48.718520362446725 -32.912917102533811 0 -32.912917102533811 -8.5456454539033757 0 0 0 0 40.643234927927551 -30.063747497302302 0 -30.063747497302302 -2.1600734311177803 0 0 0 0 96.021338905455195 -26.033890496299421 0 -26.033890496299421 -11.083623293155711 0 0 0 0 47.651503575111789 -17.820027433658232 0 -17.820027433658232 -2.3183505378726803 0 0 0 0 93.103474499868412 0.35794718074895104 0 0.35794718074895104 -2.1139218781834876 0 0 0 0 77.2108458589355 -2.0440057824509381 0 -2.0440057824509381 100.11743228828283 0 0 0 0 18.730529210966779 -18.052663335347461 0 -18.052663335347461 -12.057838523605824 0 0 0 0 6.2943275748615832 -10.657391357205249 0 -10.657391357205249 -9.5247139658031692 0 0 0 0 10.442261781645755 -7.7525507986665048 0 -7.7525507986665048 -17.299401454869411 0 0 0 0 21.021573376045126 -17.901191052626928 0 -17.901191052626928 -5.3334345245698387 0 0 0 0 13.415016707814829 -16.427239867130858 0 -16.427239867130858 -1.4922883578087642 0 0 0 0 45.48421179343859 -27.367502541486374 0 -27.367502541486374 -6.8295041189835501 0 0 0 0 110.27210982357792 -32.31942799330767 0 -32.31942799330767 -10.799285836621266 0 0 0 0 6.8913762061736463 -2.1069894088820362 0 -2.1069894088820362 -1.0535838375782545 0 0 0 0 14.663515813694218 -14.661260864224573 0 -14.661260864224573 -2.9554666076913856 0 0 0 0 10.162829142143892 -28.301847651960202 0 -28.301847651960202 -5.3115416314922186 0 0 0 0 18.414219488135132 -15.02229283487577 0 -15.02229283487577 -8.0038533336496585 0 0 0 0 23.390416271596479 -14.944822874165496 0 -14.944822874165496 -7.2540736211486392 0 0 0 0 26.074621511137593 -18.063431791573294 0 -18.063431791573294 -20.037921849663689 0 0 0 0 27.432913012111385 -14.166383875061911 0 -14.166383875061911 -22.586889808701017 0 0 0 0 14.036384835939209 -21.993923450940127 0 -21.993923450940127 -12.611515371075376 0 0 0 0 20.685195575078978 -21.755968432104964 0 -21.755968432104964 -5.0506000606364978 0 0 0 0 23.531829658964853 -18.141288947448174 0 -18.141288947448174 -6.0176514405320631 0 0 0 0 27.901775499987707 -21.388966725831779 0 -21.388966725831779 -7.5923628736436513 0 0 0 0 19.771927246489213 -11.401812765977411 0 -11.401812765977411 3.5401376457821243 0 0 0 0 20.789667404732427 -17.806183490815101 0 -17.806183490815101 30.967215415781538 0 0 0 0 33.918885176084586 -74.254868197927863 0 -74.254868197927863 54.914868517455034 0 0 0 0 32.352764558359922 -42.764398831286599 0 -42.764398831286599 10.539342929470195 0 0 0 0 47.795353103003436 -31.250148685169734 0 -31.250148685169734 -3.4626985548118228 0 0 0 0 36.156885894922624 -12.06683503980112 0 -12.06683503980112 -11.908497445745054 0 0 0 0 59.903375694695569 68.936651378304305 0 68.936651378304305 -10.811495457210469 0 0 0 0 75.302721244894201 -37.133066316735494 0 -37.133066316735494 -58.408937265238819 0 0 0 0 49.047667946385104 -9.4967372033960338 0 -9.4967372033960338 -0.18510456030904343 0 0 0 0 52.338821507699322 -42.453897876996052 0 -42.453897876996052 -40.511309114226606 0 0 0 0 41.970516411635067 -4.7436572144154674 0 -4.7436572144154674 0.29305001185906565 0 0 0 0 93.138114320550812 -28.004613512062861 0 -28.004613512062861 -103.45072982751668 0 0 0 0 84.262491452398535 2.5991109653739386 0 2.5991109653739386 -86.86134616464733 0 0 0 0 818.66365456632866 -515.67514181848742 0 -515.67514181848742 380.75237241557988 0 0 0 0 -0.28794208538052146 -4.7888468122026957 0 -4.7888468122026957 7.9451149449708112 0 0 0 0 4.2387030505342409 3.5405640721573945 0 3.5405640721573945 53.141612167150015 0 0 0 0 -14.427949928904127 -30.971410485010892 0 -30.971410485010892 230.44492015268042 0 0 0 0 812.52964275305567 -542.13552144559071 0 -542.13552144559071 361.62286653331103 0 0 0 0 156.9795271783878 -20.035510884336873 0 -20.035510884336873 -41.950031040292743 0 0 0 0 14.142147630314867 -146.47218225305733 0 -146.47218225305733 511.64735270390156 0 0 0 0 800.88621988627528 -492.10988936760509 0 -492.10988936760509 455.74798823175843 0 0 0 0 717.36407900147606 -404.1712443127999 0 -404.1712443127999 392.69702407489058 0 0 0 0 824.55736514407909 -468.08223629438362 0 -468.08223629438362 291.36709641826565 0 0 0 0 6.1169478042279479 -0.23406550052538933 0 -0.23406550052538933 -0.022122855040016987 0 0 0 0 117.7804797317076 61.681829946664948 0 61.681829946664948 -15.953424376039948 0 0 0 0 22.385211378023087 -29.110674906330132 0 -29.110674906330132 70.522157120616612 0 0 0 0 177.14829283706786 -55.848481717954201 0 -55.848481717954201 17.977766177351441 0 0 0 0 37.251261228673684 -80.320211770240348 0 -80.320211770240348 -17.60417927294111 0 0 0 0 51.462944662038353 -69.048062291119095 0 -69.048062291119095 -29.537942529687825 0 0 0 0 43.965109677825239 -114.10618864523531 0 -114.10618864523531 96.01729991326556 0 0 0 0 241.9503423859569 -144.14944153827309 0 -144.14944153827309 -161.47812285007058 0 0 0 0 69.956046332285041 -4.0667418525927133 0 -4.0667418525927133 -113.76214562891505 0 0 0 0 21.060197077553312 -84.830598168763117 0 -84.830598168763117 -37.289361504066619 0 0 0 0 1306.9261251166099 -370.95101194069548 0 -370.95101194069548 195.13440033707593 0 0 0 0 677.11268080036098 -354.3626270077657 0 -354.3626270077657 480.04593520491653 0 0 0 0 766.24818938936369 -417.01097571358878 0 -417.01097571358878 383.94532187820005 0 0 0 0 763.76644520360969 -412.89135736240291 0 -412.89135736240291 562.66456313886556 0 0 0 0 834.91226757963159 -229.75817249146348 0 -229.75817249146348 543.40026857245982 0 0 0 0 612.14614615739993 -362.10645379446578 0 -362.10645379446578 416.22286844429073 0 0 0 0 812.07304376340835 -307.91505913820993 0 -307.91505913820993 353.59512575149347 0 0 0 0 390.3377626415022 -101.81401042025755 0 -101.81401042025755 235.54085671285793 0 0 0 0 740.74870140092025 -676.56395821142451 0 -676.56395821142451 366.94640904889729 0 0 0 0 455.79895113908424 -1110.1142021098308 0 -1110.1142021098308 124.06936666204865 0 0 0 0 -168.73902947250826 -380.76511040240257 0 -380.76511040240257 275.2629557553646 0 0 0 0 119.71689610714384 75.342230865384408 0 75.342230865384408 -68.342193381093239 0 0 0 0 -167.98344580812045 -52.322879791977812 0 -52.322879791977812 -8.0611875738923118 0 0 0 0 -0.2715924737005011 -1.1278145246367188 0 -1.1278145246367188 1.5096303780533091 0 0 0 0 1328.0798880740949 -1133.2640963633628 0 -1133.2640963633628 152.27118373971462 0 0 0 0 365.42014256635593 -1152.580550283199 0 -1152.580550283199 777.42350341569863 0 0 0 0 -14.233627165100188 -475.53272550918905 0 -475.53272550918905 -56.067745041204034 0 0 0 0 203.26520878956944 -45.446381790838359 0 -45.446381790838359 -104.63231185655786 0 0 0 0 866.02859837067444 -67.987625315616242 0 -67.987625315616242 -170.5801473682568 0 0 0 0 38.579842703737086 43.5145552503418 0 43.5145552503418 23.505616248074148 0 0 0 0 107.00014072820341 -84.220869632938957 0 -84.220869632938957 -112.94304241963619 0 0 0 0 145.43621928930224 -18.665663842023378 0 -18.665663842023378 -57.522157173045343 0 0 0 0 13.850455793952278 -44.999367143726886 0 -44.999367143726886 -36.96070219211424 0 0 0 0 -7.6930551195000589 -29.001701025457805 0 -29.001701025457805 -10.013699017308682 0 0 0 0 26.620526361679367 -8.8001984348611586 0 -8.8001984348611586 0.43544833718442533 0 0 0 0 12.687494001704181 -32.284130741918034 0 -32.284130741918034 -13.030791072821557 0 0 0 0 20.450991906158379 -23.736208263859453 0 -23.736208263859453 -5.830042092497024 0 0 0 0 26.415445650477523 -28.238628770273181 0 -28.238628770273181 -14.71244110677253 0 0 0 0 64.127174316054152 -28.988573262459795 0 -28.988573262459795 -14.832390531732244 0 0 0 0 52.247709783616301 -65.52371770182981 0 -65.52371770182981 -13.957142981424909 0 0 0 0 29.919019438177202 -51.658148052006254 0 -51.658148052006254 -13.211008048338044 0 0 0 0 58.383276039399789 -46.000189916025192 0 -46.000189916025192 -64.718537199591083 0 0 0 0 
</DataArray>
<DataArray type="Float64" Name="cross_section_updated" format="ascii">
1 1 1 1 1 1 0.011753100250042298 1 1 1 0.013087565760655735 1 1 1 0.010691343004416792 1 1 1 1 1 1 0.0099704265040414398 0.011846735080215498 1 1 1 1 0.0099852620873496986 0.0099921579034085318 1 0.01076704763351792 0.010955039254190762 1 0.0097472781023550028 1 1 1 0.01162590984093854 1 1 0.0098271710580389426 1 1 1 1 1 1 1 0.011338729571130871 1 1 1 1 1 1 1 1 0.018225004124344336 1 1 0.01229612190875707 1 0.018654452267787364 1 0.0098573458119645511 1 0.014061258332413003 1 1 1 1 1 1 1 1 1 1 1 1 1 1 1 1 0.0070561146394272738 1 1 1 1 1 1 1 1 0.012006606681787966 1 1 0.014888375875866307 0.010529816671003766 1 1 1 1 1 1 1 1 1 1 1 1 0.017453941097063084 1 1 1 1 1 0.010304641233285538 1 1 0.010162962034518226 1 1 1 1 1 1 1 1 1 1 1 1 1 1 1 1 1 1 1 0.01033138563483064 1 1 1 1 1 0.010102001963074449 1 1 1 1 1 1 1 1 1 1 1 1 1 1 1 1 1 1 1 1 1 1 1 1 0.01000006413398772 1 0.011447881944477661 1 1 1 0.013996447698642146 1 1 1 0.014923180426250172 1 1 1 0.009779591343622572 0.016521151062033956 1 1 0.0077450306153331247 1 1 1 1 0.0083496679570942145 1 1 1 1 1 0.010329242386003232 1 1 1 1 0.0099749150164444179 1 0.010479942953744398 1 1 0.010380056915128234 1 1 1 0.010024452619905738 1 1 0.012713491833965284 1 1 1 1 1 1 1 1 1 1 0.010367629501470934 1 1 0.0099788496348498911 1 1 1 1 1 1 1 0.010461037048469207 1 1 1 1 1 1 1 1 1 1 1 1 1 1 1 1 1 1 1 1 1 0.013119487791565843 1 0.013569716193737336 1 1 1 1 1 0.010001596578656888 1 1 1 1 1 1 1 1 0.021642381563370415 1 1 1 0.010894023108658689 1 1 0.0087165111423181674 1 1 1 1 0.010272679649309214 1 1 0.010754879014836974 1 1 1 1 1 0.0099221421247924282 1 0.0113514759844796 1 1 1 1 1 1 1 1 1 1 1 1 1 1 1 1 1 1 0.0099779130498795447 1 1 1 1 1 0.016132933210665969 0.012176374137613834 1 1 1 1 1 1 1 1 1 1 0.010872683905247107 1 1 1 1 1 1 1 1 1 0.0097927840979518208 1 1 0.012483272348601108 0.0099983397784053473 1 1 1 0.010002664476483148 1 1 0.012094886116534939 1 1 1 1 1 1 1 1 1 1 1 1 1 1 1 0.011108103896093768 1 1 1 1 1 1 1 1 0.017655824828209696 1 1 0.010012042436832399 1 1 1 1 0.016069311441029861 1 1 1 1 1 1 1 1 1 1 1 1 1 1 0.011938567891593064 0.0097739985018035908 1 1 0.010424956479240277 0.014619698206056414 1 0.010133569198165675 1 0.014374934291337856 1 0.0094591121906567547 1 1 0.015594238129031783 1 1 1 1 1 1 1 1 1 0.010303353738892542 0.011320670838047293 1 1 0.010090164965692474 1 1 1 1 1 0.010125592040718993 1 1 0.010193808878665497 1 1 1 1 0.01021030188322645 1 1 1 0.015331841504891161 1 1 1 0.014092998578671394 1 0.011069437708668126 1 1 0.010256913485400806 1 1 1 1 1 1 1 1 1 1 1 0.009992371932150565 1 1 1 1 1 1 0.010014481735810529 1 1 1 0.010016124269858283 1 1 1 1 1 1 1 0.01239431228856416 1 1 1 1 1 0.011013907189008732 1 0.011844162480749296 1 1 1 1 1 0.010709455518131232 0.010859032053391927 1 1 1 0.0099981329695505074 0.012102270013099596 1 0.012370900614056764 1 1 1 1 1 1 1 0.009605432831372631 1 1 1 1 1 1 1 1 1 1 1 1 1 1 0.0095313098233719244 1 1 0.0091517702910005744 1 0.0091367426547445535 1 1 1 1 1 1 1 1 1 1 1 1 1 1 0.0099291591062321757 1 1 1 1 1 1 1 1 1 1 1 1 1 1 1 1 0.010015025237466288 1 1 1 1 1 1 1 1 1 1 1 0.01004544093626248 0.0099107669515801407 1 1 1 1 1 1 1 1 1 1 1 1 1 1 1 1 0.019529035600028298 1 1 1 1 1 1 1 0.018103977812826189 1 1 1 1 1 1 1 1 0.011971765395190639 1 1 1 0.009901012549584632 1 1 1 1 1 1 1 1 1 1 1 1 1 1 1 1 1 1 1 1 1 1 1 1 1 1 1 1 0.010336502252492202 1 0.011406624787679696 1 1 1 1 1 1 1 1 1 1 1 1 1 0.012899124519640946 1 1 1 0.010103530661910567 1 1 1 1 1 1 1 1 1 1 1 1 1 0.01169517864622824 0.013631044532961621 1 1 1 1 1 1 1 0.01427826003585196 1 1 1 1 1 1 1 1 1 1 1 0.014047876704422705 1 1 1 1 1 1 1 0.011413925253913174 1 1 1 1 1 1 1 1 1 1 1 1 1 1 1 1 1 0.010111228673780736 1 1 1 1 1 1 1 1 1 1 0.0095631486731027129 1 1 1 1 1 0.0090930549512854026 1 1 1 0.009284925541160326 1 1 1 1 0.015020809275893211 1 1 1 1 1 1 1 0.0086201277581809937 1 0.021102594035872332 1 1 0.0064490151523239041 1 0.009302785708828247 1 1 1 1 1 1 1 1 1 1 1 1 1 1 1 1 1 1 1 1 1 1 1 1 1 1 1 1 1 1 1 1 1 1 1 0.01000811268209259 1 0.0076300070117482632 0.0099908161719596857 1 1 1 1 1 1 1 1 1 1 1 0.011612273327406449 1 1 1 1 1 1 1 0.012899445167702809 1 0.0098636420697211184 1 0.013458319586205011 1 1 1 1 1 1 0.011001539739012304 1 0.0097550192629776399 0.013037482758316805 1 1 1 1 1 1 1 1 1 1 1 1 1 1 1 1 1 0.010954048269258101 1 1 1 1 1 1 1 1 1 1 1 1 1 1 0.010329535962382647 1 1 1 1 1 1 1 1 1 1 1 1 1 0.010216072235803736 1 1 1 1 1 1 1 1 1 0.0096004630435607974 1 1 1 1 1 0.010641945605049226 0.01003078356690683 1 1 1 1 0.011326137048724949 0.0099249044259489116 1 1 1 1 1 1 1 1 1 1 1 0.010282965415608114 1 1 1 1 0.010639654492108639 1 1 1 1 1 1 0.011392350346731679 1 1 0.0098979005603789545 1 0.010712224487311574 1 1 1 0.011529586792606229 1 1 1 1 1 1 1 0.010010562082633337 1 1 1 1 0.011167788066059824 0.011716240850193304 1 1 0.010030696620047215 1 1 1 0.010344505114751466 0.013563305143300303 0.011305110773294168 0.0099979561773546714 1 1 0.010530763603586218 1 1 1 1 1 1 1 1 0.012152807490427459 0.012172415029621469 1 1 1 1 1 1 0.012179116370976425 1 0.010973875008370691 1 1 1 0.010080464655627914 1 1 1 1 1 1 1 1 1 1 1 1 1 1 1 1 1 1 1 1 1 1 1 1 1 1 1 1 0.01019169332940865 1 1 1 1 1 1 1 1 1 1 1 1 1 1 1 1 1 1 1 1 1 0.01947477306413907 1 1 1 1 1 1 1 1 1 0.0098225688085906027 1 1 1 1 1 1 0.010004444250594366 1 1 1 1 1 0.018937030671425131 1 1 1 1 1 0.011578623383131568 1 1 1 1 1 1 1 1 1 1 0.012552412619664388 1 1 1 1 0.012575043024623055 0.010150015918789368 1 1 0.010271608870133701 1 1 1 1 0.010411467948348246 1 1 0.010184384687630142 1 1 1 1 1 0.019435874977595573 0.010446531300199773 1 1 1 1 1 1 0.011365210490038876 1 1 1 1 1 1 1 0.010795805902093735 0.0098928699115444912 1 1 1 0.015447193342386478 1 1 1 0.013983621956388546 1 1 0.011353262734594671 1 0.011122637241616998 1 1 1 0.012404769914528881 1 1 0.013201592995439781 0.010522575019622088 1 1 1 1 1 1 0.011837787855014024 1 0.010211680535881241 1 0.010091108037404718 1 1 1 0.010017340529742621 0.01045612175061655 1 0.010536636972340809 1 1 1 1 1 1 1 1 1 1 1 1 1 1 1 1 0.011101454918247175 1 1 1 1 1 1 1 0.011185512883801053 1 1 1 1 1 0.0097011024054055092 1 1 1 0.011877393786312222 1 1 1 1 0.011846711516266093 1 0.01000336768630848 1 0.012111443721408195 1 1 1 1 0.011951462216766634 1 1 0.0093655132448706001 1 1 1 1 1 1 1 1 1 1 1 0.013182007630510119 1 1 1 1 0.015112884654479441 1 1 1 1 0.0087765757923230752 1 1 1 1 1 1 0.010065374064887007 1 1 1 0.016075561096713677 1 0.0099997866988092033 0.010076864525887687 1 1 1 1 1 1 1 1 1 1 1 1 1 1 1 1 1 1 1 1 1 1 1 1 1 1 1 1 0.010205241307142293 1 1 0.010078732161741389 0.014169850430752112 1 0.014567274606295495 1 1 1 1 0.010119984305369315 1 1 0.010043837753977511 1 1 1 1 1 1 1 1 1 1 1 1 1 1 1 1 1 1 1 1 1 1 1 1 1 1 1 1 0.010627301466270344 1 1 1 1 1 1 1 1 0.011040312217784381 1 1 1 1 1 1 1 0.012485298455362216 1 0.010737874702138675 1 1 1 0.012273899245590598 1 1 1 1 1 1 1 0.01150295834791598 1 0.009635667443454482 1 1 1 1 1 0.012277716802717414 1 1 1 1 1 1 1 1 1 1 1 1 1 1 1 1 1 1 1 1 1 1 1 1 1 1 1 1 1 1 1 1 1 1 1 1 1 1 1 0.014177960003827875 0.013989906207303233 1 1 0.01436567451806353 1 1 1 0.010744996857542207 1 1 1 0.011075083244114017 0.012083824344004897 1 1 0.013313872507734668 1 1 1 1 1 1 1 1 1 1 1 1 1 1 1 1 1 1 1 1 1 0.0089808671446848318 1 0.0097394900812931076 1 1 1 1 1 1 1 1 1 1 1 1 1 1 1 1 1 1 1 1 1 1 1 1 1 1 1 1 1 1 1 1 1 1 1 1 1 1 1 1 1 1 1 1 1 0.010403614071901659 1 0.014779661917827518 1 0.011560631280278462 1 1 0.013953695047471581 1 1 1 1 1 1 1 1 1 1 1 1 1 1 1 1 1 1 1 1 1 1 1 1 1 1 1 0.0099567001281172258 1 1 1 1 1 1 1 1 1 1 1 1 1 1 1 1 1 1 1 1 1 1 1 1 1 1 1 1 1 1 1 1 1 1 1 1 1 1 1 1 1 1 1 1 1 1 1 1 1 0.010083727569952523 1 1 1 1 0.010375065658425654 1 1 1 1 1 1 1 1 0.010093401924940638 1 1 1 1 1 0.010329490792509367 0.010896394188700047 0.010909036761504258 1 1 1 1 0.010787245805691738 0.010574130476243936 1 1 0.010973293845827748 1 1 1 1 1 1 1 1 1 1 1 1 1 1 0.011942884956265042 0.010013960013999006 1 0.010207922285893425 1 1 1 1 1 1 1 1 1 1 1 1 1 1 1 1 1 1 0.0098901131636941076 1 1 1 1 1 1 0.0096252249075329324 1 1 1 1 1 1 1 1 1 1 1 1 1 1 1 1 1 1 0.010170468254958719 1 1 1 1 1 1 1 1 1 0.010500100870888212 1 1 0.0099960836382159985 1 1 1 1 1 1 1 1 1 1 1 1 1 1 1 1 0.010867488206630414 1 0.012917885970224112 1 1 1 1 0.01356392193348752 1 0.011126787140713554 1 1 0.012112158165311119 0.011250152944406983 1 1 0.011701479960535882 1 1 1 0.010059744239142349 1 1 1 1 1 1 0.010001864100925351 1 1 1 0.013123913787342366 1 1 1 1 0.01118856176135152 1 1 1 1 1 1 1 0.010314443202754197 1 1 1 1 1 0.010825630018866909 1 1 0.010180584363067385 1 1 1 1 1 1 1 0.010198042688688382 1 1 1 0.010532000072028308 0.01335097738316823 1 1 1 0.010129297737392802 1 1 1 1 1 0.010004588647915758 0.011850054243419325 0.01129945436166265 1 1 1 1 1 1 1 1 1 0.012502984315090058 0.012675653664768659 1 0.0127977832612827 1 1 1 1 1 0.011563482471420174 1 1 0.012361889266231583 1 0.012454772588660592 1 1 1 0.012434685363039193 1 1 0.01028848001018658 1 1 1 1 1 1 1 0.010405278932327032 1 1 0.010009332131053305 0.012961781310792661 1 1 0.010128346406666849 1 0.010756402924855921 1 1 0.012164754571223318 1 1 0.010784645591866603 1 0.011720108125416693 1 1 1 0.010771723873639649 1 1 0.0093260428796952712 1 0.010128891252484614 1 1 0.010038377259816166 1 0.010052660390217499 1 1 1 1 0.010701877681647678 0.01183482565812123 1 1 1 1 1 1 1 1 1 0.010518061892141217 1 1 1 1 1 1 1 1 1 1 1 1 1 1 1 1 1 1 0.0099999491405090048 0.0061175951852515129 1 1 1 0.013906922250093668 1 1 1 1 0.013965510110294998 1 1 0.011407053308872397 1 1 1 0.011109840365186675 1 1 0.011790490480440313 1 1 1 1 0.010008055189737474 1 1 1 1 1 0.014376031641539314 1 1 1 0.013212282266364925 0.010000986081215558 1 1 0.010274117438955902 1 1 1 1 1 0.011904936841044812 0.015324156513095006 1 1 1 1 0.011399147627307276 1 1 1 1 0.01163373197848115 1 1 1 1 1 1 1 1 1 1 1 1 1 1 1 1 1 1 1 1 1 1 1 1 1 1 1 1 0.011031771944536826 1 1 1 1 1 1 1 1 1 1 1 0.013967669501954098 1 1 1 1 0.010339270619108335 1 1 1 0.014082044577424166 1 1 0.0099999732528525571 1 1 1 1 1 0.0097777715382342586 1 1 1 1 1 1 1 1 1 1 1 1 1 1 1 1 1 1 1 1 0.010875341360899442 1 1 1 1 1 0.011184096828742126 1 1 1 1 1 1 1 0.0097921302503387632 1 1 1 1 1 1 1 1 1 1 1 1 1 0.012797348434851679 1 1 1 1 1 0.0094011813481560368 0.014550821401104405 1 1 1 1 0.0088684978536967274 1 0.010003730765167616 1 1 1 0.011508242893328901 0.011007813726969351 1 1 0.023012347722879418 1 1 1 0.021283036505669827 1 1 1 1 0.01015362400186671 1 1 0.011734170620471196 0.010640352721381649 1 1 1 1 1 1 0.007985513313703816 1 1 0.010950634184275882 1 1 1 1 0.0096487653104742957 1 1 1 1 1 1 1 1 1 1 1 1 1 1 1 1 1 1 1 0.015028701163177331 1 0.0099833589864695271 1 1 1 0.0099574102933934865 1 0.011146691512852096 1 0.010037485397484003 1 1 0.01201636524941771 1 1 0.012736167488701988 0.013963184829467718 0.010633242805910555 1 1 1 0.013613584941011687 1 1 1 1 1 1 0.010059883076751597 1 1 1 1 1 1 1 0.012433849983387712 1 0.0097422084458678015 1 1 1 1 1 1 1 0.010363172502734068 1 1 1 1 1 1 1 1 1 1 1 0.010856628557466866 1 1 0.0099899665887136502 1 1 1 1 1 1 1 1 1 1 1 1 1 1 1 1 0.010574004382193901 1 1 1 1 1 1 1 1 1 1 1 1 1 1 1 1 1 1 1 1 1 0.010888926003821683 1 1 1 0.010395469949088885 1 1 1 1 1 1 1 1 1 1 0.01026399354866428 1 1 1 1 1 1 1 1 1 1 0.010576607004250435 1 1 1 1 1 1 0.011092637146079781 1 1 1 0.013455077847415148 1 1 1 1 1 1 1 1 1 1 1 1 1 1 1 1 1 1 1 1 1 0.010223116465623468 1 1 1 1 1 0.022763846479162027 1 1 0.0077699987275281109 1 1 1 1 1 1 0.0090637838719383607 1 1 1 1 0.0098334058590835299 1 1 1 1 1 1 1 1 1 1 1 1 1 1 1 1 1 1 0.010001798572247577 1 1 1 1 1 0.012419588908207421 1 1 1 0.014365866571822664 1 0.02580776966079882 1 1 1 1 1 1 1 0.019222316151305353 1 1 1 0.021797409379560109 0.02090236309154752 1 1 1 1 1 0.0097652920068436976 1 1 1 0.0089502289510044394 1 1 1 1 1 1 1 1 1 1 1 1 1 1 1 0.013979871083449245 1 1 1 1 1 1 0.011308982538471943 1 1 1 1 1 1 1 1 1 1 1 0.01011518169300479 1 1 1 1 1 1 1 1 1 0.012046604534288317 1 1 1 1 0.012881578963519089 0.0098327457093087024 1 1 1 1 1 1 1 1 0.03185019971569604 0.01125246032092202 1 0.034689078501011848 1 1 1 1 1 0.009285691309608558 1 1 1 1 1 1 0.018950216283089856 1 0.0098257489864036537 1 1 1 1 1 1 1 1 1 1 0.010975344717921205 1 1 1 1 1 1 0.010511671343357655 1 1 1 1 1 1 1 1 0.010834270328239156 1 1 1 1 1 0.01195128299959226 1 1 0.010303392803897096 1 1 1 1 1 1 0.01200941058489683 1 1 1 1 1 1 1 1 0.015738265145642027 1 1 1 1 0.018860813432493906 1 1 1 1 1 1 1 1 1 1 0.01076804186258571 1 1 1 1 1 1 1 1 1 0.021493442721631582 1 1 1 1 0.023809224321267336 1 1 1 1 1 1 1 1 0.0096827116047720485 1 0.016595310325579059 1 1 1 0.0099217640222414426 1 1 1 1 1 1 1 1 0.014777628103047195 1 1 1 0.016499257194191798 1 1 1 0.009460971274823541 1 1 0.0098742838466404949 1 1 1 1 1 1 1 1 1 1 1 1 1 1 1 1 1 1 1 1 1 1 1 1 1 1 1 1 1 1 1 1 1 1 1 1 1 1 1 1 1 1 1 1 1 1 1 1 1 1 1 1 1 0.010877603172181062 1 1 1 0.010581546984711513 1 1 1 1 1 1 0.0099442644675743104 1 0.010134247976676641 1 1 1 1 0.010546856135396014 0.010945573345333935 1 1 1 1 1 1 1 1 1 1 1 1 1 1 1 1 1 1 1 1 1 1 0.020018379760450632 1 1 0.018176996734396295 1 1 1 0.010118016627539106 1 1 1 1 1 1 1 1 1 1 1 1 1 1 0.010943124898251173 1 0.014091375319461211 1 0.01389206409757221 1 1 1 1 1 1 1 1 1 1 1 1 1 1 1 1 1 0.012773114976551606 1 1 1 1 1 1 1 1 1 1 1 1 1 1 1 1 1 1 1 1 1 1 1 1 1 1 1 1 1 1 1 1 1 0.01019761982936402 1 1 1 1 1 1 0.013949375831295163 1 1 0.0082043639030410665 1 0.010025129713498067 1 1 0.014437290627193254 1 1 1 0.0097152633879618172 1 1 1 1 1 1 1 1 1 1 1 1 1 1 1 1 1 1 1 1 1 1 1 1 1 0.010158916522409682 1 1 1 1 0.010270915071158931 1 1 0.010112229165321472 1 1 1 1 1 1 1 1 1 1 1 1 1 1 1 1 1 1 1 1 1 1 1 1 1 1 1 1 1 1 0.0099274302427798215 1 1 1 0.010042363754139692 1 1 1 1 0.0097384310080573418 1 1 1 1 1 0.0095344560227848714 1 1 1 1 0.0102930041888456 1 1 1 1 1 1 1 1 1 1 1 1 1 1 0.010121386558648429 0.01035284249409152 1 0.011289777884819165 1 0.010887922791972933 1 1 1 1 1 1 1 1 1 1 1 1 1 1 1 1 1 1 1 1 1 1 1 1 1 0.010657891660684544 0.0095392248211271791 1 1 0.010149738285081554 1 1 0.010987496498810837 1 1 1 1 1 1 1 1 1 1 1 0.010640397003013663 1 1 0.010198425466864187 1 1 1 1 1 1 1 1 1 1 1 1 1 1 0.010216411581967878 0.010015062196411698 1 0.01220787278014451 0.0099692488532418036 1 1 1 1 0.010001302991152594 1 1 1 0.0092268231611533566 0.012578725802847 1 1 1 1 1 1 1 0.009987093746556916 1 1 1 1 1 1 1 1 1 1 1 1 1 1 1 1 0.0097558823316630308 1 1 1 1 0.0094724031925082566 1 1 1 1 1 1 1 0.01239001427807394 1 1 1 1 1 1 1 0.011891002958319515 1 1 0.010766370487606605 1 1 1 1 1 1 1 1 1 1 1 1 1 1 1 0.010076036232754351 1 1 1 1 1 1 1 1 0.010090432116087469 1 1 1 1 1 1 1 0.0099920239686250092 1 1 1 1 1 0.0099706749125066975 1 1 1 1 0.010177283938966997 1 1 1 1 1 1 1 1 1 1 1 1 0.0099505037349080089 1 1 1 1 1 1 1 1 1 1 1 1 1 1 0.010790171585518545 1 1 1 1 1 1 1 1 1 1 1 1 1 0.01000295899643594 0.0099470242789099252 1 1 0.012082177348745726 1 1 1 1 0.011059686644211839 1 1 1 0.011635627356918199 1 1 0.010226962433190944 1 1 1 1 0.011899748033527511 1 1 1 1 1 1 1 1 1 1 1 1 1 1 1 1 1 1 1 1 1 1 1 1 1 1 1 1 1 1 1 1 1 1 0.010206087580640691 1 1 1 0.010457584114879584 1 0.010280300175912586 1 1 1 1 1 1 1 1 1 1 1 1 1 1 0.010086639099613107 1 1 1 1 1 1 1 1 0.019562101487079597 1 1 1 0.010010602866858783 1 1 1 1 1 1 1 0.018131085344537175 1 0.019403238383413946 1 1 1 1 1 1 1 1 1 1 1 1 1 1 0.011185526063616596 1 1 0.010436041685080104 1 1 1 1 1 1 1 0.019201467703387702 1 1 1 1 1 1 1 1 1 1 1 1 1 1 1 1 1 1 1 1 1 1 1 1 1 1 1 0.011334073573042908 1 1 0.023935712618446695 1 1 1 0.022470470458381766 1 1 0.014223777105900073 1 1 1 1 1 1 1 1 1 1 1 1 1 1 1 1 1 1 1 0.011424712994343739 1 1 1 1 1 1 1 1 1 1 1 1 1 0.010675228615807247 1 1 1 1 1 1 1 1 1 1 1 1 1 1 1 1 1 1 1 0.01081393574038932 1 1 1 1 1 1 1 1 1 1 1 1 1 1 1 1 0.010053364923559996 1 1 0.010946784219247668 1 1 1 0.010369220671770827 1 1 0.0097994801903868514 1 1 1 1 1 1 1 1 1 1 1 1 1 1 0.012423532182550857 1 1 0.013945281182241212 1 1 1 1 1 1 1 1 1 1 1 1 1 1 1 1 1 1 1 1 1 1 1 1 1 1 1 1 1 1 1 1 1 1 1 1 0.012809211121002306 1 1 1 1 0.012417678110349087 1 1 1 1 1 1 1 1 1 1 1 1 1 1 1 0.015385532506799398 1 0.0098688292397335637 0.01736000706987862 1 1 0.011983403236403841 1 0.013298078681317113 1 1 1 1 1 1 1 1 0.026688968105479688 1 1 0.011733802494520225 1 1 1 1 0.020042381499010765 0.015628239014091688 1 0.01410614222650557 1 1 1 1 1 1 1 1 1 1 1 1 1 1 1 1 1 1 1 1 1 0.010069083059969158 1 1 1 1 1 1 1 1 1 1 1 1 1 1 1 1 1 1 1 1 1 1 1 1 1 0.019035760881464532 1 1 1 1 1 0.017630127425347027 1 1 1 1 1 1 1 1 1 0.020629977055940857 1 1 1 1 1 1 1 1 1 1 1 1 1 1 1 1 1 0.024655307618104652 0.015068533829490641 1 1 0.022428506222652616 1 1 1 0.010128223464901148 1 1 1 1 1 1 1 1 1 1 0.017298774650557992 1 1 0.0099339605830186025 1 0.012334953160407062 1 1 1 1 0.011230770916350807 1 1 1 0.011919687143801979 1 1 1 1 1 1 0.010799973862165232 1 1 1 1 1 1 0.010794161891151129 1 1 1 1 1 1 1 1 1 1 1 1 1 1 0.010145897123408895 1 1 0.010423203920304831 1 1 1 0.01032775176144117 0.010152429169655197 1 1 1 1 1 1 1 1 1 1 0.017958715651552312 1 1 1 0.018176318032850518 1 1 1 1 0.010310577620235361 1 1 1 1 1 1 1 1 0.013513920808385302 1 1 1 1 1 0.011511025040744593 0.016629954684747879 1 1 1 0.01902780860702628 1 0.010521571464480664 0.010173354584289609 1 1 1 1 1 0.017298044991879695 1 1 1 1 1 1 0.010308376260332278 1 1 1 1 1 1 1 0.010704513221806718 1 1 0.010976708723193632 1 1 0.010133053668546298 1 1 1 1 1 1 1 1 1 1 1 1 1 1 0.011122514390333398 1 1 1 0.010000027336511261 1 1 0.010829163803082147 1 1 1 1 0.0099994410687518492 1 1 1 1 1 1 1 1 0.0106109116075103 1 1 1 1 0.014675238979113988 1 1 1 1 1 1 1 1 0.016830486537089809 1 1 1 1 1 1 1 1 1 0.010438425743521135 1 1 1 0.01137770826613504 1 1 0.019673931819645642 1 1 0.022884300990745975 1 1 1 1 1 1 1 1 1 0.015969073695086728 1 1 1 1 1 1 1 1 1 1 1 1 1 1 1 1 0.0099787583334115578 1 1 1 1 1 1 1 1 1 1 1 1 1 1 1 1 1 1 1 1 1 1 1 1 1 1 0.016610541867522151 1 0.016768044701093075 1 1 1 1 1 1 1 1 1 1 0.016331559827830799 1 1 0.010027893642496068 1 1 1 1 1 1 1 1 1 1 1 1 1 1 1 1 1 1 1 1 1 0.012042405187143704 1 1 1 1 1 1 1 1 1 0.014565723593003774 1 0.0096781721553991767 1 1 1 1 1 1 1 0.011415578479520594 1 0.010889758543962978 1 1 1 1 1 1 1 1 1 1 1 0.013943009335287988 1 1 1 1 0.010001411741814346 1 0.011314455663074114 1 1 1 1 1 1 0.013938375814143209 1 1 0.014225081052671069 1 1 0.0135660007282059 1 1 1 0.016002401710162695 0.012565663226797186 0.012150004884524099 1 1 1 1 1 1 1 1 1 1 1 1 1 0.010267760877751508 1 1 1 1 1 1 1 0.01440713250673306 1 0.010712708469953466 1 0.014272341826938411 1 1 0.014913539369086723 0.010000464756157046 1 1 1 1 1 1 0.011323185128909832 1 1 1 1 0.010134433311044123 1 0.012804574235055323 1 0.010259854911009815 1 0.013823425458751338 1 1 1 1 0.011205126193222063 1 1 1 1 1 0.01052200373076196 1 1 1 1 1 1 1 1 1 1 1 1 1 1 0.01126548901488513 1 1 1 1 1 0.010627751162532258 1 1 1 0.011625339393020883 1 1 1 1 1 1 1 1 1 1 1 1 1 1 1 1 1 0.014594773198943714 1 1 1 1 0.014522479131156079 1 1 1 1 1 1 0.0099711957562241722 1 1 1 1 1 1 1 1 1 1 0.012356193487805181 1 1 0.013349239377418672 1 0.0099456587639997849 1 1 1 1 1 1 1 1 1 1 1 0.011612915683092992 1 1 1 1 1 1 0.0097946351552873415 1 0.0076174022193308032 0.012926965080839719 1 0.011250923571346355 1 1 1 1 1 1 1 0.0091779072166462781 1 1 1 1 1 1 1 1 1 1 1 1 1 1 1 1 0.011300158709179282 1 1 1 1 1 1 1 1 1 1 0.011164908459603945 1 1 1 1 1 1 1 1 1 1 0.012035479022113627 1 1 1 1 0.010872633225309137 1 1 1 1 1 0.0097854422992611437 1 1 1 1 0.0099743167760200594 1 1 1 1 1 1 1 1 1 1 1 1 1 1 1 1 1 1 0.0092789410864640952 1 1 1 1 1 1 1 1 0.0093866808172880199 1 0.010796165248680371 0.010003405877210186 1 1 1 1 1 0.010390872520117941 1 1 1 1 1 1 1 1 1 1 1 1 1 1 0.010346810869232474 1 1 0.013333973345807383 1 0.010027095437977323 0.0094700289395077304 1 1 1 1 1 1 0.010235503144872074 1 1 1 1 0.010206981960723579 1 0.011132840043559045 1 1 0.0095548995417093462 1 1 1 1 1 1 0.0099346798558345301 0.010516239621505906 1 1 1 1 1 1 1 1 1 1 1 1 1 1 1 0.010925964932250553 1 1 1 1 1 1 1 0.010041138147454068 1 0.010456567580217293 1 1 1 0.010138312373742308 1 0.010559362616180141 1 1 1 1 1 1 1 1 0.0099839922970257622 1 1 1 1 1 0.010872275454889939 1 0.010062797264200922 1 1 1 1 0.010111567458116278 1 1 1 1 1 0.010063692804923072 1 1 1 1 1 1 1 1 1 1 1 1 1 1 1 1 1 1 1 1 1 1 1 1 0.016938047359710301 1 1 1 0.010760517789833605 1 0.017107570558742874 1 1 1 0.010276714805876715 1 1 1 1 1 1 1 1 1 1 1 1 1 1 1 1 1 0.010493774913253481 0.0099517116144989502 0.010255738356111517 0.010574315440436861 1 1 1 1 1 1 0.009762392128195586 1 1 1 0.0092248725095457063 1 1 1 1 1 1 1 1 1 1 0.011128674000080037 0.014471627931628095 0.010148797090304119 1 1 0.011573743625743909 0.009997270716695086 1 1 1 1 1 1 1 1 1 0.012275758259754032 1 1 1 1 1 1 1 1 0.012948844398735049 0.015456089453246537 1 1 1 0.010150803613159823 1 1 1 1 1 1 1 1 1 1 1 0.01463203948567557 1 0.010022223068925558 1 1 1 1 1 0.010014049009783683 0.011828277663914057 1 1 0.010541154678320307 0.013232233153329425 1 1 1 1 1 1 1 1 1 1 1 1 1 1 1 1 1 1 1 1 1 1 1 1 1 1 1 1 1 1 1 1 1 1 1 1 1 1 1 1 1 1 0.010919170421295619 0.010281467988862336 1 1 1 1 1 1 1 1 1 1 1 1 1 1 1 1 1 1 1 1 0.010434700646438332 1 1 1 1 1 1 1 1 1 1 1 1 1 1 1 1 0.010085234360636981 1 0.010890279076383796 1 1 1 1 1 1 1 1 0.011049627606442833 1 1 1 1 1 1 1 1 1 1 1 0.0099965861900987423 1 1 0.019056493980867305 1 1 0.014984711372179067 1 1 1 1 0.019511287225618273 1 1 1 1 0.009979489529999221 1 1 0.020616383189772679 1 0.010753739883371383 1 1 1 1 1 0.012763064917784939 1 1 1 1 1 1 1 0.01084665251968763 1 1 1 1 1 1 1 1 1 1 1 1 1 1 1 1 1 1 1 1 1 1 1 1 0.0090487045406231429 1 1 1 0.0099948100770408596 1 1 0.00850488216284573 1 1 1 0.010311519334509415 1 1 1 1 0.0097736714360116238 1 0.0080163637992452207 1 1 1 1 1 1 1 1 0.010018682329532298 1 1 1 1 1 1 1 1 1 1 0.021759560703506785 1 1 0.010016823116495955 1 1 0.015600118635637669 1 1 0.014764253648322484 0.0090407700759277503 1 1 1 1 1 1 1 0.010783679885063414 0.0069582956077016934 1 1 1 0.011536630168159756 1 1 0.011147781967043656 0.0135254788870899 1 1 1 0.012238393961565454 0.0088433767678169715 1 0.01093616122127742 1 1 0.010018212949148985 1 1 1 1 0.0058185294112702256 1 0.014133900545269924 0.012156825392090089 1 1 1 0.0095378642230303234 1 0.012730791703166201 0.01125982429616993 1 0.0088799346589539079 0.0093657541668737201 0.010113315318152575 0.0079518159066936708 1 0.0092600061592080819 1 0.011091183729133109 1 0.0093042156586607937 1 1 1 0.009690408841443468 1 1 0.010795117562688715 1 0.0090053001524163668 0.012217894257043132 1 1 1 1 0.010249583580681723 1 0.010764411744056235 0.01150810861831264 1 1 1 0.010997038444648007 0.010945457257311487 1 1 0.012622259537751505 0.010870122264618356 1 1 1 1 0.009970155049498464 1 1 1 1 0.010196848496963602 1 1 1 1 0.0098607089316908522 1 0.015260742079633481 1 0.0094638810537872077 1 0.011125022733872633 1 0.012947207484896285 1 0.009998202838018215 1 1 1 1 1 0.0099018947322860196 1 1 0.013299485443534459 0.010001240610856131 0.010428446812145794 1 1 0.010206827485635419 0.010454040122705953 1 0.011768017899784277 1 1 0.011702316134674949 1 1 1 1 1 1 0.012013377971891724 1 1 0.010413742351700377 1 0.010805297916449722 1 1 1 1 0.011717195920015088 1 0.0099419352104896247 1 0.010582620048510337 1 1 1 0.010042965358578754 1 1 0.012268312759065488 1 0.011109420254768371 1 0.01282973527671347 1 1 1 1 1 0.010953633872726024 1 1 1 1 1 1 1 1 1 1 0.010925082849156805 1 1 1 1 0.010370820067918406 1 1 0.010759672285944868 1 1 1 1 1 0.0096641438124643059 1 1 0.0080262988745812801 1 1 1 0.012186143339845249 1 0.010209675540404256 1 1 1 0.011172385823380144 1 1 1 1 0.014738525079460956 1 1 1 1 0.016110819901831636 0.0102788189762614 1 1 1 1 1 1 0.010984280960023594 1 1 0.012515024762841141 1 1 1 1 1 1 1 1 1 1 1 1 1 1 1 1 1 1 1 1 1 1 1 1 1 1 1 1 1 1 1 1 1 1 1 1 1 1 1 1 1 1 1 1 1 1 1 1 1 1 1 1 1 1 1 1 1 1 0.011920490010584445 1 1 1 1 1 1 1 1 1 1 1 1 0.0051646210271207027 1 1 0.011236532713642639 1 1 1 0.010206453197106474 1 1 1 1 1 1 1 1 1 1 1 1 1 1 1 0.015382650544363628 1 1 1 1 1 1 1 1 1 1 1 1 1 1 1 1 0.010241573344536428 1 1 1 1 1 1 1 1 1 1 1 1 1 0.014031222940735756 1 1 0.010230017401865608 1 1 0.012001734837756619 1 0.015676028192111464 1 1 1 1 1 1 1 0.016035205498756009 1 1 1 1 1 1 1 1 1 1 1 1 0.010022916276339154 1 1 1 0.010341100776563467 1 1 1 1 1 1 1 1 1 0.010070236007759911 1 1 1 1 1 1 0.017843349461461603 1 1 1 1 1 1 0.017098725383217241 1 1 1 0.0095451311379427424 1 1 1 1 1 1 1 0.0088077316476949507 1 1 1 1 1 1 1 1 1 1 0.017859122128628738 1 1 1 1 1 1 1 1 1 1 1 1 1 1 1 1 0.012232648967713576 1 0.010048342075214853 1 1 1 1 1 1 1 1 1 1 0.0084282914304247298 1 0.012299552587036642 1 1 1 1 1 1 1 1 1 1 1 0.017489905676548456 1 1 1 1 1 1 1 1 1 1 1 0.017863255732334105 1 1 1 1 1 1 1 0.010058534896294276 1 1 1 1 1 1 1 0.010032083425798427 1 1 1 1 1 1 1 1 1 1 1 0.0094704594497307115 1 1 1 1 1 1 1 1 0.016772909625771361 1 0.008369941174184126 1 1 1 1 1 1 1 1 1 1 0.010512958148993772 1 1 1 0.011048415198644013 1 1 1 1 1 1 1 1 1 0.014617559322480093 1 1 1 1 1 1 1 1 1 1 1 1 1 1 1 1 0.010753118643944615 1 1 1 1 1 1 1 1 1 1 1 1 1 1 1 1 1 1 0.010406477217685572 1 1 0.010739748059871067 1 1 0.010498155392002741 1 1 1 1 1 0.010877667130496959 1 1 1 1 1 1 1 1 1 1 1 1 1 1 1 1 1 1 1 1 1 1 1 1 1 1 1 1 1 1 1 1 1 1 1 1 1 1 1 1 1 1 1 1 1 1 1 1 1 1 1 1 1 1 1 1 1 1 1 0.010155945311156026 1 1 0.010525640506628726 1 1 1 1 1 1 1 1 1 1 1 1 1 1 1 1 1 1 1 1 1 1 1 1 0.0096815124645114256 0.010564523755919359 1 1 1 1 1 1 1 1 1 1 1 1 1 1 1 1 0.009972754184997731 0.010808675822856479 1 1 1 1 1 1 1 0.011444165242582993 1 0.010274380496239931 1 1 0.011357240086112351 0.0099828290101923959 1 1 1 1 1 1 1 1 1 1 1 0.01000279814350389 1 0.006947821197086531 1 1 1 0.0078477737298215805 1 1 1 0.011580930800640958 1 0.011576017793061728 1 1 1 1 1 0.011721183533648934 0.012300282989808406 1 1 1 1 1 1 1 1 1 1 1 1 1 1 1 1 1 1 1 1 1 1 1 1 1 1 1 1 1 1 1 1 1 1 1 1 1 1 1 1 1 1 1 1 1 1 1 1 1 1 1 1 1 1 1 1 1 1 1 1 1 1 1 1 1 1 1 1 1 1 1 1 1 1 1 1 1 1 1 1 1 1 1 1 1 1 1 1 1 1 1 1 1 1 1 1 1 1 1 1 1 1 1 1 0.011255801440586261 0.0098336848339999582 1 0.014447353784504104 1 0.01083220220666318 1 1 0.010726286050647378 1 1 1 1 0.0098198144112331149 1 1 1 1 1 1 1 0.015867443626537511 0.0094930420862399945 0.010343534618848252 1 1 1 1 1 0.015504287270175174 0.010606981961040665 1 1 1 1 1 1 1 1 1 1 1 1 1 1 1 1 1 1 1 1 1 1 1 1 1 1 1 1 1 1 1 1 1 1 0.012583990715138646 1 1 0.010923315113846624 1 1 1 1 1 1 1 1 1 1 1 0.010418560254257248 1 1 1 1 1 1 1 0.010943425756475122 1 1 1 1 1 1 1 1 1 1 1 1 1 1 1 1 0.015420608558461233 1 1 0.013389458572301872 1 1 1 1 1 1 1 1 1 1 1 1 1 1 1 1 1 1 1 1 1 1 1 0.0097834992324536303 1 1 0.010062660316586794 1 1 0.010498054595613954 1 1 1 1 1 1 1 0.011022920097831828 1 1 1 1 1 1 0.010459947859612611 1 1 0.011103031590764411 1 1 1 1 0.010220945037862562 1 0.0098808557983362869 1 1 0.013420783064482276 1 1 1 1 0.010663711382956504 1 0.012729566694024896 1 1 0.012087515396579615 1 1 1 1 1 1 1 1 1 1 1 1 0.013914339560083581 1 1 1 0.011579885120448666 1 1 0.011560593104791787 1 1 1 1 0.010003307028377279 1 1 1 1 1 1 1 1 1 1 0.0099728826652724714 1 1 1 1 1 1 1 1 1 1 0.010342316406242119 1 1 1 1 1 1 1 1 1 1 1 1 0.011502417635749301 1 1 0.0090215842041004822 1 1 1 1 1 1 1 1 1 1 0.010407690681796877 1 1 1 1 1 0.009645995134600592 1 0.0097630077359322637 0.010111108609954431 1 1 0.0099137785413445558 1 1 1 1 1 1 1 1 1 0.010251011259873705 0.0093591565458097572 1 1 1 1 1 1 0.010254637601653176 1 1 1 1 1 1 1 1 1 1 1 1 1 1 1 1 1 1 1 1 1 1 1 1 1 0.010046462451060462 1 1 1 1 1 1 1 1 1 1 1 1 1 1 1 1 1 1 1 1 1 1 1 1 1 1 1 1 1 1 1 1 1 1 1 1 1 1 1 1 0.010559424872782214 1 1 1 1 1 1 1 1 1 1 0.010085070876924625 1 1 1 0.0097537761759400807 1 0.0096751377555576897 1 1 1 0.011817082398975488 1 1 1 0.010025304290742162 1 0.0099573047748997591 1 0.011031811550081025 1 0.0094171227991552524 0.010700469868163094 1 1 0.011711873497952359 1 1 1 0.0099481249453014405 1 1 1 1 1 0.0099599260806924137 1 1 1 1 0.011115224280914809 1 1 1 0.010413489592741488 1 1 1 1 0.011533782576302384 1 0.0099847790402115 1 1 1 1 1 1 1 1 1 1 1 1 1 1 0.010178879447199486 1 1 1 1 0.010641857721922613 1 1 0.0099870958649623184 1 1 0.0085407616788873431 0.010015158515274561 1 1 0.0093823552160603452 1 0.010645597641778925 1 1 1 0.0098305845703301788 0.0094807241604724264 0.010324137720860715 0.0098772735704814301 1 1 0.011319165855334504 1 1 1 1 0.0079132711512331609 1 0.013952786389057788 1 1 0.0098024950267874902 0.0096065627145913192 0.0099992307338946582 1 0.010397223704566303 1 1 0.011002780989985623 0.010495545676654856 0.0096240191010230451 1 1 1 1 1 1 1 1 1 0.010862124526426101 0.013537625006867175 1 1 1 1 0.013189983162582516 0.010780361834474748 1 1 1 0.021616557649661371 1 0.020387818769722281 1 1 1 1 1 1 1 1 1 1 1 0.022410226122338485 1 1 1 1 1 1 1 1 1 1 1 1 1 1 1 1 1 1 1 1 1 1 1 0.010339556768580709 1 1 1 1 1 1 1 1 1 1 1 1 1 1 1 1 0.02573331347434641 1 1 0.010916510060881289 1 1 1 1 1 1 1 1 1 0.011152125924275096 1 1 1 0.013095738543154985 0.011009680769933767 1 1 0.0099898647523533612 1 1 1 1 1 0.010275394700348443 1 0.010184607567098448 1 1 1 0.011168588320437284 1 1 1 1 1 1 1 0.011208844946766463 1 1 0.010057000456169838 1 1 1 1 0.011221882732090648 1 1 1 0.010127657951740508 0.010011108341754333 1 1 0.011928851890139957 1 1 1 0.023256993486001389 1 1 1 1 1 1 1 0.0096171768596435801 1 1 0.022634599705579149 1 0.010818969655677493 0.017227567980462256 0.010930458849524772 1 0.010015695721289464 1 0.018961535367127035 0.017896326663139863 1 1 1 1 1 1 0.025110587836645756 1 1 0.024257930891616535 1 1 1 1 1 1 1 1 1 1 1 1 1 1 1 1 1 1 1 1 1 1 1 1 1 1 1 1 1 1 1 1 1 1 1 0.010089806079418128 0.019895023343927072 1 1 1 1 1 1 1 1 0.010254809665970994 0.0088648792676661054 0.020064622149365628 0.020182567849114388 1 1 0.0074453762838419682 1 1 1 1 1 1 1 1 0.0076273132927680582 1 1 0.010274895154750245 1 1 1 0.0096516063579626648 1 1 1 1 0.0093869162367519448 1 1 1 1 1 1 1 1 1 1 1 1 1 1 0.010476167484311622 1 1 1 1 1 0.017223628218856316 1 1 1 1 1 1 1 1 0.012125443951398881 1 1 1 0.0089352452534990721 0.01408642818637224 1 1 0.014023405229527899 0.008739333137547628 1 1 1 1 1 0.0099999760116270299 1 1 1 1 1 1 0.0097842301421184677 1 0.022209103060288435 1 1 1 1 1 1 1 1 0.012276727252927907 0.013285370600161262 1 0.018983240177903846 0.010939833045473541 0.020851205001016563 1 0.013757852340171363 1 1 1 1 1 1 0.012845692567394694 1 1 1 1 1 1 1 0.011920286210199152 1 1 1 1 1 1 1 1 1 1 1 1 1 1 1 1 1 1 1 1 1 1 1 1 1 1 1 1 1 1 1 1 1 1 1 1 1 1 1 1 1 1 1 1 1 1 1 1 1 1 1 1 1 1 1 1 1 0.010459699994502088 1 1 1 1 1 1 1 0.011409591542137235 1 1 0.019138504855347991 1 1 1 0.0065105607011108173 1 0.010002421893174566 1 1 0.0097636739592974319 1 1 1 1 1 1 1 0.014824308618089563 1 1 1 0.010450057116764963 1 1 1 1 1 1 1 0.0092681739361422377 1 0.0099533531826251024 1 1 1 1 1 1 1 1 1 1 1 1 1 1 1 1 1 1 1 1 1 1 1 1 1 0.010102396702863215 0.017331140320282303 1 0.018130272389653548 1 1 1 1 1 1 1 0.010031048306210441 1 0.010542589269159547 1 0.011574860776320904 0.0090464140337248606 0.017601966456993089 1 1 0.018872311799396232 1 1 0.013307996347007394 1 1 1 0.011417947665318846 1 1 1 1 1 1 1 0.0089561962378932151 0.013768255634011147 1 1 0.011748605664078815 1 1 1 0.010675394147255643 1 1 1 1 0.009804109255741305 1 0.013442805123115202 1 1 1 1 1 1 0.010565505623616203 1 0.010614028962624559 1 1 1 1 1 0.011822697736104535 1 1 0.011106354099083698 1 1 1 1 1 1 1 1 1 1 1 1 1 1 1 1 0.0099582823134145172 1 1 0.011748640845617961 0.009993985488855146 1 0.010010428779320124 1 1 1 1 1 1 1 1 0.010198748450366477 1 1 1 1 1 1 1 1 1 1 1 1 1 1 1 1 0.016530649256983488 1 1 1 0.0107196828295927 1 1 0.018497354974651395 1 1 1 1 1 1 0.018724673529999587 1 1 1 1 1 1 1 1 1 1 1 1 1 1 1 1 1 1 1 0.0087805772041782797 0.010029690612444948 1 1 1 1 1 1 1 0.0096253261717224297 1 1 1 0.010000624006181678 1 1 0.0094666175992786511 1 0.0090915291923942612 1 1 0.0090030138978563646 1 0.010331495131179964 0.013670956773137073 1 0.0086464820690877551 1 0.012166207429537945 1 0.012840970774339079 1 1 1 1 1 1 1 1 1 1 1 1 1 1 1 0.010480453815396109 0.0097908142942522286 1 1 1 1 1 1 1 0.011352002541530239 1 1 1 1 1 1 1 1 1 1 1 1 1 1 1 0.010529068791681999 1 0.010403749334275103 1 1 1 1 1 1 0.010883876106750614 1 1 1 0.012048999780200293 1 1 1 0.010871794164161787 1 1 1 1 1 1 1 1 1 1 1 1 1 1 1 1 1 1 1 1 1 0.009859424197463211 1 1 1 1 0.012662330899443481 1 1 1 1 1 0.015281061608791982 1 1 1 0.01464682356643239 1 1 1 1 1 1 1 1 1 1 1 1 0.0099624487177906156 1 1 1 1 0.013691787315176857 1 1 1 1 1 1 1 1 0.011873376756398378 1 1 1 1 1 1 1 0.011267356562535538 1 1 1 1 0.010721705973217319 1 1 1 1 1 1 1 1 0.011550920736526381 1 1 1 1 1 1 1 1 1 0.010639892607020626 1 1 1 1 1 1 1 1 1 1 1 1 1 1 1 1 1 1 1 1 1 1 1 1 1 1 1 1 0.010322895499780691 1 1 1 1 1 1 1 0.012773567629914957 1 1 1 1 1 1 1 1 1 1 1 1 1 1 1 1 1 1 1 1 1 1 1 1 1 1 1 1 1 0.010468044829886685 1 1 1 1 1 1 1 1 1 1 1 1 1 1 1 1 1 1 1 1 1 1 1 1 1 1 1 1 1 1 1 1 0.010118711860608885 1 1 0.010061711404439049 1 1 1 1 0.018105768200127104 1 1 0.01856097916751618 1 1 1 1 0.01807067790459526 1 1 1 0.017910869345120276 1 1 1 0.010659851564562643 1 1 1 1 1 1 1 1 1 1 0.011938131245142371 1 1 0.012682308295997206 1 1 1 1 1 1 0.024929806797047281 1 1 1 1 1 0.012867033710767181 1 1 1 1 0.012862886593414552 1 1 1 1 1 1 1 1 1 1 0.012562352695549839 1 1 1 1 1 1 1 1 1 0.010835722356172441 1 1 1 1 1 1 1 1 1 1 1 1 1 0.02473108897453357 1 1 1 1 1 1 1 0.012998453562565583 1 1 1 1 1 0.010969963482910901 1 1 1 1 1 1 1 1 1 1 1 1 1 1 0.011549649520812298 1 1 1 1 1 1 1 1 0.012284526397925719 1 1 1 1 1 1 1 1 1 1 1 1 1 1 1 1 1 1 1 1 1 1 1 1 1 1 1 1 1 1 1 1 1 0.011145407022830452 1 1 1 1 0.011939766381020232 0.01232405803804619 1 1 0.014666658670930697 1 1 0.012299876256049391 1 1 0.019798249694968718 1 1 1 1 1 1 1 1 1 1 1 1 1 1 1 1 1 1 1 0.022190299324813749 1 1 1 1 0.023892930099785464 1 1 1 1 1 1 1 1 1 1 1 1 1 1 1 1 1 1 1 1 1 1 1 1 1 1 1 1 1 1 1 1 1 1 1 1 1 1 1 1 1 1 1 1 1 1 1 1 1 1 1 1 1 1 1 1 1 1 1 1 1 1 1 1 1 1 1 1 1 1 1 0.011529723181269718 1 1 1 1 0.010569602007037311 1 0.010311761798140435 1 1 0.011531290177375933 1 1 1 1 0.010074139609496357 1 1 0.010094184078277451 1 1 1 1 1 1 1 1 1 1 1 1 1 1 1 1 1 1 1 1 1 1 1 1 1 1 1 1 1 1 1 1 1 1 1 1 1 1 1 1 1 1 1 1 1 1 1 1 1 1 1 1 1 1 1 1 1 1 1 1 0.0098988622471770475 1 1 1 1 1 1 1 1 1 0.010446300454380272 1 1 1 1 1 1 1 0.010997165434211031 1 1 1 1 1 1 1 1 1 1 1 1 1 1 1 1 1 1 1 0.022711255880083551 0.015245658736720229 1 1 0.0099674592588413005 1 0.010018400765311603 1 1 1 1 1 1 1 1 1 1 1 1 1 1 1 1 1 1 1 1 1 1 1 1 1 1 1 1 1 1 1 1 1 1 1 1 1 1 1 1 1 1 1 1 1 1 1 1 1 1 1 1 1 1 1 0.016984509574831056 0.017476289267845793 1 1 1 1 1 1 1 1 1 1 1 1 1 1 1 1 1 1 1 1 0.010082292185806979 1 1 1 1 1 1 1 1 1 1 0.010025090969583863 1 1 1 0.0097257060972940033 1 1 1 1 1 1 0.010031097257206162 1 1 1 1 1 1 1 1 1 1 1 1 1 0.0096274402394694435 1 1 1 1 1 1 0.010003973277520985 0.0098255977006434722 1 0.012009534024697573 1 1 0.010109204717990341 1 1 1 0.012073776301748506 1 1 1 0.012049027965294744 1 1 1 1 1 0.010111143840481972 1 0.0095201251531753101 1 1 1 1 0.012390644787427844 1 1 1 1 0.0098087480740322169 1 0.0099674209843300526 1 1 0.010058306774636171 0.010036442889362018 1 1 1 1 1 0.010092805045125115 1 1 1 1 1 0.010192421306559778 0.0099526696042591158 0.010526386327325658 1 0.011161419655319915 1 0.0099937782397356463 1 1 1 1 1 0.010033610097278937 1 1 1 1 1 1 1 1 0.009990542489668252 0.01122765857934431 1 1 0.010643679753015042 1 1 1 1 0.011815157514900393 1 1 0.010157429015458758 1 1 0.010139896909544045 1 1 1 1 1 1 1 1 1 0.010116011790485975 1 1 1 1 1 1 1 1 0.010272120969880963 1 1 1 1 1 1 1 1 1 0.0099310504014905945 0.010401777748713058 1 1 1 1 1 1 1 1 1 1 1 1 1 1 1 1 1 1 1 1 1 1 1 1 1 1 1 1 1 1 1 1 1 1 1 0.010010691194579415 1 1 1 1 0.010050548378508828 1 1 1 1 1 1 1 1 1 1 1 1 1 1 1 1 0.010834169520469249 0.012603748447001784 1 1 1 1 1 1 1 1 1 0.012108866259522191 1 1 1 1 0.010915756483713252 1 1 0.01074930812654821 1 1 1 1 1 1 1 1 1 1 1 1 1 0.010142574381386783 1 1 1 1 1 1 1 1 1 1 1 1 1 1 1 1 1 1 1 1 1 1 1 1 1 0.011012393517893147 1 1 1 1 1 0.0099806665614064656 1 1 1 0.012505164837432858 1 1 1 0.0088324356195728475 0.0099857082964415912 1 1 1 1 1 1 1 1 1 1 1 1 1 1 0.01149479913880784 1 1 1 0.015099752859050006 1 1 1 1 0.012112860797425629 0.011499218595559815 1 1 1 1 1 1 1 1 1 1 1 1 1 1 1 1 1 1 1 1 1 1 1 0.011440084730668824 1 1 1 1 1 1 1 1 1 0.0095974098520644896 1 1 1 1 0.010520676750827691 1 0.0097489029668740967 1 1 1 1 0.0099677495044663677 1 1 1 1 1 1 1 1 1 1 1 1 1 1 1 0.010114964663684698 1 1 0.010307342562142751 1 1 1 1 1 1 1 1 1 1 0.009566974508087852 0.0095418379182946426 1 1 1 1 0.012146446629497158 1 1 1 0.012681650800504872 1 1 1 1 0.010574182132245327 0.010209021195946289 1 0.010525256231393146 1 0.0094099336345970248 1 0.014981334172756426 1 1 0.0096637008702035801 1 1 0.013951477980136701 1 1 0.0093390661197999512 1 1 1 0.011524371455686576 1 1 0.0099999882242232385 1 0.010254931401676258 1 0.011902413884814989 1 1 0.010334373698796886 1 1 1 1 1 1 1 1 1 1 1 1 1 0.0099018612921627468 1 1 1 1 1 1 1 1 1 1 1 1 1 1 1 1 0.009052061398150504 0.0083551800570379441 1 1 1 1 1 0.011145082095067708 1 1 1 1 0.011481996774013337 1 1 0.0076268041108332497 1 1 1 1 0.010474708484402642 1 1 1 1 1 1 1 1 1 1 1 1 1 1 1 1 1 1 1 1 1 1 1 1 1 1 1 1 1 1 1 1 1 1 1 1 1 1 0.010166608231711245 1 1 1 1 1 1 1 1 1 1 1 1 1 0.0096340917497601854 1 0.010194430848930652 1 1 1 1 0.0097298612469103544 1 1 1 1 1 1 1 1 1 1 1 1 1 1 1 1 1 1 0.0098400540670290498 1 0.0099459189893081178 1 1 0.0097573305993835791 1 1 1 0.0097726842588508334 1 1 1 1 1 1 1 1 1 1 1 1 1 1 1 1 1 1 1 1 1 1 1 1 1 1 1 0.01017124919263462 1 1 0.01037806217764228 1 1 1 1 1 1 1 1 1 1 1 1 1 1 1 1 1 1 1 1 1 1 1 1 1 1 1 1 1 1 1 1 1 1 1 0.010211453945931037 1 0.010729524008499906 1 1 1 1 1 1 1 1 1 1 1 1 1 1 1 1 1 0.010547902899912566 0.011163088326657328 1 1 1 1 1 0.010362028439463249 1 1 1 1 0.010842666249288783 1 1 1 1 0.010295262004313757 1 1 1 1 1 1 1 1 1 1 1 1 1 1 1 1 1 1 0.010615185426744757 1 1 1 1 1 1 0.010665070470741764 1 1 0.011701165200607572 1 1 1 1 1 1 1 1 1 1 1 1 0.010453245017511333 1 1 0.010574087417846264 1 1 1 1 1 1 1 1 0.010174419603978802 1 1 1 1 1 1 0.010331133262476699 1 1 0.010811771072302233 1 1 1 1 1 1 1 1 1 1 1 1 1 1 1 1 1 1 1 1 1 1 1 1 1 1 1 1 1 1 1 1 1 1 1 1 0.01010670455590203 1 1 1 0.010141758521345818 1 1 0.010311491249239878 1 1 1 1 1 1 0.01030742317654946 1 1 1 1 1 0.010134854685629321 1 1 1 1 1 1 0.01011163417339127 1 1 1 1 0.011668956431121438 1 0.011307210774679978 1 1 0.010859398146831366 1 1 1 0.010035053965443814 1 1 1 1 1 1 1 1 1 1 1 1 1 0.010110389244540097 1 1 1 1 1 1 1 1 1 1 1 1 1 1 1 1 1 1 1 1 1 1 1 1 0.0099991924348572479 1 0.0099980859062338071 1 0.0099700890598547129 1 0.0097391007466444933 1 1 1 1 0.010044290944245932 1 1 1 1 0.01028267752218992 1 1 1 1 1 1 1 1 1 1 1 1 1 1 0.010808690278131416 1 1 1 0.011163529653469423 1 1 1 0.010337740646961292 1 1 0.010651045850775169 1 1 1 0.010618515058154296 1 1 1 1 0.010309060739873031 1 1 1 1 0.010518505115204923 1 1 1 1 1 1 1 1 1 1 0.015754163184121588 1 1 1 1 1 0.01581227556912547 1 0.010018275195331664 1 1 1 1 1 0.010895484108600717 0.013742802080851903 1 1 0.012069774322356955 1 0.010001275503675187 1 1 0.01006632115537795 1 1 1 1 1 1 1 1 1 1 1 1 1 0.0092555886790022125 1 1 1 1 1 0.015628402647449597 1 1 1 1 1 1 1 1 1 1 0.010133229242998996 1 0.011400804591081891 1 1 0.011975731420538593 1 1 0.0099421321859389199 1 0.01366485499512116 1 0.0091346991087553064 1 1 1 1 1 0.0097631257437487285 0.0093426764737225519 1 1 1 1 1 1 1 1 1 1 1 0.0098844153132961726 1 1 1 1 1 0.0099945688674761349 1 1 1 0.015126428377221501 1 0.010079436035270152 1 1 1 1 1 1 1 1 1 1 1 1 1 1 1 0.0099886103394983255 1 1 1 1 0.0099677106245667571 1 1 1 1 1 1 1 1 1 1 1 1 1 1 1 1 1 1 1 1 1 1 1 0.009979100285068418 1 1 0.012970800215188382 1 1 1 1 1 1 1 0.013398673681448939 1 1 0.010995405990571397 1 0.012252999722277946 1 1 1 1 1 1 1 1 1 0.010935159988571287 1 1 0.014636328508698617 1 1 1 0.014163295140689463 1 1 1 1 1 1 1 0.010202298539445074 1 1 1 1 0.013745014850173494 0.0095001834551350708 1 1 1 1 1 1 1 1 1 0.0098164805218225945 1 1 1 1 1 1 1 1 1 1 1 1 1 1 1 1 0.010336105749457066 1 0.010120130169879013 1 1 1 0.011070379472788031 1 1 1 1 1 1 1 1 1 1 1 1 1 0.010368775570741258 1 1 1 1 1 0.011054785330414594 1 1 1 0.010354209828812598 0.010329929495996501 1 1 1 0.011144656347532103 1 1 0.010237403244697183 1 1 1 1 0.017968917932241087 0.010037278895356938 1 1 1 0.0091810345211286344 1 1 0.0097901122432284115 1 1 1 1 0.016876410717233691 1 0.021533949159337526 1 1 1 0.019517096257553247 1 1 1 1 1 1 1 1 1 1 1 1 1 1 1 1 1 1 1 1 1 0.010444071383223142 1 1 1 1 1 1 1 1 1 0.014911945200407806 1 1 1 0.014339500108370498 1 0.014318728610173663 1 1 1 1 1 1 1 1 1 1 1 0.014325792497369809 1 1 1 1 1 0.017892888416262825 1 1 1 1 1 0.01217882812842052 1 1 1 1 1 1 1 1 1 1 1 1 1 1 1 1 0.012444963891904916 1 1 1 1 1 1 1 1 1 0.011860341034934555 1 1 1 1 1 1 1 1 1 1 1 1 1 1 1 0.010237851562714326 1 1 1 1 1 1 1 1 1 1 1 1 1 1 1 1 1 1 1 1 1 1 1 1 1 1 1 1 1 0.014525435874277532 1 1 1 1 0.012008924254581804 1 0.012332883836934708 0.010003829725778454 1 1 1 1 1 1 0.01015034597498627 1 0.0093563946701684941 1 1 1 0.010025847324310907 1 1 0.012578156242557535 1 1 1 1 1 1 0.010063791020443486 1 1 1 1 1 1 1 0.010132584100729598 1 1 1 1 0.010250000585650839 1 1 1 1 1 1 0.011415022012309095 1 1 1 1 1 1 1 1 1 1 1 1 0.010426139506851617 1 0.010796506954154801 1 1 1 1 1 1 1 0.010986379427450264 0.010678369314931626 1 1 1 1 1 1 1 1 0.010241597103970417 1 1 1 0.010958987377033963 1 1 0.010356875208084121 1 1 1 1 1 1 1 1 1 1 1 1 1 1 1 1 1 1 1 1 1 1 1 1 1 0.010095383092095494 1 1 0.01003318550166972 1 1 1 1 1 0.010339276157074875 1 1 0.011030986395101965 1 0.01297238674077543 1 1 1 0.009951167370614869 1 1 1 1 0.011443467584844359 1 1 0.0094902334520767274 0.012099879180143887 1 1 1 1 1 0.010025345459028473 1 1 0.0099317476709629062 1 1 1 1 1 0.0099800998703664049 1 1 1 1 1 1 1 1 1 0.010023086169595109 1 1 1 1 0.0099799672350143736 1 1 1 1 1 1 0.0145562342845557 1 0.013474310767124607 1 1 1 0.0089176885649258301 1 0.01684491394383307 1 1 0.014493561500228397 1 0.0098843197776191799 1 1 1 0.0099513889795591424 1 1 1 1 1 1 1 1 1 1 1 1 1 0.018773362269533498 1 1 1 1 0.019201649673457794 1 1 1 1 1 1 0.0095642993759132867 1 1 1 1 1 1 1 0.010778672844095239 1 1 1 1 1 1 0.012135171338729191 1 1 1 1 1 1 1 0.013123573880355014 1 1 0.010273222832577988 1 1 1 1 1 1 1 1 1 0.010179609071531698 0.0099482549239206693 1 1 1 1 1 1 1 1 1 1 1 1 0.010052993922402394 1 1 1 1 1 1 1 0.010585050850028449 1 1 1 0.010004754797206561 1 0.011032400749001834 1 1 0.0097622244301618956 1 1 1 1 1 0.0094338586878397711 1 1 1 0.011987028237002425 1 1 1 1 0.015115758904358673 1 1 1 0.009895145615337728 1 1 1 1 1 1 1 0.010402076905764848 1 1 0.010224803273767806 1 1 1 0.018156438708029809 1 1 1 0.017365493395939888 1 1 1 1 0.0092556167993263199 1 1 1 0.0097539133879331434 1 1 1 1 1 1 1 1 1 0.018271027947856597 1 1 1 1 1 1 1 1 1 0.017043865068635589 1 1 1 1 0.01290563464051931 1 1 0.014172919634294553 1 1 1 1 1 1 1 1 1 1 1 1 1 1 1 1 1 1 1 1 1 1 1 1 1 1 0.010064641156911863 1 1 1 1 1 1 1 1 1 1 1 0.010049739611109226 1 1 1 0.0096226348114247344 1 1 1 1 1 1 0.0098299985038151592 1 1 1 1 1 1 1 1 1 1 1 1 1 1 1 1 1 1 1 1 1 1 1 1 1 1 0.015528065855873832 1 0.0057555113180197022 1 1 0.011202295497926068 0.0088389564146704822 1 1 1 1 1 1 1 1 1 1 1 1 1 1 1 1 1 0.012047106772137911 1 1 1 1 1 1 1 1 1 1 1 1 1 1 1 1 1 1 1 1 1 1 1 1 1 1 1 1 1 1 1 1 1 1 1 1 1 1 1 1 1 1 1 1 1 1 1 1 1 1 1 1 1 1 1 1 1 1 1 1 1 0.0093061698836588748 1 1 0.008254888873736755 1 1 1 1 0.0072237274920565657 1 1 1 1 1 1 1 1 1 1 0.010003535332471735 1 0.01743357327357958 1 1 1 0.010996053936128602 1 1 1 0.0099816502434062898 1 0.0099242410804982507 1 1 1 0.010713463235182474 1 0.010104955953826218 1 0.011229692690335413 1 1 1 0.013052940232297356 1 1 1 1 0.010051962031423819 1 0.011791777242180664 1 1 1 1 1 0.012044235882097753 1 0.010009076489796889 0.0095276597532756094 1 1 1 1 1 1 0.012126772717506029 1 1 1 0.010012285854485386 1 1 1 1 1 1 1 1 1 1 1 1 1 1 1 1 1 1 1 0.0099888629459300819 1 1 1 0.011895100740335555 0.010080082440536854 1 1 1 1 1 0.010213634568199629 1 1 1 1 1 1 1 1 1 1 1 1 1 1 0.011372405191564518 1 1 0.012204988615083906 1 0.011112382950087863 1 1 1 0.009978563752126024 1 0.010612161804535019 1 1 0.012214650282725286 1 1 1 1 1 1 1 1 1 1 1 0.012458002480066047 1 1 1 1 1 1 1 1 1 1 0.012412858712620187 0.01010774585179704 1 1 1 1 1 1 1 0.01169099052695555 1 1 1 1 1 1 1 1 1 1 1 1 1 1 0.010593558956101808 1 1 1 1 1 1 1 1 1 1 0.010468930042380151 1 1 1 0.011219922803962392 1 0.011649702921774462 0.011385413364229371 1 1 1 1 1 1 1 1 0.012403606379898513 1 1 1 1 1 1 1 1 1 0.011116040564691263 1 0.012132986530865452 1 0.0098613966649753002 1 1 1 1 1 1 1 1 0.010550376546454909 1 0.011110427362479426 1 1 1 1 1 1 0.009689782229656347 1 1 0.01136267952646256 1 0.0093718220060948175 1 1 1 1 1 1 1 1 1 1 1 1 1 1 0.010844808436312347 1 1 1 1 1 1 1 1 1 1 0.010485082697996403 1 1 1 1 1 1 0.010226544811159737 1 1 1 1 1 1 1 1 1 1 1 1 1 1 1 1 1 1 1 1 1 1 1 1 1 0.011030944014414464 1 1 1 1 1 0.012755160898502623 1 1 1 1 1 1 1 1 1 1 1 0.010032510081875138 1 1 1 1 0.022005899968015687 1 1 1 1 1 0.022160049838757377 1 1 1 1 1 0.021495316917679846 1 1 0.020405100625455926 1 1 1 1 1 1 1 1 1 1 1 1 1 1 1 1 1 1 1 1 1 1 1 1 1 1 0.010946798922778009 1 1 0.010944276031312683 1 1 1 1 1 1 1 1 1 1 1 1 1 1 1 0.010231983948992144 1 1 1 1 1 1 1 1 1 0.01045852876015187 1 1 1 1 1 1 1 0.013974380701036501 1 1 1 1 1 0.010084301730869173 1 1 1 1 1 1 0.020822044916320309 1 1 1 1 0.018730233572827985 1 1 1 1 1 1 1 0.010051791648994036 1 1 0.014651589170870545 1 1 0.014202700330512699 1 1 1 1 0.016467061613329479 1 1 1 1 1 1 1 1 0.014569167901686064 1 1 0.012210568402632887 1 1 1 1 1 1 1 1 1 0.010634718228596247 1 1 1 1 1 0.010456886252137599 1 1 1 1 0.010883221988663212 1 1 1 0.01180492945471044 1 1 1 1 1 1 1 1 1 1 1 0.010890842595129308 0.010928856163657866 1 1 1 1 1 1 1 1 1 1 1 0.010887253962811974 1 1 1 1 1 0.013382663208652204 1 0.011970956984735506 0.009777662974018473 1 0.01182736672128242 0.0098037148306365923 1 1 0.0099708588763641071 1 1 1 1 1 1 0.013757953496881758 1 0.01115017284521197 0.010023868234358902 1 1 1 1 1 0.0099760409001298615 1 1 1 1 1 1 1 1 0.013632702003629194 1 1 1 1 0.010714783395087947 1 1 1 1 1 0.010154984056359687 1 1 0.010582136663796812 1 1 1 1 1 1 1 0.012014271497157282 1 0.0097505282832149025 1 1 1 1 1 1 1 0.01229309255977588 0.01091850891808277 1 1 1 1 1 1 1 0.010283796731302855 1 1 1 1 1 1 0.010770370713877929 1 1 1 1 1 1 1 1 1 1 1 1 1 1 0.012016418073324797 1 1 0.010692606936734855 1 1 1 1 0.01028757174698236 1 1 1 1 0.013814350409054698 1 1 1 1 1 1 0.01536631205401009 1 1 1 1 1 1 1 0.010117147056407311 1 1 1 0.012347883308145432 1 1 1 1 0.016070923286343419 1 1 0.0124074826028283 1 1 1 1 1 1 1 0.016093873286772045 1 1 1 1 0.016008645944102118 1 0.0099721331108811699 1 1 1 1 1 1 1 1 1 1 1 1 1 1 0.011395251405329397 1 1 1 1 1 1 1 0.011418549361295801 1 1 0.010857819543370634 1 1 0.011106398773263557 1 1 1 1 1 1 1 1 1 0.013670695094582724 1 1 1 0.01270478467854964 1 1 1 1 1 1 1 1 1 0.011695066935375796 1 1 1 1 1 1 1 1 1 1 1 0.0097114197863746379 1 1 1 0.010585824627192143 1 1 1 1 1 1 1 1 1 1 1 0.0089378159271510747 1 1 1 1 1 1 1 1 1 1 0.0079325071695607544 1 1 1 1 1 0.013572260387631582 1 1 1 1 1 1 1 1 0.010015572145376671 1 1 0.016247457271356815 1 1 0.014972668708351736 1 1 1 1 0.017336508606465191 0.0098713458267875951 1 1 1 1 0.014192252970849868 1 1 1 1 0.0098932457559578156 1 1 0.0099579148087324872 1 1 1 1 0.011564125572518437 1 1 0.011195200411444905 1 1 1 1 1 0.010835377000269548 1 1 1 1 1 1 1 1 0.012934050629853547 1 0.010012332562037426 1 1 1 1 1 1 1 1 1 0.01099620338531225 0.011730272494463071 1 1 1 1 1 1 0.011922350096603678 1 1 0.010471692826343807 1 1 0.010411094536468149 1 0.0099964040173030344 1 1 1 0.0095156255389410704 1 1 0.0099553033741396277 1 1 1 1 1 1 1 1 0.011136715215397781 0.011141432265729369 1 1 0.010007241470936245 0.013648780024801001 1 1 1 1 0.010657904019668738 1 1 1 0.012325649201037849 1 0.008894527192233128 1 0.010384005113671779 0.012406195801749812 0.011497800758112721 1 0.0094699171169390448 1 1 1 0.0098550370045169117 1 1 1 1 1 1 1 1 1 0.014239500972073407 1 1 0.013846521899569657 1 1 1 1 1 1 0.0093820776831499957 1 1 1 1 1 1 0.0099343985748327861 0.0099153903651546978 0.0079414774772588789 1 1 1 1 1 1 1 1 1 1 1 0.0079529839338336739 1 1 1 1 0.013417052388036331 1 1 1 1 1 1 1 1 0.01264296354544453 1 1 0.008813183422019831 1 1 1 0.010209143424333773 1 1 1 1 1 1 1 1 1 0.0098637745542441563 1 1 1 1 1 1 1 1 0.013895955234402894 1 1 1 0.014511626255872614 1 1 0.0099961611853580275 1 1 1 0.0096239918060609386 1 0.012079672463572977 1 1 0.011666682619743912 1 0.011992841797449978 1 1 0.0099135065097310168 1 1 1 1 1 1 0.012124889154638274 1 1 0.0099387322399073497 1 1 1 1 1 1 1 1 1 1 1 1 1 1 1 1 1 1 1 1 1 1 1 1 1 1 1 1 1 1 1 1 1 1 1 1 1 1 1 1 1 1 1 1 1 1 1 1 1 1 1 1 1 1 1 1 1 1 1 1 1 1 1 1 1 1 1 1 1 1 1 1 1 1 1 1 1 1 1 1 1 1 1 1 1 1 1 1 1 1 1 1 1 1 1 1 0.010167178947704161 1 1 1 1 0.016410250072949016 1 1 1 1 1 1 1 1 1 1 1 1 0.010513585072589966 0.015338819040621048 1 1 1 1 1 1 1 1 1 1 1 1 1 1 1 0.010872034364759451 1 1 1 0.012481073087720552 1 1 1 1 1 1 1 1 1 1 0.016636138335866236 1 0.015751244205704854 1 1 1 1 1 1 1 1 1 1 1 1 1 1 1 1 1 1 1 1 1 1 1 1 0.010337606364254827 1 1 1 1 0.010792932574751828 1 1 1 1 1 1 1 1 0.010142961110656275 1 1 1 1 1 1 1 1 1 1 1 1 1 1 1 1 1 1 1 1 1 1 1 1 1 1 1 1 1 1 1 1 1 1 1 1 1 1 1 1 1 1 1 1 1 1 1 1 1 0.010644004705523886 1 1 1 1 1 1 1 1 1 1 1 1 1 1 1 1 1 1 1 1 1 1 1 1 1 1 1 1 1 1 1 1 0.013829191463919531 1 1 1 1 1 1 0.013931865899063658 1 1 1 1 1 1 0.010179279194491818 1 1 0.0097943688869224655 1 0.010512226627481806 1 0.0090468733774671517 1 1 1 1 0.011751154468597124 1 1 1 1 1 0.010144953791945736 1 1 1 0.0092540216414678106 0.0099770060723248701 1 1 1 0.013975979826953488 1 1 1 1 0.010351180893476655 0.010040278800548726 1 1 1 1 1 1 1 1 1 1 1 1 1 1 0.010223413104971933 1 1 0.011909025012572129 1 1 0.010067566386304957 0.013205016069333884 1 1 1 1 1 1 1 1 1 1 0.016896113280872919 1 0.018253063694149883 1 1 1 1 1 1 1 1 1 1 1 0.012917751260333985 1 1 1 1 1 1 1 0.01471706256972696 1 1 1 1 1 1 1 1 1 1 1 1 1 1 1 1 1 1 0.016112213683414697 0.018895032487976048 1 1 1 1 1 1 1 1 1 1 1 1 1 1 1 1 1 0.018952407475415201 1 1 1 1 1 1 1 1 1 0.010926945933528456 1 1 1 1 1 1 1 1 1 1 1 1 0.012236286434997044 1 1 1 1 0.0090650581366872093 1 0.018512428447971439 1 1 1 1 1 1 1 1 1 0.011395000405859028 1 1 1 1 0.014367209778447241 1 1 1 1 0.011515285477699238 1 0.011347565039884986 1 1 1 1 1 1 1 1 1 1 1 1 0.0097199418535930775 1 1 1 1 1 1 1 1 1 1 1 1 1 1 1 0.0096500508117063621 1 0.013838705498293863 1 1 0.012574703660540832 1 1 1 0.009999434520106161 1 0.0089724632619424538 1 1 0.0074719566268428078 1 1 0.01001163901785667 1 0.01352539909635813 1 1 1 1 1 1 1 0.0077400085411924308 0.0070616071218873406 1 1 1 1 0.014688683566437044 0.019307700353360265 1 1 0.0087418091682264967 0.0088267582368824551 1 0.010686637376850997 1 1 0.010035404358666771 0.011404460578017479 1 1 0.012275402145935255 1 1 0.0078200707281224913 1 1 1 1 1 1 1 1 0.012614004493599411 1 1 0.014863033120259219 1 0.014175462741633376 1 1 1 0.010284502825546519 1 1 1 1 1 1 1 1 0.010353490382144651 1 1 1 1 1 1 1 1 1 1 1 1 1 1 1 1 1 1 1 1 1 1 0.010033631269097489 1 1 1 1 1 1 1 1 1 1 1 1 1 1 1 1 1 1 
</DataArray>
</CellData>
</Piece>
</UnstructuredGrid>
</VTKFile>
